
 displacements (vx,vy,vz) for set LEFT_LOWER_DATUM and time  0.1000000E+01

        25  4.653778E-01 -2.461848E-02 -1.639912E-09
        27  4.651800E-01  2.741910E-02 -1.488260E-09

 displacements (vx,vy,vz) for set LEFT_UPPER_DATUM and time  0.1000000E+01

        26  2.215100E-01 -1.399476E-02 -6.911467E-10
        28  2.208731E-01  2.949255E-02 -5.107023E-10

 displacements (vx,vy,vz) for set RIGHT_UPPER_DATUM and time  0.1000000E+01

         6 -2.212155E-01  2.937807E-02  3.534080E-06
         8 -2.218522E-01 -1.412679E-02  2.995147E-05

 displacements (vx,vy,vz) for set RIGHT_LOWER_DATUM and time  0.1000000E+01

         3 -4.655928E-01  2.729775E-02  8.694499E-06
         4 -4.658109E-01 -2.477825E-02  8.847078E-05

 stresses (elem, integ.pnt.,sxx,syy,szz,sxy,sxz,syz) for set ALL and time  0.1000000E+01

         1   1 -8.950726E+00 -4.329084E+01 -1.103220E+01  6.856920E+00  4.255702E+00 -6.343076E+00
         1   2  5.145093E+00 -7.528768E+00  1.917940E-01  7.777439E+00  3.690916E+00 -1.305326E+00
         1   3 -3.365948E+00 -3.995601E+01 -4.689374E+00  1.898628E+01  4.635372E+00 -4.983965E+00
         1   4  8.205181E+00 -7.230270E+00  1.155314E+00  1.988506E+01  4.092097E+00 -1.105805E+00
         1   5 -8.380129E+00 -3.456972E+01 -8.051189E+00  4.897305E+00  1.243464E+00 -3.388113E+00
         1   6  3.740689E+00 -3.394368E+00  1.176183E+00  6.051309E+00  6.974087E-01 -6.075620E-01
         1   7 -2.574036E+00 -3.146792E+01 -1.070122E+00  1.369440E+01 -1.283673E+00 -1.859835E+00
         1   8  6.382370E+00 -5.000253E+00  2.316902E+00  1.475494E+01 -1.764448E+00 -3.165455E-01
         2   1 -5.077540E+00  9.657376E+00 -2.795915E-01  6.719988E+00  3.614413E+00  2.077222E+00
         2   2  8.704825E+00  4.435245E+01  1.096655E+01  6.179258E+00  4.237914E+00  6.173788E+00
         2   3 -9.003713E+00  6.305294E+00 -4.402136E+00  1.926176E+01  4.140559E+00  1.537155E+00
         2   4  4.218598E+00  4.096822E+01  5.009309E+00  1.870738E+01  4.195651E+00  4.612053E+00
         2   5  1.336524E-01  1.299814E+01  2.365380E+00  4.038935E+00  7.427308E-01  1.327148E+00
         2   6  9.316283E+00  3.710117E+01  8.871117E+00  2.580919E+00  1.362874E+00  3.644750E+00
         2   7 -8.332433E+00  5.883309E+00 -3.698694E+00  1.312630E+01 -1.111286E+00  8.283201E-01
         2   8  6.294712E-01  3.131744E+01  7.401872E-01  1.151664E+01 -1.129143E+00  1.937076E+00
         3   1 -1.239776E+01 -6.829057E+01 -1.280612E+01  1.307628E+00  2.917335E+00 -4.463216E+00
         3   2  8.508654E+00 -1.143526E+01  2.662444E-02  2.157868E+00  2.300007E+00 -8.249592E-01
         3   3 -6.315239E+00 -6.421184E+01 -5.292894E+00  2.248823E+01  6.088922E+00 -3.546478E+00
         3   4  1.218849E+01 -9.759223E+00  1.933571E+00  2.333847E+01  5.305625E+00 -6.280416E-01
         3   5 -1.284922E+01 -6.217539E+01 -1.009004E+01  7.103244E-02 -4.448161E+00 -1.522591E+00
         3   6  9.573619E+00 -2.261956E+00  4.739318E+00  7.555846E-01 -5.010867E+00  8.119283E-02
         3   7 -7.648427E+00 -5.851804E+01 -3.099658E+00  2.120329E+01 -3.851995E+00 -6.853010E-01
         3   8  1.272058E+01 -6.584324E-01  6.937432E+00  2.188784E+01 -4.561004E+00  1.717826E-01
         4   1 -7.236531E+00  1.595724E+01 -2.570714E+00  1.610502E+00  2.395214E+00  1.606726E+00
         4   2  1.390857E+01  7.028537E+01  1.358482E+01  7.582619E-01  2.143561E+00  4.462615E+00
         4   3 -1.228051E+01  1.309904E+01 -7.054051E+00  2.288707E+01  5.195500E+00  1.296279E+00
         4   4  7.342722E+00  6.590531E+01  5.550466E+00  2.203483E+01  4.786087E+00  3.512060E+00
         4   5 -4.934044E+00  2.329845E+01  1.435130E+00 -8.312064E-01 -3.996944E+00  1.062182E+00
         4   6  1.112838E+01  6.681735E+01  1.145763E+01 -1.828503E+00 -4.285521E+00  1.736267E+00
         4   7 -1.125039E+01  2.007289E+01 -3.000414E+00  2.044179E+01 -3.345412E+00  6.713542E-01
         4   8  3.204607E+00  6.198437E+01  3.271443E+00  1.944450E+01 -3.812291E+00  8.153330E-01
         5   1 -1.647892E+01 -9.556774E+01 -1.443408E+01 -3.010345E+00  6.333389E+00 -3.573843E+00
         5   2  1.172568E+01 -1.614721E+01  1.607418E-01 -2.090110E+00  5.454875E+00 -6.942963E-01
         5   3 -1.003069E+01 -9.128827E+01 -6.617394E+00  2.716538E+01  7.863696E+00 -3.585269E+00
         5   4  1.581110E+01 -1.423055E+01  2.464182E+00  2.808562E+01  6.884641E+00 -5.090451E-01
         5   5 -2.000164E+01 -9.407464E+01 -1.425153E+01 -5.893854E+00 -5.524261E+00 -7.339593E-01
         5   6  1.362363E+01 -3.291246E+00  7.049323E+00 -5.031749E+00 -6.314506E+00  9.283205E-02
         5   7 -1.402881E+01 -9.004558E+01 -6.794143E+00  2.632435E+01 -6.443092E+00 -8.254854E-01
         5   8  1.757738E+01 -1.281266E+00  9.795512E+00  2.718646E+01 -7.325145E+00 -3.429755E-02
         6   1 -1.125663E+01  2.202542E+01 -5.521713E+00 -2.486858E+00  5.173205E+00  1.134241E+00
         6   2  1.770165E+01  9.806288E+01  1.496843E+01 -3.366626E+00  4.636608E+00  3.137911E+00
         6   3 -1.624503E+01  1.929341E+01 -9.640014E+00  2.769975E+01  6.338219E+00  1.340358E+00
         6   4  1.128697E+01  9.390458E+01  7.522132E+00  2.681998E+01  5.614411E+00  3.207332E+00
         6   5 -8.449519E+00  3.522860E+01  1.326581E+00 -6.461688E+00 -4.930841E+00  5.918946E-01
         6   6  1.526027E+01  1.002573E+02  1.533053E+01 -7.528521E+00 -5.542282E+00  7.583739E-01
         6   7 -1.498918E+01  3.199522E+01 -2.911675E+00  2.555176E+01 -5.687566E+00  5.013568E-01
         6   8  7.213930E+00  9.551722E+01  7.576695E+00  2.448493E+01 -6.509325E+00  7.474700E-01
         7   1 -2.055391E+01 -1.242406E+02 -1.617758E+01 -7.022830E+00  9.353366E+00 -3.697134E+00
         7   2  1.588949E+01 -2.025743E+01  1.317236E+00 -5.954031E+00  8.407188E+00 -8.918329E-01
         7   3 -1.333979E+01 -1.195454E+02 -7.740920E+00  3.277069E+01  6.447159E+00 -4.333590E+00
         7   4  2.095004E+01 -1.771577E+01  4.728891E+00  3.383949E+01  5.704874E+00 -1.074931E+00
         7   5 -2.519626E+01 -1.251623E+02 -1.732326E+01 -1.237290E+01 -6.366169E+00 -8.255332E-01
         7   6  1.910894E+01 -4.886667E+00  1.008510E+01 -1.088024E+01 -7.243133E+00 -3.660742E-01
         7   7 -1.659793E+01 -1.199295E+02 -8.478729E+00  3.044923E+01 -1.126260E+01 -1.538051E+00
         7   8  2.586701E+01 -1.494070E+00  1.463569E+01  3.194189E+01 -1.197643E+01 -9.623401E-01
         8   1 -1.520960E+01  2.922770E+01 -7.366875E+00 -6.548046E+00  7.889939E+00  7.629306E-01
         8   2  2.212773E+01  1.281043E+02  1.821425E+01 -7.820702E+00  7.181638E+00  2.336625E+00
         8   3 -2.156028E+01  2.614108E+01 -1.130495E+01  3.291023E+01  5.523935E+00  7.745128E-01
         8   4  1.436300E+01  1.236037E+02  1.097671E+01  3.163758E+01  5.009433E+00  2.335135E+00
         8   5 -1.277271E+01  4.488797E+01  9.142444E-01 -1.248613E+01 -5.300851E+00  5.039540E-02
         8   6  1.823037E+01  1.304084E+02  1.873743E+01 -1.331742E+01 -6.135460E+00  2.238783E-01
         8   7 -1.765978E+01  4.257721E+01 -1.901223E+00  2.975335E+01 -9.426728E+00 -3.416012E-01
         8   8  1.184984E+01  1.266042E+02  1.243723E+01  2.892206E+01 -1.006467E+01  1.145205E-01
         9   1 -2.687336E+01 -1.575126E+02 -2.014332E+01 -9.452817E+00  1.251356E+01 -3.392651E+00
         9   2  1.953147E+01 -2.621217E+01  3.239010E+00 -9.094527E+00  1.212316E+01 -1.331163E+00
         9   3 -2.245491E+01 -1.531649E+02 -1.332604E+01  3.925862E+01  1.186842E+01 -4.861444E+00
         9   4  2.548771E+01 -1.827339E+01  1.159121E+01  3.962557E+01  1.205918E+01 -2.704764E+00
         9   5 -3.233282E+01 -1.662366E+02 -2.403494E+01 -1.177200E+01 -7.009304E+00 -8.188432E-01
         9   6  1.813935E+01 -2.754174E+01  5.510733E+00 -1.034485E+01 -7.454668E+00 -7.933824E-01
         9   7 -2.288423E+01 -1.568211E+02 -1.443074E+01  3.276667E+01 -1.015293E+01 -2.354731E+00
         9   8  3.230351E+01 -5.635542E+00  1.834281E+01  3.431960E+01 -9.991923E+00 -1.962270E+00
        10   1 -1.979427E+01  3.474762E+01 -8.084813E+00 -1.133970E+01  1.140864E+01 -5.964405E-02
        10   2  2.527188E+01  1.552707E+02  2.161261E+01 -1.153864E+01  1.102284E+01  1.221227E+00
        10   3 -1.735841E+01  4.018616E+01 -3.389755E+00  3.272683E+01  9.179646E+00 -1.155560E+00
        10   4  2.380477E+01  1.549484E+02  1.905859E+01  3.253279E+01  9.255944E+00  8.945078E-01
        10   5 -2.134586E+01  3.504693E+01 -5.608106E+00 -1.285862E+01 -5.200018E+00 -7.323246E-01
        10   6  2.264195E+01  1.543525E+02  2.171233E+01 -1.208506E+01 -5.704278E+00 -9.040861E-01
        10   7 -1.096302E+01  5.345441E+01  3.365416E+00  2.784494E+01 -9.956212E+00 -1.640748E+00
        10   8  2.586775E+01  1.585074E+02  2.108171E+01  2.854562E+01 -9.897000E+00 -1.184230E+00
        11   1 -9.345963E+00 -4.471797E+01 -1.177411E+01 -6.832828E+00 -4.624146E+00 -7.535991E+00
        11   2  5.204043E+00 -8.131206E+00  1.391396E-01 -7.781357E+00 -4.086196E+00 -1.712680E+00
        11   3 -7.229367E+00 -3.272463E+01 -7.352211E+00 -5.311540E+00 -1.816464E+00 -4.603628E+00
        11   4  4.760030E+00 -2.084439E+00  1.972253E+00 -6.170399E+00 -1.289796E+00 -1.088059E+00
        11   5 -3.679625E+00 -4.136755E+01 -5.446990E+00 -1.916950E+01 -4.679946E+00 -5.683514E+00
        11   6  8.324844E+00 -7.846711E+00  1.047064E+00 -2.009563E+01 -3.995932E+00 -1.174822E+00
        11   7 -2.403955E+00 -3.004437E+01 -8.474732E-01 -1.393026E+01  1.125038E+00 -2.539428E+00
        11   8  6.420470E+00 -4.079729E+00  2.602634E+00 -1.471956E+01  1.758527E+00 -4.663828E-01
        12   1 -4.774204E+00  9.950689E+00  1.434272E-01 -6.211407E+00 -4.142358E+00  2.349999E+00
        12   2  9.786551E+00  4.638475E+01  1.224522E+01 -5.570231E+00 -4.378687E+00  7.516178E+00
        12   3 -2.481523E+00  1.179870E+01  1.457089E+00 -4.921782E+00 -1.346958E+00  1.480331E+00
        12   4  5.953544E+00  3.407794E+01  7.294744E+00 -4.055719E+00 -1.584843E+00  4.879177E+00
        12   5 -9.194408E+00  6.312052E+00 -4.296734E+00 -1.933187E+01 -4.086328E+00  1.874365E+00
        12   6  4.818212E+00  4.275013E+01  5.973922E+00 -1.867451E+01 -4.145679E+00  5.409021E+00
        12   7 -8.427356E+00  5.947769E+00 -3.576832E+00 -1.328451E+01  1.157464E+00  1.024256E+00
        12   8 -2.986893E-01  2.936050E+01  1.059971E-01 -1.232837E+01  1.110112E+00  2.557934E+00
        13   1 -1.234529E+01 -6.870272E+01 -1.318435E+01 -1.323963E+00 -2.822879E+00 -5.193406E+00
        13   2  8.837275E+00 -1.138750E+01  1.089757E-01 -2.106083E+00 -2.040607E+00 -9.327543E-01
        13   3 -1.327462E+01 -6.188597E+01 -1.038088E+01 -3.530454E-01  4.445880E+00 -2.118193E+00
        13   4  8.995467E+00 -2.486650E+00  4.453417E+00 -1.159878E+00  5.141305E+00 -2.528861E-02
        13   5 -6.433695E+00 -6.463439E+01 -5.534819E+00 -2.261283E+01 -6.019477E+00 -4.073462E+00
        13   6  1.225164E+01 -9.816391E+00  1.931633E+00 -2.339495E+01 -5.200122E+00 -7.167531E-01
        13   7 -7.485378E+00 -5.791587E+01 -2.936464E+00 -2.128161E+01  3.907559E+00 -1.083225E+00
        13   8  1.264857E+01 -6.526898E-01  6.913514E+00 -2.208844E+01  4.640322E+00  1.073592E-01
        14   1 -7.493618E+00  1.597729E+01 -2.541270E+00 -1.576787E+00 -2.152424E+00  1.887662E+00
        14   2  1.384408E+01  7.065864E+01  1.390304E+01 -7.826236E-01 -2.026853E+00  5.189129E+00
        14   3 -4.375176E+00  2.331700E+01  1.693925E+00  5.405920E-01  4.209854E+00  1.288287E+00
        14   4  1.161496E+01  6.657588E+01  1.173549E+01  1.634946E+00  4.369077E+00  2.348313E+00
        14   5 -1.231496E+01  1.319277E+01 -7.001635E+00 -2.295634E+01 -5.112439E+00  1.490006E+00
        14   6  7.453152E+00  6.630454E+01  5.780314E+00 -2.216218E+01 -4.732171E+00  4.043647E+00
        14   7 -1.124919E+01  1.983456E+01 -3.040190E+00 -2.058696E+01  3.428787E+00  8.345082E-01
        14   8  3.085318E+00  6.143782E+01  3.138245E+00 -1.949260E+01  3.870259E+00  1.249070E+00
        15   1 -1.650181E+01 -9.563915E+01 -1.445985E+01  2.854413E+00 -6.283113E+00 -3.948887E+00
        15   2  1.173093E+01 -1.615675E+01  1.669027E-01  1.932600E+00 -5.414198E+00 -7.521172E-01
        15   3 -1.993895E+01 -9.405735E+01 -1.422398E+01  5.815093E+00  5.583631E+00 -1.095993E+00
        15   4  1.368575E+01 -3.279760E+00  7.080763E+00  4.967333E+00  6.365538E+00  4.339831E-02
        15   5 -1.003719E+01 -9.134700E+01 -6.617312E+00 -2.734118E+01 -7.842200E+00 -3.948930E+00
        15   6  1.582172E+01 -1.423844E+01  2.470492E+00 -2.826299E+01 -6.862247E+00 -5.693406E-01
        15   7 -1.401383E+01 -9.004366E+01 -6.770118E+00 -2.640017E+01  6.461945E+00 -1.176351E+00
        15   8  1.758029E+01 -1.296645E+00  9.796609E+00 -2.724793E+01  7.344504E+00 -8.435289E-02
        16   1 -1.125727E+01  2.204003E+01 -5.511874E+00  2.317356E+00 -5.151892E+00  1.277731E+00
        16   2  1.771627E+01  9.811117E+01  1.499545E+01  3.197582E+00 -4.609599E+00  3.517335E+00
        16   3 -8.508837E+00  3.519474E+01  1.306318E+00  6.435560E+00  4.962339E+00  7.412450E-01
        16   4  1.521552E+01  1.002571E+02  1.532518E+01  7.491943E+00  5.580044E+00  1.128141E+00
        16   5 -1.625333E+01  1.930153E+01 -9.644127E+00 -2.788107E+01 -6.320573E+00  1.477436E+00
        16   6  1.128715E+01  9.393962E+01  7.519386E+00 -2.700084E+01 -5.598155E+00  3.581240E+00
        16   7 -1.499905E+01  3.197842E+01 -2.924515E+00 -2.559268E+01  5.700386E+00  6.443833E-01
        16   8  7.213690E+00  9.552913E+01  7.567233E+00 -2.453630E+01  6.520776E+00  1.111969E+00
        17   1 -2.057263E+01 -1.243398E+02 -1.617870E+01  6.838900E+00 -9.339311E+00 -4.034180E+00
        17   2  1.589476E+01 -2.028263E+01  1.322091E+00  5.771427E+00 -8.389418E+00 -9.551483E-01
        17   3 -2.520220E+01 -1.251862E+02 -1.730057E+01  1.232752E+01  6.366568E+00 -1.145412E+00
        17   4  1.910159E+01 -4.894911E+00  1.008748E+01  1.083242E+01  7.247047E+00 -4.107078E-01
        17   5 -1.334859E+01 -1.196316E+02 -7.708476E+00 -3.298409E+01 -6.423748E+00 -4.655097E+00
        17   6  2.095893E+01 -1.773423E+01  4.752603E+00 -3.405157E+01 -5.680287E+00 -1.135178E+00
        17   7 -1.658032E+01 -1.199352E+02 -8.419324E+00 -3.050421E+01  1.125609E+01 -1.842925E+00
        17   8  2.587591E+01 -1.491533E+00  1.465776E+01 -3.199930E+01  1.197128E+01 -1.002656E+00
        18   1 -1.521564E+01  2.924354E+01 -7.370046E+00  6.364707E+00 -7.871981E+00  8.825701E-01
        18   2  2.214448E+01  1.281914E+02  1.821586E+01  7.637179E+00 -7.166822E+00  2.682691E+00
        18   3 -1.276035E+01  4.489866E+01  9.127506E-01  1.245115E+01  5.308127E+00  1.818431E-01
        18   4  1.824094E+01  1.304301E+02  1.871898E+01  1.328572E+01  6.138999E+00  5.577213E-01
        18   5 -2.156490E+01  2.615786E+01 -1.130640E+01 -3.312461E+01 -5.500216E+00  8.889002E-01
        18   6  1.436470E+01  1.236752E+02  1.094162E+01 -3.185214E+01 -4.986612E+00  2.666115E+00
        18   7 -1.766464E+01  4.258083E+01 -1.909075E+00 -2.979823E+01  9.438897E+00 -2.135731E-01
        18   8  1.182771E+01  1.266033E+02  1.237629E+01 -2.896366E+01  1.007552E+01  4.345754E-01
        19   1 -2.689690E+01 -1.576232E+02 -2.019150E+01  9.288544E+00 -1.250585E+01 -3.678150E+00
        19   2  1.955432E+01 -2.622024E+01  3.242934E+00  8.912976E+00 -1.211062E+01 -1.389757E+00
        19   3 -3.232873E+01 -1.662623E+02 -2.402242E+01  1.171303E+01  6.971381E+00 -1.245309E+00
        19   4  1.814282E+01 -2.755627E+01  5.510064E+00  1.028131E+01  7.420295E+00 -8.967355E-01
        19   5 -2.251742E+01 -1.533536E+02 -1.359781E+01 -3.945525E+01 -1.189921E+01 -5.136497E+00
        19   6  2.554665E+01 -1.828317E+01  1.154533E+01 -3.983991E+01 -1.207854E+01 -2.767940E+00
        19   7 -2.298458E+01 -1.569601E+02 -1.469304E+01 -3.283171E+01  1.000951E+01 -2.760852E+00
        19   8  3.228533E+01 -5.679527E+00  1.825947E+01 -3.438962E+01  9.859396E+00 -2.038084E+00
        20   1 -1.981421E+01  3.477289E+01 -8.079297E+00  1.115832E+01 -1.139882E+01  3.593692E-02
        20   2  2.528490E+01  1.553687E+02  2.165524E+01  1.137479E+01 -1.101716E+01  1.511139E+00
        20   3 -2.137057E+01  3.502908E+01 -5.630030E+00  1.280543E+01  5.160072E+00 -6.035697E-01
        20   4  2.262509E+01  1.543628E+02  2.168848E+01  1.203559E+01  5.660993E+00 -4.686953E-01
        20   5 -1.742421E+01  4.020788E+01 -3.356011E+00 -3.293086E+01 -9.192174E+00 -1.070900E+00
        20   6  2.385860E+01  1.551286E+02  1.933267E+01 -3.271971E+01 -9.279845E+00  1.171502E+00
        20   7 -1.097281E+01  5.346211E+01  3.402400E+00 -2.790857E+01  9.807800E+00 -1.490752E+00
        20   8  2.596193E+01  1.586374E+02  2.134293E+01 -2.860589E+01  9.737227E+00 -7.542460E-01
        21   1 -5.083203E+01 -1.983238E+02 -3.218653E+01 -4.977403E+00 -1.120767E+01 -2.814555E+00
        21   2  1.400475E+01 -2.694566E+01  7.851629E+00 -1.675798E+01 -1.068090E+01 -1.864168E+00
        21   3 -4.897412E+01 -1.858268E+02 -2.788007E+01 -4.747791E+00  1.267539E+01 -1.643072E+00
        21   4  1.501980E+01 -1.673941E+01  1.121802E+01 -1.722037E+01  1.308605E+01  1.066991E+00
        21   5 -7.223563E+01 -1.696279E+02 -2.558122E+01  7.353840E+01 -1.109879E+01 -5.418377E+00
        21   6 -6.135005E+00 -3.026218E+00  1.058829E+01  5.229150E+01 -1.025456E+01 -4.359384E+00
        21   7 -7.447231E+01 -1.593427E+02 -2.316667E+01  7.258382E+01  1.541542E+01 -3.830161E+00
        21   8 -8.720878E+00  5.234930E+00  1.229087E+01  5.078769E+01  1.582631E+01 -1.061736E+00
        22   1 -2.909318E+01  3.407621E+01 -7.751431E+00 -3.674125E+01 -1.156139E+01 -1.612347E+00
        22   2  1.055354E+01  1.444896E+02  1.077382E+01 -4.472606E+01 -1.116476E+01 -1.278423E+00
        22   3 -2.731974E+01  4.374266E+01 -4.319463E+00 -3.720198E+01  8.820181E+00  1.577324E+00
        22   4  1.190247E+01  1.529459E+02  1.371538E+01 -4.566238E+01  9.178824E+00  2.487025E+00
        22   5 -4.928147E+01  5.469567E+01 -7.541578E+00  2.627439E+01 -1.128130E+01 -4.119975E+00
        22   6 -8.391979E+00  1.622817E+02  9.164296E+00  1.200453E+01 -1.048255E+01 -3.751319E+00
        22   7 -5.082151E+01  6.264769E+01 -5.617985E+00  2.502022E+01  1.014099E+01 -7.654715E-01
        22   8 -1.002605E+01  1.691946E+02  1.074792E+01  1.035390E+01  1.079795E+01  1.625212E-01
        23   1 -6.963163E+01 -2.336388E+02 -4.053623E+01  4.665804E+01 -1.148816E+01 -5.041579E+00
        23   2  3.091559E+01 -4.630210E+01  1.003706E+01 -3.248615E+00 -1.058069E+01 -3.812556E+00
        23   3 -6.746363E+01 -2.158919E+02 -3.456177E+01  4.146942E+01  1.444826E+01  4.861787E+00
        23   4  3.141160E+01 -3.236827E+01  1.436601E+01 -7.971154E+00  1.463776E+01  7.888117E+00
        23   5 -1.487077E+02 -1.506245E+02 -3.430025E+01  1.050726E+02 -1.016648E+01 -9.085112E+00
        23   6 -4.004101E+01  2.528910E+01  1.222102E+01  4.812316E+01 -9.350119E+00 -7.665005E+00
        23   7 -1.475721E+02 -1.356068E+02 -2.945425E+01  9.833770E+01  1.837491E+01  2.145550E+00
        23   8 -4.045290E+01  3.682281E+01  1.555756E+01  4.204076E+01  1.815923E+01  5.202937E+00
        24   1  7.980501E+00  9.893937E+00 -3.767202E+00 -5.348456E+01 -1.160533E+01 -4.008179E+00
        24   2  6.878861E+01  1.237465E+02  1.944776E+01 -8.606003E+01 -1.074631E+01 -3.384663E+00
        24   3  8.926543E+00  2.289351E+01  4.164812E-01 -5.721638E+01  8.649171E+00  6.302105E+00
        24   4  6.845935E+01  1.340173E+02  2.243021E+01 -8.939403E+01  9.138488E+00  7.851087E+00
        24   5 -6.259337E+01  6.661542E+01 -7.904229E+00 -1.067163E+01 -1.062847E+01 -7.788166E+00
        24   6  3.907868E+00  1.734649E+02  1.258322E+01 -4.751717E+01 -9.876207E+00 -6.905398E+00
        24   7 -6.210155E+01  7.747222E+01 -4.499643E+00 -1.565886E+01  1.124749E+01  3.348290E+00
        24   8  3.169691E+00  1.818067E+02  1.486429E+01 -5.198137E+01  1.146833E+01  5.074124E+00
        25   1 -1.250478E+02 -2.221249E+02 -4.537542E+01  9.839855E+01 -1.084345E+01 -8.903012E+00
        25   2  3.209697E+01 -5.150439E+01  1.207502E+01  2.338986E+01 -1.006061E+01 -7.458336E+00
        25   3 -1.170346E+02 -2.077582E+02 -3.866148E+01  8.817506E+01  1.313116E+01  1.185303E+01
        25   4  3.732045E+01 -4.092070E+01  1.681717E+01  1.441148E+01  1.292134E+01  1.449018E+01
        25   5 -2.370190E+02 -1.065675E+02 -4.040130E+01  9.821621E+01 -7.887763E+00 -1.279491E+01
        25   6 -6.753101E+01  4.896406E+01  1.375044E+01  2.322948E+01 -7.332873E+00 -1.116110E+01
        25   7 -2.285040E+02 -9.558172E+01 -3.455105E+01  8.741693E+01  1.774417E+01  9.618458E+00
        25   8 -6.186616E+01  5.657452E+01  1.773303E+01  1.374473E+01  1.710658E+01  1.224493E+01
        26   1  4.360816E+01 -3.048189E+01 -5.244953E+00 -5.009016E+01 -1.107810E+01 -8.144238E+00
        26   2  1.388399E+02  7.163565E+01  2.085481E+01 -9.735916E+01 -1.038565E+01 -7.150151E+00
        26   3  4.908035E+01 -2.024126E+01 -5.311089E-01 -5.763679E+01  7.087836E+00  1.016540E+01
        26   4  1.426247E+02  7.954697E+01  2.436364E+01 -1.041481E+02  7.240546E+00  1.180788E+01
        26   5 -4.704417E+01  5.192495E+01 -7.933976E+00 -5.168959E+01 -8.581144E+00 -1.180912E+01
        26   6  5.606173E+01  1.446561E+02  1.571023E+01 -9.879907E+01 -8.035972E+00 -1.064541E+01
        26   7 -4.128489E+01  5.959024E+01 -3.906607E+00 -5.969387E+01  1.067411E+01  7.589837E+00
        26   8  6.010497E+01  1.502489E+02  1.860105E+01 -1.060000E+02  1.057089E+01  9.293296E+00
        27   1 -2.064309E+02 -1.711479E+02 -4.826190E+01  1.200375E+02 -8.620955E+00 -1.272659E+01
        27   2  1.290970E+01 -3.551267E+01  1.338627E+01  4.988427E+01 -8.084313E+00 -1.110066E+01
        27   3 -1.901597E+02 -1.640191E+02 -4.124186E+01  1.096076E+02  8.468382E+00  1.761516E+01
        27   4  2.527380E+01 -3.132599E+01  1.835151E+01  4.074211E+01  8.159770E+00  1.977389E+01
        27   5 -3.050127E+02 -7.017781E+01 -4.505855E+01  4.742709E+01 -4.179733E+00 -1.547759E+01
        27   6 -7.453484E+01  5.253551E+01  1.445714E+01 -1.397180E+01 -3.915593E+00 -1.373494E+01
        27   7 -2.877933E+02 -6.584232E+01 -3.859210E+01  3.790023E+01  1.359483E+01  1.620900E+01
        27   8 -6.133695E+01  5.426563E+01  1.893554E+01 -2.231984E+01  1.293110E+01  1.832230E+01
        28   1  7.224426E+01 -6.098959E+01 -6.165545E+00 -1.826385E+01 -8.799421E+00 -1.223479E+01
        28   2  2.064473E+02  1.941902E+01  2.189576E+01 -6.227095E+01 -8.298201E+00 -1.103152E+01
        28   3  8.384171E+01 -5.612795E+01 -1.227821E+00 -2.604751E+01  3.972191E+00  1.301520E+01
        28   4  2.156180E+02  2.244672E+01  2.555529E+01 -6.925180E+01  4.004838E+00  1.451383E+01
        28   5 -6.115400E+00  1.175632E+01 -8.026997E+00 -7.449341E+01 -4.842288E+00 -1.485529E+01
        28   6  1.351323E+02  8.413864E+01  1.842149E+01 -1.128923E+02 -4.550208E+00 -1.354186E+01
        28   7  6.179938E+00  1.449467E+01 -3.516892E+00 -8.160459E+01  8.388508E+00  1.129590E+01
        28   8  1.449313E+02  8.525481E+01  2.169605E+01 -1.192677E+02  8.166217E+00  1.281480E+01
        29   1 -2.841018E+02 -1.091066E+02 -4.923858E+01  9.405975E+01 -4.932382E+00 -1.544299E+01
        29   2 -2.124718E+01 -2.696160E+00  1.431110E+01  6.052293E+01 -4.649648E+00 -1.371683E+01
        29   3 -2.616449E+02 -1.079021E+02 -4.214016E+01  8.898452E+01  1.311037E+00  2.076365E+01
        29   4 -3.551208E+00 -3.744970E+00  1.930525E+01  5.607836E+01  1.256776E+00  2.257525E+01
        29   5 -3.233966E+02 -6.902147E+01 -4.814060E+01 -2.822504E+01  3.821446E-01 -1.643545E+01
        29   6 -5.606553E+01  3.229492E+01  1.466749E+01 -4.701849E+01  3.634411E-01 -1.466805E+01
        29   7 -3.004849E+02 -6.891472E+01 -4.123508E+01 -3.132736E+01  6.707717E+00  2.028990E+01
        29   8 -3.796963E+01  3.028073E+01  1.949201E+01 -4.972801E+01  6.342114E+00  2.208019E+01
        30   1  7.278507E+01 -6.367375E+01 -7.073857E+00  2.798065E+01 -4.847834E+00 -1.511819E+01
        30   2  2.338561E+02 -1.505069E+00  2.161099E+01  6.980546E+00 -4.591417E+00 -1.379163E+01
        30   3  8.900716E+01 -6.327488E+01 -2.087567E+00  2.418507E+01 -2.121058E-01  1.434074E+01
        30   4  2.471193E+02 -2.507594E+00  2.528922E+01  3.578279E+00 -1.380216E-01  1.571352E+01
        30   5  4.186072E+01 -3.466828E+01 -7.712557E+00 -6.543668E+01 -3.731164E-02 -1.606967E+01
        30   6  2.057539E+02  2.434533E+01  2.042440E+01 -7.711952E+01 -1.994786E-02 -1.470341E+01
        30   7  5.842038E+01 -3.510331E+01 -2.875167E+00 -6.775078E+01  4.652149E+00  1.372851E+01
        30   8  2.193211E+02  2.259207E+01  2.396857E+01 -7.918807E+01  4.481821E+00  1.510716E+01
        31   1 -3.233962E+02 -6.902116E+01 -4.813956E+01  2.822468E+01 -3.794438E-01 -1.643614E+01
        31   2 -5.606534E+01  3.229495E+01  1.466773E+01  4.701822E+01 -3.625607E-01 -1.466883E+01
        31   3 -3.004848E+02 -6.891485E+01 -4.123424E+01  3.132604E+01 -6.703765E+00  2.028980E+01
        31   4 -3.796915E+01  3.028058E+01  1.949227E+01  4.972701E+01 -6.341079E+00  2.207993E+01
        31   5 -2.841002E+02 -1.091053E+02 -4.923463E+01 -9.406016E+01  4.935272E+00 -1.544559E+01
        31   6 -2.124683E+01 -2.696220E+00  1.431181E+01 -6.052325E+01  4.650874E+00 -1.371977E+01
        31   7 -2.616439E+02 -1.079024E+02 -4.213686E+01 -8.898605E+01 -1.307155E+00  2.076329E+01
        31   8 -3.550914E+00 -3.746176E+00  1.930560E+01 -5.607955E+01 -1.255624E+00  2.257427E+01
        32   1  4.186076E+01 -3.466836E+01 -7.712895E+00  6.543642E+01  3.691419E-02 -1.607054E+01
        32   2  2.057535E+02  2.434485E+01  2.042314E+01  7.711926E+01  1.786181E-02 -1.470442E+01
        32   3  5.842104E+01 -3.510309E+01 -2.875228E+00  6.774983E+01 -4.653052E+00  1.372814E+01
        32   4  2.193213E+02  2.259190E+01  2.396760E+01  7.918710E+01 -4.485165E+00  1.510660E+01
        32   5  7.278461E+01 -6.367430E+01 -7.075378E+00 -2.798091E+01  4.847863E+00 -1.512143E+01
        32   6  2.338541E+02 -1.507096E+00  2.160604E+01 -6.980814E+00  4.589827E+00 -1.379539E+01
        32   7  8.900739E+01 -6.327502E+01 -2.088763E+00 -2.418604E+01  2.114141E-01  1.433936E+01
        32   8  2.471181E+02 -2.509216E+00  2.528459E+01 -3.579278E+00  1.349793E-01  1.571143E+01
        33   1 -3.050122E+02 -7.017812E+01 -4.505369E+01 -4.742891E+01  4.182245E+00 -1.548226E+01
        33   2 -7.453381E+01  5.253468E+01  1.445820E+01  1.397069E+01  3.917080E+00 -1.373994E+01
        33   3 -2.877994E+02 -6.585111E+01 -3.859173E+01 -3.790703E+01 -1.359235E+01  1.620750E+01
        33   4 -6.133470E+01  5.426093E+01  1.893581E+01  2.231570E+01 -1.293069E+01  1.832006E+01
        33   5 -2.064281E+02 -1.711482E+02 -4.825388E+01 -1.200401E+02  8.622898E+00 -1.273482E+01
        33   6  1.291193E+01 -3.551432E+01  1.338803E+01 -4.988604E+01  8.086838E+00 -1.110893E+01
        33   7 -1.901606E+02 -1.640314E+02 -4.123859E+01 -1.096173E+02 -8.467245E+00  1.761163E+01
        33   8  2.527964E+01 -3.133464E+01  1.835224E+01 -4.074874E+01 -8.158997E+00  1.976971E+01
        34   1 -6.114832E+00  1.175508E+01 -8.029090E+00  7.449283E+01  4.842901E+00 -1.486055E+01
        34   2  1.351317E+02  8.413589E+01  1.841452E+01  1.128921E+02  4.549534E+00 -1.354766E+01
        34   3  6.185033E+00  1.449299E+01 -3.517758E+00  8.160245E+01 -8.389748E+00  1.129330E+01
        34   4  1.449384E+02  8.525396E+01  2.169195E+01  1.192672E+02 -8.169613E+00  1.281132E+01
        34   5  7.224433E+01 -6.099293E+01 -6.169352E+00  1.826307E+01  8.801972E+00 -1.224295E+01
        34   6  2.064449E+02  1.941302E+01  2.188403E+01  6.227062E+01  8.300475E+00 -1.103982E+01
        34   7  8.384643E+01 -5.613595E+01 -1.231629E+00  2.604460E+01 -3.972269E+00  1.301122E+01
        34   8  2.156234E+02  2.243881E+01  2.554532E+01  6.925055E+01 -4.005984E+00  1.450921E+01
        35   1 -2.370253E+02 -1.065773E+02 -4.039930E+01 -9.822247E+01  7.885408E+00 -1.280809E+01
        35   2 -6.752952E+01  4.896060E+01  1.375135E+01 -2.323174E+01  7.334420E+00 -1.117194E+01
        35   3 -2.285382E+02 -9.562923E+01 -3.456874E+01 -8.744030E+01 -1.775106E+01  9.606883E+00
        35   4 -6.186296E+01  5.655925E+01  1.773091E+01 -1.375316E+01 -1.710828E+01  1.223676E+01
        35   5 -1.250488E+02 -2.221416E+02 -4.537745E+01 -9.840530E+01  1.083402E+01 -8.923208E+00
        35   6  3.210447E+01 -5.151259E+01  1.207553E+01 -2.339255E+01  1.006027E+01 -7.471625E+00
        35   7 -1.170434E+02 -2.078260E+02 -3.868115E+01 -8.820030E+01 -1.314333E+01  1.183265E+01
        35   8  3.734738E+01 -4.095241E+01  1.681646E+01 -1.442155E+01 -1.292336E+01  1.447800E+01
        36   1 -4.704346E+01  5.192264E+01 -7.937161E+00  5.169062E+01  8.584575E+00 -1.181810E+01
        36   2  5.606382E+01  1.446560E+02  1.570193E+01  9.880234E+01  8.041137E+00 -1.065208E+01
        36   3 -4.127794E+01  5.958589E+01 -3.908530E+00  5.969772E+01 -1.067362E+01  7.584640E+00
        36   4  6.012675E+01  1.502624E+02  1.860274E+01  1.060122E+02 -1.056778E+01  9.291146E+00
        36   5  4.361091E+01 -3.049018E+01 -5.248057E+00  5.009227E+01  1.108257E+01 -8.152145E+00
        36   6  1.388456E+02  7.163183E+01  2.085058E+01  9.736340E+01  1.039463E+01 -7.150657E+00
        36   7  4.909282E+01 -2.026996E+01 -5.374193E-01  5.764470E+01 -7.084816E+00  1.015979E+01
        36   8  1.426532E+02  7.954018E+01  2.436537E+01  1.041639E+02 -7.232278E+00  1.181055E+01
        37   1 -1.487328E+02 -1.506613E+02 -3.432694E+01 -1.050872E+02  1.014082E+01 -9.116371E+00
        37   2 -4.004388E+01  2.528166E+01  1.221652E+01 -4.812979E+01  9.339567E+00 -7.678944E+00
        37   3 -1.476527E+02 -1.357310E+02 -2.952382E+01 -9.839223E+01 -1.840455E+01  2.098188E+00
        37   4 -4.046145E+01  3.679723E+01  1.554592E+01 -4.206554E+01 -1.816649E+01  5.184430E+00
        37   5 -6.965719E+01 -2.336991E+02 -4.059780E+01 -4.666623E+01  1.143383E+01 -5.084202E+00
        37   6  3.092344E+01 -4.631913E+01  1.002788E+01  3.247653E+00  1.054566E+01 -3.823736E+00
        37   7 -6.750290E+01 -2.160606E+02 -3.465998E+01 -4.149986E+01 -1.448822E+01  4.793709E+00
        37   8  3.145052E+01 -3.242189E+01  1.435518E+01  7.967563E+00 -1.465336E+01  7.864144E+00
        38   1 -6.259913E+01  6.661779E+01 -7.902478E+00  1.067254E+01  1.062561E+01 -7.789424E+00
        38   2  3.915626E+00  1.734879E+02  1.259986E+01  4.752276E+01  9.880882E+00 -6.889771E+00
        38   3 -6.212744E+01  7.747662E+01 -4.503323E+00  1.566222E+01 -1.124453E+01  3.349484E+00
        38   4  3.187022E+00  1.818806E+02  1.489908E+01  5.200225E+01 -1.145377E+01  5.098650E+00
        38   5  7.985641E+00  9.891368E+00 -3.753433E+00  5.349267E+01  1.157921E+01 -3.995357E+00
        38   6  6.881773E+01  1.237765E+02  1.950217E+01  8.607209E+01  1.072937E+01 -3.339410E+00
        38   7  8.925606E+00  2.286353E+01  4.202043E-01  5.724655E+01 -8.657068E+00  6.311062E+00
        38   8  6.851069E+01  1.340718E+02  2.249862E+01  8.943903E+01 -9.134384E+00  7.899552E+00
        39   1 -7.230074E+01 -1.697052E+02 -2.571569E+01 -7.356877E+01  1.100246E+01 -5.485438E+00
        39   2 -6.145641E+00 -3.038487E+00  1.055964E+01 -5.231536E+01  1.018117E+01 -4.370527E+00
        39   3 -7.457090E+01 -1.594873E+02 -2.333134E+01 -7.269723E+01 -1.547597E+01 -3.976833E+00
        39   4 -8.725947E+00  5.223544E+00  1.226416E+01 -5.087642E+01 -1.585058E+01 -1.099869E+00
        39   5 -5.094558E+01 -1.984677E+02 -3.248059E+01  4.955926E+00  1.104022E+01 -2.890973E+00
        39   6  1.399366E+01 -2.697431E+01  7.780970E+00  1.674194E+01  1.052947E+01 -1.870909E+00
        39   7 -4.905436E+01 -1.860219E+02 -2.817948E+01  4.667621E+00 -1.272607E+01 -1.811930E+00
        39   8  1.507301E+01 -1.675302E+01  1.117116E+01  1.716088E+01 -1.311713E+01  1.021978E+00
        40   1 -4.929259E+01  5.470987E+01 -7.512126E+00 -2.629149E+01  1.121837E+01 -4.090615E+00
        40   2 -8.357549E+00  1.623509E+02  9.291402E+00 -1.202081E+01  1.042734E+01 -3.666798E+00
        40   3 -5.090785E+01  6.265568E+01 -5.612961E+00 -2.508375E+01 -1.014823E+01 -7.295483E-01
        40   4 -1.004926E+01  1.693007E+02  1.086885E+01 -1.041477E+01 -1.078729E+01  2.938041E-01
        40   5 -2.909004E+01  3.410325E+01 -7.681646E+00  3.673283E+01  1.141560E+01 -1.568961E+00
        40   6  1.066080E+01  1.446303E+02  1.107725E+01  4.471759E+01  1.101051E+01 -1.165780E+00
        40   7 -2.740594E+01  4.374692E+01 -4.283313E+00  3.717076E+01 -8.835501E+00  1.615427E+00
        40   8  1.193939E+01  1.531087E+02  1.400434E+01  4.563061E+01 -9.199869E+00  2.635765E+00
        41   1 -2.908819E+01  3.412984E+01 -7.612213E+00 -3.672454E+01  1.126965E+01  1.525476E+00
        41   2 -4.930363E+01  5.472413E+01 -7.482561E+00  2.630844E+01  1.115538E+01  4.061199E+00
        41   3 -2.749283E+01  4.375111E+01 -4.247225E+00 -3.713961E+01 -8.850754E+00 -1.653641E+00
        41   4 -5.099423E+01  6.266386E+01 -5.607826E+00  2.514729E+01 -1.015544E+01  6.935367E-01
        41   5  1.076684E+01  1.447706E+02  1.138063E+01 -4.470902E+01  1.085619E+01  1.052952E+00
        41   6 -8.323231E+00  1.624199E+02  9.418634E+00  1.203718E+01  1.037206E+01  3.582193E+00
        41   7  1.197578E+01  1.532717E+02  1.429365E+01 -4.559879E+01 -9.220759E+00 -2.784771E+00
        41   8 -1.007252E+01  1.694072E+02  1.099003E+01  1.047575E+01 -1.077658E+01 -4.252689E-01
        42   1  7.991019E+00  9.888855E+00 -3.739539E+00 -5.350073E+01  1.155304E+01  3.982510E+00
        42   2 -6.260488E+01  6.662012E+01 -7.900685E+00 -1.067343E+01  1.062263E+01  7.790633E+00
        42   3  8.924764E+00  2.283351E+01  4.239814E-01 -5.727673E+01 -8.664979E+00 -6.320013E+00
        42   4 -6.215333E+01  7.748097E+01 -4.506966E+00 -1.566560E+01 -1.124162E+01 -3.350683E+00
        42   5  6.884718E+01  1.238067E+02  1.955682E+01 -8.608416E+01  1.071234E+01  3.294159E+00
        42   6  3.923528E+00  1.735109E+02  1.261672E+01 -4.752837E+01  9.885406E+00  6.874131E+00
        42   7  6.856222E+01  1.341263E+02  2.256720E+01 -8.948408E+01 -9.130341E+00 -7.947968E+00
        42   8  3.204464E+00  1.819545E+02  1.493409E+01 -5.202316E+01 -1.143930E+01 -5.123131E+00
        43   1  4.361368E+01 -3.049853E+01 -5.251100E+00 -5.009439E+01  1.108687E+01  8.159966E+00
        43   2 -4.704260E+01  5.192032E+01 -7.940201E+00 -5.169164E+01  8.587756E+00  1.182689E+01
        43   3  4.910536E+01 -2.029893E+01 -5.437164E-01 -5.765260E+01 -7.081899E+00 -1.015417E+01
        43   4 -4.127066E+01  5.958134E+01 -3.910314E+00 -5.970151E+01 -1.067326E+01 -7.579501E+00
        43   5  1.388512E+02  7.162800E+01  2.084659E+01 -9.736764E+01  1.040341E+01  7.151111E+00
        43   6  5.606612E+01  1.446559E+02  1.569406E+01 -9.880558E+01  8.046051E+00  1.065856E+01
        43   7  1.426816E+02  7.953310E+01  2.436724E+01 -1.041797E+02 -7.224156E+00 -1.181316E+01
        43   8  6.014882E+01  1.502756E+02  1.860478E+01 -1.060243E+02 -1.056483E+01 -9.289027E+00
        44   1  7.224445E+01 -6.099626E+01 -6.173048E+00 -1.826222E+01  8.804265E+00  1.225088E+01
        44   2 -6.114049E+00  1.175380E+01 -8.031082E+00 -7.449206E+01  4.843330E+00  1.486557E+01
        44   3  8.385114E+01 -5.614409E+01 -1.235390E+00 -2.604141E+01 -3.972503E+00 -1.300734E+01
        44   4  6.190864E+00  1.449113E+01 -3.518408E+00 -8.159956E+01 -8.391102E+00 -1.129086E+01
        44   5  2.064423E+02  1.940700E+01  2.187258E+01 -6.227014E+01  8.302602E+00  1.104787E+01
        44   6  1.351311E+02  8.413305E+01  1.840769E+01 -1.128917E+02  4.549013E+00  1.355314E+01
        44   7  2.156278E+02  2.243034E+01  2.553524E+01 -6.924878E+01 -4.007144E+00 -1.450473E+01
        44   8  1.449452E+02  8.525248E+01  2.168775E+01 -1.192657E+02 -8.172750E+00 -1.280808E+01
        45   1  7.278399E+01 -6.367466E+01 -7.077029E+00  2.798112E+01  4.847900E+00  1.512477E+01
        45   2  4.186060E+01 -3.466838E+01 -7.713859E+00 -6.543581E+01  3.681760E-02  1.607250E+01
        45   3  8.900719E+01 -6.327421E+01 -2.089933E+00  2.418683E+01  2.109056E-01 -1.433811E+01
        45   4  5.842190E+01 -3.510175E+01 -2.875479E+00 -6.774754E+01 -4.653585E+00 -1.372760E+01
        45   5  2.338512E+02 -1.509388E+00  2.160031E+01  6.981083E+00  4.589003E+00  1.379918E+01
        45   6  2.057515E+02  2.434343E+01  2.041935E+01 -7.711863E+01  1.743236E-02  1.470662E+01
        45   7  2.471135E+02 -2.511236E+00  2.527845E+01  3.580283E+00  1.332434E-01 -1.570964E+01
        45   8  2.193182E+02  2.259092E+01  2.396361E+01 -7.918474E+01 -4.486409E+00 -1.510579E+01
        46   1  4.186056E+01 -3.466831E+01 -7.713520E+00  6.543606E+01 -3.721501E-02  1.607163E+01
        46   2  7.278445E+01 -6.367410E+01 -7.075507E+00 -2.798086E+01 -4.847871E+00  1.512153E+01
        46   3  5.842124E+01 -3.510198E+01 -2.875418E+00  6.774850E+01  4.652682E+00 -1.372797E+01
        46   4  8.900697E+01 -6.327407E+01 -2.088737E+00 -2.418585E+01 -2.115974E-01 -1.433950E+01
        46   5  2.057519E+02  2.434390E+01  2.042061E+01  7.711889E+01 -1.951838E-02  1.470561E+01
        46   6  2.338531E+02 -1.507360E+00  2.160527E+01 -6.980816E+00 -4.590593E+00  1.379542E+01
        46   7  2.193179E+02  2.259109E+01  2.396458E+01  7.918572E+01  4.483065E+00 -1.510635E+01
        46   8  2.471147E+02 -2.509613E+00  2.528308E+01 -3.579284E+00 -1.362857E-01 -1.571173E+01
        47   1 -6.114616E+00  1.175505E+01 -8.028988E+00  7.449263E+01 -4.842717E+00  1.486030E+01
        47   2  7.224437E+01 -6.099293E+01 -6.169242E+00  1.826300E+01 -8.801714E+00  1.224272E+01
        47   3  6.185770E+00  1.449282E+01 -3.517542E+00  8.160170E+01  8.389861E+00 -1.129346E+01
        47   4  8.384642E+01 -5.613610E+01 -1.231581E+00  2.604432E+01  3.972426E+00 -1.301131E+01
        47   5  1.351317E+02  8.413580E+01  1.841467E+01  1.128919E+02 -4.549688E+00  1.354734E+01
        47   6  2.064448E+02  1.941300E+01  2.188432E+01  6.227048E+01 -8.300329E+00  1.103956E+01
        47   7  1.449381E+02  8.525333E+01  2.169185E+01  1.192662E+02  8.169354E+00 -1.281157E+01
        47   8  2.156225E+02  2.243824E+01  2.554520E+01  6.925004E+01  4.005999E+00 -1.450935E+01
        48   1 -4.704333E+01  5.192263E+01 -7.937020E+00  5.169060E+01 -8.584325E+00  1.181791E+01
        48   2  4.361096E+01 -3.049022E+01 -5.247982E+00  5.009226E+01 -1.108240E+01  8.152058E+00
        48   3 -4.127761E+01  5.958568E+01 -3.908390E+00  5.969766E+01  1.067375E+01 -7.584697E+00
        48   4  4.909290E+01 -2.027022E+01 -5.374004E-01  5.764468E+01  7.084916E+00 -1.015978E+01
        48   5  5.606403E+01  1.446560E+02  1.570236E+01  9.880231E+01 -8.040886E+00  1.065189E+01
        48   6  1.388457E+02  7.163185E+01  2.085084E+01  9.736338E+01 -1.039443E+01  7.150603E+00
        48   7  6.012704E+01  1.502622E+02  1.860310E+01  1.060121E+02  1.056794E+01 -9.291177E+00
        48   8  1.426532E+02  7.953990E+01  2.436551E+01  1.041639E+02  7.232426E+00 -1.181049E+01
        49   1 -6.259910E+01  6.661781E+01 -7.902419E+00  1.067254E+01 -1.062549E+01  7.789378E+00
        49   2  7.985652E+00  9.891359E+00 -3.753409E+00  5.349268E+01 -1.157916E+01  3.995344E+00
        49   3 -6.212743E+01  7.747659E+01 -4.503279E+00  1.566225E+01  1.124458E+01 -3.349484E+00
        49   4  8.925610E+00  2.286346E+01  4.202074E-01  5.724659E+01  8.657090E+00 -6.311047E+00
        49   5  3.915715E+00  1.734880E+02  1.260006E+01  4.752277E+01 -9.880737E+00  6.889764E+00
        49   6  6.881777E+01  1.237766E+02  1.950226E+01  8.607211E+01 -1.072930E+01  3.339431E+00
        49   7  3.187117E+00  1.818806E+02  1.489928E+01  5.200229E+01  1.145387E+01 -5.098593E+00
        49   8  6.851075E+01  1.340718E+02  2.249871E+01  8.943909E+01  9.134433E+00 -7.899482E+00
        50   1 -4.929259E+01  5.470987E+01 -7.512116E+00 -2.629149E+01 -1.121835E+01  4.090610E+00
        50   2 -2.909005E+01  3.410325E+01 -7.681653E+00  3.673283E+01 -1.141560E+01  1.568955E+00
        50   3 -5.090788E+01  6.265569E+01 -5.612958E+00 -2.508376E+01  1.014824E+01  7.295515E-01
        50   4 -2.740595E+01  4.374693E+01 -4.283321E+00  3.717077E+01  8.835499E+00 -1.615426E+00
        50   5 -8.357535E+00  1.623509E+02  9.291447E+00 -1.202081E+01 -1.042731E+01  3.666817E+00
        50   6  1.066081E+01  1.446303E+02  1.107725E+01  4.471759E+01 -1.101051E+01  1.165789E+00
        50   7 -1.004926E+01  1.693008E+02  1.086891E+01 -1.041478E+01  1.078730E+01 -2.937696E-01
        50   8  1.193940E+01  1.531087E+02  1.400436E+01  4.563063E+01  9.199871E+00 -2.635742E+00
        51   1 -5.105821E+01 -1.986116E+02 -3.277470E+01 -4.934417E+00  1.087268E+01  2.967380E+00
        51   2 -7.236605E+01 -1.697830E+02 -2.585044E+01  7.359922E+01  1.090605E+01  5.552490E+00
        51   3 -4.913424E+01 -1.862171E+02 -2.847915E+01 -4.587365E+00 -1.277662E+01  1.980929E+00
        51   4 -7.466970E+01 -1.596321E+02 -2.349629E+01  7.281082E+01 -1.553655E+01  4.123624E+00
        51   5  1.398382E+01 -2.700250E+01  7.710783E+00 -1.672612E+01  1.037788E+01  1.877597E+00
        51   6 -6.156103E+00 -3.050692E+00  1.053104E+01  5.233906E+01  1.010771E+01  4.381634E+00
        51   7  1.512691E+01 -1.676631E+01  1.112457E+01 -1.710144E+01 -1.314815E+01 -9.769699E-01
        51   8 -8.730927E+00  5.212282E+00  1.223749E+01  5.096517E+01 -1.587485E+01  1.137992E+00
        52   1 -6.968297E+01 -2.337595E+02 -4.065954E+01  4.667434E+01  1.137943E+01  5.126754E+00
        52   2 -1.487578E+02 -1.506981E+02 -3.435375E+01  1.051018E+02  1.011508E+01  9.147516E+00
        52   3 -6.754227E+01 -2.162296E+02 -3.475835E+01  4.153026E+01 -1.452818E+01 -4.725715E+00
        52   4 -1.477333E+02 -1.358554E+02 -2.959357E+01  9.844676E+01 -1.843417E+01 -2.050932E+00
        52   5  3.093100E+01 -4.633629E+01  1.001857E+01 -3.246694E+00  1.051057E+01  3.834871E+00
        52   6 -4.004678E+01  2.527418E+01  1.221198E+01  4.813645E+01  9.328915E+00  7.692808E+00
        52   7  3.148936E+01 -3.247562E+01  1.434428E+01 -7.963983E+00 -1.466897E+01 -7.840203E+00
        52   8 -4.046997E+01  3.677158E+01  1.553424E+01  4.209034E+01 -1.817377E+01 -5.165966E+00
        53   1 -1.250497E+02 -2.221584E+02 -4.537967E+01  9.841203E+01  1.082446E+01  8.943272E+00
        53   2 -2.370315E+02 -1.065874E+02 -4.039761E+01  9.822869E+01  7.882781E+00  1.282111E+01
        53   3 -1.170518E+02 -2.078937E+02 -3.870085E+01  8.822539E+01 -1.315553E+01 -1.181236E+01
        53   4 -2.285719E+02 -9.567694E+01 -3.458658E+01  8.746353E+01 -1.775806E+01 -9.595382E+00
        53   5  3.211207E+01 -5.152084E+01  1.207602E+01  2.339525E+01  1.005976E+01  7.484807E+00
        53   6 -6.752793E+01  4.895703E+01  1.375220E+01  2.323399E+01  7.335709E+00  1.118260E+01
        53   7  3.737460E+01 -4.098430E+01  1.681574E+01  1.443159E+01 -1.292545E+01 -1.446585E+01
        53   8 -6.185934E+01  5.654362E+01  1.772876E+01  1.376156E+01 -1.711012E+01 -1.222867E+01
        54   1 -2.064248E+02 -1.711483E+02 -4.824593E+01  1.200425E+02  8.624347E+00  1.274297E+01
        54   2 -3.050111E+02 -7.017849E+01 -4.504875E+01  4.743071E+01  4.183936E+00  1.548704E+01
        54   3 -1.901594E+02 -1.640428E+02 -4.123465E+01  1.096263E+02 -8.466598E+00 -1.760798E+01
        54   4 -2.878025E+02 -6.585990E+01 -3.859059E+01  3.791374E+01 -1.359074E+01 -1.620582E+01
        54   5  1.291431E+01 -3.551607E+01  1.338974E+01  4.988781E+01  8.089011E+00  1.111702E+01
        54   6 -7.453248E+01  5.253355E+01  1.445923E+01 -1.396948E+01  3.918117E+00  1.374481E+01
        54   7  2.528614E+01 -3.134355E+01  1.835304E+01  4.075533E+01 -8.158517E+00 -1.976558E+01
        54   8 -6.133125E+01  5.425520E+01  1.893609E+01 -2.231118E+01 -1.293071E+01 -1.831790E+01
        55   1 -2.840969E+02 -1.091034E+02 -4.922959E+01  9.406025E+01  4.936733E+00  1.544878E+01
        55   2 -3.233934E+02 -6.901987E+01 -4.813599E+01 -2.822417E+01 -3.789235E-01  1.643836E+01
        55   3 -2.616371E+02 -1.079006E+02 -4.213080E+01  8.898638E+01 -1.305390E+00 -2.076241E+01
        55   4 -3.004779E+02 -6.891372E+01 -4.122949E+01 -3.132412E+01 -6.702812E+00 -2.028908E+01
        55   5 -2.124613E+01 -2.696317E+00  1.431267E+01  6.052343E+01  4.651521E+00  1.372295E+01
        55   6 -5.606459E+01  3.229472E+01  1.466834E+01 -4.701767E+01 -3.624063E-01  1.467079E+01
        55   7 -3.549369E+00 -3.747616E+00  1.930631E+01  5.608022E+01 -1.255202E+00 -2.257327E+01
        55   8 -3.796710E+01  3.027899E+01  1.949287E+01 -4.972494E+01 -6.341036E+00 -2.207943E+01
        56   1 -3.233938E+02 -6.902019E+01 -4.813703E+01  2.822452E+01  3.816243E-01  1.643766E+01
        56   2 -2.840985E+02 -1.091046E+02 -4.923354E+01 -9.405984E+01 -4.933843E+00  1.544618E+01
        56   3 -3.004780E+02 -6.891359E+01 -4.123033E+01  3.132544E+01  6.706764E+00 -2.028917E+01
        56   4 -2.616381E+02 -1.079003E+02 -4.213410E+01 -8.898485E+01  1.309272E+00 -2.076277E+01
        56   5 -5.606479E+01  3.229469E+01  1.466810E+01  4.701794E+01  3.632868E-01  1.467000E+01
        56   6 -2.124648E+01 -2.696259E+00  1.431196E+01 -6.052311E+01 -4.650294E+00  1.372000E+01
        56   7 -3.796758E+01  3.027914E+01  1.949260E+01  4.972594E+01  6.342071E+00 -2.207969E+01
        56   8 -3.549664E+00 -3.746411E+00  1.930596E+01 -5.607903E+01  1.256355E+00 -2.257424E+01
        57   1 -3.050115E+02 -7.017817E+01 -4.505361E+01 -4.742889E+01 -4.181424E+00  1.548237E+01
        57   2 -2.064276E+02 -1.711480E+02 -4.825395E+01 -1.200399E+02 -8.622406E+00  1.273475E+01
        57   3 -2.877964E+02 -6.585110E+01 -3.859096E+01 -3.790695E+01  1.359322E+01 -1.620731E+01
        57   4 -1.901584E+02 -1.640305E+02 -4.123792E+01 -1.096167E+02  8.467734E+00 -1.761152E+01
        57   5 -7.453350E+01  5.253439E+01  1.445817E+01  1.397059E+01 -3.916630E+00  1.373980E+01
        57   6  1.291209E+01 -3.551441E+01  1.338799E+01 -4.988604E+01 -8.086486E+00  1.110875E+01
        57   7 -6.133350E+01  5.425990E+01  1.893583E+01  2.231532E+01  1.293112E+01 -1.832014E+01
        57   8  2.528030E+01 -3.133490E+01  1.835231E+01 -4.074870E+01  8.159289E+00 -1.976975E+01
        58   1 -2.370252E+02 -1.065775E+02 -4.039960E+01 -9.822243E+01 -7.885139E+00  1.280793E+01
        58   2 -1.250488E+02 -2.221417E+02 -4.537764E+01 -9.840526E+01 -1.083388E+01  8.923071E+00
        58   3 -2.285376E+02 -9.562941E+01 -3.456888E+01 -8.744015E+01  1.775117E+01 -9.606961E+00
        58   4 -1.170430E+02 -2.078259E+02 -3.868118E+01 -8.820014E+01  1.314336E+01 -1.183275E+01
        58   5 -6.752943E+01  4.896048E+01  1.375129E+01 -2.323173E+01 -7.334163E+00  1.117175E+01
        58   6  3.210452E+01 -5.151266E+01  1.207549E+01 -2.339254E+01 -1.006011E+01  7.471515E+00
        58   7 -6.186254E+01  5.655889E+01  1.773088E+01 -1.375313E+01  1.710842E+01 -1.223684E+01
        58   8  3.734764E+01 -4.095260E+01  1.681644E+01 -1.442151E+01  1.292343E+01 -1.447804E+01
        59   1 -1.487329E+02 -1.506614E+02 -3.432711E+01 -1.050872E+02 -1.014075E+01  9.116253E+00
        59   2 -6.965721E+01 -2.336992E+02 -4.059789E+01 -4.666622E+01 -1.143380E+01  5.084122E+00
        59   3 -1.476527E+02 -1.357312E+02 -2.952400E+01 -9.839224E+01  1.840453E+01 -2.098304E+00
        59   4 -6.750289E+01 -2.160608E+02 -3.466009E+01 -4.149985E+01  1.448820E+01 -4.793808E+00
        59   5 -4.004387E+01  2.528164E+01  1.221649E+01 -4.812979E+01 -9.339471E+00  7.678868E+00
        59   6  3.092345E+01 -4.631916E+01  1.002787E+01  3.247658E+00 -1.054562E+01  3.823696E+00
        59   7 -4.046139E+01  3.679718E+01  1.554590E+01 -4.206554E+01  1.816651E+01 -5.184477E+00
        59   8  3.145058E+01 -3.242197E+01  1.435516E+01  7.967583E+00  1.465337E+01 -7.864174E+00
        60   1 -7.230076E+01 -1.697053E+02 -2.571573E+01 -7.356878E+01 -1.100245E+01  5.485385E+00
        60   2 -5.094559E+01 -1.984677E+02 -3.248062E+01  4.955925E+00 -1.104022E+01  2.890938E+00
        60   3 -7.457093E+01 -1.594874E+02 -2.333142E+01 -7.269727E+01  1.547597E+01  3.976772E+00
        60   4 -4.905439E+01 -1.860220E+02 -2.817953E+01  4.667618E+00  1.272606E+01  1.811885E+00
        60   5 -6.145641E+00 -3.038492E+00  1.055963E+01 -5.231537E+01 -1.018115E+01  4.370503E+00
        60   6  1.399366E+01 -2.697432E+01  7.780960E+00  1.674194E+01 -1.052947E+01  1.870892E+00
        60   7 -8.725936E+00  5.223536E+00  1.226415E+01 -5.087645E+01  1.585058E+01  1.099847E+00
        60   8  1.507302E+01 -1.675304E+01  1.117115E+01  1.716088E+01  1.311712E+01 -1.021995E+00
        61   1  2.605595E+01  1.587635E+02  2.160389E+01  2.866414E+01  9.577027E+00  3.234485E-01
        61   2 -1.098203E+01  5.346815E+01  3.439345E+00  2.797273E+01  9.659233E+00  1.340480E+00
        61   3  2.261935E+01  1.543745E+02  2.167046E+01 -1.198715E+01  5.616431E+00  3.159743E-02
        61   4 -2.138381E+01  3.501466E+01 -5.646929E+00 -1.275047E+01  5.120334E+00  4.742252E-01
        61   5  2.391310E+01  1.553097E+02  1.960817E+01  3.290623E+01 -9.303594E+00 -1.450002E+00
        61   6 -1.748990E+01  4.022976E+01 -3.321893E+00  3.313518E+01 -9.204322E+00  9.858435E-01
        61   7  2.530216E+01  1.554696E+02  2.170198E+01 -1.121150E+01 -1.101139E+01 -1.803387E+00
        61   8 -1.983083E+01  3.479982E+01 -8.071557E+00 -1.097677E+01 -1.138771E+01 -1.322932E-01
        62   1  3.226637E+01 -5.724075E+00  1.817552E+01  3.446025E+01  9.726720E+00  2.113963E+00
        62   2 -2.308451E+01 -1.570963E+02 -1.495521E+01  3.289565E+01  9.865793E+00  3.167456E+00
        62   3  1.813991E+01 -2.757354E+01  5.506090E+00 -1.021637E+01  7.385769E+00  1.000220E+00
        62   4 -3.233040E+01 -1.662881E+02 -2.401368E+01 -1.165424E+01  6.932566E+00  1.672835E+00
        62   5  2.560560E+01 -1.829306E+01  1.149925E+01  4.005459E+01 -1.209755E+01  2.831457E+00
        62   6 -2.258019E+01 -1.535426E+02 -1.387052E+01  3.965170E+01 -1.192976E+01  5.412802E+00
        62   7  1.957495E+01 -2.622943E+01  3.245531E+00 -8.731017E+00 -1.209704E+01  1.448676E+00
        62   8 -2.692341E+01 -1.577355E+02 -2.024288E+01 -9.124393E+00 -1.249781E+01  3.965399E+00
        63   1  1.180663E+01  1.266005E+02  1.232017E+01  2.900891E+01  1.008481E+01 -7.595135E-01
        63   2 -1.767081E+01  4.257960E+01 -1.917081E+00  2.983857E+01  9.449655E+00  8.335797E-02
        63   3  1.821287E+01  1.304355E+02  1.869720E+01 -1.325080E+01  6.139715E+00 -9.003985E-01
        63   4 -1.279180E+01  4.488735E+01  8.964103E-01 -1.242114E+01  5.310724E+00 -3.175544E-01
        63   5  1.437028E+01  1.237640E+02  1.091701E+01  3.207126E+01 -4.962109E+00 -3.006500E+00
        63   6 -2.157200E+01  2.617886E+01 -1.130544E+01  3.333745E+01 -5.474587E+00 -1.007255E+00
        63   7  2.214281E+01  1.282891E+02  1.822804E+01 -7.453413E+00 -7.147824E+00 -3.042443E+00
        63   8 -1.524912E+01  2.925428E+01 -7.376917E+00 -6.187225E+00 -7.851423E+00 -1.008688E+00
        64   1  2.588513E+01 -1.490652E+00  1.467822E+01  3.205318E+01  1.196474E+01  1.043518E+00
        64   2 -1.655959E+01 -1.199327E+02 -8.362100E+00  3.056239E+01  1.124835E+01  2.152698E+00
        64   3  1.912021E+01 -4.894336E+00  1.009753E+01 -1.078411E+01  7.248102E+00  4.564086E-01
        64   4 -2.518418E+01 -1.251961E+02 -1.728203E+01 -1.227490E+01  6.365025E+00  1.474715E+00
        64   5  2.097096E+01 -1.775375E+01  4.776739E+00  3.426209E+01 -5.652948E+00  1.196814E+00
        64   6 -1.336145E+01 -1.197326E+02 -7.685731E+00  3.320074E+01 -6.397628E+00  4.987065E+00
        64   7  1.592271E+01 -2.030067E+01  1.335246E+00 -5.594299E+00 -8.364721E+00  1.019759E+00
        64   8 -2.058151E+01 -1.244514E+02 -1.619477E+01 -6.655649E+00 -9.317436E+00  4.386321E+00
        65   1  7.202271E+00  9.551514E+01  7.555691E+00  2.455057E+01  6.514335E+00 -1.479076E+00
        65   2 -1.499866E+01  3.199257E+01 -2.924831E+00  2.562501E+01  5.694710E+00 -7.843905E-01
        65   3  1.530228E+01  1.002853E+02  1.535614E+01 -7.465018E+00  5.564578E+00 -1.495428E+00
        65   4 -8.413149E+00  3.524820E+01  1.341771E+00 -6.390574E+00  4.942091E+00 -8.779933E-01
        65   5  1.127417E+01  9.392726E+01  7.508557E+00  2.718897E+01 -5.591537E+00 -3.945228E+00
        65   6 -1.625992E+01  1.930308E+01 -9.647554E+00  2.809892E+01 -6.313015E+00 -1.602146E+00
        65   7  1.783630E+01  9.815559E+01  1.504085E+01 -3.004638E+00 -4.632713E+00 -3.881696E+00
        65   8 -1.113567E+01  2.209352E+01 -5.470330E+00 -2.094684E+00 -5.179477E+00 -1.399659E+00
        66   1  1.758222E+01 -1.281170E+00  9.801225E+00  2.729063E+01  7.342402E+00  1.376230E-01
        66   2 -1.401986E+01 -9.005376E+01 -6.766446E+00  2.642037E+01  6.458236E+00  1.527289E+00
        66   3  1.359812E+01 -3.303120E+00  7.045498E+00 -4.934566E+00  6.347209E+00  1.209404E-02
        66   4 -2.002789E+01 -9.409964E+01 -1.424467E+01 -5.804828E+00  5.570240E+00  1.449053E+00
        66   5  1.582506E+01 -1.423585E+01  2.473163E+00  2.847580E+01 -6.856627E+00  6.349573E-01
        66   6 -1.004098E+01 -9.136697E+01 -6.615858E+00  2.752321E+01 -7.838477E+00  4.296527E+00
        66   7  1.160224E+01 -1.621367E+01  1.032494E-01 -1.728883E+00 -5.462723E+00  8.202111E-01
        66   8 -1.662743E+01 -9.570842E+01 -1.450091E+01 -2.681470E+00 -6.326042E+00  4.298770E+00
        67   1  3.218477E+00  6.202357E+01  3.305544E+00  1.952966E+01  3.820429E+00 -1.519299E+00
        67   2 -1.125634E+01  2.007407E+01 -2.994361E+00  2.049625E+01  3.358419E+00 -9.298703E-01
        67   3  1.099044E+01  6.679990E+01  1.145469E+01 -1.757438E+00  4.240207E+00 -2.457908E+00
        67   4 -5.092742E+00  2.324204E+01  1.401932E+00 -7.908425E-01  4.009671E+00 -1.322620E+00
        67   5  7.373686E+00  6.603245E+01  5.615364E+00  2.248677E+01 -4.830970E+00 -4.227391E+00
        67   6 -1.231414E+01  1.308944E+01 -7.067706E+00  2.321725E+01 -5.231606E+00 -1.547606E+00
        67   7  1.340722E+01  7.019249E+01  1.344863E+01  1.163946E+00 -2.292756E+00 -5.197390E+00
        67   8 -7.807395E+00  1.572269E+01 -2.796963E+00  1.894424E+00 -2.485225E+00 -1.862562E+00
        68   1  1.273454E+01 -6.700468E-01  6.934229E+00  2.197390E+01  4.569760E+00 -7.387878E-02
        68   2 -7.656981E+00 -5.856760E+01 -3.139970E+00  2.133405E+01  3.847027E+00  1.304281E+00
        68   3  9.742805E+00 -2.219148E+00  4.762297E+00  8.329448E-01  4.938263E+00  2.642217E-02
        68   4 -1.276450E+01 -6.223248E+01 -1.024871E+01  1.931011E-01  4.277492E+00  2.165832E+00
        68   5  1.224889E+01 -9.802789E+00  1.924151E+00  2.365453E+01 -5.339401E+00  7.569223E-01
        68   6 -6.313181E+00 -6.437494E+01 -5.377282E+00  2.298160E+01 -6.143997E+00  4.259514E+00
        68   7  9.282254E+00 -1.118351E+01  2.883888E-01  2.437885E+00 -2.370705E+00  9.620455E-01
        68   8 -1.175157E+01 -6.822741E+01 -1.278047E+01  1.764957E+00 -3.107929E+00  5.201469E+00
        69   1  7.109618E-01  3.106948E+01  7.076625E-01  1.141572E+01  1.005739E+00 -2.170698E+00
        69   2 -8.235919E+00  5.643550E+00 -3.689350E+00  1.331641E+01  8.916312E-01 -9.186085E-01
        69   3  1.061816E+01  3.744626E+01  9.594016E+00  2.466283E+00 -1.685702E+00 -3.727034E+00
        69   4  1.395113E+00  1.329663E+01  3.000142E+00  4.187909E+00 -1.565001E+00 -1.224997E+00
        69   5  4.466647E+00  4.007616E+01  4.861757E+00  1.836960E+01 -4.348964E+00 -4.974150E+00
        69   6 -8.823843E+00  5.238662E+00 -4.602376E+00  1.991594E+01 -4.438498E+00 -1.709517E+00
        69   7  1.311989E+01  4.531081E+01  1.281586E+01  5.770390E+00 -4.509787E+00 -6.396434E+00
        69   8 -7.769476E-01  1.039748E+01  1.406397E+00  7.278661E+00 -4.388445E+00 -2.064366E+00
        70   1  6.309525E+00 -5.147271E+00  2.253258E+00  1.508190E+01  1.479862E+00  3.827459E-01
        70   2 -2.400428E+00 -3.092417E+01 -1.003018E+00  1.377968E+01  1.024016E+00  2.169776E+00
        70   3  2.819684E+00 -3.955489E+00  8.121426E-01  6.631440E+00 -1.403495E+00  7.344801E-01
        70   4 -9.056845E+00 -3.440309E+01 -8.328689E+00  5.214453E+00 -1.591636E+00  3.451649E+00
        70   5  7.928864E+00 -7.795587E+00  9.301606E-01  2.092701E+01 -4.361686E+00  1.116203E+00
        70   6 -2.595094E+00 -3.794841E+01 -3.996875E+00  1.921698E+01 -4.834595E+00  5.241404E+00
        70   7  1.608582E+00 -9.542906E+00 -1.384134E+00  9.721577E+00 -4.278675E+00  1.402174E+00
        70   8 -1.143717E+01 -4.269226E+01 -1.172061E+01  7.970194E+00 -4.465024E+00  6.387205E+00
        71   1 -1.695523E+01 -2.782606E+01 -7.871014E+00  8.186299E+00 -3.007760E+00  3.278497E+00
        71   2 -7.402989E+00 -5.042457E+00  1.186176E+00  1.076238E+01 -3.079421E+00  1.750666E-01
        71   3 -1.618708E+01 -2.687912E+01 -7.356488E+00  9.689263E+00 -2.569749E+00  4.789568E+00
        71   4 -6.608591E+00 -4.034256E+00  1.726956E+00  1.196224E+01 -2.641410E+00  2.520817E+00
        71   5 -4.503182E+00 -1.610610E+01 -2.615033E+00  1.679934E+01 -4.005050E+00  2.938827E+00
        71   6  1.526958E+00 -4.943247E-01  1.873660E+00  1.875409E+01 -3.923628E+00 -2.435253E-01
        71   7 -3.969760E+00 -1.380088E+01 -1.763442E+00  1.957966E+01 -2.499185E+00  4.343631E+00
        71   8  1.440844E+00  3.653098E-01  2.105716E+00  2.138573E+01 -2.417763E+00  1.447278E+00
        72   1 -2.906905E+01 -1.843527E+00 -4.819767E+00  1.324781E+01 -3.694145E+00 -1.612873E+00
        72   2 -2.122854E+01  1.693488E+01  2.536868E+00  2.050338E+01 -1.887935E+00 -3.394185E+00
        72   3 -3.894344E+01 -3.575655E+00 -8.301724E+00  1.459246E+01 -3.266018E+00  1.378699E+00
        72   4 -2.850148E+01  2.127280E+01  1.656360E+00  2.547563E+01 -1.459808E+00  5.271242E-01
        72   5 -6.291347E+00  4.632721E+00 -4.447059E-01  1.885998E+01 -4.292461E+00 -2.459935E+00
        72   6 -1.828743E+00  1.667947E+01  2.383886E+00  2.404015E+01 -4.101665E+00 -5.332927E+00
        72   7 -7.086058E+00  5.263616E+00 -4.938507E-01  2.260613E+01 -2.696169E+00 -5.444117E-01
        72   8 -1.896422E+00  1.900678E+01  3.061773E+00  2.982918E+01 -2.505373E+00 -3.089458E+00
        73   1  5.953545E+00  3.407794E+01  7.294746E+00 -4.055720E+00  1.584844E+00 -4.879179E+00
        73   2 -2.481523E+00  1.179870E+01  1.457091E+00 -4.921782E+00  1.346959E+00 -1.480331E+00
        73   3 -2.986887E-01  2.936050E+01  1.059984E-01 -1.232837E+01 -1.110112E+00 -2.557936E+00
        73   4 -8.427356E+00  5.947768E+00 -3.576831E+00 -1.328451E+01 -1.157464E+00 -1.024257E+00
        73   5  9.786551E+00  4.638474E+01  1.224522E+01 -5.570232E+00  4.378688E+00 -7.516180E+00
        73   6 -4.774204E+00  9.950682E+00  1.434269E-01 -6.211409E+00  4.142358E+00 -2.350000E+00
        73   7  4.818212E+00  4.275012E+01  5.973922E+00 -1.867451E+01  4.145679E+00 -5.409024E+00
        73   8 -9.194408E+00  6.312045E+00 -4.296735E+00 -1.933188E+01  4.086329E+00 -1.874367E+00
        74   1  4.760031E+00 -2.084440E+00  1.972254E+00 -6.170400E+00  1.289796E+00  1.088060E+00
        74   2 -7.229367E+00 -3.272463E+01 -7.352210E+00 -5.311541E+00  1.816465E+00  4.603631E+00
        74   3  6.420470E+00 -4.079730E+00  2.602635E+00 -1.471956E+01 -1.758527E+00  4.663828E-01
        74   4 -2.403955E+00 -3.004437E+01 -8.474723E-01 -1.393026E+01 -1.125038E+00  2.539429E+00
        74   5  5.204042E+00 -8.131213E+00  1.391388E-01 -7.781360E+00  4.086196E+00  1.712681E+00
        74   6 -9.345963E+00 -4.471798E+01 -1.177411E+01 -6.832831E+00  4.624147E+00  7.535994E+00
        74   7  8.324844E+00 -7.846718E+00  1.047064E+00 -2.009563E+01  3.995933E+00  1.174822E+00
        74   8 -3.679624E+00 -4.136756E+01 -5.446990E+00 -1.916950E+01  4.679947E+00  5.683516E+00
        75   1  1.161496E+01  6.657588E+01  1.173549E+01  1.634945E+00 -4.369077E+00 -2.348315E+00
        75   2 -4.375176E+00  2.331700E+01  1.693925E+00  5.405917E-01 -4.209854E+00 -1.288287E+00
        75   3  3.085318E+00  6.143782E+01  3.138246E+00 -1.949260E+01 -3.870260E+00 -1.249073E+00
        75   4 -1.124919E+01  1.983456E+01 -3.040190E+00 -2.058696E+01 -3.428787E+00 -8.345098E-01
        75   5  1.384408E+01  7.065863E+01  1.390304E+01 -7.826251E-01  2.026853E+00 -5.189131E+00
        75   6 -7.493618E+00  1.597728E+01 -2.541271E+00 -1.576788E+00  2.152424E+00 -1.887662E+00
        75   7  7.453152E+00  6.630454E+01  5.780313E+00 -2.216218E+01  4.732171E+00 -4.043650E+00
        75   8 -1.231496E+01  1.319277E+01 -7.001636E+00 -2.295634E+01  5.112439E+00 -1.490007E+00
        76   1  8.995467E+00 -2.486651E+00  4.453417E+00 -1.159879E+00 -5.141305E+00  2.528942E-02
        76   2 -1.327462E+01 -6.188597E+01 -1.038088E+01 -3.530459E-01 -4.445880E+00  2.118195E+00
        76   3  1.264857E+01 -6.526909E-01  6.913515E+00 -2.208844E+01 -4.640323E+00 -1.073595E-01
        76   4 -7.485377E+00 -5.791587E+01 -2.936463E+00 -2.128161E+01 -3.907559E+00  1.083227E+00
        76   5  8.837275E+00 -1.138750E+01  1.089747E-01 -2.106085E+00  2.040607E+00  9.327554E-01
        76   6 -1.234529E+01 -6.870273E+01 -1.318435E+01 -1.323965E+00  2.822879E+00  5.193409E+00
        76   7  1.225164E+01 -9.816398E+00  1.931632E+00 -2.339496E+01  5.200122E+00  7.167531E-01
        76   8 -6.433695E+00 -6.463439E+01 -5.534820E+00 -2.261284E+01  6.019477E+00  4.073464E+00
        77   1  1.521552E+01  1.002571E+02  1.532519E+01  7.491942E+00 -5.580045E+00 -1.128142E+00
        77   2 -8.508836E+00  3.519474E+01  1.306319E+00  6.435560E+00 -4.962339E+00 -7.412451E-01
        77   3  7.213690E+00  9.552913E+01  7.567233E+00 -2.453630E+01 -6.520777E+00 -1.111971E+00
        77   4 -1.499905E+01  3.197842E+01 -2.924514E+00 -2.559268E+01 -5.700387E+00 -6.443843E-01
        77   5  1.771627E+01  9.811117E+01  1.499545E+01  3.197580E+00  4.609599E+00 -3.517336E+00
        77   6 -1.125727E+01  2.204002E+01 -5.511875E+00  2.317354E+00  5.151891E+00 -1.277731E+00
        77   7  1.128715E+01  9.393962E+01  7.519385E+00 -2.700085E+01  5.598154E+00 -3.581242E+00
        77   8 -1.625333E+01  1.930153E+01 -9.644129E+00 -2.788107E+01  6.320572E+00 -1.477437E+00
        78   1  1.368575E+01 -3.279761E+00  7.080764E+00  4.967332E+00 -6.365539E+00 -4.339753E-02
        78   2 -1.993895E+01 -9.405736E+01 -1.422398E+01  5.815093E+00 -5.583632E+00  1.095996E+00
        78   3  1.758029E+01 -1.296646E+00  9.796610E+00 -2.724793E+01 -7.344505E+00  8.435253E-02
        78   4 -1.401383E+01 -9.004366E+01 -6.770117E+00 -2.640017E+01 -6.461946E+00  1.176352E+00
        78   5  1.173093E+01 -1.615676E+01  1.669017E-01  1.932599E+00  5.414198E+00  7.521181E-01
        78   6 -1.650182E+01 -9.563916E+01 -1.445985E+01  2.854411E+00  6.283113E+00  3.948889E+00
        78   7  1.582172E+01 -1.423844E+01  2.470491E+00 -2.826300E+01  6.862246E+00  5.693404E-01
        78   8 -1.003719E+01 -9.134701E+01 -6.617313E+00 -2.734119E+01  7.842200E+00  3.948931E+00
        79   1  1.824094E+01  1.304301E+02  1.871898E+01  1.328572E+01 -6.139001E+00 -5.577185E-01
        79   2 -1.276035E+01  4.489866E+01  9.127513E-01  1.245115E+01 -5.308129E+00 -1.818415E-01
        79   3  1.182771E+01  1.266033E+02  1.237629E+01 -2.896366E+01 -1.007553E+01 -4.345716E-01
        79   4 -1.766464E+01  4.258083E+01 -1.909075E+00 -2.979823E+01 -9.438901E+00  2.135744E-01
        79   5  2.214449E+01  1.281914E+02  1.821586E+01  7.637177E+00  7.166820E+00 -2.682689E+00
        79   6 -1.521564E+01  2.924354E+01 -7.370047E+00  6.364705E+00  7.871980E+00 -8.825690E-01
        79   7  1.436470E+01  1.236752E+02  1.094162E+01 -3.185214E+01  4.986610E+00 -2.666112E+00
        79   8 -2.156491E+01  2.615785E+01 -1.130641E+01 -3.312461E+01  5.500213E+00 -8.888992E-01
        80   1  1.910159E+01 -4.894913E+00  1.008748E+01  1.083242E+01 -7.247050E+00  4.107081E-01
        80   2 -2.520220E+01 -1.251862E+02 -1.730057E+01  1.232752E+01 -6.366570E+00  1.145410E+00
        80   3  2.587592E+01 -1.491533E+00  1.465776E+01 -3.199930E+01 -1.197129E+01  1.002655E+00
        80   4 -1.658032E+01 -1.199352E+02 -8.419320E+00 -3.050421E+01 -1.125609E+01  1.842919E+00
        80   5  1.589476E+01 -2.028264E+01  1.322090E+00  5.771424E+00  8.389417E+00  9.551486E-01
        80   6 -2.057264E+01 -1.243398E+02 -1.617870E+01  6.838897E+00  9.339309E+00  4.034179E+00
        80   7  2.095893E+01 -1.773423E+01  4.752604E+00 -3.405157E+01  5.680284E+00  1.135177E+00
        80   8 -1.334859E+01 -1.196316E+02 -7.708476E+00 -3.298410E+01  6.423746E+00  4.655093E+00
        81   1  2.262510E+01  1.543628E+02  2.168849E+01  1.203559E+01 -5.660997E+00  4.687081E-01
        81   2 -2.137057E+01  3.502909E+01 -5.630030E+00  1.280543E+01 -5.160077E+00  6.035755E-01
        81   3  2.596193E+01  1.586374E+02  2.134292E+01 -2.860589E+01 -9.737233E+00  7.542631E-01
        81   4 -1.097281E+01  5.346211E+01  3.402392E+00 -2.790857E+01 -9.807806E+00  1.490759E+00
        81   5  2.528491E+01  1.553688E+02  2.165525E+01  1.137479E+01  1.101716E+01 -1.511130E+00
        81   6 -1.981421E+01  3.477289E+01 -8.079298E+00  1.115831E+01  1.139882E+01 -3.593473E-02
        81   7  2.385861E+01  1.551286E+02  1.933267E+01 -3.271972E+01  9.279842E+00 -1.171490E+00
        81   8 -1.742421E+01  4.020789E+01 -3.356020E+00 -3.293087E+01  9.192170E+00  1.070903E+00
        82   1  1.814282E+01 -2.755627E+01  5.510065E+00  1.028130E+01 -7.420301E+00  8.967361E-01
        82   2 -3.232873E+01 -1.662623E+02 -2.402242E+01  1.171303E+01 -6.971386E+00  1.245302E+00
        82   3  3.228534E+01 -5.679530E+00  1.825947E+01 -3.438962E+01 -9.859403E+00  2.038083E+00
        82   4 -2.298459E+01 -1.569601E+02 -1.469305E+01 -3.283172E+01 -1.000951E+01  2.760838E+00
        82   5  1.955432E+01 -2.622025E+01  3.242932E+00  8.912970E+00  1.211062E+01  1.389754E+00
        82   6 -2.689691E+01 -1.576233E+02 -2.019151E+01  9.288541E+00  1.250585E+01  3.678137E+00
        82   7  2.554667E+01 -1.828318E+01  1.154533E+01 -3.983992E+01  1.207853E+01  2.767935E+00
        82   8 -2.251742E+01 -1.533536E+02 -1.359783E+01 -3.945527E+01  1.189921E+01  5.136479E+00
        83   1 -2.168994E+01 -3.633255E+01 -1.053108E+01 -1.834426E+01  2.255964E+00  4.222735E+00
        83   2 -8.249517E+00 -4.495614E+00  2.433391E+00 -2.037070E+01  2.618216E+00  2.073095E+00
        83   3 -1.889475E+01 -2.474127E+01 -6.370995E+00 -1.364954E+01  2.659288E+00  2.941596E+00
        83   4 -8.548035E+00 -1.194572E-02  3.388747E+00 -1.636877E+01  2.998806E+00 -5.203792E-01
        83   5 -1.142999E+01 -2.303756E+01 -5.112476E+00 -2.673282E+01  3.402815E+00  5.968211E+00
        83   6 -2.332733E+00 -1.607970E-01  2.334940E+00 -2.843267E+01  3.524697E+00  2.472986E+00
        83   7 -1.026704E+01 -1.613133E+01 -3.140318E+00 -1.939503E+01  4.727491E+00  4.949805E+00
        83   8 -3.026530E+00  2.732592E+00  2.130790E+00 -2.169690E+01  4.783938E+00  2.347357E-01
        84   1 -4.508989E+01 -2.552072E+00 -8.233148E+00 -2.557831E+01  3.596750E+00  1.118890E+00
        84   2 -3.331433E+01  2.486331E+01  3.603317E+00 -4.142234E+01  1.967564E+00  6.615929E-01
        84   3 -4.114169E+01 -3.314624E+00 -7.707144E+00 -2.259803E+01  3.613485E+00 -2.715428E+00
        84   4 -3.655061E+01  7.498107E+00 -3.216284E+00 -3.802350E+01  1.986983E+00 -5.250438E+00
        84   5 -4.549728E+00  1.122337E+01  3.518384E+00 -3.115759E+01  3.516416E+00  2.069522E-03
        84   6  2.315852E+00  2.888577E+01  8.741246E+00 -4.407076E+01  1.915613E+00 -3.253377E+00
        84   7 -6.896667E+00  8.860859E+00  8.687851E-01 -2.394158E+01  4.948098E+00 -3.416228E+00
        84   8 -5.108065E+00  1.514076E+01  5.508972E-01 -3.687431E+01  3.355021E+00 -8.675777E+00
        85   1 -9.558547E+00 -2.511477E+01 -5.511430E+00 -6.896566E+00  6.302415E+00  8.152874E+00
        85   2 -3.812734E+00 -9.434405E+00 -2.039088E+00 -1.140480E+01  5.829732E+00  2.703327E+00
        85   3 -1.432876E+01 -3.494668E+01 -1.062407E+01 -1.258777E+01  6.324464E+00  5.255200E+00
        85   4 -5.271869E+00 -1.176873E+01 -3.612390E+00 -1.722276E+01  5.839700E+00  1.174952E+00
        85   5 -4.803374E+00 -2.118468E+01 -4.413031E+00 -1.574399E+01  3.445215E+00  6.990394E+00
        85   6  4.754090E-01 -7.064035E+00 -9.377343E-01 -2.000553E+01  2.947658E+00  2.113732E+00
        85   7 -5.682107E+00 -2.818105E+01 -6.873077E+00 -1.761672E+01  4.901300E+00  4.963082E+00
        85   8  2.303326E+00 -7.775296E+00 -6.607225E-01 -2.176858E+01  4.402134E+00  1.083933E+00
        86   1  7.557738E-01  5.202262E+00  1.401534E+00 -8.503772E+00  6.282016E+00 -1.361019E+00
        86   2  1.063466E+01  3.085713E+01  8.676273E+00 -2.928036E+00  7.360121E+00 -7.015473E+00
        86   3 -4.504630E-01  7.199911E+00  1.449758E+00 -1.430357E+01  6.470687E+00 -1.789630E+00
        86   4  1.244684E+01  3.960891E+01  1.203178E+01 -1.154277E+01  7.232291E+00 -5.808774E+00
        86   5 -4.320608E+00  2.100195E+00 -1.441560E+00 -1.867002E+01  3.028065E+00 -1.546462E+00
        86   6  4.491516E+00  2.467120E+01  5.361181E+00 -1.447888E+01  3.454500E+00 -6.669635E+00
        86   7 -5.363414E+00  3.816274E+00 -1.264783E+00 -2.014285E+01  4.673053E+00 -1.772369E+00
        86   8  6.024494E+00  3.235896E+01  8.152224E+00 -1.777800E+01  5.057324E+00 -5.696784E+00
        87   1 -5.614606E+00  3.803660E+00 -1.623223E+00  2.038393E+01  3.814253E+00  1.632286E+00
        87   2 -1.662715E+00  3.297416E+00 -5.646537E-01  1.619995E+01  2.173520E+00  1.416995E+00
        87   3 -5.433558E-01  7.074718E+00  1.102083E+00  1.507900E+01  5.247048E+00  1.733676E+00
        87   4  8.656483E-01  4.631499E+00  9.785433E-01  7.066531E+00  5.339226E+00  1.333694E+00
        87   5  4.834855E+00  3.019167E+01  6.820305E+00  1.773756E+01  4.644600E+00  4.974924E+00
        87   6  6.111808E+00  2.346356E+01  5.184277E+00  1.304303E+01  3.008232E+00  5.598862E+00
        87   7  1.128007E+01  3.684457E+01  1.074364E+01  1.212933E+01  6.116456E+00  5.381677E+00
        87   8  8.918720E+00  2.575143E+01  6.702181E+00  3.648644E+00  6.241399E+00  6.088766E+00
        88   1 -5.033107E+00  7.997024E+00  9.213488E-01  2.469349E+01  3.692476E+00  3.135747E+00
        88   2 -2.946618E+00  9.858100E+00  3.229655E+00  2.896246E+01  2.751092E+00  3.859506E-02
        88   3 -3.046207E+01 -7.744072E-01 -4.476202E+00  2.369683E+01  2.538334E+00  2.666856E+00
        88   4 -3.251195E+01  1.526437E-01 -4.422529E+00  2.435454E+01  2.611456E+00 -8.115481E-01
        88   5 -4.095753E+00  1.208799E+01 -4.510586E-02  3.446253E+01  2.539123E+00  8.132504E+00
        88   6  2.307879E+00  2.361555E+01  6.987196E+00  3.850911E+01  1.618422E+00  3.283648E+00
        88   7 -2.722822E+01  6.914996E+00 -1.386129E+00  3.533642E+01  1.474456E+00  5.611716E+00
        88   8 -2.325596E+01  2.175237E+01  4.831045E+00  3.603754E+01  1.554763E+00  3.177999E-01
        89   1 -5.266455E+00 -2.701606E+01 -6.280198E+00  1.754991E+01  4.336761E+00 -4.617323E+00
        89   2 -4.850886E+00 -2.023899E+01 -4.052062E+00  1.428884E+01  2.700257E+00 -6.294906E+00
        89   3 -1.345725E+01 -3.345402E+01 -1.003930E+01  1.270353E+01  5.506971E+00 -5.053428E+00
        89   4 -8.243155E+00 -2.254652E+01 -4.674780E+00  5.969665E+00  5.489874E+00 -7.371120E+00
        89   5  2.510028E+00 -6.883132E+00 -4.915188E-01  2.145963E+01  3.777510E+00 -9.379492E-01
        89   6  2.472568E-01 -6.335185E+00 -9.620594E-01  1.785655E+01  2.154659E+00 -1.769930E+00
        89   7 -4.622190E+00 -1.066909E+01 -3.374041E+00  1.702953E+01  5.069906E+00 -1.062402E+00
        89   8 -3.003036E+00 -7.997118E+00 -1.757122E+00  9.406972E+00  5.155296E+00 -2.272871E+00
        90   1 -9.147439E+00 -1.424605E+01 -2.647620E+00  1.996620E+01  3.859344E+00 -5.225021E+00
        90   2 -9.625337E+00 -1.990557E+01 -4.243271E+00  2.526947E+01  2.845708E+00 -5.726445E+00
        90   3 -1.793150E+01 -2.257294E+01 -6.718553E+00  1.470384E+01  2.095601E+00 -3.688613E+00
        90   4 -1.961856E+01 -3.209796E+01 -9.996859E+00  1.766872E+01  2.056199E+00 -4.281621E+00
        90   5 -2.810217E+00  2.473619E+00  1.756786E+00  2.225707E+01  3.967196E+00 -4.433910E-01
        90   6 -1.717204E+00  9.389990E-02  2.117707E+00  2.693705E+01  3.019509E+00 -2.375652E+00
        90   7 -8.515381E+00 -3.375464E-01  2.433108E+00  1.741085E+01  2.488743E+00  1.748403E-01
        90   8 -7.649073E+00 -4.038692E+00  1.842164E+00  1.965897E+01  2.472254E+00 -2.043959E+00
        91   1 -1.693823E+00  1.135169E+00  4.100864E-01  2.446731E+00  1.049869E-01 -1.500946E+00
        91   2 -1.251473E+00  2.069368E+00  9.503877E-01  8.967579E-01  2.633402E-01 -1.212963E+00
        91   3 -8.166024E+00 -1.023137E+00  1.041896E+00  3.600755E+00  8.182815E-01 -1.570060E+00
        91   4 -7.306807E+00  6.523047E-01  2.230509E+00  1.562841E+00  1.195556E+00 -7.890807E-01
        91   5 -1.213207E+00  1.939671E-01  2.719107E-01  3.215295E+00  2.006770E-01 -3.050683E-02
        91   6  8.121561E-02  3.116336E+00  1.664285E+00  2.001960E+00  3.590303E-01  4.197534E-01
        91   7 -7.000092E+00 -2.753397E+00  8.725971E-01  5.263807E+00  1.109727E+00  5.538644E-01
        91   8 -4.676687E+00  2.338484E+00  3.525399E+00  3.771653E+00  1.487002E+00  1.609141E+00
        92   1 -3.203907E+00  1.799323E+00  3.845918E-01  3.883719E-01  4.017771E-01 -1.096762E+00
        92   2 -2.722028E+00  2.809510E+00  9.806694E-01 -5.540982E+00  3.283908E-01 -1.067278E+00
        92   3 -3.110563E+01 -8.620192E+00 -7.327867E+00  2.455254E-01  1.380922E+00 -4.595874E-01
        92   4 -3.023470E+01 -7.021542E+00 -6.023427E+00 -7.800377E+00  7.331010E-01 -3.403740E-01
        92   5 -3.228246E+00  2.698430E+00  6.470222E-01  6.047583E-01  5.133393E-01  6.755706E-01
        92   6 -2.976341E+00  3.172009E+00  1.013125E+00 -6.053536E+00  4.399529E-01  9.242159E-01
        92   7 -3.438520E+01 -8.630090E+00 -8.314709E+00  7.037759E-01  1.764489E+00  2.175985E+00
        92   8 -3.377843E+01 -7.647816E+00 -7.274429E+00 -8.634345E+00  1.116667E+00  2.669354E+00
        93   1  4.491516E+00  2.467120E+01  5.361180E+00 -1.447888E+01 -3.454499E+00  6.669634E+00
        93   2 -4.320608E+00  2.100199E+00 -1.441560E+00 -1.867002E+01 -3.028064E+00  1.546462E+00
        93   3  1.063465E+01  3.085713E+01  8.676266E+00 -2.928036E+00 -7.360120E+00  7.015474E+00
        93   4  7.557708E-01  5.202261E+00  1.401531E+00 -8.503772E+00 -6.282014E+00  1.361019E+00
        93   5  6.024495E+00  3.235897E+01  8.152225E+00 -1.777800E+01 -5.057323E+00  5.696781E+00
        93   6 -5.363414E+00  3.816283E+00 -1.264782E+00 -2.014285E+01 -4.673052E+00  1.772368E+00
        93   7  1.244684E+01  3.960892E+01  1.203178E+01 -1.154277E+01 -7.232291E+00  5.808772E+00
        93   8 -4.504645E-01  7.199919E+00  1.449758E+00 -1.430357E+01 -6.470687E+00  1.789630E+00
        94   1  4.754099E-01 -7.064031E+00 -9.377343E-01 -2.000553E+01 -2.947657E+00 -2.113731E+00
        94   2 -4.803374E+00 -2.118468E+01 -4.413031E+00 -1.574399E+01 -3.445213E+00 -6.990393E+00
        94   3 -3.812734E+00 -9.434403E+00 -2.039089E+00 -1.140480E+01 -5.829731E+00 -2.703327E+00
        94   4 -9.558546E+00 -2.511477E+01 -5.511431E+00 -6.896565E+00 -6.302414E+00 -8.152873E+00
        94   5  2.303327E+00 -7.775289E+00 -6.607212E-01 -2.176857E+01 -4.402134E+00 -1.083933E+00
        94   6 -5.682107E+00 -2.818105E+01 -6.873077E+00 -1.761671E+01 -4.901299E+00 -4.963081E+00
        94   7 -5.271866E+00 -1.176872E+01 -3.612388E+00 -1.722276E+01 -5.839699E+00 -1.174952E+00
        94   8 -1.432876E+01 -3.494668E+01 -1.062407E+01 -1.258777E+01 -6.324463E+00 -5.255198E+00
        95   1  2.315856E+00  2.888579E+01  8.741248E+00 -4.407076E+01 -1.915611E+00  3.253375E+00
        95   2 -4.549728E+00  1.122337E+01  3.518383E+00 -3.115759E+01 -3.516414E+00 -2.069448E-03
        95   3 -3.331433E+01  2.486333E+01  3.603322E+00 -4.142233E+01 -1.967562E+00 -6.615927E-01
        95   4 -4.508988E+01 -2.552066E+00 -8.233148E+00 -2.557831E+01 -3.596749E+00 -1.118890E+00
        95   5 -5.108058E+00  1.514078E+01  5.509034E-01 -3.687430E+01 -3.355022E+00  8.675775E+00
        95   6 -6.896668E+00  8.860866E+00  8.687852E-01 -2.394158E+01 -4.948097E+00  3.416227E+00
        95   7 -3.655060E+01  7.498141E+00 -3.216273E+00 -3.802349E+01 -1.986982E+00  5.250437E+00
        95   8 -4.114168E+01 -3.314612E+00 -7.707140E+00 -2.259803E+01 -3.613485E+00  2.715428E+00
        96   1 -2.332732E+00 -1.607957E-01  2.334939E+00 -2.843267E+01 -3.524696E+00 -2.472986E+00
        96   2 -1.142999E+01 -2.303756E+01 -5.112476E+00 -2.673282E+01 -3.402814E+00 -5.968210E+00
        96   3 -8.249515E+00 -4.495613E+00  2.433390E+00 -2.037070E+01 -2.618215E+00 -2.073095E+00
        96   4 -2.168994E+01 -3.633255E+01 -1.053108E+01 -1.834426E+01 -2.255963E+00 -4.222733E+00
        96   5 -3.026528E+00  2.732595E+00  2.130790E+00 -2.169690E+01 -4.783937E+00 -2.347354E-01
        96   6 -1.026704E+01 -1.613133E+01 -3.140317E+00 -1.939502E+01 -4.727490E+00 -4.949804E+00
        96   7 -8.548033E+00 -1.194314E-02  3.388746E+00 -1.636876E+01 -2.998806E+00  5.203797E-01
        96   8 -1.889475E+01 -2.474126E+01 -6.370994E+00 -1.364953E+01 -2.659288E+00 -2.941595E+00
        97   1 -1.600748E+00 -2.046336E+00 -9.274359E-01  1.129991E+00 -1.264407E-01  2.803788E-01
        97   2 -1.675774E+00 -2.756836E+00 -1.123867E+00  1.473462E+00 -3.619321E-02 -3.075211E-01
        97   3 -4.664773E+00 -3.115990E+00 -1.816487E+00  1.810512E+00 -3.264762E-01  2.804183E-01
        97   4 -3.956743E+00 -3.784917E+00 -1.510299E+00  2.452133E+00 -3.044389E-01 -6.162826E-01
        97   5  2.971027E-01  2.487659E+00  8.647373E-01 -6.711677E-01 -1.210883E-01  2.895688E-01
        97   6  6.284017E-01  2.729413E+00  1.070470E+00 -5.038024E-01 -2.599105E-02 -1.993052E-01
        97   7 -2.510003E+00  2.054729E+00  1.953609E-01 -2.246498E-01 -2.777221E-01  2.056948E-01
        97   8 -1.150979E+00  2.936029E+00  1.121303E+00  1.843400E-01 -2.192800E-01 -5.916594E-01
        98   1 -3.206354E+00  5.684791E+00  2.008661E+00 -2.824300E+00  6.382484E-01  1.628993E+00
        98   2 -1.815272E+00  4.753994E+00  3.163175E+00 -5.334540E+00  1.051590E+00 -1.075639E+00
        98   3 -6.814762E+00  5.103846E+00  5.148913E+00 -4.602707E+00  1.699008E+00  1.781957E+00
        98   4 -5.266238E+00  3.675443E+00  5.538087E+00 -7.951074E+00  1.859978E+00 -1.298032E+00
        98   5 -6.060336E+00 -8.464998E-01 -9.733220E-01 -4.808097E+00  5.818599E-01  2.077285E+00
        98   6 -5.365227E+00 -3.416787E+00 -4.992267E-01 -6.731934E+00  9.297575E-01 -6.040573E-01
        98   7 -1.017243E+01 -2.669988E+00  1.730535E+00 -6.941741E+00  1.359508E+00  2.400046E+00
        98   8 -9.604015E+00 -6.390724E+00  1.145000E+00 -9.603449E+00  1.497741E+00 -7.104492E-01
        99   1  1.301962E+00  2.980099E+00  1.387399E+00  7.517597E-02  2.801060E-01  4.965202E-01
        99   2  1.288003E+00  1.169434E+00  8.621674E-01 -1.248287E+00  2.591507E-01  1.886326E-01
        99   3  1.293056E+00  3.623673E+00  1.776076E+00 -7.676106E-01  7.528860E-01  5.525749E-01
        99   4  3.109093E+00  1.743710E+00  1.923209E+00 -3.164688E+00  9.442802E-01  1.487727E-01
        99   5 -6.413554E-01 -1.618612E+00 -4.916145E-01 -1.130038E-01  1.462209E-01  3.358313E-01
        99   6 -3.262605E-01 -2.672213E+00 -6.770641E-01  4.577461E-01  7.934505E-02 -2.035734E-01
        99   7 -8.291627E-01 -1.488485E+00 -1.858287E-01 -8.511501E-01  2.080446E-01  3.733646E-01
        99   8  1.498260E+00 -2.255746E+00  5.532226E-01 -1.510454E-01  5.473545E-02 -4.178844E-01
       100   1 -7.289292E+00  4.403799E+00  5.189112E-01  1.241950E+01 -6.830115E-01  1.650626E+00
       100   2 -4.095688E+00  6.181038E+00  3.235733E+00  1.115529E+01 -4.950126E-01 -1.739727E+00
       100   3 -4.301268E+01 -9.354878E+00 -9.023911E+00  1.604989E+01  7.183676E-01  1.164690E+00
       100   4 -4.748070E+01 -1.068353E+01 -1.033711E+01  1.484974E+01  1.222806E+00 -2.734231E+00
       100   5 -6.740064E+00  5.718285E+00  1.035184E+00 -8.128033E-01  6.995990E-01  1.514669E+00
       100   6 -4.165679E+00  6.172619E+00  3.010849E+00 -2.209332E+00  9.289523E-01 -1.379941E+00
       100   7 -4.282112E+01 -8.347438E+00 -9.392804E+00  2.442903E-01  2.279876E+00  1.450944E+00
       100   8 -4.807733E+01 -1.147284E+01 -1.153656E+01 -1.611819E+00  2.798683E+00 -1.840303E+00
       101   1  1.506436E-01  2.168383E-01  8.389812E-02  3.204421E-03  1.188728E-03 -1.960499E-03
       101   2 -5.161718E-02 -2.925526E-01 -8.091368E-02 -2.079558E-03 -1.447337E-02  1.653029E-02
       101   3  3.461299E-01  4.641449E-01  2.167360E-01  1.054524E-02 -3.626027E-02 -8.065758E-03
       101   4 -1.085023E-02 -4.062577E-01 -1.027951E-01  2.092803E-02 -5.192237E-02  3.191435E-02
       101   5  1.784736E-01  2.235324E-01  7.838166E-02  3.103345E-01  1.404854E-02  5.527388E-02
       101   6  8.446767E-03 -2.536246E-01 -1.121754E-02  3.050505E-01  1.405321E-02 -2.938155E-02
       101   7  2.642925E-01  4.238387E-01  1.642192E-01  5.239677E-01 -6.637909E-02  4.916862E-02
       101   8 -6.045367E-02 -4.143300E-01 -8.009930E-02  5.343505E-01 -6.637442E-02 -1.399749E-02
       102   1 -6.211615E-02 -3.386508E-01 -8.261422E-02 -1.194915E-02 -6.341771E-03  3.183901E-02
       102   2  9.733595E-02  3.874392E-02  7.149809E-02 -3.693227E-02 -1.125250E-02  5.517242E-02
       102   3 -5.701329E-02 -3.922205E-01 -9.715428E-02 -8.798843E-03 -1.001974E-03  5.047617E-02
       102   4  3.653350E-01  5.985987E-01  3.198542E-01 -9.057403E-03 -5.912705E-03  6.120790E-02
       102   5  1.407215E-01 -2.357457E-01  5.756522E-02 -2.298917E-01  6.192536E-02  1.232417E-02
       102   6  2.812710E-01  1.227465E-01  1.675717E-01 -2.548749E-01  8.173920E-02  2.109217E-01
       102   7 -2.724764E-02 -3.634891E-01 -3.114854E-02 -5.772697E-01  9.246852E-02  3.096133E-02
       102   8  3.761982E-01  6.084276E-01  3.417541E-01 -5.775283E-01  1.122823E-01  2.169572E-01
       103   1 -6.492340E-03 -3.484527E-02  7.411760E-02  1.751761E-01 -8.878978E-03  1.030181E-01
       103   2 -3.387766E-01 -7.930957E-01 -2.752463E-01 -3.921650E-02 -2.668284E-02  1.789488E-02
       103   3  3.779069E-01  6.247016E-01  3.873014E-01 -2.511955E-02  8.200616E-03  9.875208E-02
       103   4  3.785175E-02 -1.516809E-01  3.016666E-02  2.259212E-02 -9.603242E-03 -3.242585E-03
       103   5  1.487857E+00  6.019335E-01  7.023644E-01  6.011422E-01 -2.365418E-01  2.761996E-01
       103   6  1.130265E+00 -1.816241E-01  2.939503E-01  3.867496E-01  7.758612E-03  1.858958E-01
       103   7  3.752632E-02  4.751676E-01  2.292355E-01  4.112078E-01 -1.857192E-01  2.719336E-01
       103   8 -3.278361E-01 -3.265221E-01 -1.869494E-01  4.589194E-01  5.858115E-02  1.647583E-01
       104   1 -9.355317E-02 -5.830202E-01 -1.597967E-01  7.141184E-03  2.658160E-02  1.186889E-03
       104   2  3.659818E-01  5.165763E-01  2.723902E-01  7.657317E-03  3.061581E-02  4.066301E-02
       104   3  3.807122E-02 -2.221072E-01 -1.203552E-02 -8.812674E-03  5.392967E-02 -3.569014E-02
       104   4  2.536527E-01  3.082644E-01  1.761979E-01 -9.721839E-03  5.796388E-02 -2.234383E-02
       104   5 -1.524816E-01 -6.398841E-01 -2.904147E-01 -6.329202E-01  8.041714E-02  1.077628E-01
       104   6  2.678586E-01  4.205176E-01  5.031786E-02 -6.324041E-01  8.302605E-02 -1.539677E-02
       104   7 -1.088016E-02 -2.746952E-01 -1.383776E-01 -3.236027E-01  1.600248E-01  7.088576E-02
       104   8  1.655066E-01  2.164817E-01 -4.159853E-02 -3.245119E-01  1.626337E-01 -7.840360E-02
       105   1 -5.514092E+00  4.940229E+00  5.084580E+00  3.060945E+00 -2.011028E+00  1.568324E+00
       105   2 -5.407163E+00  2.401951E+00  4.689567E+00  9.331339E+00 -2.404099E+00 -1.329953E+00
       105   3 -2.415722E+00  5.389337E+00  1.985179E+00  1.201046E+00 -4.375358E-01  1.401880E+00
       105   4 -1.257601E+00  4.059898E+00  2.896256E+00  5.669028E+00 -1.222605E+00 -1.132028E+00
       105   5 -8.776008E+00 -2.576606E+00  1.728364E+00  5.160803E+00 -1.868374E+00  1.069188E+00
       105   6 -1.098498E+01 -1.050144E+01 -9.997580E-01  1.122304E+01 -2.256190E+00 -1.537518E+00
       105   7 -4.908811E+00 -5.478375E-01 -3.879424E-01  2.962810E+00 -3.603072E-01  4.833484E-01
       105   8 -5.457715E+00 -5.810805E+00 -1.233421E+00  7.208438E+00 -1.130252E+00 -1.681832E+00
       106   1 -3.734692E+00 -2.247147E+00 -1.498917E+00 -1.298649E+00  3.638875E-01  2.914335E-01
       106   2 -3.320163E+00 -3.963956E+00 -1.633444E+00 -1.107893E+00  1.648246E-01 -4.372836E-01
       106   3 -1.125680E+00 -1.244696E+00 -7.208686E-01 -9.372012E-01  2.411802E-01  2.439737E-01
       106   4 -1.438101E+00 -2.576900E+00 -1.180132E+00 -9.933399E-01  1.260363E-01 -2.595454E-01
       106   5 -2.233913E+00  1.339991E+00 -8.345834E-02  3.836921E-01  3.935787E-01 -3.686372E-01
       106   6 -9.829715E-01  1.565848E+00  6.273896E-01  3.337017E-01  2.129569E-01 -1.161055E+00
       106   7  1.767969E-01  1.890422E+00  4.856026E-01  5.679563E-01  2.488859E-01 -3.000676E-01
       106   8  4.573842E-01  1.940711E+00  6.205426E-01  3.937573E-01  1.361987E-01 -8.104339E-01
       107   1 -3.157128E+01 -6.018236E+00 -5.623467E+00 -1.316123E+01 -1.385200E-01  2.052713E+00
       107   2 -4.120911E+01 -9.037096E+00 -9.055220E+00 -1.210771E+01 -3.996428E-01 -1.239040E+00
       107   3 -5.775288E+00  3.829310E+00  5.216817E-01 -1.034712E+01  7.357972E-01  2.383158E+00
       107   4 -3.846135E+00  5.569691E+00  2.673842E+00 -8.826905E+00  4.205711E-01 -5.776087E-01
       107   5 -3.089480E+01 -4.241697E+00 -5.145081E+00 -1.468936E+00 -2.476420E+00  1.831859E+00
       107   6 -4.134158E+01 -9.135345E+00 -9.398555E+00  2.436806E+00 -2.832083E+00 -1.249976E+00
       107   7 -5.064726E+00  5.526405E+00  1.193127E+00 -6.591163E-01 -4.249432E-01  1.910932E+00
       107   8 -3.757253E+00  5.852946E+00  2.686858E+00  2.742732E+00 -1.012283E+00 -8.361526E-01
       108   1  5.523165E-01  3.154394E+00  1.448777E+00  2.854462E-01 -5.531786E-01  9.353862E-01
       108   2  2.560255E+00  1.082852E+00  1.606996E+00  2.732838E+00 -8.922908E-01  4.619050E-01
       108   3  8.034124E-01  2.801960E+00  1.206998E+00 -3.463592E-01 -3.119817E-01  7.931762E-01
       108   4  2.490120E+00  1.680049E+00  1.400056E+00  1.295463E+00 -4.086424E-01  4.273524E-01
       108   5 -1.231812E+00 -1.008274E+00 -3.356511E-01  4.432827E-01  4.124062E-02  6.408456E-01
       108   6  9.741098E-01 -2.659859E+00  6.255512E-02  1.237808E+00 -1.280630E-01 -2.412728E-03
       108   7 -8.230321E-01 -9.427013E-01 -4.698229E-01 -1.611717E-01  7.999134E-02  5.369075E-01
       108   8  9.563435E-01 -1.853983E+00 -1.785009E-01  4.030016E-01  5.952181E-03  7.211847E-02
       109   1  1.659249E-01  4.991615E-01  7.787226E-02 -7.563356E-01 -3.819426E-03 -6.661336E-02
       109   2 -3.774423E-01 -8.333230E-01 -4.008670E-01 -7.942913E-01  6.908372E-02 -4.496986E-02
       109   3  4.548030E-01  6.362167E-01  2.458447E-01  3.278180E-02  2.022137E-02 -1.658787E-02
       109   4 -5.171132E-02 -6.594150E-01 -1.469047E-01 -5.173942E-03 -7.737101E-03 -3.592294E-02
       109   5 -2.693589E-01  4.555413E-01 -6.579893E-02 -7.870305E-01 -6.844729E-02 -5.115473E-02
       109   6 -8.741939E-01 -1.020368E+00 -6.060061E-01 -9.258479E-01  4.455855E-03 -4.942696E-03
       109   7  7.255506E-01  8.951813E-01  4.047584E-01  8.404401E-02 -9.354355E-02 -1.129237E-03
       109   8  1.575684E-01 -5.438754E-01 -4.945891E-02 -5.477335E-02 -1.215020E-01  4.104230E-03
       110   1  1.583092E+00 -1.207221E-01  4.428443E-01  4.526758E-01  1.536420E-01 -1.006291E-01
       110   2  1.989486E+00  8.043729E-01  8.723945E-01  7.485016E-01  1.930973E-01 -2.743364E-01
       110   3 -4.293492E-01 -9.498600E-01 -3.085073E-01 -6.602572E-02 -1.916002E-02 -5.831744E-02
       110   4 -6.445574E-02 -6.626506E-02  2.420923E-02  2.298001E-01 -1.932904E-02 -1.001653E-01
       110   5  1.370372E+00 -9.099740E-02  3.879457E-01  7.049591E-01  1.304854E-01 -6.173594E-02
       110   6  1.974555E+00  1.295606E+00  1.015285E+00  9.611606E-01  1.699407E-01 -2.631100E-01
       110   7 -3.646986E-01 -8.012622E-01 -2.445328E-01 -7.746124E-02  1.301690E-02 -1.942430E-02
       110   8  1.979840E-01  5.438408E-01  2.859729E-01  1.787402E-01  1.284788E-02 -8.893891E-02
       111   1  3.653349E-01  5.985980E-01  3.198541E-01 -9.057376E-03  5.912536E-03 -6.120764E-02
       111   2 -5.701318E-02 -3.922205E-01 -9.715423E-02 -8.798825E-03  1.001792E-03 -5.047609E-02
       111   3  3.761980E-01  6.084269E-01  3.417540E-01 -5.775278E-01 -1.122822E-01 -2.169568E-01
       111   4 -2.724758E-02 -3.634891E-01 -3.114851E-02 -5.772693E-01 -9.246842E-02 -3.096124E-02
       111   5  9.733594E-02  3.874376E-02  7.149812E-02 -3.693227E-02  1.125228E-02 -5.517212E-02
       111   6 -6.211612E-02 -3.386508E-01 -8.261419E-02 -1.194914E-02  6.341535E-03 -3.183893E-02
       111   7  2.812711E-01  1.227464E-01  1.675718E-01 -2.548747E-01 -8.173922E-02 -2.109213E-01
       111   8  1.407215E-01 -2.357457E-01  5.756525E-02 -2.298916E-01 -6.192539E-02 -1.232408E-02
       112   1 -1.085026E-02 -4.062575E-01 -1.027951E-01  2.092807E-02  5.192218E-02 -3.191441E-02
       112   2  3.461300E-01  4.641455E-01  2.167361E-01  1.054525E-02  3.626009E-02  8.065484E-03
       112   3 -6.045394E-02 -4.143298E-01 -8.009938E-02  5.343507E-01  6.637449E-02  1.399735E-02
       112   4  2.642923E-01  4.238391E-01  1.642192E-01  5.239679E-01  6.637920E-02 -4.916903E-02
       112   5 -5.161720E-02 -2.925525E-01 -8.091370E-02 -2.079548E-03  1.447314E-02 -1.653036E-02
       112   6  1.506436E-01  2.168384E-01  8.389808E-02  3.204423E-03 -1.188942E-03  1.960228E-03
       112   7  8.446678E-03 -2.536245E-01 -1.121760E-02  3.050506E-01 -1.405316E-02  2.938140E-02
       112   8  1.784735E-01  2.235324E-01  7.838160E-02  3.103345E-01 -1.404845E-02 -5.527428E-02
       113   1 -4.748070E+01 -1.068354E+01 -1.033712E+01  1.484974E+01 -1.222805E+00  2.734231E+00
       113   2 -4.807732E+01 -1.147284E+01 -1.153656E+01 -1.611817E+00 -2.798682E+00  1.840302E+00
       113   3 -4.095689E+00  6.181034E+00  3.235732E+00  1.115529E+01  4.950127E-01  1.739727E+00
       113   4 -4.165678E+00  6.172620E+00  3.010849E+00 -2.209332E+00 -9.289522E-01  1.379941E+00
       113   5 -4.301268E+01 -9.354887E+00 -9.023915E+00  1.604989E+01 -7.183666E-01 -1.164689E+00
       113   6 -4.282111E+01 -8.347435E+00 -9.392803E+00  2.442932E-01 -2.279876E+00 -1.450944E+00
       113   7 -7.289293E+00  4.403792E+00  5.189092E-01  1.241950E+01  6.830118E-01 -1.650625E+00
       113   8 -6.740061E+00  5.718287E+00  1.035185E+00 -8.128026E-01 -6.995986E-01 -1.514669E+00
       114   1 -5.266237E+00  3.675445E+00  5.538087E+00 -7.951075E+00 -1.859977E+00  1.298031E+00
       114   2 -9.604014E+00 -6.390724E+00  1.145000E+00 -9.603450E+00 -1.497740E+00  7.104489E-01
       114   3 -1.815272E+00  4.753997E+00  3.163175E+00 -5.334541E+00 -1.051590E+00  1.075639E+00
       114   4 -5.365227E+00 -3.416786E+00 -4.992268E-01 -6.731934E+00 -9.297571E-01  6.040571E-01
       114   5 -6.814759E+00  5.103850E+00  5.148914E+00 -4.602708E+00 -1.699008E+00 -1.781957E+00
       114   6 -1.017242E+01 -2.669986E+00  1.730535E+00 -6.941741E+00 -1.359508E+00 -2.400046E+00
       114   7 -3.206353E+00  5.684795E+00  2.008662E+00 -2.824301E+00 -6.382482E-01 -1.628992E+00
       114   8 -6.060336E+00 -8.464980E-01 -9.733216E-01 -4.808097E+00 -5.818596E-01 -2.077285E+00
       115   1  3.109093E+00  1.743709E+00  1.923210E+00 -3.164688E+00 -9.442802E-01 -1.487716E-01
       115   2  1.498260E+00 -2.255747E+00  5.532223E-01 -1.510453E-01 -5.473543E-02  4.178842E-01
       115   3  1.288003E+00  1.169433E+00  8.621671E-01 -1.248287E+00 -2.591507E-01 -1.886320E-01
       115   4 -3.262604E-01 -2.672213E+00 -6.770640E-01  4.577458E-01 -7.934501E-02  2.035734E-01
       115   5  1.293055E+00  3.623669E+00  1.776075E+00 -7.676096E-01 -7.528854E-01 -5.525748E-01
       115   6 -8.291623E-01 -1.488485E+00 -1.858285E-01 -8.511490E-01 -2.080441E-01 -3.733645E-01
       115   7  1.301961E+00  2.980096E+00  1.387398E+00  7.517642E-02 -2.801057E-01 -4.965201E-01
       115   8 -6.413550E-01 -1.618611E+00 -4.916142E-01 -1.130033E-01 -1.462207E-01 -3.358312E-01
       116   1 -3.956744E+00 -3.784917E+00 -1.510300E+00  2.452132E+00  3.044391E-01  6.162820E-01
       116   2 -1.150979E+00  2.936030E+00  1.121303E+00  1.843396E-01  2.192803E-01  5.916590E-01
       116   3 -1.675774E+00 -2.756835E+00 -1.123867E+00  1.473462E+00  3.619338E-02  3.075208E-01
       116   4  6.284018E-01  2.729413E+00  1.070470E+00 -5.038030E-01  2.599128E-02  1.993049E-01
       116   5 -4.664773E+00 -3.115989E+00 -1.816487E+00  1.810512E+00  3.264764E-01 -2.804183E-01
       116   6 -2.510003E+00  2.054730E+00  1.953610E-01 -2.246500E-01  2.777223E-01 -2.056951E-01
       116   7 -1.600747E+00 -2.046334E+00 -9.274355E-01  1.129991E+00  1.264409E-01 -2.803788E-01
       116   8  2.971027E-01  2.487660E+00  8.647377E-01 -6.711679E-01  1.210885E-01 -2.895690E-01
