    1C
    1UUSER                                                              
    1UDATE              13.april.2021                                   
    1UTIME              19:26:34                                        
    1UHOST                                                              
    1UPGM               CalculiX                                        
    1UVERSION           Version 2.13                             
    1UCOMPILETIME       Tue, Oct 10, 2017  8:02:00 PM                    
    1UDIR                                                               
    1UDBN                                                               
    1UMAT    1S355                                                      
    2C                          5898                                     1
 -1         1 2.00000E+01 2.00000E+01 0.00000E+00
 -1         2 3.00000E+01 2.00000E+01 0.00000E+00
 -1         3 2.60000E+01 2.50000E+01 0.00000E+00
 -1         4 3.00000E+01 2.50000E+01 0.00000E+00
 -1         5 2.00000E+01 2.50000E+01 0.00000E+00
 -1         6 2.60000E+01 4.50000E+01 0.00000E+00
 -1         7 2.00000E+01 4.50000E+01 0.00000E+00
 -1         8 3.00000E+01 4.50000E+01 0.00000E+00
 -1         9 3.00000E+01 5.00000E+01 0.00000E+00
 -1        10 2.00000E+01 5.00000E+01 0.00000E+00
 -1        11 3.00000E+01 2.00000E+01-1.00000E+01
 -1        12 3.00000E+01 5.00000E+01-1.00000E+01
 -1        13 2.00000E+01 5.00000E+01-1.00000E+01
 -1        14 2.00000E+01 2.00000E+01-1.00000E+01
 -1        15-2.00000E+01 2.00000E+01-1.00000E+01
 -1        16-3.00000E+01 2.00000E+01-1.00000E+01
 -1        17-3.00000E+01 2.00000E+01 0.00000E+00
 -1        18-2.00000E+01 2.00000E+01 0.00000E+00
 -1        19-2.00000E+01 5.00000E+01-1.00000E+01
 -1        20-3.00000E+01 5.00000E+01-1.00000E+01
 -1        21-3.00000E+01 5.00000E+01 0.00000E+00
 -1        22-2.00000E+01 5.00000E+01 0.00000E+00
 -1        23-2.00000E+01 2.50000E+01 0.00000E+00
 -1        24-2.00000E+01 4.50000E+01 0.00000E+00
 -1        25-3.00000E+01 2.50000E+01 0.00000E+00
 -1        26-3.00000E+01 4.50000E+01 0.00000E+00
 -1        27-2.60000E+01 2.50000E+01 0.00000E+00
 -1        28-2.60000E+01 4.50000E+01 0.00000E+00
 -1        29 0.00000E+00 7.00000E+01 0.00000E+00
 -1        30 0.00000E+00 8.00000E+01 0.00000E+00
 -1        31-3.00000E+01 5.00000E+01 1.00000E+01
 -1        32 3.00000E+01 5.00000E+01 1.00000E+01
 -1        33-2.00000E+01 5.00000E+01 1.00000E+01
 -1        34 2.00000E+01 5.00000E+01 1.00000E+01
 -1        35 2.00000E+01 2.00000E+01 1.00000E+01
 -1        36 3.00000E+01 2.00000E+01 1.00000E+01
 -1        37 2.20000E+01 1.50000E+01 1.00000E+01
 -1        38 2.80000E+01 1.50000E+01 1.00000E+01
 -1        39 2.80000E+01 1.50000E+01 5.00000E+00
 -1        40 2.20000E+01 1.50000E+01 5.00000E+00
 -1        41-3.00000E+01 2.00000E+01 1.00000E+01
 -1        42-2.00000E+01 2.00000E+01 1.00000E+01
 -1        43-2.20000E+01 1.50000E+01 5.00000E+00
 -1        44-2.80000E+01 1.50000E+01 5.00000E+00
 -1        45-2.80000E+01 1.50000E+01 1.00000E+01
 -1        46-2.20000E+01 1.50000E+01 1.00000E+01
 -1        47 2.80000E+01 1.50000E+01-5.00000E+00
 -1        48 2.80000E+01 1.50000E+01-1.00000E+01
 -1        49 2.20000E+01 1.50000E+01-5.00000E+00
 -1        50 2.20000E+01 1.50000E+01-1.00000E+01
 -1        51 2.00000E+01 1.00000E+01 0.00000E+00
 -1        52 3.00000E+01 1.00000E+01 0.00000E+00
 -1        53 3.00000E+01 1.00000E+01-1.00000E+01
 -1        54 2.00000E+01 1.00000E+01-1.00000E+01
 -1        55-2.20000E+01 1.50000E+01-1.00000E+01
 -1        56-2.80000E+01 1.50000E+01-1.00000E+01
 -1        57-2.20000E+01 1.50000E+01-5.00000E+00
 -1        58-2.80000E+01 1.50000E+01-5.00000E+00
 -1        59-2.00000E+01 1.00000E+01 1.00000E+01
 -1        60-2.00000E+01 1.00000E+01 0.00000E+00
 -1        61-3.00000E+01 1.00000E+01 0.00000E+00
 -1        62-3.00000E+01 1.00000E+01 1.00000E+01
 -1        63-3.00000E+01 0.00000E+00 0.00000E+00
 -1        64-3.00000E+01 0.00000E+00 1.00000E+01
 -1        65-2.00000E+01 0.00000E+00 1.00000E+01
 -1        66-2.00000E+01 0.00000E+00 0.00000E+00
 -1        67 2.00000E+01 1.00000E+01 1.00000E+01
 -1        68 3.00000E+01 1.00000E+01 1.00000E+01
 -1        69 2.00000E+01 0.00000E+00 0.00000E+00
 -1        70 2.00000E+01 0.00000E+00 1.00000E+01
 -1        71 3.00000E+01 0.00000E+00 1.00000E+01
 -1        72 3.00000E+01 0.00000E+00 0.00000E+00
 -1        73 3.00000E+01 0.00000E+00-1.00000E+01
 -1        74 2.00000E+01 0.00000E+00-1.00000E+01
 -1        75-2.00000E+01 0.00000E+00-1.00000E+01
 -1        76-2.00000E+01 1.00000E+01-1.00000E+01
 -1        77-3.00000E+01 1.00000E+01-1.00000E+01
 -1        78-3.00000E+01 0.00000E+00-1.00000E+01
 -1        79 2.20000E+01 2.00000E+01 0.00000E+00
 -1        80 2.40000E+01 2.00000E+01 0.00000E+00
 -1        81 2.60000E+01 2.00000E+01 0.00000E+00
 -1        82 2.80000E+01 2.00000E+01 0.00000E+00
 -1        83 3.00000E+01 2.16667E+01 0.00000E+00
 -1        84 3.00000E+01 2.33333E+01 0.00000E+00
 -1        85 2.40000E+01 2.50000E+01 0.00000E+00
 -1        86 2.20000E+01 2.50000E+01 0.00000E+00
 -1        87 2.80000E+01 2.50000E+01 0.00000E+00
 -1        88 2.00000E+01 2.33333E+01 0.00000E+00
 -1        89 2.00000E+01 2.16667E+01 0.00000E+00
 -1        90 2.60000E+01 2.70000E+01 0.00000E+00
 -1        91 2.60000E+01 2.90000E+01 0.00000E+00
 -1        92 2.60000E+01 3.10000E+01 0.00000E+00
 -1        93 2.60000E+01 3.30000E+01 0.00000E+00
 -1        94 2.60000E+01 3.50000E+01 0.00000E+00
 -1        95 2.60000E+01 3.70000E+01 0.00000E+00
 -1        96 2.60000E+01 3.90000E+01 0.00000E+00
 -1        97 2.60000E+01 4.10000E+01 0.00000E+00
 -1        98 2.60000E+01 4.30000E+01 0.00000E+00
 -1        99 2.40000E+01 4.50000E+01 0.00000E+00
 -1       100 2.20000E+01 4.50000E+01 0.00000E+00
 -1       101 2.00000E+01 4.30000E+01 0.00000E+00
 -1       102 2.00000E+01 4.10000E+01 0.00000E+00
 -1       103 2.00000E+01 3.90000E+01 0.00000E+00
 -1       104 2.00000E+01 3.70000E+01 0.00000E+00
 -1       105 2.00000E+01 3.50000E+01 0.00000E+00
 -1       106 2.00000E+01 3.30000E+01 0.00000E+00
 -1       107 2.00000E+01 3.10000E+01 0.00000E+00
 -1       108 2.00000E+01 2.90000E+01 0.00000E+00
 -1       109 2.00000E+01 2.70000E+01 0.00000E+00
 -1       110 3.00000E+01 2.70000E+01 0.00000E+00
 -1       111 3.00000E+01 2.90000E+01 0.00000E+00
 -1       112 3.00000E+01 3.10000E+01 0.00000E+00
 -1       113 3.00000E+01 3.30000E+01 0.00000E+00
 -1       114 3.00000E+01 3.50000E+01 0.00000E+00
 -1       115 3.00000E+01 3.70000E+01 0.00000E+00
 -1       116 3.00000E+01 3.90000E+01 0.00000E+00
 -1       117 3.00000E+01 4.10000E+01 0.00000E+00
 -1       118 3.00000E+01 4.30000E+01 0.00000E+00
 -1       119 2.80000E+01 4.50000E+01 0.00000E+00
 -1       120 3.00000E+01 4.66667E+01 0.00000E+00
 -1       121 3.00000E+01 4.83333E+01 0.00000E+00
 -1       122 2.80000E+01 5.00000E+01 0.00000E+00
 -1       123 2.60000E+01 5.00000E+01 0.00000E+00
 -1       124 2.40000E+01 5.00000E+01 0.00000E+00
 -1       125 2.20000E+01 5.00000E+01 0.00000E+00
 -1       126 2.00000E+01 4.83333E+01 0.00000E+00
 -1       127 2.00000E+01 4.66667E+01 0.00000E+00
 -1       128 2.80000E+01 2.00000E+01-1.00000E+01
 -1       129 2.60000E+01 2.00000E+01-1.00000E+01
 -1       130 2.40000E+01 2.00000E+01-1.00000E+01
 -1       131 2.20000E+01 2.00000E+01-1.00000E+01
 -1       132 3.00000E+01 4.81250E+01-1.00000E+01
 -1       133 3.00000E+01 4.62500E+01-1.00000E+01
 -1       134 3.00000E+01 4.43750E+01-1.00000E+01
 -1       135 3.00000E+01 4.25000E+01-1.00000E+01
 -1       136 3.00000E+01 4.06250E+01-1.00000E+01
 -1       137 3.00000E+01 3.87500E+01-1.00000E+01
 -1       138 3.00000E+01 3.68750E+01-1.00000E+01
 -1       139 3.00000E+01 3.50000E+01-1.00000E+01
 -1       140 3.00000E+01 3.31250E+01-1.00000E+01
 -1       141 3.00000E+01 3.12500E+01-1.00000E+01
 -1       142 3.00000E+01 2.93750E+01-1.00000E+01
 -1       143 3.00000E+01 2.75000E+01-1.00000E+01
 -1       144 3.00000E+01 2.56250E+01-1.00000E+01
 -1       145 3.00000E+01 2.37500E+01-1.00000E+01
 -1       146 3.00000E+01 2.18750E+01-1.00000E+01
 -1       147 2.20000E+01 5.00000E+01-1.00000E+01
 -1       148 2.40000E+01 5.00000E+01-1.00000E+01
 -1       149 2.60000E+01 5.00000E+01-1.00000E+01
 -1       150 2.80000E+01 5.00000E+01-1.00000E+01
 -1       151 2.00000E+01 2.18750E+01-1.00000E+01
 -1       152 2.00000E+01 2.37500E+01-1.00000E+01
 -1       153 2.00000E+01 2.56250E+01-1.00000E+01
 -1       154 2.00000E+01 2.75000E+01-1.00000E+01
 -1       155 2.00000E+01 2.93750E+01-1.00000E+01
 -1       156 2.00000E+01 3.12500E+01-1.00000E+01
 -1       157 2.00000E+01 3.31250E+01-1.00000E+01
 -1       158 2.00000E+01 3.50000E+01-1.00000E+01
 -1       159 2.00000E+01 3.68750E+01-1.00000E+01
 -1       160 2.00000E+01 3.87500E+01-1.00000E+01
 -1       161 2.00000E+01 4.06250E+01-1.00000E+01
 -1       162 2.00000E+01 4.25000E+01-1.00000E+01
 -1       163 2.00000E+01 4.43750E+01-1.00000E+01
 -1       164 2.00000E+01 4.62500E+01-1.00000E+01
 -1       165 2.00000E+01 4.81250E+01-1.00000E+01
 -1       166 2.00000E+01 5.00000E+01-2.00000E+00
 -1       167 2.00000E+01 5.00000E+01-4.00000E+00
 -1       168 2.00000E+01 5.00000E+01-6.00000E+00
 -1       169 2.00000E+01 5.00000E+01-8.00000E+00
 -1       170 2.00000E+01 2.00000E+01-8.00000E+00
 -1       171 2.00000E+01 2.00000E+01-6.00000E+00
 -1       172 2.00000E+01 2.00000E+01-4.00000E+00
 -1       173 2.00000E+01 2.00000E+01-2.00000E+00
 -1       174 3.00000E+01 5.00000E+01-8.00000E+00
 -1       175 3.00000E+01 5.00000E+01-6.00000E+00
 -1       176 3.00000E+01 5.00000E+01-4.00000E+00
 -1       177 3.00000E+01 5.00000E+01-2.00000E+00
 -1       178 3.00000E+01 2.00000E+01-2.00000E+00
 -1       179 3.00000E+01 2.00000E+01-4.00000E+00
 -1       180 3.00000E+01 2.00000E+01-6.00000E+00
 -1       181 3.00000E+01 2.00000E+01-8.00000E+00
 -1       182-2.20000E+01 2.00000E+01-1.00000E+01
 -1       183-2.40000E+01 2.00000E+01-1.00000E+01
 -1       184-2.60000E+01 2.00000E+01-1.00000E+01
 -1       185-2.80000E+01 2.00000E+01-1.00000E+01
 -1       186-3.00000E+01 2.00000E+01-8.00000E+00
 -1       187-3.00000E+01 2.00000E+01-6.00000E+00
 -1       188-3.00000E+01 2.00000E+01-4.00000E+00
 -1       189-3.00000E+01 2.00000E+01-2.00000E+00
 -1       190-2.80000E+01 2.00000E+01 0.00000E+00
 -1       191-2.60000E+01 2.00000E+01 0.00000E+00
 -1       192-2.40000E+01 2.00000E+01 0.00000E+00
 -1       193-2.20000E+01 2.00000E+01 0.00000E+00
 -1       194-2.00000E+01 2.00000E+01-2.00000E+00
 -1       195-2.00000E+01 2.00000E+01-4.00000E+00
 -1       196-2.00000E+01 2.00000E+01-6.00000E+00
 -1       197-2.00000E+01 2.00000E+01-8.00000E+00
 -1       198-2.20000E+01 5.00000E+01-1.00000E+01
 -1       199-2.40000E+01 5.00000E+01-1.00000E+01
 -1       200-2.60000E+01 5.00000E+01-1.00000E+01
 -1       201-2.80000E+01 5.00000E+01-1.00000E+01
 -1       202-3.00000E+01 5.00000E+01-8.00000E+00
 -1       203-3.00000E+01 5.00000E+01-6.00000E+00
 -1       204-3.00000E+01 5.00000E+01-4.00000E+00
 -1       205-3.00000E+01 5.00000E+01-2.00000E+00
 -1       206-2.80000E+01 5.00000E+01 0.00000E+00
 -1       207-2.60000E+01 5.00000E+01 0.00000E+00
 -1       208-2.40000E+01 5.00000E+01 0.00000E+00
 -1       209-2.20000E+01 5.00000E+01 0.00000E+00
 -1       210-2.00000E+01 5.00000E+01-2.00000E+00
 -1       211-2.00000E+01 5.00000E+01-4.00000E+00
 -1       212-2.00000E+01 5.00000E+01-6.00000E+00
 -1       213-2.00000E+01 5.00000E+01-8.00000E+00
 -1       214-2.00000E+01 2.33333E+01 0.00000E+00
 -1       215-2.00000E+01 2.16667E+01 0.00000E+00
 -1       216-2.00000E+01 4.30000E+01 0.00000E+00
 -1       217-2.00000E+01 4.10000E+01 0.00000E+00
 -1       218-2.00000E+01 3.90000E+01 0.00000E+00
 -1       219-2.00000E+01 3.70000E+01 0.00000E+00
 -1       220-2.00000E+01 3.50000E+01 0.00000E+00
 -1       221-2.00000E+01 3.30000E+01 0.00000E+00
 -1       222-2.00000E+01 3.10000E+01 0.00000E+00
 -1       223-2.00000E+01 2.90000E+01 0.00000E+00
 -1       224-2.00000E+01 2.70000E+01 0.00000E+00
 -1       225-2.00000E+01 4.83333E+01 0.00000E+00
 -1       226-2.00000E+01 4.66667E+01 0.00000E+00
 -1       227-2.00000E+01 2.18750E+01-1.00000E+01
 -1       228-2.00000E+01 2.37500E+01-1.00000E+01
 -1       229-2.00000E+01 2.56250E+01-1.00000E+01
 -1       230-2.00000E+01 2.75000E+01-1.00000E+01
 -1       231-2.00000E+01 2.93750E+01-1.00000E+01
 -1       232-2.00000E+01 3.12500E+01-1.00000E+01
 -1       233-2.00000E+01 3.31250E+01-1.00000E+01
 -1       234-2.00000E+01 3.50000E+01-1.00000E+01
 -1       235-2.00000E+01 3.68750E+01-1.00000E+01
 -1       236-2.00000E+01 3.87500E+01-1.00000E+01
 -1       237-2.00000E+01 4.06250E+01-1.00000E+01
 -1       238-2.00000E+01 4.25000E+01-1.00000E+01
 -1       239-2.00000E+01 4.43750E+01-1.00000E+01
 -1       240-2.00000E+01 4.62500E+01-1.00000E+01
 -1       241-2.00000E+01 4.81250E+01-1.00000E+01
 -1       242-3.00000E+01 2.16667E+01 0.00000E+00
 -1       243-3.00000E+01 2.33333E+01 0.00000E+00
 -1       244-3.00000E+01 2.70000E+01 0.00000E+00
 -1       245-3.00000E+01 2.90000E+01 0.00000E+00
 -1       246-3.00000E+01 3.10000E+01 0.00000E+00
 -1       247-3.00000E+01 3.30000E+01 0.00000E+00
 -1       248-3.00000E+01 3.50000E+01 0.00000E+00
 -1       249-3.00000E+01 3.70000E+01 0.00000E+00
 -1       250-3.00000E+01 3.90000E+01 0.00000E+00
 -1       251-3.00000E+01 4.10000E+01 0.00000E+00
 -1       252-3.00000E+01 4.30000E+01 0.00000E+00
 -1       253-3.00000E+01 4.66667E+01 0.00000E+00
 -1       254-3.00000E+01 4.83333E+01 0.00000E+00
 -1       255-3.00000E+01 4.81250E+01-1.00000E+01
 -1       256-3.00000E+01 4.62500E+01-1.00000E+01
 -1       257-3.00000E+01 4.43750E+01-1.00000E+01
 -1       258-3.00000E+01 4.25000E+01-1.00000E+01
 -1       259-3.00000E+01 4.06250E+01-1.00000E+01
 -1       260-3.00000E+01 3.87500E+01-1.00000E+01
 -1       261-3.00000E+01 3.68750E+01-1.00000E+01
 -1       262-3.00000E+01 3.50000E+01-1.00000E+01
 -1       263-3.00000E+01 3.31250E+01-1.00000E+01
 -1       264-3.00000E+01 3.12500E+01-1.00000E+01
 -1       265-3.00000E+01 2.93750E+01-1.00000E+01
 -1       266-3.00000E+01 2.75000E+01-1.00000E+01
 -1       267-3.00000E+01 2.56250E+01-1.00000E+01
 -1       268-3.00000E+01 2.37500E+01-1.00000E+01
 -1       269-3.00000E+01 2.18750E+01-1.00000E+01
 -1       270-2.20000E+01 2.50000E+01 0.00000E+00
 -1       271-2.40000E+01 2.50000E+01 0.00000E+00
 -1       272-2.80000E+01 2.50000E+01 0.00000E+00
 -1       273-2.60000E+01 4.30000E+01 0.00000E+00
 -1       274-2.60000E+01 4.10000E+01 0.00000E+00
 -1       275-2.60000E+01 3.90000E+01 0.00000E+00
 -1       276-2.60000E+01 3.70000E+01 0.00000E+00
 -1       277-2.60000E+01 3.50000E+01 0.00000E+00
 -1       278-2.60000E+01 3.30000E+01 0.00000E+00
 -1       279-2.60000E+01 3.10000E+01 0.00000E+00
 -1       280-2.60000E+01 2.90000E+01 0.00000E+00
 -1       281-2.60000E+01 2.70000E+01 0.00000E+00
 -1       282-2.20000E+01 4.50000E+01 0.00000E+00
 -1       283-2.40000E+01 4.50000E+01 0.00000E+00
 -1       284-2.80000E+01 4.50000E+01 0.00000E+00
 -1       285-1.99351E+01 5.16093E+01-1.00000E+01
 -1       286-1.97410E+01 5.32082E+01-1.00000E+01
 -1       287-1.94188E+01 5.47863E+01-1.00000E+01
 -1       288-1.89707E+01 5.63334E+01-1.00000E+01
 -1       289-1.83996E+01 5.78393E+01-1.00000E+01
 -1       290-1.77091E+01 5.92945E+01-1.00000E+01
 -1       291-1.69038E+01 6.06893E+01-1.00000E+01
 -1       292-1.59889E+01 6.20148E+01-1.00000E+01
 -1       293-1.49702E+01 6.32625E+01-1.00000E+01
 -1       294-1.38545E+01 6.44240E+01-1.00000E+01
 -1       295-1.26489E+01 6.54921E+01-1.00000E+01
 -1       296-1.13613E+01 6.64597E+01-1.00000E+01
 -1       297-1.00000E+01 6.73205E+01-1.00000E+01
 -1       298-8.57385E+00 6.80690E+01-1.00000E+01
 -1       299-7.09210E+00 6.87003E+01-1.00000E+01
 -1       300-5.56435E+00 6.92104E+01-1.00000E+01
 -1       301-4.00051E+00 6.95958E+01-1.00000E+01
 -1       302-2.41073E+00 6.98542E+01-1.00000E+01
 -1       303-8.05319E-01 6.99838E+01-1.00000E+01
 -1       304 8.05319E-01 6.99838E+01-1.00000E+01
 -1       305 2.41073E+00 6.98542E+01-1.00000E+01
 -1       306 4.00051E+00 6.95958E+01-1.00000E+01
 -1       307 5.56435E+00 6.92104E+01-1.00000E+01
 -1       308 7.09210E+00 6.87003E+01-1.00000E+01
 -1       309 8.57385E+00 6.80690E+01-1.00000E+01
 -1       310 1.00000E+01 6.73205E+01-1.00000E+01
 -1       311 1.13613E+01 6.64597E+01-1.00000E+01
 -1       312 1.26489E+01 6.54921E+01-1.00000E+01
 -1       313 1.38545E+01 6.44240E+01-1.00000E+01
 -1       314 1.49702E+01 6.32625E+01-1.00000E+01
 -1       315 1.59889E+01 6.20148E+01-1.00000E+01
 -1       316 1.69038E+01 6.06893E+01-1.00000E+01
 -1       317 1.77091E+01 5.92945E+01-1.00000E+01
 -1       318 1.83996E+01 5.78393E+01-1.00000E+01
 -1       319 1.89707E+01 5.63334E+01-1.00000E+01
 -1       320 1.94188E+01 5.47863E+01-1.00000E+01
 -1       321 1.97410E+01 5.32082E+01-1.00000E+01
 -1       322 1.99351E+01 5.16093E+01-1.00000E+01
 -1       323 1.99317E+01 5.16516E+01 0.00000E+00
 -1       324 1.97272E+01 5.32919E+01 0.00000E+00
 -1       325 1.93880E+01 5.49097E+01 0.00000E+00
 -1       326 1.89163E+01 5.64940E+01 0.00000E+00
 -1       327 1.83155E+01 5.80339E+01 0.00000E+00
 -1       328 1.75895E+01 5.95189E+01 0.00000E+00
 -1       329 1.67433E+01 6.09390E+01 0.00000E+00
 -1       330 1.57828E+01 6.22843E+01 0.00000E+00
 -1       331 1.47145E+01 6.35456E+01 0.00000E+00
 -1       332 1.35456E+01 6.47145E+01 0.00000E+00
 -1       333 1.22843E+01 6.57828E+01 0.00000E+00
 -1       334 1.09390E+01 6.67433E+01 0.00000E+00
 -1       335 9.51895E+00 6.75895E+01 0.00000E+00
 -1       336 8.03391E+00 6.83155E+01 0.00000E+00
 -1       337 6.49399E+00 6.89163E+01 0.00000E+00
 -1       338 4.90971E+00 6.93880E+01 0.00000E+00
 -1       339 3.29189E+00 6.97272E+01 0.00000E+00
 -1       340 1.65159E+00 6.99317E+01 0.00000E+00
 -1       341-1.56918E+00 6.99383E+01 0.00000E+00
 -1       342-3.12869E+00 6.97538E+01 0.00000E+00
 -1       343-4.66891E+00 6.94474E+01 0.00000E+00
 -1       344-6.18034E+00 6.90211E+01 0.00000E+00
 -1       345-7.65367E+00 6.84776E+01 0.00000E+00
 -1       346-9.07981E+00 6.78201E+01 0.00000E+00
 -1       347-1.04500E+01 6.70528E+01 0.00000E+00
 -1       348-1.17557E+01 6.61803E+01 0.00000E+00
 -1       349-1.29890E+01 6.52081E+01 0.00000E+00
 -1       350-1.41421E+01 6.41421E+01 0.00000E+00
 -1       351-1.52081E+01 6.29890E+01 0.00000E+00
 -1       352-1.61803E+01 6.17557E+01 0.00000E+00
 -1       353-1.70528E+01 6.04500E+01 0.00000E+00
 -1       354-1.78201E+01 5.90798E+01 0.00000E+00
 -1       355-1.84776E+01 5.76537E+01 0.00000E+00
 -1       356-1.90211E+01 5.61803E+01 0.00000E+00
 -1       357-1.94474E+01 5.46689E+01 0.00000E+00
 -1       358-1.97538E+01 5.31287E+01 0.00000E+00
 -1       359-1.99383E+01 5.15692E+01 0.00000E+00
 -1       360 2.99027E+01 5.24140E+01-1.00000E+01
 -1       361 2.96115E+01 5.48123E+01-1.00000E+01
 -1       362 2.91283E+01 5.71795E+01-1.00000E+01
 -1       363 2.84561E+01 5.95000E+01-1.00000E+01
 -1       364 2.75994E+01 6.17590E+01-1.00000E+01
 -1       365 2.65637E+01 6.39417E+01-1.00000E+01
 -1       366 2.53557E+01 6.60340E+01-1.00000E+01
 -1       367 2.39833E+01 6.80223E+01-1.00000E+01
 -1       368 2.24553E+01 6.98937E+01-1.00000E+01
 -1       369 2.07817E+01 7.16361E+01-1.00000E+01
 -1       370 1.89734E+01 7.32382E+01-1.00000E+01
 -1       371 1.70419E+01 7.46895E+01-1.00000E+01
 -1       372 1.50000E+01 7.59808E+01-1.00000E+01
 -1       373 1.28608E+01 7.71035E+01-1.00000E+01
 -1       374 1.06381E+01 7.80505E+01-1.00000E+01
 -1       375 8.34652E+00 7.88155E+01-1.00000E+01
 -1       376 6.00077E+00 7.93937E+01-1.00000E+01
 -1       377 3.61610E+00 7.97813E+01-1.00000E+01
 -1       378 1.20798E+00 7.99757E+01-1.00000E+01
 -1       379-1.20798E+00 7.99757E+01-1.00000E+01
 -1       380-3.61610E+00 7.97813E+01-1.00000E+01
 -1       381-6.00077E+00 7.93937E+01-1.00000E+01
 -1       382-8.34652E+00 7.88155E+01-1.00000E+01
 -1       383-1.06381E+01 7.80505E+01-1.00000E+01
 -1       384-1.28608E+01 7.71035E+01-1.00000E+01
 -1       385-1.50000E+01 7.59808E+01-1.00000E+01
 -1       386-1.70419E+01 7.46895E+01-1.00000E+01
 -1       387-1.89734E+01 7.32382E+01-1.00000E+01
 -1       388-2.07817E+01 7.16361E+01-1.00000E+01
 -1       389-2.24553E+01 6.98937E+01-1.00000E+01
 -1       390-2.39833E+01 6.80223E+01-1.00000E+01
 -1       391-2.53557E+01 6.60340E+01-1.00000E+01
 -1       392-2.65637E+01 6.39417E+01-1.00000E+01
 -1       393-2.75994E+01 6.17590E+01-1.00000E+01
 -1       394-2.84561E+01 5.95000E+01-1.00000E+01
 -1       395-2.91283E+01 5.71795E+01-1.00000E+01
 -1       396-2.96115E+01 5.48123E+01-1.00000E+01
 -1       397-2.99027E+01 5.24140E+01-1.00000E+01
 -1       398 2.47738E+00 7.98975E+01 0.00000E+00
 -1       399 4.93784E+00 7.95908E+01 0.00000E+00
 -1       400 7.36456E+00 7.90820E+01 0.00000E+00
 -1       401 9.74098E+00 7.83745E+01 0.00000E+00
 -1       402 1.20509E+01 7.74732E+01 0.00000E+00
 -1       403 1.42784E+01 7.63842E+01 0.00000E+00
 -1       404 1.64084E+01 7.51150E+01 0.00000E+00
 -1       405 1.84264E+01 7.36742E+01 0.00000E+00
 -1       406 2.03184E+01 7.20717E+01 0.00000E+00
 -1       407 2.20717E+01 7.03185E+01 0.00000E+00
 -1       408 2.36742E+01 6.84264E+01 0.00000E+00
 -1       409 2.51150E+01 6.64084E+01 0.00000E+00
 -1       410 2.63842E+01 6.42784E+01 0.00000E+00
 -1       411 2.74732E+01 6.20509E+01 0.00000E+00
 -1       412 2.83745E+01 5.97410E+01 0.00000E+00
 -1       413 2.90820E+01 5.73646E+01 0.00000E+00
 -1       414 2.95908E+01 5.49378E+01 0.00000E+00
 -1       415 2.98975E+01 5.24774E+01 0.00000E+00
 -1       416-2.99075E+01 5.23538E+01 0.00000E+00
 -1       417-2.96306E+01 5.46930E+01 0.00000E+00
 -1       418-2.91711E+01 5.70034E+01 0.00000E+00
 -1       419-2.85317E+01 5.92705E+01 0.00000E+00
 -1       420-2.77164E+01 6.14805E+01 0.00000E+00
 -1       421-2.67302E+01 6.36197E+01 0.00000E+00
 -1       422-2.55792E+01 6.56750E+01 0.00000E+00
 -1       423-2.42705E+01 6.76336E+01 0.00000E+00
 -1       424-2.28122E+01 6.94834E+01 0.00000E+00
 -1       425-2.12132E+01 7.12132E+01 0.00000E+00
 -1       426-1.94834E+01 7.28122E+01 0.00000E+00
 -1       427-1.76336E+01 7.42705E+01 0.00000E+00
 -1       428-1.56750E+01 7.55792E+01 0.00000E+00
 -1       429-1.36197E+01 7.67302E+01 0.00000E+00
 -1       430-1.14805E+01 7.77164E+01 0.00000E+00
 -1       431-9.27051E+00 7.85317E+01 0.00000E+00
 -1       432-7.00336E+00 7.91711E+01 0.00000E+00
 -1       433-4.69303E+00 7.96307E+01 0.00000E+00
 -1       434-2.35377E+00 7.99075E+01 0.00000E+00
 -1       435 0.00000E+00 7.80000E+01 0.00000E+00
 -1       436 0.00000E+00 7.60000E+01 0.00000E+00
 -1       437 0.00000E+00 7.40000E+01 0.00000E+00
 -1       438 0.00000E+00 7.20000E+01 0.00000E+00
 -1       439-3.00000E+01 5.00000E+01 2.50000E+00
 -1       440-3.00000E+01 5.00000E+01 5.00000E+00
 -1       441-3.00000E+01 5.00000E+01 7.50000E+00
 -1       442-2.99027E+01 5.24140E+01 1.00000E+01
 -1       443-2.96115E+01 5.48123E+01 1.00000E+01
 -1       444-2.91283E+01 5.71795E+01 1.00000E+01
 -1       445-2.84561E+01 5.95000E+01 1.00000E+01
 -1       446-2.75994E+01 6.17590E+01 1.00000E+01
 -1       447-2.65637E+01 6.39417E+01 1.00000E+01
 -1       448-2.53557E+01 6.60340E+01 1.00000E+01
 -1       449-2.39833E+01 6.80223E+01 1.00000E+01
 -1       450-2.24553E+01 6.98937E+01 1.00000E+01
 -1       451-2.07817E+01 7.16361E+01 1.00000E+01
 -1       452-1.89734E+01 7.32382E+01 1.00000E+01
 -1       453-1.70419E+01 7.46895E+01 1.00000E+01
 -1       454-1.50000E+01 7.59808E+01 1.00000E+01
 -1       455-1.28608E+01 7.71035E+01 1.00000E+01
 -1       456-1.06381E+01 7.80505E+01 1.00000E+01
 -1       457-8.34652E+00 7.88155E+01 1.00000E+01
 -1       458-6.00077E+00 7.93937E+01 1.00000E+01
 -1       459-3.61610E+00 7.97813E+01 1.00000E+01
 -1       460-1.20798E+00 7.99757E+01 1.00000E+01
 -1       461 1.20798E+00 7.99757E+01 1.00000E+01
 -1       462 3.61610E+00 7.97813E+01 1.00000E+01
 -1       463 6.00077E+00 7.93937E+01 1.00000E+01
 -1       464 8.34652E+00 7.88155E+01 1.00000E+01
 -1       465 1.06381E+01 7.80505E+01 1.00000E+01
 -1       466 1.28608E+01 7.71035E+01 1.00000E+01
 -1       467 1.50000E+01 7.59808E+01 1.00000E+01
 -1       468 1.70419E+01 7.46895E+01 1.00000E+01
 -1       469 1.89734E+01 7.32382E+01 1.00000E+01
 -1       470 2.07817E+01 7.16361E+01 1.00000E+01
 -1       471 2.24553E+01 6.98937E+01 1.00000E+01
 -1       472 2.39833E+01 6.80223E+01 1.00000E+01
 -1       473 2.53557E+01 6.60340E+01 1.00000E+01
 -1       474 2.65637E+01 6.39417E+01 1.00000E+01
 -1       475 2.75994E+01 6.17590E+01 1.00000E+01
 -1       476 2.84561E+01 5.95000E+01 1.00000E+01
 -1       477 2.91283E+01 5.71795E+01 1.00000E+01
 -1       478 2.96115E+01 5.48123E+01 1.00000E+01
 -1       479 2.99027E+01 5.24140E+01 1.00000E+01
 -1       480 3.00000E+01 5.00000E+01 7.50000E+00
 -1       481 3.00000E+01 5.00000E+01 5.00000E+00
 -1       482 3.00000E+01 5.00000E+01 2.50000E+00
 -1       483-2.00000E+01 5.00000E+01 7.50000E+00
 -1       484-2.00000E+01 5.00000E+01 5.00000E+00
 -1       485-2.00000E+01 5.00000E+01 2.50000E+00
 -1       486 1.99351E+01 5.16093E+01 1.00000E+01
 -1       487 1.97410E+01 5.32082E+01 1.00000E+01
 -1       488 1.94188E+01 5.47863E+01 1.00000E+01
 -1       489 1.89707E+01 5.63334E+01 1.00000E+01
 -1       490 1.83996E+01 5.78393E+01 1.00000E+01
 -1       491 1.77091E+01 5.92945E+01 1.00000E+01
 -1       492 1.69038E+01 6.06893E+01 1.00000E+01
 -1       493 1.59889E+01 6.20148E+01 1.00000E+01
 -1       494 1.49702E+01 6.32625E+01 1.00000E+01
 -1       495 1.38545E+01 6.44240E+01 1.00000E+01
 -1       496 1.26489E+01 6.54921E+01 1.00000E+01
 -1       497 1.13613E+01 6.64597E+01 1.00000E+01
 -1       498 1.00000E+01 6.73205E+01 1.00000E+01
 -1       499 8.57385E+00 6.80690E+01 1.00000E+01
 -1       500 7.09210E+00 6.87003E+01 1.00000E+01
 -1       501 5.56435E+00 6.92104E+01 1.00000E+01
 -1       502 4.00051E+00 6.95958E+01 1.00000E+01
 -1       503 2.41073E+00 6.98542E+01 1.00000E+01
 -1       504 8.05319E-01 6.99838E+01 1.00000E+01
 -1       505-8.05319E-01 6.99838E+01 1.00000E+01
 -1       506-2.41073E+00 6.98542E+01 1.00000E+01
 -1       507-4.00051E+00 6.95958E+01 1.00000E+01
 -1       508-5.56435E+00 6.92104E+01 1.00000E+01
 -1       509-7.09210E+00 6.87003E+01 1.00000E+01
 -1       510-8.57385E+00 6.80690E+01 1.00000E+01
 -1       511-1.00000E+01 6.73205E+01 1.00000E+01
 -1       512-1.13613E+01 6.64597E+01 1.00000E+01
 -1       513-1.26489E+01 6.54921E+01 1.00000E+01
 -1       514-1.38545E+01 6.44240E+01 1.00000E+01
 -1       515-1.49702E+01 6.32625E+01 1.00000E+01
 -1       516-1.59889E+01 6.20148E+01 1.00000E+01
 -1       517-1.69038E+01 6.06893E+01 1.00000E+01
 -1       518-1.77091E+01 5.92945E+01 1.00000E+01
 -1       519-1.83996E+01 5.78393E+01 1.00000E+01
 -1       520-1.89707E+01 5.63334E+01 1.00000E+01
 -1       521-1.94188E+01 5.47863E+01 1.00000E+01
 -1       522-1.97410E+01 5.32082E+01 1.00000E+01
 -1       523-1.99351E+01 5.16093E+01 1.00000E+01
 -1       524 2.00000E+01 5.00000E+01 2.50000E+00
 -1       525 2.00000E+01 5.00000E+01 5.00000E+00
 -1       526 2.00000E+01 5.00000E+01 7.50000E+00
 -1       527 2.20000E+01 5.00000E+01 1.00000E+01
 -1       528 2.40000E+01 5.00000E+01 1.00000E+01
 -1       529 2.60000E+01 5.00000E+01 1.00000E+01
 -1       530 2.80000E+01 5.00000E+01 1.00000E+01
 -1       531-2.80000E+01 5.00000E+01 1.00000E+01
 -1       532-2.60000E+01 5.00000E+01 1.00000E+01
 -1       533-2.40000E+01 5.00000E+01 1.00000E+01
 -1       534-2.20000E+01 5.00000E+01 1.00000E+01
 -1       535 2.00000E+01 4.81250E+01 1.00000E+01
 -1       536 2.00000E+01 4.62500E+01 1.00000E+01
 -1       537 2.00000E+01 4.43750E+01 1.00000E+01
 -1       538 2.00000E+01 4.25000E+01 1.00000E+01
 -1       539 2.00000E+01 4.06250E+01 1.00000E+01
 -1       540 2.00000E+01 3.87500E+01 1.00000E+01
 -1       541 2.00000E+01 3.68750E+01 1.00000E+01
 -1       542 2.00000E+01 3.50000E+01 1.00000E+01
 -1       543 2.00000E+01 3.31250E+01 1.00000E+01
 -1       544 2.00000E+01 3.12500E+01 1.00000E+01
 -1       545 2.00000E+01 2.93750E+01 1.00000E+01
 -1       546 2.00000E+01 2.75000E+01 1.00000E+01
 -1       547 2.00000E+01 2.56250E+01 1.00000E+01
 -1       548 2.00000E+01 2.37500E+01 1.00000E+01
 -1       549 2.00000E+01 2.18750E+01 1.00000E+01
 -1       550 2.20000E+01 2.00000E+01 1.00000E+01
 -1       551 2.40000E+01 2.00000E+01 1.00000E+01
 -1       552 2.60000E+01 2.00000E+01 1.00000E+01
 -1       553 2.80000E+01 2.00000E+01 1.00000E+01
 -1       554 3.00000E+01 2.18750E+01 1.00000E+01
 -1       555 3.00000E+01 2.37500E+01 1.00000E+01
 -1       556 3.00000E+01 2.56250E+01 1.00000E+01
 -1       557 3.00000E+01 2.75000E+01 1.00000E+01
 -1       558 3.00000E+01 2.93750E+01 1.00000E+01
 -1       559 3.00000E+01 3.12500E+01 1.00000E+01
 -1       560 3.00000E+01 3.31250E+01 1.00000E+01
 -1       561 3.00000E+01 3.50000E+01 1.00000E+01
 -1       562 3.00000E+01 3.68750E+01 1.00000E+01
 -1       563 3.00000E+01 3.87500E+01 1.00000E+01
 -1       564 3.00000E+01 4.06250E+01 1.00000E+01
 -1       565 3.00000E+01 4.25000E+01 1.00000E+01
 -1       566 3.00000E+01 4.43750E+01 1.00000E+01
 -1       567 3.00000E+01 4.62500E+01 1.00000E+01
 -1       568 3.00000E+01 4.81250E+01 1.00000E+01
 -1       569 3.00000E+01 2.00000E+01 7.50000E+00
 -1       570 3.00000E+01 2.00000E+01 5.00000E+00
 -1       571 3.00000E+01 2.00000E+01 2.50000E+00
 -1       572 2.00000E+01 2.00000E+01 2.50000E+00
 -1       573 2.00000E+01 2.00000E+01 5.00000E+00
 -1       574 2.00000E+01 2.00000E+01 7.50000E+00
 -1       575 2.32000E+01 1.50000E+01 1.00000E+01
 -1       576 2.44000E+01 1.50000E+01 1.00000E+01
 -1       577 2.56000E+01 1.50000E+01 1.00000E+01
 -1       578 2.68000E+01 1.50000E+01 1.00000E+01
 -1       579 2.80000E+01 1.50000E+01 8.75000E+00
 -1       580 2.80000E+01 1.50000E+01 7.50000E+00
 -1       581 2.80000E+01 1.50000E+01 6.25000E+00
 -1       582 2.68000E+01 1.50000E+01 5.00000E+00
 -1       583 2.56000E+01 1.50000E+01 5.00000E+00
 -1       584 2.44000E+01 1.50000E+01 5.00000E+00
 -1       585 2.32000E+01 1.50000E+01 5.00000E+00
 -1       586 2.20000E+01 1.50000E+01 6.25000E+00
 -1       587 2.20000E+01 1.50000E+01 7.50000E+00
 -1       588 2.20000E+01 1.50000E+01 8.75000E+00
 -1       589 2.02846E+01 1.92885E+01 2.57075E+00
 -1       590 2.10273E+01 1.74318E+01 4.36878E+00
 -1       591 2.13333E+01 1.66667E+01 1.00000E+01
 -1       592 2.06667E+01 1.83333E+01 1.00000E+01
 -1       593 2.89727E+01 1.74318E+01 4.36878E+00
 -1       594 2.97154E+01 1.92885E+01 2.57075E+00
 -1       595 2.93333E+01 1.83333E+01 1.00000E+01
 -1       596 2.86667E+01 1.66667E+01 1.00000E+01
 -1       597-2.80000E+01 2.00000E+01 1.00000E+01
 -1       598-2.60000E+01 2.00000E+01 1.00000E+01
 -1       599-2.40000E+01 2.00000E+01 1.00000E+01
 -1       600-2.20000E+01 2.00000E+01 1.00000E+01
 -1       601-2.00000E+01 2.18750E+01 1.00000E+01
 -1       602-2.00000E+01 2.37500E+01 1.00000E+01
 -1       603-2.00000E+01 2.56250E+01 1.00000E+01
 -1       604-2.00000E+01 2.75000E+01 1.00000E+01
 -1       605-2.00000E+01 2.93750E+01 1.00000E+01
 -1       606-2.00000E+01 3.12500E+01 1.00000E+01
 -1       607-2.00000E+01 3.31250E+01 1.00000E+01
 -1       608-2.00000E+01 3.50000E+01 1.00000E+01
 -1       609-2.00000E+01 3.68750E+01 1.00000E+01
 -1       610-2.00000E+01 3.87500E+01 1.00000E+01
 -1       611-2.00000E+01 4.06250E+01 1.00000E+01
 -1       612-2.00000E+01 4.25000E+01 1.00000E+01
 -1       613-2.00000E+01 4.43750E+01 1.00000E+01
 -1       614-2.00000E+01 4.62500E+01 1.00000E+01
 -1       615-2.00000E+01 4.81250E+01 1.00000E+01
 -1       616-3.00000E+01 4.81250E+01 1.00000E+01
 -1       617-3.00000E+01 4.62500E+01 1.00000E+01
 -1       618-3.00000E+01 4.43750E+01 1.00000E+01
 -1       619-3.00000E+01 4.25000E+01 1.00000E+01
 -1       620-3.00000E+01 4.06250E+01 1.00000E+01
 -1       621-3.00000E+01 3.87500E+01 1.00000E+01
 -1       622-3.00000E+01 3.68750E+01 1.00000E+01
 -1       623-3.00000E+01 3.50000E+01 1.00000E+01
 -1       624-3.00000E+01 3.31250E+01 1.00000E+01
 -1       625-3.00000E+01 3.12500E+01 1.00000E+01
 -1       626-3.00000E+01 2.93750E+01 1.00000E+01
 -1       627-3.00000E+01 2.75000E+01 1.00000E+01
 -1       628-3.00000E+01 2.56250E+01 1.00000E+01
 -1       629-3.00000E+01 2.37500E+01 1.00000E+01
 -1       630-3.00000E+01 2.18750E+01 1.00000E+01
 -1       631-3.00000E+01 2.00000E+01 2.50000E+00
 -1       632-3.00000E+01 2.00000E+01 5.00000E+00
 -1       633-3.00000E+01 2.00000E+01 7.50000E+00
 -1       634-2.00000E+01 2.00000E+01 7.50000E+00
 -1       635-2.00000E+01 2.00000E+01 5.00000E+00
 -1       636-2.00000E+01 2.00000E+01 2.50000E+00
 -1       637-2.32000E+01 1.50000E+01 5.00000E+00
 -1       638-2.44000E+01 1.50000E+01 5.00000E+00
 -1       639-2.56000E+01 1.50000E+01 5.00000E+00
 -1       640-2.68000E+01 1.50000E+01 5.00000E+00
 -1       641-2.80000E+01 1.50000E+01 6.25000E+00
 -1       642-2.80000E+01 1.50000E+01 7.50000E+00
 -1       643-2.80000E+01 1.50000E+01 8.75000E+00
 -1       644-2.68000E+01 1.50000E+01 1.00000E+01
 -1       645-2.56000E+01 1.50000E+01 1.00000E+01
 -1       646-2.44000E+01 1.50000E+01 1.00000E+01
 -1       647-2.32000E+01 1.50000E+01 1.00000E+01
 -1       648-2.20000E+01 1.50000E+01 8.75000E+00
 -1       649-2.20000E+01 1.50000E+01 7.50000E+00
 -1       650-2.20000E+01 1.50000E+01 6.25000E+00
 -1       651-2.05000E+01 1.87500E+01 1.00000E+01
 -1       652-2.10000E+01 1.75000E+01 1.00000E+01
 -1       653-2.15000E+01 1.62500E+01 1.00000E+01
 -1       654-2.12581E+01 1.68547E+01 4.64330E+00
 -1       655-2.06122E+01 1.84695E+01 3.60038E+00
 -1       656-2.01628E+01 1.95931E+01 1.97580E+00
 -1       657-2.85000E+01 1.62500E+01 1.00000E+01
 -1       658-2.90000E+01 1.75000E+01 1.00000E+01
 -1       659-2.95000E+01 1.87500E+01 1.00000E+01
 -1       660-2.98372E+01 1.95931E+01 1.97580E+00
 -1       661-2.93878E+01 1.84695E+01 3.60038E+00
 -1       662-2.87419E+01 1.68547E+01 4.64330E+00
 -1       663 2.98372E+01 1.95931E+01-1.97580E+00
 -1       664 2.93878E+01 1.84695E+01-3.60038E+00
 -1       665 2.87419E+01 1.68547E+01-4.64330E+00
 -1       666 2.80000E+01 1.50000E+01-6.00000E+00
 -1       667 2.80000E+01 1.50000E+01-7.00000E+00
 -1       668 2.80000E+01 1.50000E+01-8.00000E+00
 -1       669 2.80000E+01 1.50000E+01-9.00000E+00
 -1       670 2.85000E+01 1.62500E+01-1.00000E+01
 -1       671 2.90000E+01 1.75000E+01-1.00000E+01
 -1       672 2.95000E+01 1.87500E+01-1.00000E+01
 -1       673 2.12581E+01 1.68547E+01-4.64330E+00
 -1       674 2.06122E+01 1.84695E+01-3.60038E+00
 -1       675 2.01628E+01 1.95931E+01-1.97580E+00
 -1       676 2.20000E+01 1.50000E+01-9.00000E+00
 -1       677 2.20000E+01 1.50000E+01-8.00000E+00
 -1       678 2.20000E+01 1.50000E+01-7.00000E+00
 -1       679 2.20000E+01 1.50000E+01-6.00000E+00
 -1       680 2.05000E+01 1.87500E+01-1.00000E+01
 -1       681 2.10000E+01 1.75000E+01-1.00000E+01
 -1       682 2.15000E+01 1.62500E+01-1.00000E+01
 -1       683 2.68000E+01 1.50000E+01-1.00000E+01
 -1       684 2.56000E+01 1.50000E+01-1.00000E+01
 -1       685 2.44000E+01 1.50000E+01-1.00000E+01
 -1       686 2.32000E+01 1.50000E+01-1.00000E+01
 -1       687 2.32000E+01 1.50000E+01-5.00000E+00
 -1       688 2.44000E+01 1.50000E+01-5.00000E+00
 -1       689 2.56000E+01 1.50000E+01-5.00000E+00
 -1       690 2.68000E+01 1.50000E+01-5.00000E+00
 -1       691 2.20000E+01 1.00000E+01 0.00000E+00
 -1       692 2.40000E+01 1.00000E+01 0.00000E+00
 -1       693 2.60000E+01 1.00000E+01 0.00000E+00
 -1       694 2.80000E+01 1.00000E+01 0.00000E+00
 -1       695 2.97154E+01 1.07115E+01-2.57075E+00
 -1       696 2.89727E+01 1.25682E+01-4.36878E+00
 -1       697 2.10273E+01 1.25682E+01-4.36878E+00
 -1       698 2.02846E+01 1.07115E+01-2.57075E+00
 -1       699 2.80000E+01 1.00000E+01-1.00000E+01
 -1       700 2.60000E+01 1.00000E+01-1.00000E+01
 -1       701 2.40000E+01 1.00000E+01-1.00000E+01
 -1       702 2.20000E+01 1.00000E+01-1.00000E+01
 -1       703 2.86667E+01 1.33333E+01-1.00000E+01
 -1       704 2.93333E+01 1.16667E+01-1.00000E+01
 -1       705 2.06667E+01 1.16667E+01-1.00000E+01
 -1       706 2.13333E+01 1.33333E+01-1.00000E+01
 -1       707 2.00000E+01 1.00000E+01-8.00000E+00
 -1       708 2.00000E+01 1.00000E+01-6.00000E+00
 -1       709 2.00000E+01 1.00000E+01-4.00000E+00
 -1       710 2.00000E+01 1.00000E+01-2.00000E+00
 -1       711 3.00000E+01 1.00000E+01-2.00000E+00
 -1       712 3.00000E+01 1.00000E+01-4.00000E+00
 -1       713 3.00000E+01 1.00000E+01-6.00000E+00
 -1       714 3.00000E+01 1.00000E+01-8.00000E+00
 -1       715-2.05000E+01 1.87500E+01-1.00000E+01
 -1       716-2.10000E+01 1.75000E+01-1.00000E+01
 -1       717-2.15000E+01 1.62500E+01-1.00000E+01
 -1       718-2.32000E+01 1.50000E+01-1.00000E+01
 -1       719-2.44000E+01 1.50000E+01-1.00000E+01
 -1       720-2.56000E+01 1.50000E+01-1.00000E+01
 -1       721-2.68000E+01 1.50000E+01-1.00000E+01
 -1       722-2.85000E+01 1.62500E+01-1.00000E+01
 -1       723-2.90000E+01 1.75000E+01-1.00000E+01
 -1       724-2.95000E+01 1.87500E+01-1.00000E+01
 -1       725-2.12581E+01 1.68547E+01-4.64330E+00
 -1       726-2.06122E+01 1.84695E+01-3.60038E+00
 -1       727-2.01628E+01 1.95931E+01-1.97580E+00
 -1       728-2.68000E+01 1.50000E+01-5.00000E+00
 -1       729-2.56000E+01 1.50000E+01-5.00000E+00
 -1       730-2.44000E+01 1.50000E+01-5.00000E+00
 -1       731-2.32000E+01 1.50000E+01-5.00000E+00
 -1       732-2.98372E+01 1.95931E+01-1.97580E+00
 -1       733-2.93878E+01 1.84695E+01-3.60038E+00
 -1       734-2.87419E+01 1.68547E+01-4.64330E+00
 -1       735-2.80000E+01 1.50000E+01-9.00000E+00
 -1       736-2.80000E+01 1.50000E+01-8.00000E+00
 -1       737-2.80000E+01 1.50000E+01-7.00000E+00
 -1       738-2.80000E+01 1.50000E+01-6.00000E+00
 -1       739-2.20000E+01 1.50000E+01-6.00000E+00
 -1       740-2.20000E+01 1.50000E+01-7.00000E+00
 -1       741-2.20000E+01 1.50000E+01-8.00000E+00
 -1       742-2.20000E+01 1.50000E+01-9.00000E+00
 -1       743-2.00000E+01 1.00000E+01 7.50000E+00
 -1       744-2.00000E+01 1.00000E+01 5.00000E+00
 -1       745-2.00000E+01 1.00000E+01 2.50000E+00
 -1       746-2.01628E+01 1.04069E+01 1.97580E+00
 -1       747-2.06122E+01 1.15305E+01 3.60038E+00
 -1       748-2.12581E+01 1.31453E+01 4.64330E+00
 -1       749-2.15000E+01 1.37500E+01 1.00000E+01
 -1       750-2.10000E+01 1.25000E+01 1.00000E+01
 -1       751-2.05000E+01 1.12500E+01 1.00000E+01
 -1       752-3.00000E+01 1.00000E+01 2.50000E+00
 -1       753-3.00000E+01 1.00000E+01 5.00000E+00
 -1       754-3.00000E+01 1.00000E+01 7.50000E+00
 -1       755-2.87419E+01 1.31453E+01 4.64330E+00
 -1       756-2.93878E+01 1.15305E+01 3.60038E+00
 -1       757-2.98372E+01 1.04069E+01 1.97580E+00
 -1       758-2.95000E+01 1.12500E+01 1.00000E+01
 -1       759-2.90000E+01 1.25000E+01 1.00000E+01
 -1       760-2.85000E+01 1.37500E+01 1.00000E+01
 -1       761-2.80000E+01 1.00000E+01 1.00000E+01
 -1       762-2.60000E+01 1.00000E+01 1.00000E+01
 -1       763-2.40000E+01 1.00000E+01 1.00000E+01
 -1       764-2.20000E+01 1.00000E+01 1.00000E+01
 -1       765-2.20000E+01 1.00000E+01 0.00000E+00
 -1       766-2.40000E+01 1.00000E+01 0.00000E+00
 -1       767-2.60000E+01 1.00000E+01 0.00000E+00
 -1       768-2.80000E+01 1.00000E+01 0.00000E+00
 -1       769-2.80000E+01 0.00000E+00 0.00000E+00
 -1       770-2.60000E+01 0.00000E+00 0.00000E+00
 -1       771-2.40000E+01 0.00000E+00 0.00000E+00
 -1       772-2.20000E+01 0.00000E+00 0.00000E+00
 -1       773-3.00000E+01 0.00000E+00 7.50000E+00
 -1       774-3.00000E+01 0.00000E+00 5.00000E+00
 -1       775-3.00000E+01 0.00000E+00 2.50000E+00
 -1       776-2.20000E+01 0.00000E+00 1.00000E+01
 -1       777-2.40000E+01 0.00000E+00 1.00000E+01
 -1       778-2.60000E+01 0.00000E+00 1.00000E+01
 -1       779-2.80000E+01 0.00000E+00 1.00000E+01
 -1       780-2.00000E+01 0.00000E+00 2.50000E+00
 -1       781-2.00000E+01 0.00000E+00 5.00000E+00
 -1       782-2.00000E+01 0.00000E+00 7.50000E+00
 -1       783-2.00000E+01 8.00000E+00 1.00000E+01
 -1       784-2.00000E+01 6.00000E+00 1.00000E+01
 -1       785-2.00000E+01 4.00000E+00 1.00000E+01
 -1       786-2.00000E+01 2.00000E+00 1.00000E+01
 -1       787-2.00000E+01 2.00000E+00 0.00000E+00
 -1       788-2.00000E+01 4.00000E+00 0.00000E+00
 -1       789-2.00000E+01 6.00000E+00 0.00000E+00
 -1       790-2.00000E+01 8.00000E+00 0.00000E+00
 -1       791-3.00000E+01 2.00000E+00 1.00000E+01
 -1       792-3.00000E+01 4.00000E+00 1.00000E+01
 -1       793-3.00000E+01 6.00000E+00 1.00000E+01
 -1       794-3.00000E+01 8.00000E+00 1.00000E+01
 -1       795-3.00000E+01 8.00000E+00 0.00000E+00
 -1       796-3.00000E+01 6.00000E+00 0.00000E+00
 -1       797-3.00000E+01 4.00000E+00 0.00000E+00
 -1       798-3.00000E+01 2.00000E+00 0.00000E+00
 -1       799 2.00000E+01 1.00000E+01 2.50000E+00
 -1       800 2.00000E+01 1.00000E+01 5.00000E+00
 -1       801 2.00000E+01 1.00000E+01 7.50000E+00
 -1       802 2.20000E+01 1.00000E+01 1.00000E+01
 -1       803 2.40000E+01 1.00000E+01 1.00000E+01
 -1       804 2.60000E+01 1.00000E+01 1.00000E+01
 -1       805 2.80000E+01 1.00000E+01 1.00000E+01
 -1       806 3.00000E+01 1.00000E+01 7.50000E+00
 -1       807 3.00000E+01 1.00000E+01 5.00000E+00
 -1       808 3.00000E+01 1.00000E+01 2.50000E+00
 -1       809 2.20000E+01 0.00000E+00 0.00000E+00
 -1       810 2.40000E+01 0.00000E+00 0.00000E+00
 -1       811 2.60000E+01 0.00000E+00 0.00000E+00
 -1       812 2.80000E+01 0.00000E+00 0.00000E+00
 -1       813 2.00000E+01 0.00000E+00 7.50000E+00
 -1       814 2.00000E+01 0.00000E+00 5.00000E+00
 -1       815 2.00000E+01 0.00000E+00 2.50000E+00
 -1       816 2.80000E+01 0.00000E+00 1.00000E+01
 -1       817 2.60000E+01 0.00000E+00 1.00000E+01
 -1       818 2.40000E+01 0.00000E+00 1.00000E+01
 -1       819 2.20000E+01 0.00000E+00 1.00000E+01
 -1       820 3.00000E+01 0.00000E+00 2.50000E+00
 -1       821 3.00000E+01 0.00000E+00 5.00000E+00
 -1       822 3.00000E+01 0.00000E+00 7.50000E+00
 -1       823 3.00000E+01 8.00000E+00 1.00000E+01
 -1       824 3.00000E+01 6.00000E+00 1.00000E+01
 -1       825 3.00000E+01 4.00000E+00 1.00000E+01
 -1       826 3.00000E+01 2.00000E+00 1.00000E+01
 -1       827 3.00000E+01 2.00000E+00 0.00000E+00
 -1       828 3.00000E+01 4.00000E+00 0.00000E+00
 -1       829 3.00000E+01 6.00000E+00 0.00000E+00
 -1       830 3.00000E+01 8.00000E+00 0.00000E+00
 -1       831 2.00000E+01 2.00000E+00 1.00000E+01
 -1       832 2.00000E+01 4.00000E+00 1.00000E+01
 -1       833 2.00000E+01 6.00000E+00 1.00000E+01
 -1       834 2.00000E+01 8.00000E+00 1.00000E+01
 -1       835 2.00000E+01 8.00000E+00 0.00000E+00
 -1       836 2.00000E+01 6.00000E+00 0.00000E+00
 -1       837 2.00000E+01 4.00000E+00 0.00000E+00
 -1       838 2.00000E+01 2.00000E+00 0.00000E+00
 -1       839 2.12581E+01 1.31453E+01 4.64330E+00
 -1       840 2.06122E+01 1.15305E+01 3.60038E+00
 -1       841 2.01628E+01 1.04069E+01 1.97580E+00
 -1       842 2.05000E+01 1.12500E+01 1.00000E+01
 -1       843 2.10000E+01 1.25000E+01 1.00000E+01
 -1       844 2.15000E+01 1.37500E+01 1.00000E+01
 -1       845 2.98372E+01 1.04069E+01 1.97580E+00
 -1       846 2.93878E+01 1.15305E+01 3.60038E+00
 -1       847 2.87419E+01 1.31453E+01 4.64330E+00
 -1       848 2.85000E+01 1.37500E+01 1.00000E+01
 -1       849 2.90000E+01 1.25000E+01 1.00000E+01
 -1       850 2.95000E+01 1.12500E+01 1.00000E+01
 -1       851 3.00000E+01 8.00000E+00-1.00000E+01
 -1       852 3.00000E+01 6.00000E+00-1.00000E+01
 -1       853 3.00000E+01 4.00000E+00-1.00000E+01
 -1       854 3.00000E+01 2.00000E+00-1.00000E+01
 -1       855 2.80000E+01 0.00000E+00-1.00000E+01
 -1       856 2.60000E+01 0.00000E+00-1.00000E+01
 -1       857 2.40000E+01 0.00000E+00-1.00000E+01
 -1       858 2.20000E+01 0.00000E+00-1.00000E+01
 -1       859 2.00000E+01 2.00000E+00-1.00000E+01
 -1       860 2.00000E+01 4.00000E+00-1.00000E+01
 -1       861 2.00000E+01 6.00000E+00-1.00000E+01
 -1       862 2.00000E+01 8.00000E+00-1.00000E+01
 -1       863 2.00000E+01 0.00000E+00-8.00000E+00
 -1       864 2.00000E+01 0.00000E+00-6.00000E+00
 -1       865 2.00000E+01 0.00000E+00-4.00000E+00
 -1       866 2.00000E+01 0.00000E+00-2.00000E+00
 -1       867 3.00000E+01 0.00000E+00-2.00000E+00
 -1       868 3.00000E+01 0.00000E+00-4.00000E+00
 -1       869 3.00000E+01 0.00000E+00-6.00000E+00
 -1       870 3.00000E+01 0.00000E+00-8.00000E+00
 -1       871-2.20000E+01 0.00000E+00-1.00000E+01
 -1       872-2.40000E+01 0.00000E+00-1.00000E+01
 -1       873-2.60000E+01 0.00000E+00-1.00000E+01
 -1       874-2.80000E+01 0.00000E+00-1.00000E+01
 -1       875-2.00000E+01 8.00000E+00-1.00000E+01
 -1       876-2.00000E+01 6.00000E+00-1.00000E+01
 -1       877-2.00000E+01 4.00000E+00-1.00000E+01
 -1       878-2.00000E+01 2.00000E+00-1.00000E+01
 -1       879-2.80000E+01 1.00000E+01-1.00000E+01
 -1       880-2.60000E+01 1.00000E+01-1.00000E+01
 -1       881-2.40000E+01 1.00000E+01-1.00000E+01
 -1       882-2.20000E+01 1.00000E+01-1.00000E+01
 -1       883-3.00000E+01 2.00000E+00-1.00000E+01
 -1       884-3.00000E+01 4.00000E+00-1.00000E+01
 -1       885-3.00000E+01 6.00000E+00-1.00000E+01
 -1       886-3.00000E+01 8.00000E+00-1.00000E+01
 -1       887-3.00000E+01 1.00000E+01-2.00000E+00
 -1       888-3.00000E+01 1.00000E+01-4.00000E+00
 -1       889-3.00000E+01 1.00000E+01-6.00000E+00
 -1       890-3.00000E+01 1.00000E+01-8.00000E+00
 -1       891-3.00000E+01 0.00000E+00-8.00000E+00
 -1       892-3.00000E+01 0.00000E+00-6.00000E+00
 -1       893-3.00000E+01 0.00000E+00-4.00000E+00
 -1       894-3.00000E+01 0.00000E+00-2.00000E+00
 -1       895-2.00000E+01 1.00000E+01-8.00000E+00
 -1       896-2.00000E+01 1.00000E+01-6.00000E+00
 -1       897-2.00000E+01 1.00000E+01-4.00000E+00
 -1       898-2.00000E+01 1.00000E+01-2.00000E+00
 -1       899-2.00000E+01 0.00000E+00-2.00000E+00
 -1       900-2.00000E+01 0.00000E+00-4.00000E+00
 -1       901-2.00000E+01 0.00000E+00-6.00000E+00
 -1       902-2.00000E+01 0.00000E+00-8.00000E+00
 -1       903-2.15000E+01 1.37500E+01-1.00000E+01
 -1       904-2.10000E+01 1.25000E+01-1.00000E+01
 -1       905-2.05000E+01 1.12500E+01-1.00000E+01
 -1       906-2.95000E+01 1.12500E+01-1.00000E+01
 -1       907-2.90000E+01 1.25000E+01-1.00000E+01
 -1       908-2.85000E+01 1.37500E+01-1.00000E+01
 -1       909-2.01628E+01 1.04069E+01-1.97580E+00
 -1       910-2.06122E+01 1.15305E+01-3.60038E+00
 -1       911-2.12581E+01 1.31453E+01-4.64330E+00
 -1       912-2.87419E+01 1.31453E+01-4.64330E+00
 -1       913-2.93878E+01 1.15305E+01-3.60038E+00
 -1       914-2.98372E+01 1.04069E+01-1.97580E+00
 -1       915 2.20000E+01 2.16667E+01 0.00000E+00
 -1       916 2.40000E+01 2.16667E+01 0.00000E+00
 -1       917 2.60000E+01 2.16667E+01 0.00000E+00
 -1       918 2.80000E+01 2.16667E+01 0.00000E+00
 -1       919 2.20000E+01 2.33333E+01 0.00000E+00
 -1       920 2.40000E+01 2.33333E+01 0.00000E+00
 -1       921 2.60000E+01 2.33333E+01 0.00000E+00
 -1       922 2.80000E+01 2.33333E+01 0.00000E+00
 -1       923 2.40000E+01 2.70000E+01 0.00000E+00
 -1       924 2.40000E+01 2.90000E+01 0.00000E+00
 -1       925 2.40000E+01 3.10000E+01 0.00000E+00
 -1       926 2.40000E+01 3.30000E+01 0.00000E+00
 -1       927 2.40000E+01 3.50000E+01 0.00000E+00
 -1       928 2.40000E+01 3.70000E+01 0.00000E+00
 -1       929 2.40000E+01 3.90000E+01 0.00000E+00
 -1       930 2.40000E+01 4.10000E+01 0.00000E+00
 -1       931 2.40000E+01 4.30000E+01 0.00000E+00
 -1       932 2.20000E+01 2.70000E+01 0.00000E+00
 -1       933 2.20000E+01 2.90000E+01 0.00000E+00
 -1       934 2.20000E+01 3.10000E+01 0.00000E+00
 -1       935 2.20000E+01 3.30000E+01 0.00000E+00
 -1       936 2.20000E+01 3.50000E+01 0.00000E+00
 -1       937 2.20000E+01 3.70000E+01 0.00000E+00
 -1       938 2.20000E+01 3.90000E+01 0.00000E+00
 -1       939 2.20000E+01 4.10000E+01 0.00000E+00
 -1       940 2.20000E+01 4.30000E+01 0.00000E+00
 -1       941 2.80000E+01 4.30000E+01 0.00000E+00
 -1       942 2.80000E+01 4.10000E+01 0.00000E+00
 -1       943 2.80000E+01 3.90000E+01 0.00000E+00
 -1       944 2.80000E+01 3.70000E+01 0.00000E+00
 -1       945 2.80000E+01 3.50000E+01 0.00000E+00
 -1       946 2.80000E+01 3.30000E+01 0.00000E+00
 -1       947 2.80000E+01 3.10000E+01 0.00000E+00
 -1       948 2.80000E+01 2.90000E+01 0.00000E+00
 -1       949 2.80000E+01 2.70000E+01 0.00000E+00
 -1       950 2.20000E+01 4.66667E+01 0.00000E+00
 -1       951 2.40000E+01 4.66667E+01 0.00000E+00
 -1       952 2.60000E+01 4.66667E+01 0.00000E+00
 -1       953 2.80000E+01 4.66667E+01 0.00000E+00
 -1       954 2.20000E+01 4.83333E+01 0.00000E+00
 -1       955 2.40000E+01 4.83333E+01 0.00000E+00
 -1       956 2.60000E+01 4.83333E+01 0.00000E+00
 -1       957 2.80000E+01 4.83333E+01 0.00000E+00
 -1       958 2.20000E+01 2.18750E+01-1.00000E+01
 -1       959 2.40000E+01 2.18750E+01-1.00000E+01
 -1       960 2.60000E+01 2.18750E+01-1.00000E+01
 -1       961 2.80000E+01 2.18750E+01-1.00000E+01
 -1       962 2.20000E+01 2.37500E+01-1.00000E+01
 -1       963 2.40000E+01 2.37500E+01-1.00000E+01
 -1       964 2.60000E+01 2.37500E+01-1.00000E+01
 -1       965 2.80000E+01 2.37500E+01-1.00000E+01
 -1       966 2.20000E+01 2.56250E+01-1.00000E+01
 -1       967 2.40000E+01 2.56250E+01-1.00000E+01
 -1       968 2.60000E+01 2.56250E+01-1.00000E+01
 -1       969 2.80000E+01 2.56250E+01-1.00000E+01
 -1       970 2.20000E+01 2.75000E+01-1.00000E+01
 -1       971 2.40000E+01 2.75000E+01-1.00000E+01
 -1       972 2.60000E+01 2.75000E+01-1.00000E+01
 -1       973 2.80000E+01 2.75000E+01-1.00000E+01
 -1       974 2.20000E+01 2.93750E+01-1.00000E+01
 -1       975 2.40000E+01 2.93750E+01-1.00000E+01
 -1       976 2.60000E+01 2.93750E+01-1.00000E+01
 -1       977 2.80000E+01 2.93750E+01-1.00000E+01
 -1       978 2.20000E+01 3.12500E+01-1.00000E+01
 -1       979 2.40000E+01 3.12500E+01-1.00000E+01
 -1       980 2.60000E+01 3.12500E+01-1.00000E+01
 -1       981 2.80000E+01 3.12500E+01-1.00000E+01
 -1       982 2.20000E+01 3.31250E+01-1.00000E+01
 -1       983 2.40000E+01 3.31250E+01-1.00000E+01
 -1       984 2.60000E+01 3.31250E+01-1.00000E+01
 -1       985 2.80000E+01 3.31250E+01-1.00000E+01
 -1       986 2.20000E+01 3.50000E+01-1.00000E+01
 -1       987 2.40000E+01 3.50000E+01-1.00000E+01
 -1       988 2.60000E+01 3.50000E+01-1.00000E+01
 -1       989 2.80000E+01 3.50000E+01-1.00000E+01
 -1       990 2.20000E+01 3.68750E+01-1.00000E+01
 -1       991 2.40000E+01 3.68750E+01-1.00000E+01
 -1       992 2.60000E+01 3.68750E+01-1.00000E+01
 -1       993 2.80000E+01 3.68750E+01-1.00000E+01
 -1       994 2.20000E+01 3.87500E+01-1.00000E+01
 -1       995 2.40000E+01 3.87500E+01-1.00000E+01
 -1       996 2.60000E+01 3.87500E+01-1.00000E+01
 -1       997 2.80000E+01 3.87500E+01-1.00000E+01
 -1       998 2.20000E+01 4.06250E+01-1.00000E+01
 -1       999 2.40000E+01 4.06250E+01-1.00000E+01
 -1      1000 2.60000E+01 4.06250E+01-1.00000E+01
 -1      1001 2.80000E+01 4.06250E+01-1.00000E+01
 -1      1002 2.20000E+01 4.25000E+01-1.00000E+01
 -1      1003 2.40000E+01 4.25000E+01-1.00000E+01
 -1      1004 2.60000E+01 4.25000E+01-1.00000E+01
 -1      1005 2.80000E+01 4.25000E+01-1.00000E+01
 -1      1006 2.20000E+01 4.43750E+01-1.00000E+01
 -1      1007 2.40000E+01 4.43750E+01-1.00000E+01
 -1      1008 2.60000E+01 4.43750E+01-1.00000E+01
 -1      1009 2.80000E+01 4.43750E+01-1.00000E+01
 -1      1010 2.20000E+01 4.62500E+01-1.00000E+01
 -1      1011 2.40000E+01 4.62500E+01-1.00000E+01
 -1      1012 2.60000E+01 4.62500E+01-1.00000E+01
 -1      1013 2.80000E+01 4.62500E+01-1.00000E+01
 -1      1014 2.20000E+01 4.81250E+01-1.00000E+01
 -1      1015 2.40000E+01 4.81250E+01-1.00000E+01
 -1      1016 2.60000E+01 4.81250E+01-1.00000E+01
 -1      1017 2.80000E+01 4.81250E+01-1.00000E+01
 -1      1018 2.00000E+01 2.17083E+01-2.00000E+00
 -1      1019 2.00000E+01 2.34167E+01-2.00000E+00
 -1      1020 2.00000E+01 2.51250E+01-2.00000E+00
 -1      1021 2.00000E+01 2.71000E+01-2.00000E+00
 -1      1022 2.00000E+01 2.90750E+01-2.00000E+00
 -1      1023 2.00000E+01 3.10500E+01-2.00000E+00
 -1      1024 2.00000E+01 3.30250E+01-2.00000E+00
 -1      1025 2.00000E+01 3.50000E+01-2.00000E+00
 -1      1026 2.00000E+01 3.69750E+01-2.00000E+00
 -1      1027 2.00000E+01 3.89500E+01-2.00000E+00
 -1      1028 2.00000E+01 4.09250E+01-2.00000E+00
 -1      1029 2.00000E+01 4.29000E+01-2.00000E+00
 -1      1030 2.00000E+01 4.48750E+01-2.00000E+00
 -1      1031 2.00000E+01 4.65833E+01-2.00000E+00
 -1      1032 2.00000E+01 4.82917E+01-2.00000E+00
 -1      1033 2.00000E+01 2.17500E+01-4.00000E+00
 -1      1034 2.00000E+01 2.35000E+01-4.00000E+00
 -1      1035 2.00000E+01 2.52500E+01-4.00000E+00
 -1      1036 2.00000E+01 2.72000E+01-4.00000E+00
 -1      1037 2.00000E+01 2.91500E+01-4.00000E+00
 -1      1038 2.00000E+01 3.11000E+01-4.00000E+00
 -1      1039 2.00000E+01 3.30500E+01-4.00000E+00
 -1      1040 2.00000E+01 3.50000E+01-4.00000E+00
 -1      1041 2.00000E+01 3.69500E+01-4.00000E+00
 -1      1042 2.00000E+01 3.89000E+01-4.00000E+00
 -1      1043 2.00000E+01 4.08500E+01-4.00000E+00
 -1      1044 2.00000E+01 4.28000E+01-4.00000E+00
 -1      1045 2.00000E+01 4.47500E+01-4.00000E+00
 -1      1046 2.00000E+01 4.65000E+01-4.00000E+00
 -1      1047 2.00000E+01 4.82500E+01-4.00000E+00
 -1      1048 2.00000E+01 2.17917E+01-6.00000E+00
 -1      1049 2.00000E+01 2.35833E+01-6.00000E+00
 -1      1050 2.00000E+01 2.53750E+01-6.00000E+00
 -1      1051 2.00000E+01 2.73000E+01-6.00000E+00
 -1      1052 2.00000E+01 2.92250E+01-6.00000E+00
 -1      1053 2.00000E+01 3.11500E+01-6.00000E+00
 -1      1054 2.00000E+01 3.30750E+01-6.00000E+00
 -1      1055 2.00000E+01 3.50000E+01-6.00000E+00
 -1      1056 2.00000E+01 3.69250E+01-6.00000E+00
 -1      1057 2.00000E+01 3.88500E+01-6.00000E+00
 -1      1058 2.00000E+01 4.07750E+01-6.00000E+00
 -1      1059 2.00000E+01 4.27000E+01-6.00000E+00
 -1      1060 2.00000E+01 4.46250E+01-6.00000E+00
 -1      1061 2.00000E+01 4.64167E+01-6.00000E+00
 -1      1062 2.00000E+01 4.82083E+01-6.00000E+00
 -1      1063 2.00000E+01 2.18333E+01-8.00000E+00
 -1      1064 2.00000E+01 2.36667E+01-8.00000E+00
 -1      1065 2.00000E+01 2.55000E+01-8.00000E+00
 -1      1066 2.00000E+01 2.74000E+01-8.00000E+00
 -1      1067 2.00000E+01 2.93000E+01-8.00000E+00
 -1      1068 2.00000E+01 3.12000E+01-8.00000E+00
 -1      1069 2.00000E+01 3.31000E+01-8.00000E+00
 -1      1070 2.00000E+01 3.50000E+01-8.00000E+00
 -1      1071 2.00000E+01 3.69000E+01-8.00000E+00
 -1      1072 2.00000E+01 3.88000E+01-8.00000E+00
 -1      1073 2.00000E+01 4.07000E+01-8.00000E+00
 -1      1074 2.00000E+01 4.26000E+01-8.00000E+00
 -1      1075 2.00000E+01 4.45000E+01-8.00000E+00
 -1      1076 2.00000E+01 4.63333E+01-8.00000E+00
 -1      1077 2.00000E+01 4.81667E+01-8.00000E+00
 -1      1078 3.00000E+01 2.17083E+01-2.00000E+00
 -1      1079 3.00000E+01 2.34167E+01-2.00000E+00
 -1      1080 3.00000E+01 2.51250E+01-2.00000E+00
 -1      1081 3.00000E+01 2.71000E+01-2.00000E+00
 -1      1082 3.00000E+01 2.90750E+01-2.00000E+00
 -1      1083 3.00000E+01 3.10500E+01-2.00000E+00
 -1      1084 3.00000E+01 3.30250E+01-2.00000E+00
 -1      1085 3.00000E+01 3.50000E+01-2.00000E+00
 -1      1086 3.00000E+01 3.69750E+01-2.00000E+00
 -1      1087 3.00000E+01 3.89500E+01-2.00000E+00
 -1      1088 3.00000E+01 4.09250E+01-2.00000E+00
 -1      1089 3.00000E+01 4.29000E+01-2.00000E+00
 -1      1090 3.00000E+01 4.48750E+01-2.00000E+00
 -1      1091 3.00000E+01 4.65833E+01-2.00000E+00
 -1      1092 3.00000E+01 4.82917E+01-2.00000E+00
 -1      1093 3.00000E+01 2.17500E+01-4.00000E+00
 -1      1094 3.00000E+01 2.35000E+01-4.00000E+00
 -1      1095 3.00000E+01 2.52500E+01-4.00000E+00
 -1      1096 3.00000E+01 2.72000E+01-4.00000E+00
 -1      1097 3.00000E+01 2.91500E+01-4.00000E+00
 -1      1098 3.00000E+01 3.11000E+01-4.00000E+00
 -1      1099 3.00000E+01 3.30500E+01-4.00000E+00
 -1      1100 3.00000E+01 3.50000E+01-4.00000E+00
 -1      1101 3.00000E+01 3.69500E+01-4.00000E+00
 -1      1102 3.00000E+01 3.89000E+01-4.00000E+00
 -1      1103 3.00000E+01 4.08500E+01-4.00000E+00
 -1      1104 3.00000E+01 4.28000E+01-4.00000E+00
 -1      1105 3.00000E+01 4.47500E+01-4.00000E+00
 -1      1106 3.00000E+01 4.65000E+01-4.00000E+00
 -1      1107 3.00000E+01 4.82500E+01-4.00000E+00
 -1      1108 3.00000E+01 2.17917E+01-6.00000E+00
 -1      1109 3.00000E+01 2.35833E+01-6.00000E+00
 -1      1110 3.00000E+01 2.53750E+01-6.00000E+00
 -1      1111 3.00000E+01 2.73000E+01-6.00000E+00
 -1      1112 3.00000E+01 2.92250E+01-6.00000E+00
 -1      1113 3.00000E+01 3.11500E+01-6.00000E+00
 -1      1114 3.00000E+01 3.30750E+01-6.00000E+00
 -1      1115 3.00000E+01 3.50000E+01-6.00000E+00
 -1      1116 3.00000E+01 3.69250E+01-6.00000E+00
 -1      1117 3.00000E+01 3.88500E+01-6.00000E+00
 -1      1118 3.00000E+01 4.07750E+01-6.00000E+00
 -1      1119 3.00000E+01 4.27000E+01-6.00000E+00
 -1      1120 3.00000E+01 4.46250E+01-6.00000E+00
 -1      1121 3.00000E+01 4.64167E+01-6.00000E+00
 -1      1122 3.00000E+01 4.82083E+01-6.00000E+00
 -1      1123 3.00000E+01 2.18333E+01-8.00000E+00
 -1      1124 3.00000E+01 2.36667E+01-8.00000E+00
 -1      1125 3.00000E+01 2.55000E+01-8.00000E+00
 -1      1126 3.00000E+01 2.74000E+01-8.00000E+00
 -1      1127 3.00000E+01 2.93000E+01-8.00000E+00
 -1      1128 3.00000E+01 3.12000E+01-8.00000E+00
 -1      1129 3.00000E+01 3.31000E+01-8.00000E+00
 -1      1130 3.00000E+01 3.50000E+01-8.00000E+00
 -1      1131 3.00000E+01 3.69000E+01-8.00000E+00
 -1      1132 3.00000E+01 3.88000E+01-8.00000E+00
 -1      1133 3.00000E+01 4.07000E+01-8.00000E+00
 -1      1134 3.00000E+01 4.26000E+01-8.00000E+00
 -1      1135 3.00000E+01 4.45000E+01-8.00000E+00
 -1      1136 3.00000E+01 4.63333E+01-8.00000E+00
 -1      1137 3.00000E+01 4.81667E+01-8.00000E+00
 -1      1138 2.20000E+01 2.00000E+01-2.00000E+00
 -1      1139 2.40000E+01 2.00000E+01-2.00000E+00
 -1      1140 2.60000E+01 2.00000E+01-2.00000E+00
 -1      1141 2.80000E+01 2.00000E+01-2.00000E+00
 -1      1142 2.20000E+01 2.00000E+01-4.00000E+00
 -1      1143 2.40000E+01 2.00000E+01-4.00000E+00
 -1      1144 2.60000E+01 2.00000E+01-4.00000E+00
 -1      1145 2.80000E+01 2.00000E+01-4.00000E+00
 -1      1146 2.20000E+01 2.00000E+01-6.00000E+00
 -1      1147 2.40000E+01 2.00000E+01-6.00000E+00
 -1      1148 2.60000E+01 2.00000E+01-6.00000E+00
 -1      1149 2.80000E+01 2.00000E+01-6.00000E+00
 -1      1150 2.20000E+01 2.00000E+01-8.00000E+00
 -1      1151 2.40000E+01 2.00000E+01-8.00000E+00
 -1      1152 2.60000E+01 2.00000E+01-8.00000E+00
 -1      1153 2.80000E+01 2.00000E+01-8.00000E+00
 -1      1154 2.20000E+01 5.00000E+01-2.00000E+00
 -1      1155 2.40000E+01 5.00000E+01-2.00000E+00
 -1      1156 2.60000E+01 5.00000E+01-2.00000E+00
 -1      1157 2.80000E+01 5.00000E+01-2.00000E+00
 -1      1158 2.20000E+01 5.00000E+01-4.00000E+00
 -1      1159 2.40000E+01 5.00000E+01-4.00000E+00
 -1      1160 2.60000E+01 5.00000E+01-4.00000E+00
 -1      1161 2.80000E+01 5.00000E+01-4.00000E+00
 -1      1162 2.20000E+01 5.00000E+01-6.00000E+00
 -1      1163 2.40000E+01 5.00000E+01-6.00000E+00
 -1      1164 2.60000E+01 5.00000E+01-6.00000E+00
 -1      1165 2.80000E+01 5.00000E+01-6.00000E+00
 -1      1166 2.20000E+01 5.00000E+01-8.00000E+00
 -1      1167 2.40000E+01 5.00000E+01-8.00000E+00
 -1      1168 2.60000E+01 5.00000E+01-8.00000E+00
 -1      1169 2.80000E+01 5.00000E+01-8.00000E+00
 -1      1170-2.20000E+01 2.00000E+01-8.00000E+00
 -1      1171-2.40000E+01 2.00000E+01-8.00000E+00
 -1      1172-2.60000E+01 2.00000E+01-8.00000E+00
 -1      1173-2.80000E+01 2.00000E+01-8.00000E+00
 -1      1174-2.20000E+01 2.00000E+01-6.00000E+00
 -1      1175-2.40000E+01 2.00000E+01-6.00000E+00
 -1      1176-2.60000E+01 2.00000E+01-6.00000E+00
 -1      1177-2.80000E+01 2.00000E+01-6.00000E+00
 -1      1178-2.20000E+01 2.00000E+01-4.00000E+00
 -1      1179-2.40000E+01 2.00000E+01-4.00000E+00
 -1      1180-2.60000E+01 2.00000E+01-4.00000E+00
 -1      1181-2.80000E+01 2.00000E+01-4.00000E+00
 -1      1182-2.20000E+01 2.00000E+01-2.00000E+00
 -1      1183-2.40000E+01 2.00000E+01-2.00000E+00
 -1      1184-2.60000E+01 2.00000E+01-2.00000E+00
 -1      1185-2.80000E+01 2.00000E+01-2.00000E+00
 -1      1186-2.20000E+01 5.00000E+01-8.00000E+00
 -1      1187-2.40000E+01 5.00000E+01-8.00000E+00
 -1      1188-2.60000E+01 5.00000E+01-8.00000E+00
 -1      1189-2.80000E+01 5.00000E+01-8.00000E+00
 -1      1190-2.20000E+01 5.00000E+01-6.00000E+00
 -1      1191-2.40000E+01 5.00000E+01-6.00000E+00
 -1      1192-2.60000E+01 5.00000E+01-6.00000E+00
 -1      1193-2.80000E+01 5.00000E+01-6.00000E+00
 -1      1194-2.20000E+01 5.00000E+01-4.00000E+00
 -1      1195-2.40000E+01 5.00000E+01-4.00000E+00
 -1      1196-2.60000E+01 5.00000E+01-4.00000E+00
 -1      1197-2.80000E+01 5.00000E+01-4.00000E+00
 -1      1198-2.20000E+01 5.00000E+01-2.00000E+00
 -1      1199-2.40000E+01 5.00000E+01-2.00000E+00
 -1      1200-2.60000E+01 5.00000E+01-2.00000E+00
 -1      1201-2.80000E+01 5.00000E+01-2.00000E+00
 -1      1202-2.00000E+01 2.18333E+01-8.00000E+00
 -1      1203-2.00000E+01 2.17917E+01-6.00000E+00
 -1      1204-2.00000E+01 2.17500E+01-4.00000E+00
 -1      1205-2.00000E+01 2.17083E+01-2.00000E+00
 -1      1206-2.00000E+01 2.36667E+01-8.00000E+00
 -1      1207-2.00000E+01 2.35833E+01-6.00000E+00
 -1      1208-2.00000E+01 2.35000E+01-4.00000E+00
 -1      1209-2.00000E+01 2.34167E+01-2.00000E+00
 -1      1210-2.00000E+01 2.55000E+01-8.00000E+00
 -1      1211-2.00000E+01 2.53750E+01-6.00000E+00
 -1      1212-2.00000E+01 2.52500E+01-4.00000E+00
 -1      1213-2.00000E+01 2.51250E+01-2.00000E+00
 -1      1214-2.00000E+01 2.74000E+01-8.00000E+00
 -1      1215-2.00000E+01 2.73000E+01-6.00000E+00
 -1      1216-2.00000E+01 2.72000E+01-4.00000E+00
 -1      1217-2.00000E+01 2.71000E+01-2.00000E+00
 -1      1218-2.00000E+01 2.93000E+01-8.00000E+00
 -1      1219-2.00000E+01 2.92250E+01-6.00000E+00
 -1      1220-2.00000E+01 2.91500E+01-4.00000E+00
 -1      1221-2.00000E+01 2.90750E+01-2.00000E+00
 -1      1222-2.00000E+01 3.12000E+01-8.00000E+00
 -1      1223-2.00000E+01 3.11500E+01-6.00000E+00
 -1      1224-2.00000E+01 3.11000E+01-4.00000E+00
 -1      1225-2.00000E+01 3.10500E+01-2.00000E+00
 -1      1226-2.00000E+01 3.31000E+01-8.00000E+00
 -1      1227-2.00000E+01 3.30750E+01-6.00000E+00
 -1      1228-2.00000E+01 3.30500E+01-4.00000E+00
 -1      1229-2.00000E+01 3.30250E+01-2.00000E+00
 -1      1230-2.00000E+01 3.50000E+01-8.00000E+00
 -1      1231-2.00000E+01 3.50000E+01-6.00000E+00
 -1      1232-2.00000E+01 3.50000E+01-4.00000E+00
 -1      1233-2.00000E+01 3.50000E+01-2.00000E+00
 -1      1234-2.00000E+01 3.69000E+01-8.00000E+00
 -1      1235-2.00000E+01 3.69250E+01-6.00000E+00
 -1      1236-2.00000E+01 3.69500E+01-4.00000E+00
 -1      1237-2.00000E+01 3.69750E+01-2.00000E+00
 -1      1238-2.00000E+01 3.88000E+01-8.00000E+00
 -1      1239-2.00000E+01 3.88500E+01-6.00000E+00
 -1      1240-2.00000E+01 3.89000E+01-4.00000E+00
 -1      1241-2.00000E+01 3.89500E+01-2.00000E+00
 -1      1242-2.00000E+01 4.07000E+01-8.00000E+00
 -1      1243-2.00000E+01 4.07750E+01-6.00000E+00
 -1      1244-2.00000E+01 4.08500E+01-4.00000E+00
 -1      1245-2.00000E+01 4.09250E+01-2.00000E+00
 -1      1246-2.00000E+01 4.26000E+01-8.00000E+00
 -1      1247-2.00000E+01 4.27000E+01-6.00000E+00
 -1      1248-2.00000E+01 4.28000E+01-4.00000E+00
 -1      1249-2.00000E+01 4.29000E+01-2.00000E+00
 -1      1250-2.00000E+01 4.45000E+01-8.00000E+00
 -1      1251-2.00000E+01 4.46250E+01-6.00000E+00
 -1      1252-2.00000E+01 4.47500E+01-4.00000E+00
 -1      1253-2.00000E+01 4.48750E+01-2.00000E+00
 -1      1254-2.00000E+01 4.63333E+01-8.00000E+00
 -1      1255-2.00000E+01 4.64167E+01-6.00000E+00
 -1      1256-2.00000E+01 4.65000E+01-4.00000E+00
 -1      1257-2.00000E+01 4.65833E+01-2.00000E+00
 -1      1258-2.00000E+01 4.81667E+01-8.00000E+00
 -1      1259-2.00000E+01 4.82083E+01-6.00000E+00
 -1      1260-2.00000E+01 4.82500E+01-4.00000E+00
 -1      1261-2.00000E+01 4.82917E+01-2.00000E+00
 -1      1262-3.00000E+01 2.18333E+01-8.00000E+00
 -1      1263-3.00000E+01 2.17917E+01-6.00000E+00
 -1      1264-3.00000E+01 2.17500E+01-4.00000E+00
 -1      1265-3.00000E+01 2.17083E+01-2.00000E+00
 -1      1266-3.00000E+01 2.36667E+01-8.00000E+00
 -1      1267-3.00000E+01 2.35833E+01-6.00000E+00
 -1      1268-3.00000E+01 2.35000E+01-4.00000E+00
 -1      1269-3.00000E+01 2.34167E+01-2.00000E+00
 -1      1270-3.00000E+01 2.55000E+01-8.00000E+00
 -1      1271-3.00000E+01 2.53750E+01-6.00000E+00
 -1      1272-3.00000E+01 2.52500E+01-4.00000E+00
 -1      1273-3.00000E+01 2.51250E+01-2.00000E+00
 -1      1274-3.00000E+01 2.74000E+01-8.00000E+00
 -1      1275-3.00000E+01 2.73000E+01-6.00000E+00
 -1      1276-3.00000E+01 2.72000E+01-4.00000E+00
 -1      1277-3.00000E+01 2.71000E+01-2.00000E+00
 -1      1278-3.00000E+01 2.93000E+01-8.00000E+00
 -1      1279-3.00000E+01 2.92250E+01-6.00000E+00
 -1      1280-3.00000E+01 2.91500E+01-4.00000E+00
 -1      1281-3.00000E+01 2.90750E+01-2.00000E+00
 -1      1282-3.00000E+01 3.12000E+01-8.00000E+00
 -1      1283-3.00000E+01 3.11500E+01-6.00000E+00
 -1      1284-3.00000E+01 3.11000E+01-4.00000E+00
 -1      1285-3.00000E+01 3.10500E+01-2.00000E+00
 -1      1286-3.00000E+01 3.31000E+01-8.00000E+00
 -1      1287-3.00000E+01 3.30750E+01-6.00000E+00
 -1      1288-3.00000E+01 3.30500E+01-4.00000E+00
 -1      1289-3.00000E+01 3.30250E+01-2.00000E+00
 -1      1290-3.00000E+01 3.50000E+01-8.00000E+00
 -1      1291-3.00000E+01 3.50000E+01-6.00000E+00
 -1      1292-3.00000E+01 3.50000E+01-4.00000E+00
 -1      1293-3.00000E+01 3.50000E+01-2.00000E+00
 -1      1294-3.00000E+01 3.69000E+01-8.00000E+00
 -1      1295-3.00000E+01 3.69250E+01-6.00000E+00
 -1      1296-3.00000E+01 3.69500E+01-4.00000E+00
 -1      1297-3.00000E+01 3.69750E+01-2.00000E+00
 -1      1298-3.00000E+01 3.88000E+01-8.00000E+00
 -1      1299-3.00000E+01 3.88500E+01-6.00000E+00
 -1      1300-3.00000E+01 3.89000E+01-4.00000E+00
 -1      1301-3.00000E+01 3.89500E+01-2.00000E+00
 -1      1302-3.00000E+01 4.07000E+01-8.00000E+00
 -1      1303-3.00000E+01 4.07750E+01-6.00000E+00
 -1      1304-3.00000E+01 4.08500E+01-4.00000E+00
 -1      1305-3.00000E+01 4.09250E+01-2.00000E+00
 -1      1306-3.00000E+01 4.26000E+01-8.00000E+00
 -1      1307-3.00000E+01 4.27000E+01-6.00000E+00
 -1      1308-3.00000E+01 4.28000E+01-4.00000E+00
 -1      1309-3.00000E+01 4.29000E+01-2.00000E+00
 -1      1310-3.00000E+01 4.45000E+01-8.00000E+00
 -1      1311-3.00000E+01 4.46250E+01-6.00000E+00
 -1      1312-3.00000E+01 4.47500E+01-4.00000E+00
 -1      1313-3.00000E+01 4.48750E+01-2.00000E+00
 -1      1314-3.00000E+01 4.63333E+01-8.00000E+00
 -1      1315-3.00000E+01 4.64167E+01-6.00000E+00
 -1      1316-3.00000E+01 4.65000E+01-4.00000E+00
 -1      1317-3.00000E+01 4.65833E+01-2.00000E+00
 -1      1318-3.00000E+01 4.81667E+01-8.00000E+00
 -1      1319-3.00000E+01 4.82083E+01-6.00000E+00
 -1      1320-3.00000E+01 4.82500E+01-4.00000E+00
 -1      1321-3.00000E+01 4.82917E+01-2.00000E+00
 -1      1322-2.20000E+01 2.18750E+01-1.00000E+01
 -1      1323-2.40000E+01 2.18750E+01-1.00000E+01
 -1      1324-2.60000E+01 2.18750E+01-1.00000E+01
 -1      1325-2.80000E+01 2.18750E+01-1.00000E+01
 -1      1326-2.20000E+01 2.37500E+01-1.00000E+01
 -1      1327-2.40000E+01 2.37500E+01-1.00000E+01
 -1      1328-2.60000E+01 2.37500E+01-1.00000E+01
 -1      1329-2.80000E+01 2.37500E+01-1.00000E+01
 -1      1330-2.20000E+01 2.56250E+01-1.00000E+01
 -1      1331-2.40000E+01 2.56250E+01-1.00000E+01
 -1      1332-2.60000E+01 2.56250E+01-1.00000E+01
 -1      1333-2.80000E+01 2.56250E+01-1.00000E+01
 -1      1334-2.20000E+01 2.75000E+01-1.00000E+01
 -1      1335-2.40000E+01 2.75000E+01-1.00000E+01
 -1      1336-2.60000E+01 2.75000E+01-1.00000E+01
 -1      1337-2.80000E+01 2.75000E+01-1.00000E+01
 -1      1338-2.20000E+01 2.93750E+01-1.00000E+01
 -1      1339-2.40000E+01 2.93750E+01-1.00000E+01
 -1      1340-2.60000E+01 2.93750E+01-1.00000E+01
 -1      1341-2.80000E+01 2.93750E+01-1.00000E+01
 -1      1342-2.20000E+01 3.12500E+01-1.00000E+01
 -1      1343-2.40000E+01 3.12500E+01-1.00000E+01
 -1      1344-2.60000E+01 3.12500E+01-1.00000E+01
 -1      1345-2.80000E+01 3.12500E+01-1.00000E+01
 -1      1346-2.20000E+01 3.31250E+01-1.00000E+01
 -1      1347-2.40000E+01 3.31250E+01-1.00000E+01
 -1      1348-2.60000E+01 3.31250E+01-1.00000E+01
 -1      1349-2.80000E+01 3.31250E+01-1.00000E+01
 -1      1350-2.20000E+01 3.50000E+01-1.00000E+01
 -1      1351-2.40000E+01 3.50000E+01-1.00000E+01
 -1      1352-2.60000E+01 3.50000E+01-1.00000E+01
 -1      1353-2.80000E+01 3.50000E+01-1.00000E+01
 -1      1354-2.20000E+01 3.68750E+01-1.00000E+01
 -1      1355-2.40000E+01 3.68750E+01-1.00000E+01
 -1      1356-2.60000E+01 3.68750E+01-1.00000E+01
 -1      1357-2.80000E+01 3.68750E+01-1.00000E+01
 -1      1358-2.20000E+01 3.87500E+01-1.00000E+01
 -1      1359-2.40000E+01 3.87500E+01-1.00000E+01
 -1      1360-2.60000E+01 3.87500E+01-1.00000E+01
 -1      1361-2.80000E+01 3.87500E+01-1.00000E+01
 -1      1362-2.20000E+01 4.06250E+01-1.00000E+01
 -1      1363-2.40000E+01 4.06250E+01-1.00000E+01
 -1      1364-2.60000E+01 4.06250E+01-1.00000E+01
 -1      1365-2.80000E+01 4.06250E+01-1.00000E+01
 -1      1366-2.20000E+01 4.25000E+01-1.00000E+01
 -1      1367-2.40000E+01 4.25000E+01-1.00000E+01
 -1      1368-2.60000E+01 4.25000E+01-1.00000E+01
 -1      1369-2.80000E+01 4.25000E+01-1.00000E+01
 -1      1370-2.20000E+01 4.43750E+01-1.00000E+01
 -1      1371-2.40000E+01 4.43750E+01-1.00000E+01
 -1      1372-2.60000E+01 4.43750E+01-1.00000E+01
 -1      1373-2.80000E+01 4.43750E+01-1.00000E+01
 -1      1374-2.20000E+01 4.62500E+01-1.00000E+01
 -1      1375-2.40000E+01 4.62500E+01-1.00000E+01
 -1      1376-2.60000E+01 4.62500E+01-1.00000E+01
 -1      1377-2.80000E+01 4.62500E+01-1.00000E+01
 -1      1378-2.20000E+01 4.81250E+01-1.00000E+01
 -1      1379-2.40000E+01 4.81250E+01-1.00000E+01
 -1      1380-2.60000E+01 4.81250E+01-1.00000E+01
 -1      1381-2.80000E+01 4.81250E+01-1.00000E+01
 -1      1382-2.20000E+01 2.16667E+01 0.00000E+00
 -1      1383-2.40000E+01 2.16667E+01 0.00000E+00
 -1      1384-2.60000E+01 2.16667E+01 0.00000E+00
 -1      1385-2.80000E+01 2.16667E+01 0.00000E+00
 -1      1386-2.20000E+01 2.33333E+01 0.00000E+00
 -1      1387-2.40000E+01 2.33333E+01 0.00000E+00
 -1      1388-2.60000E+01 2.33333E+01 0.00000E+00
 -1      1389-2.80000E+01 2.33333E+01 0.00000E+00
 -1      1390-2.40000E+01 4.30000E+01 0.00000E+00
 -1      1391-2.40000E+01 4.10000E+01 0.00000E+00
 -1      1392-2.40000E+01 3.90000E+01 0.00000E+00
 -1      1393-2.40000E+01 3.70000E+01 0.00000E+00
 -1      1394-2.40000E+01 3.50000E+01 0.00000E+00
 -1      1395-2.40000E+01 3.30000E+01 0.00000E+00
 -1      1396-2.40000E+01 3.10000E+01 0.00000E+00
 -1      1397-2.40000E+01 2.90000E+01 0.00000E+00
 -1      1398-2.40000E+01 2.70000E+01 0.00000E+00
 -1      1399-2.20000E+01 4.30000E+01 0.00000E+00
 -1      1400-2.20000E+01 4.10000E+01 0.00000E+00
 -1      1401-2.20000E+01 3.90000E+01 0.00000E+00
 -1      1402-2.20000E+01 3.70000E+01 0.00000E+00
 -1      1403-2.20000E+01 3.50000E+01 0.00000E+00
 -1      1404-2.20000E+01 3.30000E+01 0.00000E+00
 -1      1405-2.20000E+01 3.10000E+01 0.00000E+00
 -1      1406-2.20000E+01 2.90000E+01 0.00000E+00
 -1      1407-2.20000E+01 2.70000E+01 0.00000E+00
 -1      1408-2.80000E+01 2.70000E+01 0.00000E+00
 -1      1409-2.80000E+01 2.90000E+01 0.00000E+00
 -1      1410-2.80000E+01 3.10000E+01 0.00000E+00
 -1      1411-2.80000E+01 3.30000E+01 0.00000E+00
 -1      1412-2.80000E+01 3.50000E+01 0.00000E+00
 -1      1413-2.80000E+01 3.70000E+01 0.00000E+00
 -1      1414-2.80000E+01 3.90000E+01 0.00000E+00
 -1      1415-2.80000E+01 4.10000E+01 0.00000E+00
 -1      1416-2.80000E+01 4.30000E+01 0.00000E+00
 -1      1417-2.80000E+01 4.66667E+01 0.00000E+00
 -1      1418-2.60000E+01 4.66667E+01 0.00000E+00
 -1      1419-2.40000E+01 4.66667E+01 0.00000E+00
 -1      1420-2.20000E+01 4.66667E+01 0.00000E+00
 -1      1421-2.80000E+01 4.83333E+01 0.00000E+00
 -1      1422-2.60000E+01 4.83333E+01 0.00000E+00
 -1      1423-2.40000E+01 4.83333E+01 0.00000E+00
 -1      1424-2.20000E+01 4.83333E+01 0.00000E+00
 -1      1425 1.99324E+01 5.16431E+01-2.00000E+00
 -1      1426 1.99331E+01 5.16347E+01-4.00000E+00
 -1      1427 1.99338E+01 5.16262E+01-6.00000E+00
 -1      1428 1.99345E+01 5.16178E+01-8.00000E+00
 -1      1429 1.97300E+01 5.32752E+01-2.00000E+00
 -1      1430 1.97328E+01 5.32584E+01-4.00000E+00
 -1      1431 1.97355E+01 5.32417E+01-6.00000E+00
 -1      1432 1.97383E+01 5.32250E+01-8.00000E+00
 -1      1433 1.93942E+01 5.48850E+01-2.00000E+00
 -1      1434 1.94004E+01 5.48604E+01-4.00000E+00
 -1      1435 1.94066E+01 5.48357E+01-6.00000E+00
 -1      1436 1.94127E+01 5.48110E+01-8.00000E+00
 -1      1437 1.89273E+01 5.64619E+01-2.00000E+00
 -1      1438 1.89383E+01 5.64298E+01-4.00000E+00
 -1      1439 1.89491E+01 5.63977E+01-6.00000E+00
 -1      1440 1.89600E+01 5.63655E+01-8.00000E+00
 -1      1441 1.83325E+01 5.79951E+01-2.00000E+00
 -1      1442 1.83494E+01 5.79562E+01-4.00000E+00
 -1      1443 1.83662E+01 5.79173E+01-6.00000E+00
 -1      1444 1.83829E+01 5.78783E+01-8.00000E+00
 -1      1445 1.76136E+01 5.94742E+01-2.00000E+00
 -1      1446 1.76377E+01 5.94293E+01-4.00000E+00
 -1      1447 1.76616E+01 5.93844E+01-6.00000E+00
 -1      1448 1.76854E+01 5.93395E+01-8.00000E+00
 -1      1449 1.67757E+01 6.08892E+01-2.00000E+00
 -1      1450 1.68080E+01 6.08394E+01-4.00000E+00
 -1      1451 1.68401E+01 6.07895E+01-6.00000E+00
 -1      1452 1.68720E+01 6.07394E+01-8.00000E+00
 -1      1453 1.58244E+01 6.22307E+01-2.00000E+00
 -1      1454 1.58658E+01 6.21769E+01-4.00000E+00
 -1      1455 1.59070E+01 6.21230E+01-6.00000E+00
 -1      1456 1.59480E+01 6.20690E+01-8.00000E+00
 -1      1457 1.47661E+01 6.34894E+01-2.00000E+00
 -1      1458 1.48174E+01 6.34329E+01-4.00000E+00
 -1      1459 1.48686E+01 6.33763E+01-6.00000E+00
 -1      1460 1.49195E+01 6.33195E+01-8.00000E+00
 -1      1461 1.36079E+01 6.46569E+01-2.00000E+00
 -1      1462 1.36699E+01 6.45991E+01-4.00000E+00
 -1      1463 1.37317E+01 6.45410E+01-6.00000E+00
 -1      1464 1.37932E+01 6.44827E+01-8.00000E+00
 -1      1465 1.23577E+01 6.57253E+01-2.00000E+00
 -1      1466 1.24309E+01 6.56675E+01-4.00000E+00
 -1      1467 1.25039E+01 6.56094E+01-6.00000E+00
 -1      1468 1.25765E+01 6.55509E+01-8.00000E+00
 -1      1469 1.10240E+01 6.66875E+01-2.00000E+00
 -1      1470 1.11088E+01 6.66312E+01-4.00000E+00
 -1      1471 1.11932E+01 6.65744E+01-6.00000E+00
 -1      1472 1.12774E+01 6.65173E+01-8.00000E+00
 -1      1473 9.61574E+00 6.75368E+01-2.00000E+00
 -1      1474 9.71225E+00 6.74835E+01-4.00000E+00
 -1      1475 9.80847E+00 6.74297E+01-6.00000E+00
 -1      1476 9.90439E+00 6.73754E+01-8.00000E+00
 -1      1477 8.14247E+00 6.82675E+01-2.00000E+00
 -1      1478 8.25076E+00 6.82188E+01-4.00000E+00
 -1      1479 8.35876E+00 6.81695E+01-6.00000E+00
 -1      1480 8.46646E+00 6.81196E+01-8.00000E+00
 -1      1481 6.61415E+00 6.88747E+01-2.00000E+00
 -1      1482 6.73405E+00 6.88322E+01-4.00000E+00
 -1      1483 6.85368E+00 6.87890E+01-6.00000E+00
 -1      1484 6.97304E+00 6.87450E+01-8.00000E+00
 -1      1485 5.04110E+00 6.93543E+01-2.00000E+00
 -1      1486 5.17228E+00 6.93196E+01-4.00000E+00
 -1      1487 5.30323E+00 6.92841E+01-6.00000E+00
 -1      1488 5.43392E+00 6.92477E+01-8.00000E+00
 -1      1489 3.43397E+00 6.97030E+01-2.00000E+00
 -1      1490 3.57590E+00 6.96777E+01-4.00000E+00
 -1      1491 3.71764E+00 6.96514E+01-6.00000E+00
 -1      1492 3.85919E+00 6.96241E+01-8.00000E+00
 -1      1493 1.80363E+00 6.99185E+01-2.00000E+00
 -1      1494 1.95559E+00 6.99042E+01-4.00000E+00
 -1      1495 2.10744E+00 6.98887E+01-6.00000E+00
 -1      1496 2.25917E+00 6.98720E+01-8.00000E+00
 -1      1497 1.61085E-01 6.99994E+01-2.00000E+00
 -1      1498 3.22190E-01 6.99974E+01-4.00000E+00
 -1      1499 4.83285E-01 6.99942E+01-6.00000E+00
 -1      1500 6.44339E-01 6.99896E+01-8.00000E+00
 -1      1501-1.41658E+00 6.99498E+01-2.00000E+00
 -1      1502-1.26386E+00 6.99600E+01-4.00000E+00
 -1      1503-1.11106E+00 6.99691E+01-6.00000E+00
 -1      1504-9.58204E-01 6.99770E+01-8.00000E+00
 -1      1505-2.98541E+00 6.97759E+01-2.00000E+00
 -1      1506-2.84196E+00 6.97971E+01-4.00000E+00
 -1      1507-2.69834E+00 6.98171E+01-6.00000E+00
 -1      1508-2.55459E+00 6.98362E+01-8.00000E+00
 -1      1509-4.53565E+00 6.94789E+01-2.00000E+00
 -1      1510-4.40217E+00 6.95095E+01-4.00000E+00
 -1      1511-4.26847E+00 6.95392E+01-6.00000E+00
 -1      1512-4.13458E+00 6.95680E+01-8.00000E+00
 -1      1513-6.05765E+00 6.90606E+01-2.00000E+00
 -1      1514-5.93468E+00 6.90992E+01-4.00000E+00
 -1      1515-5.81147E+00 6.91371E+01-6.00000E+00
 -1      1516-5.68802E+00 6.91741E+01-8.00000E+00
 -1      1517-7.54190E+00 6.85235E+01-2.00000E+00
 -1      1518-7.42986E+00 6.85687E+01-4.00000E+00
 -1      1519-7.31753E+00 6.86133E+01-6.00000E+00
 -1      1520-7.20494E+00 6.86571E+01-8.00000E+00
 -1      1521-8.97919E+00 6.78710E+01-2.00000E+00
 -1      1522-8.87827E+00 6.79214E+01-4.00000E+00
 -1      1523-8.77707E+00 6.79712E+01-6.00000E+00
 -1      1524-8.67559E+00 6.80204E+01-8.00000E+00
 -1      1525-1.03605E+01 6.71073E+01-2.00000E+00
 -1      1526-1.02708E+01 6.71613E+01-4.00000E+00
 -1      1527-1.01808E+01 6.72148E+01-6.00000E+00
 -1      1528-1.00905E+01 6.72679E+01-8.00000E+00
 -1      1529-1.16774E+01 6.62370E+01-2.00000E+00
 -1      1530-1.15988E+01 6.62932E+01-4.00000E+00
 -1      1531-1.15199E+01 6.63491E+01-6.00000E+00
 -1      1532-1.14407E+01 6.64046E+01-8.00000E+00
 -1      1533-1.29215E+01 6.52655E+01-2.00000E+00
 -1      1534-1.28537E+01 6.53226E+01-4.00000E+00
 -1      1535-1.27857E+01 6.53794E+01-6.00000E+00
 -1      1536-1.27174E+01 6.54359E+01-8.00000E+00
 -1      1537-1.40851E+01 6.41990E+01-2.00000E+00
 -1      1538-1.40278E+01 6.42556E+01-4.00000E+00
 -1      1539-1.39702E+01 6.43120E+01-6.00000E+00
 -1      1540-1.39125E+01 6.43681E+01-8.00000E+00
 -1      1541-1.51609E+01 6.30440E+01-2.00000E+00
 -1      1542-1.51136E+01 6.30989E+01-4.00000E+00
 -1      1543-1.50660E+01 6.31536E+01-6.00000E+00
 -1      1544-1.50182E+01 6.32081E+01-8.00000E+00
 -1      1545-1.61424E+01 6.18078E+01-2.00000E+00
 -1      1546-1.61042E+01 6.18597E+01-4.00000E+00
 -1      1547-1.60659E+01 6.19116E+01-6.00000E+00
 -1      1548-1.60275E+01 6.19633E+01-8.00000E+00
 -1      1549-1.70233E+01 6.04980E+01-2.00000E+00
 -1      1550-1.69936E+01 6.05460E+01-4.00000E+00
 -1      1551-1.69638E+01 6.05938E+01-6.00000E+00
 -1      1552-1.69339E+01 6.06416E+01-8.00000E+00
 -1      1553-1.77981E+01 5.91228E+01-2.00000E+00
 -1      1554-1.77760E+01 5.91658E+01-4.00000E+00
 -1      1555-1.77538E+01 5.92088E+01-6.00000E+00
 -1      1556-1.77315E+01 5.92516E+01-8.00000E+00
 -1      1557-1.84621E+01 5.76909E+01-2.00000E+00
 -1      1558-1.84466E+01 5.77280E+01-4.00000E+00
 -1      1559-1.84310E+01 5.77652E+01-6.00000E+00
 -1      1560-1.84153E+01 5.78023E+01-8.00000E+00
 -1      1561-1.90111E+01 5.62110E+01-2.00000E+00
 -1      1562-1.90011E+01 5.62416E+01-4.00000E+00
 -1      1563-1.89910E+01 5.62722E+01-6.00000E+00
 -1      1564-1.89809E+01 5.63028E+01-8.00000E+00
 -1      1565-1.94417E+01 5.46924E+01-2.00000E+00
 -1      1566-1.94361E+01 5.47159E+01-4.00000E+00
 -1      1567-1.94303E+01 5.47394E+01-6.00000E+00
 -1      1568-1.94246E+01 5.47628E+01-8.00000E+00
 -1      1569-1.97512E+01 5.31446E+01-2.00000E+00
 -1      1570-1.97487E+01 5.31605E+01-4.00000E+00
 -1      1571-1.97461E+01 5.31764E+01-6.00000E+00
 -1      1572-1.97436E+01 5.31923E+01-8.00000E+00
 -1      1573-1.99377E+01 5.15772E+01-2.00000E+00
 -1      1574-1.99371E+01 5.15852E+01-4.00000E+00
 -1      1575-1.99364E+01 5.15933E+01-6.00000E+00
 -1      1576-1.99358E+01 5.16013E+01-8.00000E+00
 -1      1577 2.98986E+01 5.24647E+01-2.00000E+00
 -1      1578 2.98996E+01 5.24520E+01-4.00000E+00
 -1      1579 2.99007E+01 5.24394E+01-6.00000E+00
 -1      1580 2.99017E+01 5.24267E+01-8.00000E+00
 -1      1581 2.95950E+01 5.49127E+01-2.00000E+00
 -1      1582 2.95992E+01 5.48876E+01-4.00000E+00
 -1      1583 2.96033E+01 5.48625E+01-6.00000E+00
 -1      1584 2.96074E+01 5.48374E+01-8.00000E+00
 -1      1585 2.90914E+01 5.73276E+01-2.00000E+00
 -1      1586 2.91006E+01 5.72906E+01-4.00000E+00
 -1      1587 2.91099E+01 5.72535E+01-6.00000E+00
 -1      1588 2.91191E+01 5.72165E+01-8.00000E+00
 -1      1589 2.83910E+01 5.96929E+01-2.00000E+00
 -1      1590 2.84074E+01 5.96447E+01-4.00000E+00
 -1      1591 2.84237E+01 5.95965E+01-6.00000E+00
 -1      1592 2.84399E+01 5.95483E+01-8.00000E+00
 -1      1593 2.74987E+01 6.19926E+01-2.00000E+00
 -1      1594 2.75240E+01 6.19343E+01-4.00000E+00
 -1      1595 2.75493E+01 6.18759E+01-6.00000E+00
 -1      1596 2.75744E+01 6.18175E+01-8.00000E+00
 -1      1597 2.64204E+01 6.42113E+01-2.00000E+00
 -1      1598 2.64565E+01 6.41440E+01-4.00000E+00
 -1      1599 2.64924E+01 6.40767E+01-6.00000E+00
 -1      1600 2.65281E+01 6.40092E+01-8.00000E+00
 -1      1601 2.51636E+01 6.63338E+01-2.00000E+00
 -1      1602 2.52119E+01 6.62591E+01-4.00000E+00
 -1      1603 2.52601E+01 6.61842E+01-6.00000E+00
 -1      1604 2.53080E+01 6.61092E+01-8.00000E+00
 -1      1605 2.37366E+01 6.83460E+01-2.00000E+00
 -1      1606 2.37987E+01 6.82654E+01-4.00000E+00
 -1      1607 2.38605E+01 6.81845E+01-6.00000E+00
 -1      1608 2.39220E+01 6.81035E+01-8.00000E+00
 -1      1609 2.21491E+01 7.02341E+01-2.00000E+00
 -1      1610 2.22261E+01 7.01494E+01-4.00000E+00
 -1      1611 2.23029E+01 7.00645E+01-6.00000E+00
 -1      1612 2.23793E+01 6.99792E+01-8.00000E+00
 -1      1613 2.04118E+01 7.19854E+01-2.00000E+00
 -1      1614 2.05049E+01 7.18986E+01-4.00000E+00
 -1      1615 2.05975E+01 7.18115E+01-6.00000E+00
 -1      1616 2.06898E+01 7.17240E+01-8.00000E+00
 -1      1617 1.85366E+01 7.35880E+01-2.00000E+00
 -1      1618 1.86464E+01 7.35013E+01-4.00000E+00
 -1      1619 1.87558E+01 7.34141E+01-6.00000E+00
 -1      1620 1.88648E+01 7.33264E+01-8.00000E+00
 -1      1621 1.65360E+01 7.50312E+01-2.00000E+00
 -1      1622 1.66631E+01 7.49467E+01-4.00000E+00
 -1      1623 1.67898E+01 7.48616E+01-6.00000E+00
 -1      1624 1.69161E+01 7.47759E+01-8.00000E+00
 -1      1625 1.44236E+01 7.63051E+01-2.00000E+00
 -1      1626 1.45684E+01 7.62252E+01-4.00000E+00
 -1      1627 1.47127E+01 7.61445E+01-6.00000E+00
 -1      1628 1.48566E+01 7.60630E+01-8.00000E+00
 -1      1629 1.22137E+01 7.74012E+01-2.00000E+00
 -1      1630 1.23761E+01 7.73282E+01-4.00000E+00
 -1      1631 1.25381E+01 7.72543E+01-6.00000E+00
 -1      1632 1.26997E+01 7.71794E+01-8.00000E+00
 -1      1633 9.92122E+00 7.83120E+01-2.00000E+00
 -1      1634 1.01011E+01 7.82483E+01-4.00000E+00
 -1      1635 1.02805E+01 7.81835E+01-6.00000E+00
 -1      1636 1.04596E+01 7.81176E+01-8.00000E+00
 -1      1637 7.56165E+00 7.90314E+01-2.00000E+00
 -1      1638 7.75842E+00 7.89794E+01-4.00000E+00
 -1      1639 7.95484E+00 7.89261E+01-6.00000E+00
 -1      1640 8.15088E+00 7.88715E+01-8.00000E+00
 -1      1641 5.15096E+00 7.95545E+01-2.00000E+00
 -1      1642 5.36385E+00 7.95166E+01-4.00000E+00
 -1      1643 5.57647E+00 7.94772E+01-6.00000E+00
 -1      1644 5.78879E+00 7.94362E+01-8.00000E+00
 -1      1645 2.70544E+00 7.98778E+01-2.00000E+00
 -1      1646 2.93338E+00 7.98562E+01-4.00000E+00
 -1      1647 3.16116E+00 7.98330E+01-6.00000E+00
 -1      1648 3.38875E+00 7.98080E+01-8.00000E+00
 -1      1649 2.41627E-01 7.99990E+01-2.00000E+00
 -1      1650 4.83285E-01 7.99961E+01-4.00000E+00
 -1      1651 7.24928E-01 7.99912E+01-6.00000E+00
 -1      1652 9.66508E-01 7.99844E+01-8.00000E+00
 -1      1653-2.12486E+00 7.99247E+01-2.00000E+00
 -1      1654-1.89579E+00 7.99400E+01-4.00000E+00
 -1      1655-1.66659E+00 7.99537E+01-6.00000E+00
 -1      1656-1.43731E+00 7.99655E+01-8.00000E+00
 -1      1657-4.47812E+00 7.96639E+01-2.00000E+00
 -1      1658-4.26293E+00 7.96956E+01-4.00000E+00
 -1      1659-4.04751E+00 7.97257E+01-6.00000E+00
 -1      1660-3.83189E+00 7.97543E+01-8.00000E+00
 -1      1661-6.80348E+00 7.92184E+01-2.00000E+00
 -1      1662-6.60325E+00 7.92643E+01-4.00000E+00
 -1      1663-6.40271E+00 7.93088E+01-6.00000E+00
 -1      1664-6.20187E+00 7.93519E+01-8.00000E+00
 -1      1665-9.08647E+00 7.85908E+01-2.00000E+00
 -1      1666-8.90202E+00 7.86488E+01-4.00000E+00
 -1      1667-8.71720E+00 7.87056E+01-6.00000E+00
 -1      1668-8.53203E+00 7.87612E+01-8.00000E+00
 -1      1669-1.13129E+01 7.77852E+01-2.00000E+00
 -1      1670-1.11448E+01 7.78531E+01-4.00000E+00
 -1      1671-1.09763E+01 7.79199E+01-6.00000E+00
 -1      1672-1.08074E+01 7.79857E+01-8.00000E+00
 -1      1673-1.34688E+01 7.68066E+01-2.00000E+00
 -1      1674-1.33174E+01 7.68821E+01-4.00000E+00
 -1      1675-1.31656E+01 7.69568E+01-6.00000E+00
 -1      1676-1.30134E+01 7.70306E+01-8.00000E+00
 -1      1677-1.55408E+01 7.56609E+01-2.00000E+00
 -1      1678-1.54062E+01 7.57419E+01-4.00000E+00
 -1      1679-1.52712E+01 7.58223E+01-6.00000E+00
 -1      1680-1.51358E+01 7.59019E+01-8.00000E+00
 -1      1681-1.75161E+01 7.43554E+01-2.00000E+00
 -1      1682-1.73981E+01 7.44398E+01-4.00000E+00
 -1      1683-1.72798E+01 7.45236E+01-6.00000E+00
 -1      1684-1.71611E+01 7.46069E+01-8.00000E+00
 -1      1685-1.93822E+01 7.28983E+01-2.00000E+00
 -1      1686-1.92805E+01 7.29839E+01-4.00000E+00
 -1      1687-1.91785E+01 7.30691E+01-6.00000E+00
 -1      1688-1.90761E+01 7.31539E+01-8.00000E+00
 -1      1689-2.11276E+01 7.12985E+01-2.00000E+00
 -1      1690-2.10416E+01 7.13834E+01-4.00000E+00
 -1      1691-2.09553E+01 7.14680E+01-6.00000E+00
 -1      1692-2.08687E+01 7.15522E+01-8.00000E+00
 -1      1693-2.27414E+01 6.95660E+01-2.00000E+00
 -1      1694-2.26703E+01 6.96483E+01-4.00000E+00
 -1      1695-2.25990E+01 6.97304E+01-6.00000E+00
 -1      1696-2.25273E+01 6.98121E+01-8.00000E+00
 -1      1697-2.42136E+01 6.77117E+01-2.00000E+00
 -1      1698-2.41564E+01 6.77896E+01-4.00000E+00
 -1      1699-2.40989E+01 6.78673E+01-6.00000E+00
 -1      1700-2.40412E+01 6.79449E+01-8.00000E+00
 -1      1701-2.55349E+01 6.57470E+01-2.00000E+00
 -1      1702-2.54904E+01 6.58189E+01-4.00000E+00
 -1      1703-2.54457E+01 6.58907E+01-6.00000E+00
 -1      1704-2.54008E+01 6.59624E+01-8.00000E+00
 -1      1705-2.66972E+01 6.36843E+01-2.00000E+00
 -1      1706-2.66641E+01 6.37487E+01-4.00000E+00
 -1      1707-2.66308E+01 6.38131E+01-6.00000E+00
 -1      1708-2.65973E+01 6.38775E+01-8.00000E+00
 -1      1709-2.76932E+01 6.15363E+01-2.00000E+00
 -1      1710-2.76699E+01 6.15920E+01-4.00000E+00
 -1      1711-2.76465E+01 6.16477E+01-6.00000E+00
 -1      1712-2.76230E+01 6.17034E+01-8.00000E+00
 -1      1713-2.85167E+01 5.93165E+01-2.00000E+00
 -1      1714-2.85017E+01 5.93624E+01-4.00000E+00
 -1      1715-2.84866E+01 5.94083E+01-6.00000E+00
 -1      1716-2.84714E+01 5.94542E+01-8.00000E+00
 -1      1717-2.91626E+01 5.70386E+01-2.00000E+00
 -1      1718-2.91541E+01 5.70738E+01-4.00000E+00
 -1      1719-2.91455E+01 5.71091E+01-6.00000E+00
 -1      1720-2.91369E+01 5.71443E+01-8.00000E+00
 -1      1721-2.96269E+01 5.47169E+01-2.00000E+00
 -1      1722-2.96231E+01 5.47408E+01-4.00000E+00
 -1      1723-2.96192E+01 5.47646E+01-6.00000E+00
 -1      1724-2.96154E+01 5.47885E+01-8.00000E+00
 -1      1725-2.99066E+01 5.23658E+01-2.00000E+00
 -1      1726-2.99056E+01 5.23779E+01-4.00000E+00
 -1      1727-2.99047E+01 5.23899E+01-6.00000E+00
 -1      1728-2.99037E+01 5.24020E+01-8.00000E+00
 -1      1729 2.19249E+01 5.18167E+01 0.00000E+00
 -1      1730 2.39180E+01 5.19819E+01 0.00000E+00
 -1      1731 2.59112E+01 5.21471E+01 0.00000E+00
 -1      1732 2.79044E+01 5.23122E+01 0.00000E+00
 -1      1733 2.16999E+01 5.36211E+01 0.00000E+00
 -1      1734 2.36727E+01 5.39503E+01 0.00000E+00
 -1      1735 2.56454E+01 5.42795E+01 0.00000E+00
 -1      1736 2.76181E+01 5.46087E+01 0.00000E+00
 -1      1737 2.13268E+01 5.54007E+01 0.00000E+00
 -1      1738 2.32656E+01 5.58917E+01 0.00000E+00
 -1      1739 2.52044E+01 5.63826E+01 0.00000E+00
 -1      1740 2.71432E+01 5.68736E+01 0.00000E+00
 -1      1741 2.08080E+01 5.71434E+01 0.00000E+00
 -1      1742 2.26996E+01 5.77928E+01 0.00000E+00
 -1      1743 2.45912E+01 5.84422E+01 0.00000E+00
 -1      1744 2.64829E+01 5.90916E+01 0.00000E+00
 -1      1745 2.01470E+01 5.88373E+01 0.00000E+00
 -1      1746 2.19786E+01 5.96407E+01 0.00000E+00
 -1      1747 2.38101E+01 6.04441E+01 0.00000E+00
 -1      1748 2.56417E+01 6.12475E+01 0.00000E+00
 -1      1749 1.93484E+01 6.04708E+01 0.00000E+00
 -1      1750 2.11074E+01 6.14227E+01 0.00000E+00
 -1      1751 2.28663E+01 6.23746E+01 0.00000E+00
 -1      1752 2.46253E+01 6.33265E+01 0.00000E+00
 -1      1753 1.84177E+01 6.20329E+01 0.00000E+00
 -1      1754 2.00920E+01 6.31268E+01 0.00000E+00
 -1      1755 2.17663E+01 6.42206E+01 0.00000E+00
 -1      1756 2.34407E+01 6.53145E+01 0.00000E+00
 -1      1757 1.73611E+01 6.35127E+01 0.00000E+00
 -1      1758 1.89394E+01 6.47411E+01 0.00000E+00
 -1      1759 2.05177E+01 6.59695E+01 0.00000E+00
 -1      1760 2.20959E+01 6.71980E+01 0.00000E+00
 -1      1761 1.61859E+01 6.49002E+01 0.00000E+00
 -1      1762 1.76574E+01 6.62548E+01 0.00000E+00
 -1      1763 1.91288E+01 6.76093E+01 0.00000E+00
 -1      1764 2.06003E+01 6.89639E+01 0.00000E+00
 -1      1765 1.49002E+01 6.61859E+01 0.00000E+00
 -1      1766 1.62548E+01 6.76574E+01 0.00000E+00
 -1      1767 1.76093E+01 6.91288E+01 0.00000E+00
 -1      1768 1.89639E+01 7.06003E+01 0.00000E+00
 -1      1769 1.35127E+01 6.73611E+01 0.00000E+00
 -1      1770 1.47411E+01 6.89394E+01 0.00000E+00
 -1      1771 1.59695E+01 7.05177E+01 0.00000E+00
 -1      1772 1.71980E+01 7.20959E+01 0.00000E+00
 -1      1773 1.20329E+01 6.84177E+01 0.00000E+00
 -1      1774 1.31268E+01 7.00920E+01 0.00000E+00
 -1      1775 1.42207E+01 7.17663E+01 0.00000E+00
 -1      1776 1.53145E+01 7.34407E+01 0.00000E+00
 -1      1777 1.04708E+01 6.93484E+01 0.00000E+00
 -1      1778 1.14227E+01 7.11074E+01 0.00000E+00
 -1      1779 1.23746E+01 7.28663E+01 0.00000E+00
 -1      1780 1.33265E+01 7.46253E+01 0.00000E+00
 -1      1781 8.83730E+00 7.01470E+01 0.00000E+00
 -1      1782 9.64069E+00 7.19786E+01 0.00000E+00
 -1      1783 1.04441E+01 7.38101E+01 0.00000E+00
 -1      1784 1.12475E+01 7.56417E+01 0.00000E+00
 -1      1785 7.14339E+00 7.08080E+01 0.00000E+00
 -1      1786 7.79279E+00 7.26996E+01 0.00000E+00
 -1      1787 8.44219E+00 7.45912E+01 0.00000E+00
 -1      1788 9.09159E+00 7.64829E+01 0.00000E+00
 -1      1789 5.40068E+00 7.13268E+01 0.00000E+00
 -1      1790 5.89165E+00 7.32656E+01 0.00000E+00
 -1      1791 6.38262E+00 7.52044E+01 0.00000E+00
 -1      1792 6.87359E+00 7.71432E+01 0.00000E+00
 -1      1793 3.62108E+00 7.17000E+01 0.00000E+00
 -1      1794 3.95027E+00 7.36727E+01 0.00000E+00
 -1      1795 4.27946E+00 7.56454E+01 0.00000E+00
 -1      1796 4.60865E+00 7.76181E+01 0.00000E+00
 -1      1797 1.81675E+00 7.19249E+01 0.00000E+00
 -1      1798 1.98190E+00 7.39180E+01 0.00000E+00
 -1      1799 2.14706E+00 7.59112E+01 0.00000E+00
 -1      1800 2.31222E+00 7.79044E+01 0.00000E+00
 -1      1801-1.72610E+00 7.19322E+01 0.00000E+00
 -1      1802-1.88302E+00 7.39260E+01 0.00000E+00
 -1      1803-2.03994E+00 7.59199E+01 0.00000E+00
 -1      1804-2.19685E+00 7.79137E+01 0.00000E+00
 -1      1805-3.44156E+00 7.17291E+01 0.00000E+00
 -1      1806-3.75443E+00 7.37045E+01 0.00000E+00
 -1      1807-4.06730E+00 7.56799E+01 0.00000E+00
 -1      1808-4.38017E+00 7.76553E+01 0.00000E+00
 -1      1809-5.13580E+00 7.13921E+01 0.00000E+00
 -1      1810-5.60269E+00 7.33369E+01 0.00000E+00
 -1      1811-6.06958E+00 7.52816E+01 0.00000E+00
 -1      1812-6.53647E+00 7.72264E+01 0.00000E+00
 -1      1813-6.79837E+00 7.09232E+01 0.00000E+00
 -1      1814-7.41641E+00 7.28254E+01 0.00000E+00
 -1      1815-8.03444E+00 7.47275E+01 0.00000E+00
 -1      1816-8.65248E+00 7.66296E+01 0.00000E+00
 -1      1817-8.41904E+00 7.03253E+01 0.00000E+00
 -1      1818-9.18440E+00 7.21731E+01 0.00000E+00
 -1      1819-9.94977E+00 7.40209E+01 0.00000E+00
 -1      1820-1.07151E+01 7.58686E+01 0.00000E+00
 -1      1821-9.98779E+00 6.96021E+01 0.00000E+00
 -1      1822-1.08958E+01 7.13842E+01 0.00000E+00
 -1      1823-1.18038E+01 7.31662E+01 0.00000E+00
 -1      1824-1.27117E+01 7.49482E+01 0.00000E+00
 -1      1825-1.14950E+01 6.87581E+01 0.00000E+00
 -1      1826-1.25400E+01 7.04634E+01 0.00000E+00
 -1      1827-1.35850E+01 7.21686E+01 0.00000E+00
 -1      1828-1.46300E+01 7.38739E+01 0.00000E+00
 -1      1829-1.29313E+01 6.77984E+01 0.00000E+00
 -1      1830-1.41068E+01 6.94164E+01 0.00000E+00
 -1      1831-1.52824E+01 7.10344E+01 0.00000E+00
 -1      1832-1.64580E+01 7.26525E+01 0.00000E+00
 -1      1833-1.42879E+01 6.67289E+01 0.00000E+00
 -1      1834-1.55868E+01 6.82497E+01 0.00000E+00
 -1      1835-1.68856E+01 6.97706E+01 0.00000E+00
 -1      1836-1.81845E+01 7.12914E+01 0.00000E+00
 -1      1837-1.55563E+01 6.55564E+01 0.00000E+00
 -1      1838-1.69706E+01 6.69706E+01 0.00000E+00
 -1      1839-1.83848E+01 6.83848E+01 0.00000E+00
 -1      1840-1.97990E+01 6.97990E+01 0.00000E+00
 -1      1841-1.67289E+01 6.42879E+01 0.00000E+00
 -1      1842-1.82497E+01 6.55868E+01 0.00000E+00
 -1      1843-1.97706E+01 6.68857E+01 0.00000E+00
 -1      1844-2.12914E+01 6.81845E+01 0.00000E+00
 -1      1845-1.77984E+01 6.29313E+01 0.00000E+00
 -1      1846-1.94164E+01 6.41068E+01 0.00000E+00
 -1      1847-2.10344E+01 6.52824E+01 0.00000E+00
 -1      1848-2.26525E+01 6.64580E+01 0.00000E+00
 -1      1849-1.87581E+01 6.14950E+01 0.00000E+00
 -1      1850-2.04634E+01 6.25400E+01 0.00000E+00
 -1      1851-2.21686E+01 6.35850E+01 0.00000E+00
 -1      1852-2.38739E+01 6.46300E+01 0.00000E+00
 -1      1853-1.96021E+01 5.99878E+01 0.00000E+00
 -1      1854-2.13842E+01 6.08958E+01 0.00000E+00
 -1      1855-2.31662E+01 6.18038E+01 0.00000E+00
 -1      1856-2.49482E+01 6.27117E+01 0.00000E+00
 -1      1857-2.03253E+01 5.84190E+01 0.00000E+00
 -1      1858-2.21731E+01 5.91844E+01 0.00000E+00
 -1      1859-2.40209E+01 5.99498E+01 0.00000E+00
 -1      1860-2.58686E+01 6.07151E+01 0.00000E+00
 -1      1861-2.09232E+01 5.67984E+01 0.00000E+00
 -1      1862-2.28254E+01 5.74164E+01 0.00000E+00
 -1      1863-2.47275E+01 5.80344E+01 0.00000E+00
 -1      1864-2.66296E+01 5.86525E+01 0.00000E+00
 -1      1865-2.13921E+01 5.51358E+01 0.00000E+00
 -1      1866-2.33369E+01 5.56027E+01 0.00000E+00
 -1      1867-2.52816E+01 5.60696E+01 0.00000E+00
 -1      1868-2.72264E+01 5.65365E+01 0.00000E+00
 -1      1869-2.17291E+01 5.34416E+01 0.00000E+00
 -1      1870-2.37045E+01 5.37544E+01 0.00000E+00
 -1      1871-2.56799E+01 5.40673E+01 0.00000E+00
 -1      1872-2.76553E+01 5.43802E+01 0.00000E+00
 -1      1873-2.19322E+01 5.17261E+01 0.00000E+00
 -1      1874-2.39260E+01 5.18830E+01 0.00000E+00
 -1      1875-2.59199E+01 5.20399E+01 0.00000E+00
 -1      1876-2.79137E+01 5.21969E+01 0.00000E+00
 -1      1877 2.19287E+01 5.17703E+01-1.00000E+01
 -1      1878 2.39222E+01 5.19312E+01-1.00000E+01
 -1      1879 2.59157E+01 5.20921E+01-1.00000E+01
 -1      1880 2.79092E+01 5.22531E+01-1.00000E+01
 -1      1881 2.17151E+01 5.35290E+01-1.00000E+01
 -1      1882 2.36892E+01 5.38499E+01-1.00000E+01
 -1      1883 2.56633E+01 5.41707E+01-1.00000E+01
 -1      1884 2.76374E+01 5.44915E+01-1.00000E+01
 -1      1885 2.13607E+01 5.52649E+01-1.00000E+01
 -1      1886 2.33026E+01 5.57436E+01-1.00000E+01
 -1      1887 2.52445E+01 5.62222E+01-1.00000E+01
 -1      1888 2.71864E+01 5.67008E+01-1.00000E+01
 -1      1889 2.08678E+01 5.69667E+01-1.00000E+01
 -1      1890 2.27649E+01 5.76000E+01-1.00000E+01
 -1      1891 2.46619E+01 5.82334E+01-1.00000E+01
 -1      1892 2.65590E+01 5.88667E+01-1.00000E+01
 -1      1893 2.02395E+01 5.86233E+01-1.00000E+01
 -1      1894 2.20795E+01 5.94072E+01-1.00000E+01
 -1      1895 2.39195E+01 6.01911E+01-1.00000E+01
 -1      1896 2.57594E+01 6.09751E+01-1.00000E+01
 -1      1897 1.94800E+01 6.02239E+01-1.00000E+01
 -1      1898 2.12509E+01 6.11534E+01-1.00000E+01
 -1      1899 2.30219E+01 6.20828E+01-1.00000E+01
 -1      1900 2.47928E+01 6.30122E+01-1.00000E+01
 -1      1901 1.85942E+01 6.17582E+01-1.00000E+01
 -1      1902 2.02846E+01 6.28272E+01-1.00000E+01
 -1      1903 2.19749E+01 6.38961E+01-1.00000E+01
 -1      1904 2.36653E+01 6.49650E+01-1.00000E+01
 -1      1905 1.75877E+01 6.32163E+01-1.00000E+01
 -1      1906 1.91866E+01 6.44178E+01-1.00000E+01
 -1      1907 2.07855E+01 6.56193E+01-1.00000E+01
 -1      1908 2.23844E+01 6.68208E+01-1.00000E+01
 -1      1909 1.64672E+01 6.45887E+01-1.00000E+01
 -1      1910 1.79643E+01 6.59149E+01-1.00000E+01
 -1      1911 1.94613E+01 6.72412E+01-1.00000E+01
 -1      1912 2.09583E+01 6.85674E+01-1.00000E+01
 -1      1913 1.52399E+01 6.58665E+01-1.00000E+01
 -1      1914 1.66254E+01 6.73089E+01-1.00000E+01
 -1      1915 1.80108E+01 6.87513E+01-1.00000E+01
 -1      1916 1.93963E+01 7.01937E+01-1.00000E+01
 -1      1917 1.39138E+01 6.70413E+01-1.00000E+01
 -1      1918 1.51787E+01 6.85905E+01-1.00000E+01
 -1      1919 1.64436E+01 7.01397E+01-1.00000E+01
 -1      1920 1.77085E+01 7.16889E+01-1.00000E+01
 -1      1921 1.24974E+01 6.81056E+01-1.00000E+01
 -1      1922 1.36336E+01 6.97516E+01-1.00000E+01
 -1      1923 1.47697E+01 7.13976E+01-1.00000E+01
 -1      1924 1.59058E+01 7.30435E+01-1.00000E+01
 -1      1925 1.10000E+01 6.90526E+01-1.00000E+01
 -1      1926 1.20000E+01 7.07846E+01-1.00000E+01
 -1      1927 1.30000E+01 7.25167E+01-1.00000E+01
 -1      1928 1.40000E+01 7.42487E+01-1.00000E+01
 -1      1929 9.43124E+00 6.98759E+01-1.00000E+01
 -1      1930 1.02886E+01 7.16828E+01-1.00000E+01
 -1      1931 1.11460E+01 7.34897E+01-1.00000E+01
 -1      1932 1.20034E+01 7.52966E+01-1.00000E+01
 -1      1933 7.80131E+00 7.05704E+01-1.00000E+01
 -1      1934 8.51052E+00 7.24404E+01-1.00000E+01
 -1      1935 9.21973E+00 7.43104E+01-1.00000E+01
 -1      1936 9.92894E+00 7.61805E+01-1.00000E+01
 -1      1937 6.12078E+00 7.11314E+01-1.00000E+01
 -1      1938 6.67722E+00 7.30524E+01-1.00000E+01
 -1      1939 7.23365E+00 7.49735E+01-1.00000E+01
 -1      1940 7.79009E+00 7.68945E+01-1.00000E+01
 -1      1941 4.40057E+00 7.15554E+01-1.00000E+01
 -1      1942 4.80062E+00 7.35150E+01-1.00000E+01
 -1      1943 5.20067E+00 7.54746E+01-1.00000E+01
 -1      1944 5.60072E+00 7.74341E+01-1.00000E+01
 -1      1945 2.65181E+00 7.18396E+01-1.00000E+01
 -1      1946 2.89288E+00 7.38250E+01-1.00000E+01
 -1      1947 3.13395E+00 7.58104E+01-1.00000E+01
 -1      1948 3.37503E+00 7.77958E+01-1.00000E+01
 -1      1949 8.85851E-01 7.19822E+01-1.00000E+01
 -1      1950 9.66383E-01 7.39805E+01-1.00000E+01
 -1      1951 1.04691E+00 7.59789E+01-1.00000E+01
 -1      1952 1.12745E+00 7.79773E+01-1.00000E+01
 -1      1953-8.85851E-01 7.19822E+01-1.00000E+01
 -1      1954-9.66383E-01 7.39805E+01-1.00000E+01
 -1      1955-1.04691E+00 7.59789E+01-1.00000E+01
 -1      1956-1.12745E+00 7.79773E+01-1.00000E+01
 -1      1957-2.65181E+00 7.18396E+01-1.00000E+01
 -1      1958-2.89288E+00 7.38250E+01-1.00000E+01
 -1      1959-3.13395E+00 7.58104E+01-1.00000E+01
 -1      1960-3.37503E+00 7.77958E+01-1.00000E+01
 -1      1961-4.40057E+00 7.15554E+01-1.00000E+01
 -1      1962-4.80062E+00 7.35150E+01-1.00000E+01
 -1      1963-5.20067E+00 7.54746E+01-1.00000E+01
 -1      1964-5.60072E+00 7.74341E+01-1.00000E+01
 -1      1965-6.12078E+00 7.11314E+01-1.00000E+01
 -1      1966-6.67722E+00 7.30524E+01-1.00000E+01
 -1      1967-7.23365E+00 7.49735E+01-1.00000E+01
 -1      1968-7.79009E+00 7.68945E+01-1.00000E+01
 -1      1969-7.80131E+00 7.05704E+01-1.00000E+01
 -1      1970-8.51052E+00 7.24404E+01-1.00000E+01
 -1      1971-9.21973E+00 7.43104E+01-1.00000E+01
 -1      1972-9.92894E+00 7.61805E+01-1.00000E+01
 -1      1973-9.43124E+00 6.98759E+01-1.00000E+01
 -1      1974-1.02886E+01 7.16828E+01-1.00000E+01
 -1      1975-1.11460E+01 7.34897E+01-1.00000E+01
 -1      1976-1.20034E+01 7.52966E+01-1.00000E+01
 -1      1977-1.10000E+01 6.90526E+01-1.00000E+01
 -1      1978-1.20000E+01 7.07846E+01-1.00000E+01
 -1      1979-1.30000E+01 7.25167E+01-1.00000E+01
 -1      1980-1.40000E+01 7.42487E+01-1.00000E+01
 -1      1981-1.24974E+01 6.81056E+01-1.00000E+01
 -1      1982-1.36336E+01 6.97516E+01-1.00000E+01
 -1      1983-1.47697E+01 7.13976E+01-1.00000E+01
 -1      1984-1.59058E+01 7.30435E+01-1.00000E+01
 -1      1985-1.39138E+01 6.70413E+01-1.00000E+01
 -1      1986-1.51787E+01 6.85905E+01-1.00000E+01
 -1      1987-1.64436E+01 7.01397E+01-1.00000E+01
 -1      1988-1.77085E+01 7.16889E+01-1.00000E+01
 -1      1989-1.52399E+01 6.58665E+01-1.00000E+01
 -1      1990-1.66254E+01 6.73089E+01-1.00000E+01
 -1      1991-1.80108E+01 6.87513E+01-1.00000E+01
 -1      1992-1.93963E+01 7.01937E+01-1.00000E+01
 -1      1993-1.64672E+01 6.45887E+01-1.00000E+01
 -1      1994-1.79643E+01 6.59149E+01-1.00000E+01
 -1      1995-1.94613E+01 6.72412E+01-1.00000E+01
 -1      1996-2.09583E+01 6.85674E+01-1.00000E+01
 -1      1997-1.75877E+01 6.32163E+01-1.00000E+01
 -1      1998-1.91866E+01 6.44178E+01-1.00000E+01
 -1      1999-2.07855E+01 6.56193E+01-1.00000E+01
 -1      2000-2.23844E+01 6.68208E+01-1.00000E+01
 -1      2001-1.85942E+01 6.17582E+01-1.00000E+01
 -1      2002-2.02846E+01 6.28272E+01-1.00000E+01
 -1      2003-2.19749E+01 6.38961E+01-1.00000E+01
 -1      2004-2.36653E+01 6.49650E+01-1.00000E+01
 -1      2005-1.94800E+01 6.02239E+01-1.00000E+01
 -1      2006-2.12509E+01 6.11534E+01-1.00000E+01
 -1      2007-2.30219E+01 6.20828E+01-1.00000E+01
 -1      2008-2.47928E+01 6.30122E+01-1.00000E+01
 -1      2009-2.02395E+01 5.86233E+01-1.00000E+01
 -1      2010-2.20795E+01 5.94072E+01-1.00000E+01
 -1      2011-2.39195E+01 6.01911E+01-1.00000E+01
 -1      2012-2.57594E+01 6.09751E+01-1.00000E+01
 -1      2013-2.08678E+01 5.69667E+01-1.00000E+01
 -1      2014-2.27649E+01 5.76000E+01-1.00000E+01
 -1      2015-2.46619E+01 5.82334E+01-1.00000E+01
 -1      2016-2.65590E+01 5.88667E+01-1.00000E+01
 -1      2017-2.13607E+01 5.52649E+01-1.00000E+01
 -1      2018-2.33026E+01 5.57436E+01-1.00000E+01
 -1      2019-2.52445E+01 5.62222E+01-1.00000E+01
 -1      2020-2.71864E+01 5.67008E+01-1.00000E+01
 -1      2021-2.17151E+01 5.35290E+01-1.00000E+01
 -1      2022-2.36892E+01 5.38499E+01-1.00000E+01
 -1      2023-2.56633E+01 5.41707E+01-1.00000E+01
 -1      2024-2.76374E+01 5.44915E+01-1.00000E+01
 -1      2025-2.19287E+01 5.17703E+01-1.00000E+01
 -1      2026-2.39222E+01 5.19312E+01-1.00000E+01
 -1      2027-2.59157E+01 5.20921E+01-1.00000E+01
 -1      2028-2.79092E+01 5.22531E+01-1.00000E+01
 -1      2029 2.98988E+01 5.24615E+01 2.50000E+00
 -1      2030 2.95961E+01 5.49065E+01 2.50000E+00
 -1      2031 2.90937E+01 5.73183E+01 2.50000E+00
 -1      2032 2.83951E+01 5.96808E+01 2.50000E+00
 -1      2033 2.75050E+01 6.19780E+01 2.50000E+00
 -1      2034 2.64295E+01 6.41945E+01 2.50000E+00
 -1      2035 2.51757E+01 6.63152E+01 2.50000E+00
 -1      2036 2.37521E+01 6.83259E+01 2.50000E+00
 -1      2037 2.21684E+01 7.02129E+01 2.50000E+00
 -1      2038 2.04351E+01 7.19637E+01 2.50000E+00
 -1      2039 1.85641E+01 7.35664E+01 2.50000E+00
 -1      2040 1.65678E+01 7.50101E+01 2.50000E+00
 -1      2041 1.44598E+01 7.62852E+01 2.50000E+00
 -1      2042 1.22544E+01 7.73830E+01 2.50000E+00
 -1      2043 9.96622E+00 7.82962E+01 2.50000E+00
 -1      2044 7.61088E+00 7.90185E+01 2.50000E+00
 -1      2045 5.20420E+00 7.95452E+01 2.50000E+00
 -1      2046 2.76244E+00 7.98725E+01 2.50000E+00
 -1      2047 3.02040E-01 7.99985E+01 2.50000E+00
 -1      2048-2.06761E+00 7.99287E+01 2.50000E+00
 -1      2049-4.42435E+00 7.96720E+01 2.50000E+00
 -1      2050-6.75346E+00 7.92300E+01 2.50000E+00
 -1      2051-9.04039E+00 7.86054E+01 2.50000E+00
 -1      2052-1.12709E+01 7.78023E+01 2.50000E+00
 -1      2053-1.34310E+01 7.68255E+01 2.50000E+00
 -1      2054-1.55072E+01 7.56812E+01 2.50000E+00
 -1      2055-1.74866E+01 7.43766E+01 2.50000E+00
 -1      2056-1.93568E+01 7.29197E+01 2.50000E+00
 -1      2057-2.11061E+01 7.13197E+01 2.50000E+00
 -1      2058-2.27237E+01 6.95866E+01 2.50000E+00
 -1      2059-2.41993E+01 6.77312E+01 2.50000E+00
 -1      2060-2.55238E+01 6.57650E+01 2.50000E+00
 -1      2061-2.66889E+01 6.37004E+01 2.50000E+00
 -1      2062-2.76874E+01 6.15502E+01 2.50000E+00
 -1      2063-2.85130E+01 5.93279E+01 2.50000E+00
 -1      2064-2.91605E+01 5.70474E+01 2.50000E+00
 -1      2065-2.96259E+01 5.47229E+01 2.50000E+00
 -1      2066-2.99063E+01 5.23688E+01 2.50000E+00
 -1      2067 2.99001E+01 5.24457E+01 5.00000E+00
 -1      2068 2.96012E+01 5.48751E+01 5.00000E+00
 -1      2069 2.91053E+01 5.72721E+01 5.00000E+00
 -1      2070 2.84156E+01 5.96206E+01 5.00000E+00
 -1      2071 2.75367E+01 6.19051E+01 5.00000E+00
 -1      2072 2.64745E+01 6.41103E+01 5.00000E+00
 -1      2073 2.52360E+01 6.62217E+01 5.00000E+00
 -1      2074 2.38296E+01 6.82250E+01 5.00000E+00
 -1      2075 2.22645E+01 7.01070E+01 5.00000E+00
 -1      2076 2.05512E+01 7.18551E+01 5.00000E+00
 -1      2077 1.87011E+01 7.34578E+01 5.00000E+00
 -1      2078 1.67265E+01 7.49043E+01 5.00000E+00
 -1      2079 1.46406E+01 7.61850E+01 5.00000E+00
 -1      2080 1.24572E+01 7.72914E+01 5.00000E+00
 -1      2081 1.01909E+01 7.82161E+01 5.00000E+00
 -1      2082 7.85667E+00 7.89529E+01 5.00000E+00
 -1      2083 5.47019E+00 7.94971E+01 5.00000E+00
 -1      2084 3.04729E+00 7.98448E+01 5.00000E+00
 -1      2085 6.04112E-01 7.99939E+01 5.00000E+00
 -1      2086-1.78120E+00 7.99471E+01 5.00000E+00
 -1      2087-4.15525E+00 7.97108E+01 5.00000E+00
 -1      2088-6.50302E+00 7.92867E+01 5.00000E+00
 -1      2089-8.80966E+00 7.86773E+01 5.00000E+00
 -1      2090-1.10606E+01 7.78866E+01 5.00000E+00
 -1      2091-1.32416E+01 7.69195E+01 5.00000E+00
 -1      2092-1.53388E+01 7.57822E+01 5.00000E+00
 -1      2093-1.73390E+01 7.44818E+01 5.00000E+00
 -1      2094-1.92296E+01 7.30266E+01 5.00000E+00
 -1      2095-2.09985E+01 7.14257E+01 5.00000E+00
 -1      2096-2.26347E+01 6.96894E+01 5.00000E+00
 -1      2097-2.41277E+01 6.78285E+01 5.00000E+00
 -1      2098-2.54681E+01 6.58549E+01 5.00000E+00
 -1      2099-2.66474E+01 6.37810E+01 5.00000E+00
 -1      2100-2.76582E+01 6.16199E+01 5.00000E+00
 -1      2101-2.84941E+01 5.93853E+01 5.00000E+00
 -1      2102-2.91498E+01 5.70914E+01 5.00000E+00
 -1      2103-2.96211E+01 5.47527E+01 5.00000E+00
 -1      2104-2.99051E+01 5.23839E+01 5.00000E+00
 -1      2105 2.99014E+01 5.24298E+01 7.50000E+00
 -1      2106 2.96064E+01 5.48437E+01 7.50000E+00
 -1      2107 2.91168E+01 5.72258E+01 7.50000E+00
 -1      2108 2.84359E+01 5.95603E+01 7.50000E+00
 -1      2109 2.75681E+01 6.18321E+01 7.50000E+00
 -1      2110 2.65192E+01 6.40261E+01 7.50000E+00
 -1      2111 2.52960E+01 6.61279E+01 7.50000E+00
 -1      2112 2.39067E+01 6.81238E+01 7.50000E+00
 -1      2113 2.23602E+01 7.00006E+01 7.50000E+00
 -1      2114 2.06668E+01 7.17459E+01 7.50000E+00
 -1      2115 1.88376E+01 7.33484E+01 7.50000E+00
 -1      2116 1.68846E+01 7.47974E+01 7.50000E+00
 -1      2117 1.48207E+01 7.60835E+01 7.50000E+00
 -1      2118 1.26593E+01 7.71982E+01 7.50000E+00
 -1      2119 1.04148E+01 7.81342E+01 7.50000E+00
 -1      2120 8.10191E+00 7.88853E+01 7.50000E+00
 -1      2121 5.73574E+00 7.94466E+01 7.50000E+00
 -1      2122 3.33188E+00 7.98144E+01 7.50000E+00
 -1      2123 9.06121E-01 7.99863E+01 7.50000E+00
 -1      2124-1.49463E+00 7.99627E+01 7.50000E+00
 -1      2125-3.88581E+00 7.97473E+01 7.50000E+00
 -1      2126-6.25210E+00 7.93413E+01 7.50000E+00
 -1      2127-8.57835E+00 7.87474E+01 7.50000E+00
 -1      2128-1.08497E+01 7.79694E+01 7.50000E+00
 -1      2129-1.30515E+01 7.70122E+01 7.50000E+00
 -1      2130-1.51697E+01 7.58820E+01 7.50000E+00
 -1      2131-1.71908E+01 7.45861E+01 7.50000E+00
 -1      2132-1.91018E+01 7.31327E+01 7.50000E+00
 -1      2133-2.08904E+01 7.15312E+01 7.50000E+00
 -1      2134-2.25452E+01 6.97917E+01 7.50000E+00
 -1      2135-2.40557E+01 6.79255E+01 7.50000E+00
 -1      2136-2.54121E+01 6.59445E+01 7.50000E+00
 -1      2137-2.66057E+01 6.38614E+01 7.50000E+00
 -1      2138-2.76289E+01 6.16895E+01 7.50000E+00
 -1      2139-2.84752E+01 5.94427E+01 7.50000E+00
 -1      2140-2.91391E+01 5.71355E+01 7.50000E+00
 -1      2141-2.96163E+01 5.47825E+01 7.50000E+00
 -1      2142-2.99039E+01 5.23989E+01 7.50000E+00
 -1      2143 1.99326E+01 5.16410E+01 2.50000E+00
 -1      2144 1.97307E+01 5.32710E+01 2.50000E+00
 -1      2145 1.93958E+01 5.48789E+01 2.50000E+00
 -1      2146 1.89301E+01 5.64539E+01 2.50000E+00
 -1      2147 1.83367E+01 5.79853E+01 2.50000E+00
 -1      2148 1.76197E+01 5.94630E+01 2.50000E+00
 -1      2149 1.67838E+01 6.08768E+01 2.50000E+00
 -1      2150 1.58347E+01 6.22172E+01 2.50000E+00
 -1      2151 1.47789E+01 6.34753E+01 2.50000E+00
 -1      2152 1.36234E+01 6.46425E+01 2.50000E+00
 -1      2153 1.23760E+01 6.57109E+01 2.50000E+00
 -1      2154 1.10452E+01 6.66734E+01 2.50000E+00
 -1      2155 9.63990E+00 6.75235E+01 2.50000E+00
 -1      2156 8.16957E+00 6.82554E+01 2.50000E+00
 -1      2157 6.64415E+00 6.88641E+01 2.50000E+00
 -1      2158 5.07392E+00 6.93457E+01 2.50000E+00
 -1      2159 3.46947E+00 6.96968E+01 2.50000E+00
 -1      2160 1.84162E+00 6.99150E+01 2.50000E+00
 -1      2161 2.01360E-01 6.99990E+01 2.50000E+00
 -1      2162-1.37841E+00 6.99524E+01 2.50000E+00
 -1      2163-2.94956E+00 6.97813E+01 2.50000E+00
 -1      2164-4.50230E+00 6.94866E+01 2.50000E+00
 -1      2165-6.02693E+00 6.90703E+01 2.50000E+00
 -1      2166-7.51392E+00 6.85349E+01 2.50000E+00
 -1      2167-8.95399E+00 6.78837E+01 2.50000E+00
 -1      2168-1.03381E+01 6.71208E+01 2.50000E+00
 -1      2169-1.16577E+01 6.62511E+01 2.50000E+00
 -1      2170-1.29045E+01 6.52798E+01 2.50000E+00
 -1      2171-1.40708E+01 6.42132E+01 2.50000E+00
 -1      2172-1.51491E+01 6.30577E+01 2.50000E+00
 -1      2173-1.61329E+01 6.18208E+01 2.50000E+00
 -1      2174-1.70159E+01 6.05100E+01 2.50000E+00
 -1      2175-1.77926E+01 5.91336E+01 2.50000E+00
 -1      2176-1.84583E+01 5.77002E+01 2.50000E+00
 -1      2177-1.90086E+01 5.62186E+01 2.50000E+00
 -1      2178-1.94403E+01 5.46983E+01 2.50000E+00
 -1      2179-1.97506E+01 5.31486E+01 2.50000E+00
 -1      2180-1.99376E+01 5.15792E+01 2.50000E+00
 -1      2181 1.99334E+01 5.16305E+01 5.00000E+00
 -1      2182 1.97342E+01 5.32501E+01 5.00000E+00
 -1      2183 1.94035E+01 5.48480E+01 5.00000E+00
 -1      2184 1.89437E+01 5.64137E+01 5.00000E+00
 -1      2185 1.83578E+01 5.79367E+01 5.00000E+00
 -1      2186 1.76497E+01 5.94069E+01 5.00000E+00
 -1      2187 1.68240E+01 6.08144E+01 5.00000E+00
 -1      2188 1.58864E+01 6.21500E+01 5.00000E+00
 -1      2189 1.48430E+01 6.34047E+01 5.00000E+00
 -1      2190 1.37008E+01 6.45701E+01 5.00000E+00
 -1      2191 1.24674E+01 6.56385E+01 5.00000E+00
 -1      2192 1.11510E+01 6.66028E+01 5.00000E+00
 -1      2193 9.76040E+00 6.74566E+01 5.00000E+00
 -1      2194 8.30479E+00 6.81942E+01 5.00000E+00
 -1      2195 6.79390E+00 6.88107E+01 5.00000E+00
 -1      2196 5.23778E+00 6.93020E+01 5.00000E+00
 -1      2197 3.64679E+00 6.96647E+01 5.00000E+00
 -1      2198 2.03153E+00 6.98966E+01 5.00000E+00
 -1      2199 4.02741E-01 6.99959E+01 5.00000E+00
 -1      2200-1.18747E+00 6.99647E+01 5.00000E+00
 -1      2201-2.77017E+00 6.98072E+01 5.00000E+00
 -1      2202-4.33535E+00 6.95245E+01 5.00000E+00
 -1      2203-5.87311E+00 6.91182E+01 5.00000E+00
 -1      2204-7.37372E+00 6.85911E+01 5.00000E+00
 -1      2205-8.82771E+00 6.79464E+01 5.00000E+00
 -1      2206-1.02259E+01 6.71881E+01 5.00000E+00
 -1      2207-1.15593E+01 6.63212E+01 5.00000E+00
 -1      2208-1.28197E+01 6.53511E+01 5.00000E+00
 -1      2209-1.39990E+01 6.42838E+01 5.00000E+00
 -1      2210-1.50898E+01 6.31262E+01 5.00000E+00
 -1      2211-1.60851E+01 6.18857E+01 5.00000E+00
 -1      2212-1.69787E+01 6.05699E+01 5.00000E+00
 -1      2213-1.77649E+01 5.91873E+01 5.00000E+00
 -1      2214-1.84388E+01 5.77466E+01 5.00000E+00
 -1      2215-1.89961E+01 5.62569E+01 5.00000E+00
 -1      2216-1.94332E+01 5.47276E+01 5.00000E+00
 -1      2217-1.97474E+01 5.31685E+01 5.00000E+00
 -1      2218-1.99368E+01 5.15893E+01 5.00000E+00
 -1      2219 1.99343E+01 5.16199E+01 7.50000E+00
 -1      2220 1.97376E+01 5.32291E+01 7.50000E+00
 -1      2221 1.94112E+01 5.48172E+01 7.50000E+00
 -1      2222 1.89573E+01 5.63736E+01 7.50000E+00
 -1      2223 1.83788E+01 5.78881E+01 7.50000E+00
 -1      2224 1.76795E+01 5.93507E+01 7.50000E+00
 -1      2225 1.68640E+01 6.07519E+01 7.50000E+00
 -1      2226 1.59378E+01 6.20825E+01 7.50000E+00
 -1      2227 1.49068E+01 6.33337E+01 7.50000E+00
 -1      2228 1.37779E+01 6.44973E+01 7.50000E+00
 -1      2229 1.25584E+01 6.55656E+01 7.50000E+00
 -1      2230 1.12564E+01 6.65316E+01 7.50000E+00
 -1      2231 9.88044E+00 6.73890E+01 7.50000E+00
 -1      2232 8.43956E+00 6.81321E+01 7.50000E+00
 -1      2233 6.94323E+00 6.87561E+01 7.50000E+00
 -1      2234 5.40127E+00 6.92569E+01 7.50000E+00
 -1      2235 3.82382E+00 6.96311E+01 7.50000E+00
 -1      2236 2.22125E+00 6.98763E+01 7.50000E+00
 -1      2237 6.04081E-01 6.99909E+01 7.50000E+00
 -1      2238-9.96421E-01 6.99752E+01 7.50000E+00
 -1      2239-2.59054E+00 6.98315E+01 7.50000E+00
 -1      2240-4.16807E+00 6.95609E+01 7.50000E+00
 -1      2241-5.71890E+00 6.91649E+01 7.50000E+00
 -1      2242-7.23311E+00 6.86462E+01 7.50000E+00
 -1      2243-8.70099E+00 6.80081E+01 7.50000E+00
 -1      2244-1.01131E+01 6.72547E+01 7.50000E+00
 -1      2245-1.14605E+01 6.63907E+01 7.50000E+00
 -1      2246-1.27345E+01 6.54218E+01 7.50000E+00
 -1      2247-1.39269E+01 6.43541E+01 7.50000E+00
 -1      2248-1.50302E+01 6.31945E+01 7.50000E+00
 -1      2249-1.60371E+01 6.19504E+01 7.50000E+00
 -1      2250-1.69414E+01 6.06297E+01 7.50000E+00
 -1      2251-1.77371E+01 5.92409E+01 7.50000E+00
 -1      2252-1.84193E+01 5.77930E+01 7.50000E+00
 -1      2253-1.89834E+01 5.62951E+01 7.50000E+00
 -1      2254-1.94260E+01 5.47570E+01 7.50000E+00
 -1      2255-1.97442E+01 5.31883E+01 7.50000E+00
 -1      2256-1.99360E+01 5.15993E+01 7.50000E+00
 -1      2257 2.80000E+01 5.00000E+01 2.50000E+00
 -1      2258 2.80000E+01 5.00000E+01 5.00000E+00
 -1      2259 2.80000E+01 5.00000E+01 7.50000E+00
 -1      2260 2.60000E+01 5.00000E+01 2.50000E+00
 -1      2261 2.60000E+01 5.00000E+01 5.00000E+00
 -1      2262 2.60000E+01 5.00000E+01 7.50000E+00
 -1      2263 2.40000E+01 5.00000E+01 2.50000E+00
 -1      2264 2.40000E+01 5.00000E+01 5.00000E+00
 -1      2265 2.40000E+01 5.00000E+01 7.50000E+00
 -1      2266 2.20000E+01 5.00000E+01 2.50000E+00
 -1      2267 2.20000E+01 5.00000E+01 5.00000E+00
 -1      2268 2.20000E+01 5.00000E+01 7.50000E+00
 -1      2269-2.80000E+01 5.00000E+01 2.50000E+00
 -1      2270-2.80000E+01 5.00000E+01 5.00000E+00
 -1      2271-2.80000E+01 5.00000E+01 7.50000E+00
 -1      2272-2.60000E+01 5.00000E+01 2.50000E+00
 -1      2273-2.60000E+01 5.00000E+01 5.00000E+00
 -1      2274-2.60000E+01 5.00000E+01 7.50000E+00
 -1      2275-2.40000E+01 5.00000E+01 2.50000E+00
 -1      2276-2.40000E+01 5.00000E+01 5.00000E+00
 -1      2277-2.40000E+01 5.00000E+01 7.50000E+00
 -1      2278-2.20000E+01 5.00000E+01 2.50000E+00
 -1      2279-2.20000E+01 5.00000E+01 5.00000E+00
 -1      2280-2.20000E+01 5.00000E+01 7.50000E+00
 -1      2281 2.79092E+01 5.22531E+01 1.00000E+01
 -1      2282 2.76374E+01 5.44915E+01 1.00000E+01
 -1      2283 2.71864E+01 5.67008E+01 1.00000E+01
 -1      2284 2.65590E+01 5.88667E+01 1.00000E+01
 -1      2285 2.57594E+01 6.09751E+01 1.00000E+01
 -1      2286 2.47928E+01 6.30122E+01 1.00000E+01
 -1      2287 2.36653E+01 6.49650E+01 1.00000E+01
 -1      2288 2.23844E+01 6.68208E+01 1.00000E+01
 -1      2289 2.09583E+01 6.85674E+01 1.00000E+01
 -1      2290 1.93963E+01 7.01937E+01 1.00000E+01
 -1      2291 1.77085E+01 7.16889E+01 1.00000E+01
 -1      2292 1.59058E+01 7.30435E+01 1.00000E+01
 -1      2293 1.40000E+01 7.42487E+01 1.00000E+01
 -1      2294 1.20034E+01 7.52966E+01 1.00000E+01
 -1      2295 9.92894E+00 7.61805E+01 1.00000E+01
 -1      2296 7.79009E+00 7.68945E+01 1.00000E+01
 -1      2297 5.60072E+00 7.74341E+01 1.00000E+01
 -1      2298 3.37503E+00 7.77958E+01 1.00000E+01
 -1      2299 1.12745E+00 7.79773E+01 1.00000E+01
 -1      2300-1.12745E+00 7.79773E+01 1.00000E+01
 -1      2301-3.37503E+00 7.77958E+01 1.00000E+01
 -1      2302-5.60072E+00 7.74341E+01 1.00000E+01
 -1      2303-7.79009E+00 7.68945E+01 1.00000E+01
 -1      2304-9.92894E+00 7.61805E+01 1.00000E+01
 -1      2305-1.20034E+01 7.52966E+01 1.00000E+01
 -1      2306-1.40000E+01 7.42487E+01 1.00000E+01
 -1      2307-1.59058E+01 7.30435E+01 1.00000E+01
 -1      2308-1.77085E+01 7.16889E+01 1.00000E+01
 -1      2309-1.93963E+01 7.01937E+01 1.00000E+01
 -1      2310-2.09583E+01 6.85674E+01 1.00000E+01
 -1      2311-2.23844E+01 6.68208E+01 1.00000E+01
 -1      2312-2.36653E+01 6.49650E+01 1.00000E+01
 -1      2313-2.47928E+01 6.30122E+01 1.00000E+01
 -1      2314-2.57594E+01 6.09751E+01 1.00000E+01
 -1      2315-2.65590E+01 5.88667E+01 1.00000E+01
 -1      2316-2.71864E+01 5.67008E+01 1.00000E+01
 -1      2317-2.76374E+01 5.44915E+01 1.00000E+01
 -1      2318-2.79092E+01 5.22531E+01 1.00000E+01
 -1      2319 2.59157E+01 5.20921E+01 1.00000E+01
 -1      2320 2.56633E+01 5.41707E+01 1.00000E+01
 -1      2321 2.52445E+01 5.62222E+01 1.00000E+01
 -1      2322 2.46619E+01 5.82334E+01 1.00000E+01
 -1      2323 2.39195E+01 6.01911E+01 1.00000E+01
 -1      2324 2.30219E+01 6.20828E+01 1.00000E+01
 -1      2325 2.19749E+01 6.38961E+01 1.00000E+01
 -1      2326 2.07855E+01 6.56193E+01 1.00000E+01
 -1      2327 1.94613E+01 6.72412E+01 1.00000E+01
 -1      2328 1.80108E+01 6.87513E+01 1.00000E+01
 -1      2329 1.64436E+01 7.01397E+01 1.00000E+01
 -1      2330 1.47697E+01 7.13976E+01 1.00000E+01
 -1      2331 1.30000E+01 7.25167E+01 1.00000E+01
 -1      2332 1.11460E+01 7.34897E+01 1.00000E+01
 -1      2333 9.21973E+00 7.43104E+01 1.00000E+01
 -1      2334 7.23365E+00 7.49735E+01 1.00000E+01
 -1      2335 5.20067E+00 7.54746E+01 1.00000E+01
 -1      2336 3.13395E+00 7.58104E+01 1.00000E+01
 -1      2337 1.04691E+00 7.59789E+01 1.00000E+01
 -1      2338-1.04691E+00 7.59789E+01 1.00000E+01
 -1      2339-3.13395E+00 7.58104E+01 1.00000E+01
 -1      2340-5.20067E+00 7.54746E+01 1.00000E+01
 -1      2341-7.23365E+00 7.49735E+01 1.00000E+01
 -1      2342-9.21973E+00 7.43104E+01 1.00000E+01
 -1      2343-1.11460E+01 7.34897E+01 1.00000E+01
 -1      2344-1.30000E+01 7.25167E+01 1.00000E+01
 -1      2345-1.47697E+01 7.13976E+01 1.00000E+01
 -1      2346-1.64436E+01 7.01397E+01 1.00000E+01
 -1      2347-1.80108E+01 6.87513E+01 1.00000E+01
 -1      2348-1.94613E+01 6.72412E+01 1.00000E+01
 -1      2349-2.07855E+01 6.56193E+01 1.00000E+01
 -1      2350-2.19749E+01 6.38961E+01 1.00000E+01
 -1      2351-2.30219E+01 6.20828E+01 1.00000E+01
 -1      2352-2.39195E+01 6.01911E+01 1.00000E+01
 -1      2353-2.46619E+01 5.82334E+01 1.00000E+01
 -1      2354-2.52445E+01 5.62222E+01 1.00000E+01
 -1      2355-2.56633E+01 5.41707E+01 1.00000E+01
 -1      2356-2.59157E+01 5.20921E+01 1.00000E+01
 -1      2357 2.39222E+01 5.19312E+01 1.00000E+01
 -1      2358 2.36892E+01 5.38499E+01 1.00000E+01
 -1      2359 2.33026E+01 5.57436E+01 1.00000E+01
 -1      2360 2.27649E+01 5.76000E+01 1.00000E+01
 -1      2361 2.20795E+01 5.94072E+01 1.00000E+01
 -1      2362 2.12509E+01 6.11534E+01 1.00000E+01
 -1      2363 2.02846E+01 6.28272E+01 1.00000E+01
 -1      2364 1.91866E+01 6.44178E+01 1.00000E+01
 -1      2365 1.79643E+01 6.59149E+01 1.00000E+01
 -1      2366 1.66254E+01 6.73089E+01 1.00000E+01
 -1      2367 1.51787E+01 6.85905E+01 1.00000E+01
 -1      2368 1.36336E+01 6.97516E+01 1.00000E+01
 -1      2369 1.20000E+01 7.07846E+01 1.00000E+01
 -1      2370 1.02886E+01 7.16828E+01 1.00000E+01
 -1      2371 8.51052E+00 7.24404E+01 1.00000E+01
 -1      2372 6.67722E+00 7.30524E+01 1.00000E+01
 -1      2373 4.80062E+00 7.35150E+01 1.00000E+01
 -1      2374 2.89288E+00 7.38250E+01 1.00000E+01
 -1      2375 9.66383E-01 7.39805E+01 1.00000E+01
 -1      2376-9.66383E-01 7.39805E+01 1.00000E+01
 -1      2377-2.89288E+00 7.38250E+01 1.00000E+01
 -1      2378-4.80062E+00 7.35150E+01 1.00000E+01
 -1      2379-6.67722E+00 7.30524E+01 1.00000E+01
 -1      2380-8.51052E+00 7.24404E+01 1.00000E+01
 -1      2381-1.02886E+01 7.16828E+01 1.00000E+01
 -1      2382-1.20000E+01 7.07846E+01 1.00000E+01
 -1      2383-1.36336E+01 6.97516E+01 1.00000E+01
 -1      2384-1.51787E+01 6.85905E+01 1.00000E+01
 -1      2385-1.66254E+01 6.73089E+01 1.00000E+01
 -1      2386-1.79643E+01 6.59149E+01 1.00000E+01
 -1      2387-1.91866E+01 6.44178E+01 1.00000E+01
 -1      2388-2.02846E+01 6.28272E+01 1.00000E+01
 -1      2389-2.12509E+01 6.11534E+01 1.00000E+01
 -1      2390-2.20795E+01 5.94072E+01 1.00000E+01
 -1      2391-2.27649E+01 5.76000E+01 1.00000E+01
 -1      2392-2.33026E+01 5.57436E+01 1.00000E+01
 -1      2393-2.36892E+01 5.38499E+01 1.00000E+01
 -1      2394-2.39222E+01 5.19312E+01 1.00000E+01
 -1      2395 2.19287E+01 5.17703E+01 1.00000E+01
 -1      2396 2.17151E+01 5.35290E+01 1.00000E+01
 -1      2397 2.13607E+01 5.52649E+01 1.00000E+01
 -1      2398 2.08678E+01 5.69667E+01 1.00000E+01
 -1      2399 2.02395E+01 5.86233E+01 1.00000E+01
 -1      2400 1.94800E+01 6.02239E+01 1.00000E+01
 -1      2401 1.85942E+01 6.17582E+01 1.00000E+01
 -1      2402 1.75877E+01 6.32163E+01 1.00000E+01
 -1      2403 1.64672E+01 6.45887E+01 1.00000E+01
 -1      2404 1.52399E+01 6.58665E+01 1.00000E+01
 -1      2405 1.39138E+01 6.70413E+01 1.00000E+01
 -1      2406 1.24974E+01 6.81056E+01 1.00000E+01
 -1      2407 1.10000E+01 6.90526E+01 1.00000E+01
 -1      2408 9.43124E+00 6.98759E+01 1.00000E+01
 -1      2409 7.80131E+00 7.05704E+01 1.00000E+01
 -1      2410 6.12078E+00 7.11314E+01 1.00000E+01
 -1      2411 4.40057E+00 7.15554E+01 1.00000E+01
 -1      2412 2.65181E+00 7.18396E+01 1.00000E+01
 -1      2413 8.85851E-01 7.19822E+01 1.00000E+01
 -1      2414-8.85851E-01 7.19822E+01 1.00000E+01
 -1      2415-2.65181E+00 7.18396E+01 1.00000E+01
 -1      2416-4.40057E+00 7.15554E+01 1.00000E+01
 -1      2417-6.12078E+00 7.11314E+01 1.00000E+01
 -1      2418-7.80131E+00 7.05704E+01 1.00000E+01
 -1      2419-9.43124E+00 6.98759E+01 1.00000E+01
 -1      2420-1.10000E+01 6.90526E+01 1.00000E+01
 -1      2421-1.24974E+01 6.81056E+01 1.00000E+01
 -1      2422-1.39138E+01 6.70413E+01 1.00000E+01
 -1      2423-1.52399E+01 6.58665E+01 1.00000E+01
 -1      2424-1.64672E+01 6.45887E+01 1.00000E+01
 -1      2425-1.75877E+01 6.32163E+01 1.00000E+01
 -1      2426-1.85942E+01 6.17582E+01 1.00000E+01
 -1      2427-1.94800E+01 6.02239E+01 1.00000E+01
 -1      2428-2.02395E+01 5.86233E+01 1.00000E+01
 -1      2429-2.08678E+01 5.69667E+01 1.00000E+01
 -1      2430-2.13607E+01 5.52649E+01 1.00000E+01
 -1      2431-2.17151E+01 5.35290E+01 1.00000E+01
 -1      2432-2.19287E+01 5.17703E+01 1.00000E+01
 -1      2433 2.80000E+01 4.81250E+01 1.00000E+01
 -1      2434 2.60000E+01 4.81250E+01 1.00000E+01
 -1      2435 2.40000E+01 4.81250E+01 1.00000E+01
 -1      2436 2.20000E+01 4.81250E+01 1.00000E+01
 -1      2437 2.80000E+01 4.62500E+01 1.00000E+01
 -1      2438 2.60000E+01 4.62500E+01 1.00000E+01
 -1      2439 2.40000E+01 4.62500E+01 1.00000E+01
 -1      2440 2.20000E+01 4.62500E+01 1.00000E+01
 -1      2441 2.80000E+01 4.43750E+01 1.00000E+01
 -1      2442 2.60000E+01 4.43750E+01 1.00000E+01
 -1      2443 2.40000E+01 4.43750E+01 1.00000E+01
 -1      2444 2.20000E+01 4.43750E+01 1.00000E+01
 -1      2445 2.80000E+01 4.25000E+01 1.00000E+01
 -1      2446 2.60000E+01 4.25000E+01 1.00000E+01
 -1      2447 2.40000E+01 4.25000E+01 1.00000E+01
 -1      2448 2.20000E+01 4.25000E+01 1.00000E+01
 -1      2449 2.80000E+01 4.06250E+01 1.00000E+01
 -1      2450 2.60000E+01 4.06250E+01 1.00000E+01
 -1      2451 2.40000E+01 4.06250E+01 1.00000E+01
 -1      2452 2.20000E+01 4.06250E+01 1.00000E+01
 -1      2453 2.80000E+01 3.87500E+01 1.00000E+01
 -1      2454 2.60000E+01 3.87500E+01 1.00000E+01
 -1      2455 2.40000E+01 3.87500E+01 1.00000E+01
 -1      2456 2.20000E+01 3.87500E+01 1.00000E+01
 -1      2457 2.80000E+01 3.68750E+01 1.00000E+01
 -1      2458 2.60000E+01 3.68750E+01 1.00000E+01
 -1      2459 2.40000E+01 3.68750E+01 1.00000E+01
 -1      2460 2.20000E+01 3.68750E+01 1.00000E+01
 -1      2461 2.80000E+01 3.50000E+01 1.00000E+01
 -1      2462 2.60000E+01 3.50000E+01 1.00000E+01
 -1      2463 2.40000E+01 3.50000E+01 1.00000E+01
 -1      2464 2.20000E+01 3.50000E+01 1.00000E+01
 -1      2465 2.80000E+01 3.31250E+01 1.00000E+01
 -1      2466 2.60000E+01 3.31250E+01 1.00000E+01
 -1      2467 2.40000E+01 3.31250E+01 1.00000E+01
 -1      2468 2.20000E+01 3.31250E+01 1.00000E+01
 -1      2469 2.80000E+01 3.12500E+01 1.00000E+01
 -1      2470 2.60000E+01 3.12500E+01 1.00000E+01
 -1      2471 2.40000E+01 3.12500E+01 1.00000E+01
 -1      2472 2.20000E+01 3.12500E+01 1.00000E+01
 -1      2473 2.80000E+01 2.93750E+01 1.00000E+01
 -1      2474 2.60000E+01 2.93750E+01 1.00000E+01
 -1      2475 2.40000E+01 2.93750E+01 1.00000E+01
 -1      2476 2.20000E+01 2.93750E+01 1.00000E+01
 -1      2477 2.80000E+01 2.75000E+01 1.00000E+01
 -1      2478 2.60000E+01 2.75000E+01 1.00000E+01
 -1      2479 2.40000E+01 2.75000E+01 1.00000E+01
 -1      2480 2.20000E+01 2.75000E+01 1.00000E+01
 -1      2481 2.80000E+01 2.56250E+01 1.00000E+01
 -1      2482 2.60000E+01 2.56250E+01 1.00000E+01
 -1      2483 2.40000E+01 2.56250E+01 1.00000E+01
 -1      2484 2.20000E+01 2.56250E+01 1.00000E+01
 -1      2485 2.80000E+01 2.37500E+01 1.00000E+01
 -1      2486 2.60000E+01 2.37500E+01 1.00000E+01
 -1      2487 2.40000E+01 2.37500E+01 1.00000E+01
 -1      2488 2.20000E+01 2.37500E+01 1.00000E+01
 -1      2489 2.80000E+01 2.18750E+01 1.00000E+01
 -1      2490 2.60000E+01 2.18750E+01 1.00000E+01
 -1      2491 2.40000E+01 2.18750E+01 1.00000E+01
 -1      2492 2.20000E+01 2.18750E+01 1.00000E+01
 -1      2493 3.00000E+01 4.81771E+01 7.50000E+00
 -1      2494 3.00000E+01 4.63542E+01 7.50000E+00
 -1      2495 3.00000E+01 4.45312E+01 7.50000E+00
 -1      2496 3.00000E+01 4.26250E+01 7.50000E+00
 -1      2497 3.00000E+01 4.07188E+01 7.50000E+00
 -1      2498 3.00000E+01 3.88125E+01 7.50000E+00
 -1      2499 3.00000E+01 3.69062E+01 7.50000E+00
 -1      2500 3.00000E+01 3.50000E+01 7.50000E+00
 -1      2501 3.00000E+01 3.30938E+01 7.50000E+00
 -1      2502 3.00000E+01 3.11875E+01 7.50000E+00
 -1      2503 3.00000E+01 2.92812E+01 7.50000E+00
 -1      2504 3.00000E+01 2.73750E+01 7.50000E+00
 -1      2505 3.00000E+01 2.54688E+01 7.50000E+00
 -1      2506 3.00000E+01 2.36458E+01 7.50000E+00
 -1      2507 3.00000E+01 2.18229E+01 7.50000E+00
 -1      2508 3.00000E+01 4.82292E+01 5.00000E+00
 -1      2509 3.00000E+01 4.64583E+01 5.00000E+00
 -1      2510 3.00000E+01 4.46875E+01 5.00000E+00
 -1      2511 3.00000E+01 4.27500E+01 5.00000E+00
 -1      2512 3.00000E+01 4.08125E+01 5.00000E+00
 -1      2513 3.00000E+01 3.88750E+01 5.00000E+00
 -1      2514 3.00000E+01 3.69375E+01 5.00000E+00
 -1      2515 3.00000E+01 3.50000E+01 5.00000E+00
 -1      2516 3.00000E+01 3.30625E+01 5.00000E+00
 -1      2517 3.00000E+01 3.11250E+01 5.00000E+00
 -1      2518 3.00000E+01 2.91875E+01 5.00000E+00
 -1      2519 3.00000E+01 2.72500E+01 5.00000E+00
 -1      2520 3.00000E+01 2.53125E+01 5.00000E+00
 -1      2521 3.00000E+01 2.35417E+01 5.00000E+00
 -1      2522 3.00000E+01 2.17708E+01 5.00000E+00
 -1      2523 3.00000E+01 4.82812E+01 2.50000E+00
 -1      2524 3.00000E+01 4.65625E+01 2.50000E+00
 -1      2525 3.00000E+01 4.48438E+01 2.50000E+00
 -1      2526 3.00000E+01 4.28750E+01 2.50000E+00
 -1      2527 3.00000E+01 4.09062E+01 2.50000E+00
 -1      2528 3.00000E+01 3.89375E+01 2.50000E+00
 -1      2529 3.00000E+01 3.69688E+01 2.50000E+00
 -1      2530 3.00000E+01 3.50000E+01 2.50000E+00
 -1      2531 3.00000E+01 3.30312E+01 2.50000E+00
 -1      2532 3.00000E+01 3.10625E+01 2.50000E+00
 -1      2533 3.00000E+01 2.90938E+01 2.50000E+00
 -1      2534 3.00000E+01 2.71250E+01 2.50000E+00
 -1      2535 3.00000E+01 2.51562E+01 2.50000E+00
 -1      2536 3.00000E+01 2.34375E+01 2.50000E+00
 -1      2537 3.00000E+01 2.17188E+01 2.50000E+00
 -1      2538 2.00000E+01 4.81771E+01 7.50000E+00
 -1      2539 2.00000E+01 4.63542E+01 7.50000E+00
 -1      2540 2.00000E+01 4.45312E+01 7.50000E+00
 -1      2541 2.00000E+01 4.26250E+01 7.50000E+00
 -1      2542 2.00000E+01 4.07188E+01 7.50000E+00
 -1      2543 2.00000E+01 3.88125E+01 7.50000E+00
 -1      2544 2.00000E+01 3.69062E+01 7.50000E+00
 -1      2545 2.00000E+01 3.50000E+01 7.50000E+00
 -1      2546 2.00000E+01 3.30938E+01 7.50000E+00
 -1      2547 2.00000E+01 3.11875E+01 7.50000E+00
 -1      2548 2.00000E+01 2.92812E+01 7.50000E+00
 -1      2549 2.00000E+01 2.73750E+01 7.50000E+00
 -1      2550 2.00000E+01 2.54688E+01 7.50000E+00
 -1      2551 2.00000E+01 2.36458E+01 7.50000E+00
 -1      2552 2.00000E+01 2.18229E+01 7.50000E+00
 -1      2553 2.00000E+01 4.82292E+01 5.00000E+00
 -1      2554 2.00000E+01 4.64583E+01 5.00000E+00
 -1      2555 2.00000E+01 4.46875E+01 5.00000E+00
 -1      2556 2.00000E+01 4.27500E+01 5.00000E+00
 -1      2557 2.00000E+01 4.08125E+01 5.00000E+00
 -1      2558 2.00000E+01 3.88750E+01 5.00000E+00
 -1      2559 2.00000E+01 3.69375E+01 5.00000E+00
 -1      2560 2.00000E+01 3.50000E+01 5.00000E+00
 -1      2561 2.00000E+01 3.30625E+01 5.00000E+00
 -1      2562 2.00000E+01 3.11250E+01 5.00000E+00
 -1      2563 2.00000E+01 2.91875E+01 5.00000E+00
 -1      2564 2.00000E+01 2.72500E+01 5.00000E+00
 -1      2565 2.00000E+01 2.53125E+01 5.00000E+00
 -1      2566 2.00000E+01 2.35417E+01 5.00000E+00
 -1      2567 2.00000E+01 2.17708E+01 5.00000E+00
 -1      2568 2.00000E+01 4.82812E+01 2.50000E+00
 -1      2569 2.00000E+01 4.65625E+01 2.50000E+00
 -1      2570 2.00000E+01 4.48438E+01 2.50000E+00
 -1      2571 2.00000E+01 4.28750E+01 2.50000E+00
 -1      2572 2.00000E+01 4.09062E+01 2.50000E+00
 -1      2573 2.00000E+01 3.89375E+01 2.50000E+00
 -1      2574 2.00000E+01 3.69688E+01 2.50000E+00
 -1      2575 2.00000E+01 3.50000E+01 2.50000E+00
 -1      2576 2.00000E+01 3.30312E+01 2.50000E+00
 -1      2577 2.00000E+01 3.10625E+01 2.50000E+00
 -1      2578 2.00000E+01 2.90938E+01 2.50000E+00
 -1      2579 2.00000E+01 2.71250E+01 2.50000E+00
 -1      2580 2.00000E+01 2.51562E+01 2.50000E+00
 -1      2581 2.00000E+01 2.34375E+01 2.50000E+00
 -1      2582 2.00000E+01 2.17188E+01 2.50000E+00
 -1      2583 2.80000E+01 2.00000E+01 7.50000E+00
 -1      2584 2.60000E+01 2.00000E+01 7.50000E+00
 -1      2585 2.40000E+01 2.00000E+01 7.50000E+00
 -1      2586 2.20000E+01 2.00000E+01 7.50000E+00
 -1      2587 2.80000E+01 2.00000E+01 5.00000E+00
 -1      2588 2.60000E+01 2.00000E+01 5.00000E+00
 -1      2589 2.40000E+01 2.00000E+01 5.00000E+00
 -1      2590 2.20000E+01 2.00000E+01 5.00000E+00
 -1      2591 2.80000E+01 2.00000E+01 2.50000E+00
 -1      2592 2.60000E+01 2.00000E+01 2.50000E+00
 -1      2593 2.40000E+01 2.00000E+01 2.50000E+00
 -1      2594 2.20000E+01 2.00000E+01 2.50000E+00
 -1      2595 2.32000E+01 1.50000E+01 8.75000E+00
 -1      2596 2.44000E+01 1.50000E+01 8.75000E+00
 -1      2597 2.56000E+01 1.50000E+01 8.75000E+00
 -1      2598 2.68000E+01 1.50000E+01 8.75000E+00
 -1      2599 2.32000E+01 1.50000E+01 7.50000E+00
 -1      2600 2.44000E+01 1.50000E+01 7.50000E+00
 -1      2601 2.56000E+01 1.50000E+01 7.50000E+00
 -1      2602 2.68000E+01 1.50000E+01 7.50000E+00
 -1      2603 2.32000E+01 1.50000E+01 6.25000E+00
 -1      2604 2.44000E+01 1.50000E+01 6.25000E+00
 -1      2605 2.56000E+01 1.50000E+01 6.25000E+00
 -1      2606 2.68000E+01 1.50000E+01 6.25000E+00
 -1      2607 2.12568E+01 1.68580E+01 8.59220E+00
 -1      2608 2.11803E+01 1.70492E+01 7.18439E+00
 -1      2609 2.11038E+01 1.72405E+01 5.77659E+00
 -1      2610 2.05711E+01 1.85721E+01 8.14269E+00
 -1      2611 2.04756E+01 1.88109E+01 6.28538E+00
 -1      2612 2.03801E+01 1.90497E+01 4.42806E+00
 -1      2613 2.87432E+01 1.68580E+01 8.59220E+00
 -1      2614 2.88197E+01 1.70492E+01 7.18439E+00
 -1      2615 2.88962E+01 1.72405E+01 5.77659E+00
 -1      2616 2.94289E+01 1.85721E+01 8.14269E+00
 -1      2617 2.95244E+01 1.88109E+01 6.28538E+00
 -1      2618 2.96199E+01 1.90497E+01 4.42806E+00
 -1      2619 2.28000E+01 1.66667E+01 1.00000E+01
 -1      2620 2.42667E+01 1.66667E+01 1.00000E+01
 -1      2621 2.57333E+01 1.66667E+01 1.00000E+01
 -1      2622 2.72000E+01 1.66667E+01 1.00000E+01
 -1      2623 2.24000E+01 1.83333E+01 1.00000E+01
 -1      2624 2.41333E+01 1.83333E+01 1.00000E+01
 -1      2625 2.58667E+01 1.83333E+01 1.00000E+01
 -1      2626 2.76000E+01 1.83333E+01 1.00000E+01
 -1      2627 2.26164E+01 1.74318E+01 4.36878E+00
 -1      2628 2.42055E+01 1.74318E+01 4.36878E+00
 -1      2629 2.57945E+01 1.74318E+01 4.36878E+00
 -1      2630 2.73836E+01 1.74318E+01 4.36878E+00
 -1      2631 2.21708E+01 1.92885E+01 2.57075E+00
 -1      2632 2.40569E+01 1.92885E+01 2.57075E+00
 -1      2633 2.59431E+01 1.92885E+01 2.57075E+00
 -1      2634 2.78292E+01 1.92885E+01 2.57075E+00
 -1      2635-2.80000E+01 2.18750E+01 1.00000E+01
 -1      2636-2.60000E+01 2.18750E+01 1.00000E+01
 -1      2637-2.40000E+01 2.18750E+01 1.00000E+01
 -1      2638-2.20000E+01 2.18750E+01 1.00000E+01
 -1      2639-2.80000E+01 2.37500E+01 1.00000E+01
 -1      2640-2.60000E+01 2.37500E+01 1.00000E+01
 -1      2641-2.40000E+01 2.37500E+01 1.00000E+01
 -1      2642-2.20000E+01 2.37500E+01 1.00000E+01
 -1      2643-2.80000E+01 2.56250E+01 1.00000E+01
 -1      2644-2.60000E+01 2.56250E+01 1.00000E+01
 -1      2645-2.40000E+01 2.56250E+01 1.00000E+01
 -1      2646-2.20000E+01 2.56250E+01 1.00000E+01
 -1      2647-2.80000E+01 2.75000E+01 1.00000E+01
 -1      2648-2.60000E+01 2.75000E+01 1.00000E+01
 -1      2649-2.40000E+01 2.75000E+01 1.00000E+01
 -1      2650-2.20000E+01 2.75000E+01 1.00000E+01
 -1      2651-2.80000E+01 2.93750E+01 1.00000E+01
 -1      2652-2.60000E+01 2.93750E+01 1.00000E+01
 -1      2653-2.40000E+01 2.93750E+01 1.00000E+01
 -1      2654-2.20000E+01 2.93750E+01 1.00000E+01
 -1      2655-2.80000E+01 3.12500E+01 1.00000E+01
 -1      2656-2.60000E+01 3.12500E+01 1.00000E+01
 -1      2657-2.40000E+01 3.12500E+01 1.00000E+01
 -1      2658-2.20000E+01 3.12500E+01 1.00000E+01
 -1      2659-2.80000E+01 3.31250E+01 1.00000E+01
 -1      2660-2.60000E+01 3.31250E+01 1.00000E+01
 -1      2661-2.40000E+01 3.31250E+01 1.00000E+01
 -1      2662-2.20000E+01 3.31250E+01 1.00000E+01
 -1      2663-2.80000E+01 3.50000E+01 1.00000E+01
 -1      2664-2.60000E+01 3.50000E+01 1.00000E+01
 -1      2665-2.40000E+01 3.50000E+01 1.00000E+01
 -1      2666-2.20000E+01 3.50000E+01 1.00000E+01
 -1      2667-2.80000E+01 3.68750E+01 1.00000E+01
 -1      2668-2.60000E+01 3.68750E+01 1.00000E+01
 -1      2669-2.40000E+01 3.68750E+01 1.00000E+01
 -1      2670-2.20000E+01 3.68750E+01 1.00000E+01
 -1      2671-2.80000E+01 3.87500E+01 1.00000E+01
 -1      2672-2.60000E+01 3.87500E+01 1.00000E+01
 -1      2673-2.40000E+01 3.87500E+01 1.00000E+01
 -1      2674-2.20000E+01 3.87500E+01 1.00000E+01
 -1      2675-2.80000E+01 4.06250E+01 1.00000E+01
 -1      2676-2.60000E+01 4.06250E+01 1.00000E+01
 -1      2677-2.40000E+01 4.06250E+01 1.00000E+01
 -1      2678-2.20000E+01 4.06250E+01 1.00000E+01
 -1      2679-2.80000E+01 4.25000E+01 1.00000E+01
 -1      2680-2.60000E+01 4.25000E+01 1.00000E+01
 -1      2681-2.40000E+01 4.25000E+01 1.00000E+01
 -1      2682-2.20000E+01 4.25000E+01 1.00000E+01
 -1      2683-2.80000E+01 4.43750E+01 1.00000E+01
 -1      2684-2.60000E+01 4.43750E+01 1.00000E+01
 -1      2685-2.40000E+01 4.43750E+01 1.00000E+01
 -1      2686-2.20000E+01 4.43750E+01 1.00000E+01
 -1      2687-2.80000E+01 4.62500E+01 1.00000E+01
 -1      2688-2.60000E+01 4.62500E+01 1.00000E+01
 -1      2689-2.40000E+01 4.62500E+01 1.00000E+01
 -1      2690-2.20000E+01 4.62500E+01 1.00000E+01
 -1      2691-2.80000E+01 4.81250E+01 1.00000E+01
 -1      2692-2.60000E+01 4.81250E+01 1.00000E+01
 -1      2693-2.40000E+01 4.81250E+01 1.00000E+01
 -1      2694-2.20000E+01 4.81250E+01 1.00000E+01
 -1      2695-3.00000E+01 2.17188E+01 2.50000E+00
 -1      2696-3.00000E+01 2.34375E+01 2.50000E+00
 -1      2697-3.00000E+01 2.51562E+01 2.50000E+00
 -1      2698-3.00000E+01 2.71250E+01 2.50000E+00
 -1      2699-3.00000E+01 2.90938E+01 2.50000E+00
 -1      2700-3.00000E+01 3.10625E+01 2.50000E+00
 -1      2701-3.00000E+01 3.30312E+01 2.50000E+00
 -1      2702-3.00000E+01 3.50000E+01 2.50000E+00
 -1      2703-3.00000E+01 3.69688E+01 2.50000E+00
 -1      2704-3.00000E+01 3.89375E+01 2.50000E+00
 -1      2705-3.00000E+01 4.09062E+01 2.50000E+00
 -1      2706-3.00000E+01 4.28750E+01 2.50000E+00
 -1      2707-3.00000E+01 4.48438E+01 2.50000E+00
 -1      2708-3.00000E+01 4.65625E+01 2.50000E+00
 -1      2709-3.00000E+01 4.82812E+01 2.50000E+00
 -1      2710-3.00000E+01 2.17708E+01 5.00000E+00
 -1      2711-3.00000E+01 2.35417E+01 5.00000E+00
 -1      2712-3.00000E+01 2.53125E+01 5.00000E+00
 -1      2713-3.00000E+01 2.72500E+01 5.00000E+00
 -1      2714-3.00000E+01 2.91875E+01 5.00000E+00
 -1      2715-3.00000E+01 3.11250E+01 5.00000E+00
 -1      2716-3.00000E+01 3.30625E+01 5.00000E+00
 -1      2717-3.00000E+01 3.50000E+01 5.00000E+00
 -1      2718-3.00000E+01 3.69375E+01 5.00000E+00
 -1      2719-3.00000E+01 3.88750E+01 5.00000E+00
 -1      2720-3.00000E+01 4.08125E+01 5.00000E+00
 -1      2721-3.00000E+01 4.27500E+01 5.00000E+00
 -1      2722-3.00000E+01 4.46875E+01 5.00000E+00
 -1      2723-3.00000E+01 4.64583E+01 5.00000E+00
 -1      2724-3.00000E+01 4.82292E+01 5.00000E+00
 -1      2725-3.00000E+01 2.18229E+01 7.50000E+00
 -1      2726-3.00000E+01 2.36458E+01 7.50000E+00
 -1      2727-3.00000E+01 2.54688E+01 7.50000E+00
 -1      2728-3.00000E+01 2.73750E+01 7.50000E+00
 -1      2729-3.00000E+01 2.92812E+01 7.50000E+00
 -1      2730-3.00000E+01 3.11875E+01 7.50000E+00
 -1      2731-3.00000E+01 3.30938E+01 7.50000E+00
 -1      2732-3.00000E+01 3.50000E+01 7.50000E+00
 -1      2733-3.00000E+01 3.69062E+01 7.50000E+00
 -1      2734-3.00000E+01 3.88125E+01 7.50000E+00
 -1      2735-3.00000E+01 4.07188E+01 7.50000E+00
 -1      2736-3.00000E+01 4.26250E+01 7.50000E+00
 -1      2737-3.00000E+01 4.45312E+01 7.50000E+00
 -1      2738-3.00000E+01 4.63542E+01 7.50000E+00
 -1      2739-3.00000E+01 4.81771E+01 7.50000E+00
 -1      2740-2.00000E+01 2.17188E+01 2.50000E+00
 -1      2741-2.00000E+01 2.34375E+01 2.50000E+00
 -1      2742-2.00000E+01 2.51562E+01 2.50000E+00
 -1      2743-2.00000E+01 2.71250E+01 2.50000E+00
 -1      2744-2.00000E+01 2.90938E+01 2.50000E+00
 -1      2745-2.00000E+01 3.10625E+01 2.50000E+00
 -1      2746-2.00000E+01 3.30312E+01 2.50000E+00
 -1      2747-2.00000E+01 3.50000E+01 2.50000E+00
 -1      2748-2.00000E+01 3.69688E+01 2.50000E+00
 -1      2749-2.00000E+01 3.89375E+01 2.50000E+00
 -1      2750-2.00000E+01 4.09062E+01 2.50000E+00
 -1      2751-2.00000E+01 4.28750E+01 2.50000E+00
 -1      2752-2.00000E+01 4.48438E+01 2.50000E+00
 -1      2753-2.00000E+01 4.65625E+01 2.50000E+00
 -1      2754-2.00000E+01 4.82812E+01 2.50000E+00
 -1      2755-2.00000E+01 2.17708E+01 5.00000E+00
 -1      2756-2.00000E+01 2.35417E+01 5.00000E+00
 -1      2757-2.00000E+01 2.53125E+01 5.00000E+00
 -1      2758-2.00000E+01 2.72500E+01 5.00000E+00
 -1      2759-2.00000E+01 2.91875E+01 5.00000E+00
 -1      2760-2.00000E+01 3.11250E+01 5.00000E+00
 -1      2761-2.00000E+01 3.30625E+01 5.00000E+00
 -1      2762-2.00000E+01 3.50000E+01 5.00000E+00
 -1      2763-2.00000E+01 3.69375E+01 5.00000E+00
 -1      2764-2.00000E+01 3.88750E+01 5.00000E+00
 -1      2765-2.00000E+01 4.08125E+01 5.00000E+00
 -1      2766-2.00000E+01 4.27500E+01 5.00000E+00
 -1      2767-2.00000E+01 4.46875E+01 5.00000E+00
 -1      2768-2.00000E+01 4.64583E+01 5.00000E+00
 -1      2769-2.00000E+01 4.82292E+01 5.00000E+00
 -1      2770-2.00000E+01 2.18229E+01 7.50000E+00
 -1      2771-2.00000E+01 2.36458E+01 7.50000E+00
 -1      2772-2.00000E+01 2.54688E+01 7.50000E+00
 -1      2773-2.00000E+01 2.73750E+01 7.50000E+00
 -1      2774-2.00000E+01 2.92812E+01 7.50000E+00
 -1      2775-2.00000E+01 3.11875E+01 7.50000E+00
 -1      2776-2.00000E+01 3.30938E+01 7.50000E+00
 -1      2777-2.00000E+01 3.50000E+01 7.50000E+00
 -1      2778-2.00000E+01 3.69062E+01 7.50000E+00
 -1      2779-2.00000E+01 3.88125E+01 7.50000E+00
 -1      2780-2.00000E+01 4.07188E+01 7.50000E+00
 -1      2781-2.00000E+01 4.26250E+01 7.50000E+00
 -1      2782-2.00000E+01 4.45312E+01 7.50000E+00
 -1      2783-2.00000E+01 4.63542E+01 7.50000E+00
 -1      2784-2.00000E+01 4.81771E+01 7.50000E+00
 -1      2785-2.80000E+01 2.00000E+01 2.50000E+00
 -1      2786-2.60000E+01 2.00000E+01 2.50000E+00
 -1      2787-2.40000E+01 2.00000E+01 2.50000E+00
 -1      2788-2.20000E+01 2.00000E+01 2.50000E+00
 -1      2789-2.80000E+01 2.00000E+01 5.00000E+00
 -1      2790-2.60000E+01 2.00000E+01 5.00000E+00
 -1      2791-2.40000E+01 2.00000E+01 5.00000E+00
 -1      2792-2.20000E+01 2.00000E+01 5.00000E+00
 -1      2793-2.80000E+01 2.00000E+01 7.50000E+00
 -1      2794-2.60000E+01 2.00000E+01 7.50000E+00
 -1      2795-2.40000E+01 2.00000E+01 7.50000E+00
 -1      2796-2.20000E+01 2.00000E+01 7.50000E+00
 -1      2797-2.32000E+01 1.50000E+01 6.25000E+00
 -1      2798-2.44000E+01 1.50000E+01 6.25000E+00
 -1      2799-2.56000E+01 1.50000E+01 6.25000E+00
 -1      2800-2.68000E+01 1.50000E+01 6.25000E+00
 -1      2801-2.32000E+01 1.50000E+01 7.50000E+00
 -1      2802-2.44000E+01 1.50000E+01 7.50000E+00
 -1      2803-2.56000E+01 1.50000E+01 7.50000E+00
 -1      2804-2.68000E+01 1.50000E+01 7.50000E+00
 -1      2805-2.32000E+01 1.50000E+01 8.75000E+00
 -1      2806-2.44000E+01 1.50000E+01 8.75000E+00
 -1      2807-2.56000E+01 1.50000E+01 8.75000E+00
 -1      2808-2.68000E+01 1.50000E+01 8.75000E+00
 -1      2809-2.13186E+01 1.67035E+01 5.98247E+00
 -1      2810-2.13791E+01 1.65523E+01 7.32165E+00
 -1      2811-2.14395E+01 1.64012E+01 8.66082E+00
 -1      2812-2.07092E+01 1.82271E+01 5.20029E+00
 -1      2813-2.08061E+01 1.79847E+01 6.80019E+00
 -1      2814-2.09031E+01 1.77424E+01 8.40010E+00
 -1      2815-2.02471E+01 1.93823E+01 3.98185E+00
 -1      2816-2.03314E+01 1.91715E+01 5.98790E+00
 -1      2817-2.04157E+01 1.89608E+01 7.99395E+00
 -1      2818-2.86814E+01 1.67035E+01 5.98247E+00
 -1      2819-2.86209E+01 1.65523E+01 7.32165E+00
 -1      2820-2.85605E+01 1.64012E+01 8.66082E+00
 -1      2821-2.92908E+01 1.82271E+01 5.20029E+00
 -1      2822-2.91939E+01 1.79847E+01 6.80019E+00
 -1      2823-2.90969E+01 1.77424E+01 8.40010E+00
 -1      2824-2.97529E+01 1.93823E+01 3.98185E+00
 -1      2825-2.96686E+01 1.91715E+01 5.98790E+00
 -1      2826-2.95843E+01 1.89608E+01 7.99395E+00
 -1      2827-2.27549E+01 1.68547E+01 4.64330E+00
 -1      2828-2.42516E+01 1.68547E+01 4.64330E+00
 -1      2829-2.57484E+01 1.68547E+01 4.64330E+00
 -1      2830-2.72451E+01 1.68547E+01 4.64330E+00
 -1      2831-2.23673E+01 1.84695E+01 3.60038E+00
 -1      2832-2.41224E+01 1.84695E+01 3.60038E+00
 -1      2833-2.58776E+01 1.84695E+01 3.60038E+00
 -1      2834-2.76327E+01 1.84695E+01 3.60038E+00
 -1      2835-2.20977E+01 1.95931E+01 1.97580E+00
 -1      2836-2.40326E+01 1.95931E+01 1.97580E+00
 -1      2837-2.59674E+01 1.95931E+01 1.97580E+00
 -1      2838-2.79023E+01 1.95931E+01 1.97580E+00
 -1      2839-2.29000E+01 1.62500E+01 1.00000E+01
 -1      2840-2.43000E+01 1.62500E+01 1.00000E+01
 -1      2841-2.57000E+01 1.62500E+01 1.00000E+01
 -1      2842-2.71000E+01 1.62500E+01 1.00000E+01
 -1      2843-2.26000E+01 1.75000E+01 1.00000E+01
 -1      2844-2.42000E+01 1.75000E+01 1.00000E+01
 -1      2845-2.58000E+01 1.75000E+01 1.00000E+01
 -1      2846-2.74000E+01 1.75000E+01 1.00000E+01
 -1      2847-2.23000E+01 1.87500E+01 1.00000E+01
 -1      2848-2.41000E+01 1.87500E+01 1.00000E+01
 -1      2849-2.59000E+01 1.87500E+01 1.00000E+01
 -1      2850-2.77000E+01 1.87500E+01 1.00000E+01
 -1      2851 2.95674E+01 1.89186E+01-8.39516E+00
 -1      2852 2.96349E+01 1.90872E+01-6.79032E+00
 -1      2853 2.97023E+01 1.92558E+01-5.18548E+00
 -1      2854 2.97698E+01 1.94244E+01-3.58064E+00
 -1      2855 2.90776E+01 1.76939E+01-8.72008E+00
 -1      2856 2.91551E+01 1.78878E+01-7.44015E+00
 -1      2857 2.92327E+01 1.80817E+01-6.16023E+00
 -1      2858 2.93102E+01 1.82756E+01-4.88031E+00
 -1      2859 2.85484E+01 1.63709E+01-8.92866E+00
 -1      2860 2.85967E+01 1.64919E+01-7.85732E+00
 -1      2861 2.86451E+01 1.66128E+01-6.78598E+00
 -1      2862 2.86935E+01 1.67337E+01-5.71464E+00
 -1      2863 2.04326E+01 1.89186E+01-8.39516E+00
 -1      2864 2.03651E+01 1.90872E+01-6.79032E+00
 -1      2865 2.02977E+01 1.92558E+01-5.18548E+00
 -1      2866 2.02302E+01 1.94244E+01-3.58064E+00
 -1      2867 2.09224E+01 1.76939E+01-8.72008E+00
 -1      2868 2.08449E+01 1.78878E+01-7.44015E+00
 -1      2869 2.07673E+01 1.80817E+01-6.16023E+00
 -1      2870 2.06898E+01 1.82756E+01-4.88031E+00
 -1      2871 2.14516E+01 1.63709E+01-8.92866E+00
 -1      2872 2.14033E+01 1.64919E+01-7.85732E+00
 -1      2873 2.13549E+01 1.66128E+01-6.78598E+00
 -1      2874 2.13065E+01 1.67337E+01-5.71464E+00
 -1      2875 2.77000E+01 1.87500E+01-1.00000E+01
 -1      2876 2.74000E+01 1.75000E+01-1.00000E+01
 -1      2877 2.71000E+01 1.62500E+01-1.00000E+01
 -1      2878 2.59000E+01 1.87500E+01-1.00000E+01
 -1      2879 2.58000E+01 1.75000E+01-1.00000E+01
 -1      2880 2.57000E+01 1.62500E+01-1.00000E+01
 -1      2881 2.41000E+01 1.87500E+01-1.00000E+01
 -1      2882 2.42000E+01 1.75000E+01-1.00000E+01
 -1      2883 2.43000E+01 1.62500E+01-1.00000E+01
 -1      2884 2.23000E+01 1.87500E+01-1.00000E+01
 -1      2885 2.26000E+01 1.75000E+01-1.00000E+01
 -1      2886 2.29000E+01 1.62500E+01-1.00000E+01
 -1      2887 2.79023E+01 1.95931E+01-1.97580E+00
 -1      2888 2.76327E+01 1.84695E+01-3.60038E+00
 -1      2889 2.72451E+01 1.68547E+01-4.64330E+00
 -1      2890 2.59674E+01 1.95931E+01-1.97580E+00
 -1      2891 2.58776E+01 1.84695E+01-3.60038E+00
 -1      2892 2.57484E+01 1.68547E+01-4.64330E+00
 -1      2893 2.40326E+01 1.95931E+01-1.97580E+00
 -1      2894 2.41224E+01 1.84695E+01-3.60038E+00
 -1      2895 2.42516E+01 1.68547E+01-4.64330E+00
 -1      2896 2.20977E+01 1.95931E+01-1.97580E+00
 -1      2897 2.23673E+01 1.84695E+01-3.60038E+00
 -1      2898 2.27549E+01 1.68547E+01-4.64330E+00
 -1      2899 2.68000E+01 1.50000E+01-9.00000E+00
 -1      2900 2.68000E+01 1.50000E+01-8.00000E+00
 -1      2901 2.68000E+01 1.50000E+01-7.00000E+00
 -1      2902 2.68000E+01 1.50000E+01-6.00000E+00
 -1      2903 2.56000E+01 1.50000E+01-9.00000E+00
 -1      2904 2.56000E+01 1.50000E+01-8.00000E+00
 -1      2905 2.56000E+01 1.50000E+01-7.00000E+00
 -1      2906 2.56000E+01 1.50000E+01-6.00000E+00
 -1      2907 2.44000E+01 1.50000E+01-9.00000E+00
 -1      2908 2.44000E+01 1.50000E+01-8.00000E+00
 -1      2909 2.44000E+01 1.50000E+01-7.00000E+00
 -1      2910 2.44000E+01 1.50000E+01-6.00000E+00
 -1      2911 2.32000E+01 1.50000E+01-9.00000E+00
 -1      2912 2.32000E+01 1.50000E+01-8.00000E+00
 -1      2913 2.32000E+01 1.50000E+01-7.00000E+00
 -1      2914 2.32000E+01 1.50000E+01-6.00000E+00
 -1      2915 2.21708E+01 1.07115E+01-2.57075E+00
 -1      2916 2.40569E+01 1.07115E+01-2.57075E+00
 -1      2917 2.59431E+01 1.07115E+01-2.57075E+00
 -1      2918 2.78292E+01 1.07115E+01-2.57075E+00
 -1      2919 2.26164E+01 1.25682E+01-4.36878E+00
 -1      2920 2.42055E+01 1.25682E+01-4.36878E+00
 -1      2921 2.57945E+01 1.25682E+01-4.36878E+00
 -1      2922 2.73836E+01 1.25682E+01-4.36878E+00
 -1      2923 2.24000E+01 1.16667E+01-1.00000E+01
 -1      2924 2.41333E+01 1.16667E+01-1.00000E+01
 -1      2925 2.58667E+01 1.16667E+01-1.00000E+01
 -1      2926 2.76000E+01 1.16667E+01-1.00000E+01
 -1      2927 2.28000E+01 1.33333E+01-1.00000E+01
 -1      2928 2.42667E+01 1.33333E+01-1.00000E+01
 -1      2929 2.57333E+01 1.33333E+01-1.00000E+01
 -1      2930 2.72000E+01 1.33333E+01-1.00000E+01
 -1      2931 2.03610E+01 1.09025E+01-4.05660E+00
 -1      2932 2.10885E+01 1.27212E+01-5.49503E+00
 -1      2933 2.04374E+01 1.10936E+01-5.54245E+00
 -1      2934 2.11497E+01 1.28742E+01-6.62127E+00
 -1      2935 2.05138E+01 1.12846E+01-7.02830E+00
 -1      2936 2.12109E+01 1.30273E+01-7.74751E+00
 -1      2937 2.05903E+01 1.14756E+01-8.51415E+00
 -1      2938 2.12721E+01 1.31803E+01-8.87376E+00
 -1      2939 2.96390E+01 1.09025E+01-4.05660E+00
 -1      2940 2.89115E+01 1.27212E+01-5.49503E+00
 -1      2941 2.95626E+01 1.10936E+01-5.54245E+00
 -1      2942 2.88503E+01 1.28742E+01-6.62127E+00
 -1      2943 2.94862E+01 1.12846E+01-7.02830E+00
 -1      2944 2.87891E+01 1.30273E+01-7.74751E+00
 -1      2945 2.94097E+01 1.14756E+01-8.51415E+00
 -1      2946 2.87279E+01 1.31803E+01-8.87376E+00
 -1      2947 2.20000E+01 1.00000E+01-2.00000E+00
 -1      2948 2.40000E+01 1.00000E+01-2.00000E+00
 -1      2949 2.60000E+01 1.00000E+01-2.00000E+00
 -1      2950 2.80000E+01 1.00000E+01-2.00000E+00
 -1      2951 2.20000E+01 1.00000E+01-4.00000E+00
 -1      2952 2.40000E+01 1.00000E+01-4.00000E+00
 -1      2953 2.60000E+01 1.00000E+01-4.00000E+00
 -1      2954 2.80000E+01 1.00000E+01-4.00000E+00
 -1      2955 2.20000E+01 1.00000E+01-6.00000E+00
 -1      2956 2.40000E+01 1.00000E+01-6.00000E+00
 -1      2957 2.60000E+01 1.00000E+01-6.00000E+00
 -1      2958 2.80000E+01 1.00000E+01-6.00000E+00
 -1      2959 2.20000E+01 1.00000E+01-8.00000E+00
 -1      2960 2.40000E+01 1.00000E+01-8.00000E+00
 -1      2961 2.60000E+01 1.00000E+01-8.00000E+00
 -1      2962 2.80000E+01 1.00000E+01-8.00000E+00
 -1      2963-2.77000E+01 1.87500E+01-1.00000E+01
 -1      2964-2.59000E+01 1.87500E+01-1.00000E+01
 -1      2965-2.41000E+01 1.87500E+01-1.00000E+01
 -1      2966-2.23000E+01 1.87500E+01-1.00000E+01
 -1      2967-2.74000E+01 1.75000E+01-1.00000E+01
 -1      2968-2.58000E+01 1.75000E+01-1.00000E+01
 -1      2969-2.42000E+01 1.75000E+01-1.00000E+01
 -1      2970-2.26000E+01 1.75000E+01-1.00000E+01
 -1      2971-2.71000E+01 1.62500E+01-1.00000E+01
 -1      2972-2.57000E+01 1.62500E+01-1.00000E+01
 -1      2973-2.43000E+01 1.62500E+01-1.00000E+01
 -1      2974-2.29000E+01 1.62500E+01-1.00000E+01
 -1      2975-2.79023E+01 1.95931E+01-1.97580E+00
 -1      2976-2.59674E+01 1.95931E+01-1.97580E+00
 -1      2977-2.40326E+01 1.95931E+01-1.97580E+00
 -1      2978-2.20977E+01 1.95931E+01-1.97580E+00
 -1      2979-2.76327E+01 1.84695E+01-3.60038E+00
 -1      2980-2.58776E+01 1.84695E+01-3.60038E+00
 -1      2981-2.41224E+01 1.84695E+01-3.60038E+00
 -1      2982-2.23673E+01 1.84695E+01-3.60038E+00
 -1      2983-2.72451E+01 1.68547E+01-4.64330E+00
 -1      2984-2.57484E+01 1.68547E+01-4.64330E+00
 -1      2985-2.42516E+01 1.68547E+01-4.64330E+00
 -1      2986-2.27549E+01 1.68547E+01-4.64330E+00
 -1      2987-2.95674E+01 1.89186E+01-8.39516E+00
 -1      2988-2.90776E+01 1.76939E+01-8.72008E+00
 -1      2989-2.85484E+01 1.63709E+01-8.92866E+00
 -1      2990-2.96349E+01 1.90872E+01-6.79032E+00
 -1      2991-2.91551E+01 1.78878E+01-7.44015E+00
 -1      2992-2.85967E+01 1.64919E+01-7.85732E+00
 -1      2993-2.97023E+01 1.92558E+01-5.18548E+00
 -1      2994-2.92327E+01 1.80817E+01-6.16023E+00
 -1      2995-2.86451E+01 1.66128E+01-6.78598E+00
 -1      2996-2.97698E+01 1.94244E+01-3.58064E+00
 -1      2997-2.93102E+01 1.82756E+01-4.88031E+00
 -1      2998-2.86935E+01 1.67337E+01-5.71464E+00
 -1      2999-2.04326E+01 1.89186E+01-8.39516E+00
 -1      3000-2.09224E+01 1.76939E+01-8.72008E+00
 -1      3001-2.14516E+01 1.63709E+01-8.92866E+00
 -1      3002-2.03651E+01 1.90872E+01-6.79032E+00
 -1      3003-2.08449E+01 1.78878E+01-7.44015E+00
 -1      3004-2.14033E+01 1.64919E+01-7.85732E+00
 -1      3005-2.02977E+01 1.92558E+01-5.18548E+00
 -1      3006-2.07673E+01 1.80817E+01-6.16023E+00
 -1      3007-2.13549E+01 1.66128E+01-6.78598E+00
 -1      3008-2.02302E+01 1.94244E+01-3.58064E+00
 -1      3009-2.06898E+01 1.82756E+01-4.88031E+00
 -1      3010-2.13065E+01 1.67337E+01-5.71464E+00
 -1      3011-2.68000E+01 1.50000E+01-9.00000E+00
 -1      3012-2.56000E+01 1.50000E+01-9.00000E+00
 -1      3013-2.44000E+01 1.50000E+01-9.00000E+00
 -1      3014-2.32000E+01 1.50000E+01-9.00000E+00
 -1      3015-2.68000E+01 1.50000E+01-8.00000E+00
 -1      3016-2.56000E+01 1.50000E+01-8.00000E+00
 -1      3017-2.44000E+01 1.50000E+01-8.00000E+00
 -1      3018-2.32000E+01 1.50000E+01-8.00000E+00
 -1      3019-2.68000E+01 1.50000E+01-7.00000E+00
 -1      3020-2.56000E+01 1.50000E+01-7.00000E+00
 -1      3021-2.44000E+01 1.50000E+01-7.00000E+00
 -1      3022-2.32000E+01 1.50000E+01-7.00000E+00
 -1      3023-2.68000E+01 1.50000E+01-6.00000E+00
 -1      3024-2.56000E+01 1.50000E+01-6.00000E+00
 -1      3025-2.44000E+01 1.50000E+01-6.00000E+00
 -1      3026-2.32000E+01 1.50000E+01-6.00000E+00
 -1      3027-2.04157E+01 1.10392E+01 7.99395E+00
 -1      3028-2.03314E+01 1.08285E+01 5.98790E+00
 -1      3029-2.02471E+01 1.06177E+01 3.98185E+00
 -1      3030-2.09031E+01 1.22576E+01 8.40009E+00
 -1      3031-2.08061E+01 1.20153E+01 6.80019E+00
 -1      3032-2.07092E+01 1.17729E+01 5.20029E+00
 -1      3033-2.14395E+01 1.35988E+01 8.66082E+00
 -1      3034-2.13791E+01 1.34477E+01 7.32165E+00
 -1      3035-2.13186E+01 1.32965E+01 5.98247E+00
 -1      3036-2.95843E+01 1.10392E+01 7.99395E+00
 -1      3037-2.96686E+01 1.08285E+01 5.98790E+00
 -1      3038-2.97529E+01 1.06177E+01 3.98185E+00
 -1      3039-2.90969E+01 1.22576E+01 8.40010E+00
 -1      3040-2.91939E+01 1.20153E+01 6.80019E+00
 -1      3041-2.92908E+01 1.17729E+01 5.20029E+00
 -1      3042-2.85605E+01 1.35988E+01 8.66082E+00
 -1      3043-2.86209E+01 1.34477E+01 7.32165E+00
 -1      3044-2.86814E+01 1.32965E+01 5.98247E+00
 -1      3045-2.23000E+01 1.12500E+01 1.00000E+01
 -1      3046-2.26000E+01 1.25000E+01 1.00000E+01
 -1      3047-2.29000E+01 1.37500E+01 1.00000E+01
 -1      3048-2.41000E+01 1.12500E+01 1.00000E+01
 -1      3049-2.42000E+01 1.25000E+01 1.00000E+01
 -1      3050-2.43000E+01 1.37500E+01 1.00000E+01
 -1      3051-2.59000E+01 1.12500E+01 1.00000E+01
 -1      3052-2.58000E+01 1.25000E+01 1.00000E+01
 -1      3053-2.57000E+01 1.37500E+01 1.00000E+01
 -1      3054-2.77000E+01 1.12500E+01 1.00000E+01
 -1      3055-2.74000E+01 1.25000E+01 1.00000E+01
 -1      3056-2.71000E+01 1.37500E+01 1.00000E+01
 -1      3057-2.20977E+01 1.04069E+01 1.97580E+00
 -1      3058-2.23673E+01 1.15305E+01 3.60038E+00
 -1      3059-2.27549E+01 1.31453E+01 4.64330E+00
 -1      3060-2.40326E+01 1.04069E+01 1.97580E+00
 -1      3061-2.41224E+01 1.15305E+01 3.60038E+00
 -1      3062-2.42516E+01 1.31453E+01 4.64330E+00
 -1      3063-2.59674E+01 1.04069E+01 1.97580E+00
 -1      3064-2.58776E+01 1.15305E+01 3.60038E+00
 -1      3065-2.57484E+01 1.31453E+01 4.64330E+00
 -1      3066-2.79023E+01 1.04069E+01 1.97580E+00
 -1      3067-2.76327E+01 1.15305E+01 3.60038E+00
 -1      3068-2.72451E+01 1.31453E+01 4.64330E+00
 -1      3069-2.20000E+01 1.00000E+01 7.50000E+00
 -1      3070-2.20000E+01 1.00000E+01 5.00000E+00
 -1      3071-2.20000E+01 1.00000E+01 2.50000E+00
 -1      3072-2.40000E+01 1.00000E+01 7.50000E+00
 -1      3073-2.40000E+01 1.00000E+01 5.00000E+00
 -1      3074-2.40000E+01 1.00000E+01 2.50000E+00
 -1      3075-2.60000E+01 1.00000E+01 7.50000E+00
 -1      3076-2.60000E+01 1.00000E+01 5.00000E+00
 -1      3077-2.60000E+01 1.00000E+01 2.50000E+00
 -1      3078-2.80000E+01 1.00000E+01 7.50000E+00
 -1      3079-2.80000E+01 1.00000E+01 5.00000E+00
 -1      3080-2.80000E+01 1.00000E+01 2.50000E+00
 -1      3081-2.20000E+01 0.00000E+00 2.50000E+00
 -1      3082-2.40000E+01 0.00000E+00 2.50000E+00
 -1      3083-2.60000E+01 0.00000E+00 2.50000E+00
 -1      3084-2.80000E+01 0.00000E+00 2.50000E+00
 -1      3085-2.20000E+01 0.00000E+00 5.00000E+00
 -1      3086-2.40000E+01 0.00000E+00 5.00000E+00
 -1      3087-2.60000E+01 0.00000E+00 5.00000E+00
 -1      3088-2.80000E+01 0.00000E+00 5.00000E+00
 -1      3089-2.20000E+01 0.00000E+00 7.50000E+00
 -1      3090-2.40000E+01 0.00000E+00 7.50000E+00
 -1      3091-2.60000E+01 0.00000E+00 7.50000E+00
 -1      3092-2.80000E+01 0.00000E+00 7.50000E+00
 -1      3093-2.00000E+01 8.00000E+00 2.50000E+00
 -1      3094-2.00000E+01 8.00000E+00 5.00000E+00
 -1      3095-2.00000E+01 8.00000E+00 7.50000E+00
 -1      3096-2.00000E+01 6.00000E+00 2.50000E+00
 -1      3097-2.00000E+01 6.00000E+00 5.00000E+00
 -1      3098-2.00000E+01 6.00000E+00 7.50000E+00
 -1      3099-2.00000E+01 4.00000E+00 2.50000E+00
 -1      3100-2.00000E+01 4.00000E+00 5.00000E+00
 -1      3101-2.00000E+01 4.00000E+00 7.50000E+00
 -1      3102-2.00000E+01 2.00000E+00 2.50000E+00
 -1      3103-2.00000E+01 2.00000E+00 5.00000E+00
 -1      3104-2.00000E+01 2.00000E+00 7.50000E+00
 -1      3105-3.00000E+01 8.00000E+00 2.50000E+00
 -1      3106-3.00000E+01 8.00000E+00 5.00000E+00
 -1      3107-3.00000E+01 8.00000E+00 7.50000E+00
 -1      3108-3.00000E+01 6.00000E+00 2.50000E+00
 -1      3109-3.00000E+01 6.00000E+00 5.00000E+00
 -1      3110-3.00000E+01 6.00000E+00 7.50000E+00
 -1      3111-3.00000E+01 4.00000E+00 2.50000E+00
 -1      3112-3.00000E+01 4.00000E+00 5.00000E+00
 -1      3113-3.00000E+01 4.00000E+00 7.50000E+00
 -1      3114-3.00000E+01 2.00000E+00 2.50000E+00
 -1      3115-3.00000E+01 2.00000E+00 5.00000E+00
 -1      3116-3.00000E+01 2.00000E+00 7.50000E+00
 -1      3117-2.20000E+01 8.00000E+00 0.00000E+00
 -1      3118-2.40000E+01 8.00000E+00 0.00000E+00
 -1      3119-2.60000E+01 8.00000E+00 0.00000E+00
 -1      3120-2.80000E+01 8.00000E+00 0.00000E+00
 -1      3121-2.20000E+01 6.00000E+00 0.00000E+00
 -1      3122-2.40000E+01 6.00000E+00 0.00000E+00
 -1      3123-2.60000E+01 6.00000E+00 0.00000E+00
 -1      3124-2.80000E+01 6.00000E+00 0.00000E+00
 -1      3125-2.20000E+01 4.00000E+00 0.00000E+00
 -1      3126-2.40000E+01 4.00000E+00 0.00000E+00
 -1      3127-2.60000E+01 4.00000E+00 0.00000E+00
 -1      3128-2.80000E+01 4.00000E+00 0.00000E+00
 -1      3129-2.20000E+01 2.00000E+00 0.00000E+00
 -1      3130-2.40000E+01 2.00000E+00 0.00000E+00
 -1      3131-2.60000E+01 2.00000E+00 0.00000E+00
 -1      3132-2.80000E+01 2.00000E+00 0.00000E+00
 -1      3133-2.20000E+01 8.00000E+00 1.00000E+01
 -1      3134-2.40000E+01 8.00000E+00 1.00000E+01
 -1      3135-2.60000E+01 8.00000E+00 1.00000E+01
 -1      3136-2.80000E+01 8.00000E+00 1.00000E+01
 -1      3137-2.20000E+01 6.00000E+00 1.00000E+01
 -1      3138-2.40000E+01 6.00000E+00 1.00000E+01
 -1      3139-2.60000E+01 6.00000E+00 1.00000E+01
 -1      3140-2.80000E+01 6.00000E+00 1.00000E+01
 -1      3141-2.20000E+01 4.00000E+00 1.00000E+01
 -1      3142-2.40000E+01 4.00000E+00 1.00000E+01
 -1      3143-2.60000E+01 4.00000E+00 1.00000E+01
 -1      3144-2.80000E+01 4.00000E+00 1.00000E+01
 -1      3145-2.20000E+01 2.00000E+00 1.00000E+01
 -1      3146-2.40000E+01 2.00000E+00 1.00000E+01
 -1      3147-2.60000E+01 2.00000E+00 1.00000E+01
 -1      3148-2.80000E+01 2.00000E+00 1.00000E+01
 -1      3149 2.80000E+01 1.00000E+01 2.50000E+00
 -1      3150 2.60000E+01 1.00000E+01 2.50000E+00
 -1      3151 2.40000E+01 1.00000E+01 2.50000E+00
 -1      3152 2.20000E+01 1.00000E+01 2.50000E+00
 -1      3153 2.80000E+01 1.00000E+01 5.00000E+00
 -1      3154 2.60000E+01 1.00000E+01 5.00000E+00
 -1      3155 2.40000E+01 1.00000E+01 5.00000E+00
 -1      3156 2.20000E+01 1.00000E+01 5.00000E+00
 -1      3157 2.80000E+01 1.00000E+01 7.50000E+00
 -1      3158 2.60000E+01 1.00000E+01 7.50000E+00
 -1      3159 2.40000E+01 1.00000E+01 7.50000E+00
 -1      3160 2.20000E+01 1.00000E+01 7.50000E+00
 -1      3161 2.80000E+01 0.00000E+00 2.50000E+00
 -1      3162 2.60000E+01 0.00000E+00 2.50000E+00
 -1      3163 2.40000E+01 0.00000E+00 2.50000E+00
 -1      3164 2.20000E+01 0.00000E+00 2.50000E+00
 -1      3165 2.80000E+01 0.00000E+00 5.00000E+00
 -1      3166 2.60000E+01 0.00000E+00 5.00000E+00
 -1      3167 2.40000E+01 0.00000E+00 5.00000E+00
 -1      3168 2.20000E+01 0.00000E+00 5.00000E+00
 -1      3169 2.80000E+01 0.00000E+00 7.50000E+00
 -1      3170 2.60000E+01 0.00000E+00 7.50000E+00
 -1      3171 2.40000E+01 0.00000E+00 7.50000E+00
 -1      3172 2.20000E+01 0.00000E+00 7.50000E+00
 -1      3173 3.00000E+01 8.00000E+00 2.50000E+00
 -1      3174 3.00000E+01 8.00000E+00 5.00000E+00
 -1      3175 3.00000E+01 8.00000E+00 7.50000E+00
 -1      3176 3.00000E+01 6.00000E+00 2.50000E+00
 -1      3177 3.00000E+01 6.00000E+00 5.00000E+00
 -1      3178 3.00000E+01 6.00000E+00 7.50000E+00
 -1      3179 3.00000E+01 4.00000E+00 2.50000E+00
 -1      3180 3.00000E+01 4.00000E+00 5.00000E+00
 -1      3181 3.00000E+01 4.00000E+00 7.50000E+00
 -1      3182 3.00000E+01 2.00000E+00 2.50000E+00
 -1      3183 3.00000E+01 2.00000E+00 5.00000E+00
 -1      3184 3.00000E+01 2.00000E+00 7.50000E+00
 -1      3185 2.00000E+01 8.00000E+00 2.50000E+00
 -1      3186 2.00000E+01 8.00000E+00 5.00000E+00
 -1      3187 2.00000E+01 8.00000E+00 7.50000E+00
 -1      3188 2.00000E+01 6.00000E+00 2.50000E+00
 -1      3189 2.00000E+01 6.00000E+00 5.00000E+00
 -1      3190 2.00000E+01 6.00000E+00 7.50000E+00
 -1      3191 2.00000E+01 4.00000E+00 2.50000E+00
 -1      3192 2.00000E+01 4.00000E+00 5.00000E+00
 -1      3193 2.00000E+01 4.00000E+00 7.50000E+00
 -1      3194 2.00000E+01 2.00000E+00 2.50000E+00
 -1      3195 2.00000E+01 2.00000E+00 5.00000E+00
 -1      3196 2.00000E+01 2.00000E+00 7.50000E+00
 -1      3197 2.80000E+01 8.00000E+00 0.00000E+00
 -1      3198 2.60000E+01 8.00000E+00 0.00000E+00
 -1      3199 2.40000E+01 8.00000E+00 0.00000E+00
 -1      3200 2.20000E+01 8.00000E+00 0.00000E+00
 -1      3201 2.80000E+01 6.00000E+00 0.00000E+00
 -1      3202 2.60000E+01 6.00000E+00 0.00000E+00
 -1      3203 2.40000E+01 6.00000E+00 0.00000E+00
 -1      3204 2.20000E+01 6.00000E+00 0.00000E+00
 -1      3205 2.80000E+01 4.00000E+00 0.00000E+00
 -1      3206 2.60000E+01 4.00000E+00 0.00000E+00
 -1      3207 2.40000E+01 4.00000E+00 0.00000E+00
 -1      3208 2.20000E+01 4.00000E+00 0.00000E+00
 -1      3209 2.80000E+01 2.00000E+00 0.00000E+00
 -1      3210 2.60000E+01 2.00000E+00 0.00000E+00
 -1      3211 2.40000E+01 2.00000E+00 0.00000E+00
 -1      3212 2.20000E+01 2.00000E+00 0.00000E+00
 -1      3213 2.80000E+01 8.00000E+00 1.00000E+01
 -1      3214 2.60000E+01 8.00000E+00 1.00000E+01
 -1      3215 2.40000E+01 8.00000E+00 1.00000E+01
 -1      3216 2.20000E+01 8.00000E+00 1.00000E+01
 -1      3217 2.80000E+01 6.00000E+00 1.00000E+01
 -1      3218 2.60000E+01 6.00000E+00 1.00000E+01
 -1      3219 2.40000E+01 6.00000E+00 1.00000E+01
 -1      3220 2.20000E+01 6.00000E+00 1.00000E+01
 -1      3221 2.80000E+01 4.00000E+00 1.00000E+01
 -1      3222 2.60000E+01 4.00000E+00 1.00000E+01
 -1      3223 2.40000E+01 4.00000E+00 1.00000E+01
 -1      3224 2.20000E+01 4.00000E+00 1.00000E+01
 -1      3225 2.80000E+01 2.00000E+00 1.00000E+01
 -1      3226 2.60000E+01 2.00000E+00 1.00000E+01
 -1      3227 2.40000E+01 2.00000E+00 1.00000E+01
 -1      3228 2.20000E+01 2.00000E+00 1.00000E+01
 -1      3229 2.14395E+01 1.35988E+01 8.66082E+00
 -1      3230 2.13791E+01 1.34477E+01 7.32165E+00
 -1      3231 2.13186E+01 1.32965E+01 5.98247E+00
 -1      3232 2.09031E+01 1.22576E+01 8.40010E+00
 -1      3233 2.08061E+01 1.20153E+01 6.80019E+00
 -1      3234 2.07092E+01 1.17729E+01 5.20029E+00
 -1      3235 2.04157E+01 1.10392E+01 7.99395E+00
 -1      3236 2.03314E+01 1.08285E+01 5.98790E+00
 -1      3237 2.02471E+01 1.06177E+01 3.98185E+00
 -1      3238 2.85605E+01 1.35988E+01 8.66082E+00
 -1      3239 2.86209E+01 1.34477E+01 7.32165E+00
 -1      3240 2.86814E+01 1.32965E+01 5.98247E+00
 -1      3241 2.90969E+01 1.22576E+01 8.40009E+00
 -1      3242 2.91939E+01 1.20153E+01 6.80019E+00
 -1      3243 2.92908E+01 1.17729E+01 5.20029E+00
 -1      3244 2.95843E+01 1.10392E+01 7.99395E+00
 -1      3245 2.96686E+01 1.08285E+01 5.98790E+00
 -1      3246 2.97529E+01 1.06177E+01 3.98185E+00
 -1      3247 2.29000E+01 1.37500E+01 1.00000E+01
 -1      3248 2.26000E+01 1.25000E+01 1.00000E+01
 -1      3249 2.23000E+01 1.12500E+01 1.00000E+01
 -1      3250 2.43000E+01 1.37500E+01 1.00000E+01
 -1      3251 2.42000E+01 1.25000E+01 1.00000E+01
 -1      3252 2.41000E+01 1.12500E+01 1.00000E+01
 -1      3253 2.57000E+01 1.37500E+01 1.00000E+01
 -1      3254 2.58000E+01 1.25000E+01 1.00000E+01
 -1      3255 2.59000E+01 1.12500E+01 1.00000E+01
 -1      3256 2.71000E+01 1.37500E+01 1.00000E+01
 -1      3257 2.74000E+01 1.25000E+01 1.00000E+01
 -1      3258 2.77000E+01 1.12500E+01 1.00000E+01
 -1      3259 2.27549E+01 1.31453E+01 4.64330E+00
 -1      3260 2.23673E+01 1.15305E+01 3.60038E+00
 -1      3261 2.20977E+01 1.04069E+01 1.97580E+00
 -1      3262 2.42516E+01 1.31453E+01 4.64330E+00
 -1      3263 2.41224E+01 1.15305E+01 3.60038E+00
 -1      3264 2.40326E+01 1.04069E+01 1.97580E+00
 -1      3265 2.57484E+01 1.31453E+01 4.64330E+00
 -1      3266 2.58776E+01 1.15305E+01 3.60038E+00
 -1      3267 2.59674E+01 1.04069E+01 1.97580E+00
 -1      3268 2.72451E+01 1.31453E+01 4.64330E+00
 -1      3269 2.76327E+01 1.15305E+01 3.60038E+00
 -1      3270 2.79023E+01 1.04069E+01 1.97580E+00
 -1      3271 2.20000E+01 8.00000E+00-1.00000E+01
 -1      3272 2.40000E+01 8.00000E+00-1.00000E+01
 -1      3273 2.60000E+01 8.00000E+00-1.00000E+01
 -1      3274 2.80000E+01 8.00000E+00-1.00000E+01
 -1      3275 2.20000E+01 6.00000E+00-1.00000E+01
 -1      3276 2.40000E+01 6.00000E+00-1.00000E+01
 -1      3277 2.60000E+01 6.00000E+00-1.00000E+01
 -1      3278 2.80000E+01 6.00000E+00-1.00000E+01
 -1      3279 2.20000E+01 4.00000E+00-1.00000E+01
 -1      3280 2.40000E+01 4.00000E+00-1.00000E+01
 -1      3281 2.60000E+01 4.00000E+00-1.00000E+01
 -1      3282 2.80000E+01 4.00000E+00-1.00000E+01
 -1      3283 2.20000E+01 2.00000E+00-1.00000E+01
 -1      3284 2.40000E+01 2.00000E+00-1.00000E+01
 -1      3285 2.60000E+01 2.00000E+00-1.00000E+01
 -1      3286 2.80000E+01 2.00000E+00-1.00000E+01
 -1      3287 2.00000E+01 8.00000E+00-8.00000E+00
 -1      3288 2.00000E+01 6.00000E+00-8.00000E+00
 -1      3289 2.00000E+01 4.00000E+00-8.00000E+00
 -1      3290 2.00000E+01 2.00000E+00-8.00000E+00
 -1      3291 2.00000E+01 8.00000E+00-6.00000E+00
 -1      3292 2.00000E+01 6.00000E+00-6.00000E+00
 -1      3293 2.00000E+01 4.00000E+00-6.00000E+00
 -1      3294 2.00000E+01 2.00000E+00-6.00000E+00
 -1      3295 2.00000E+01 8.00000E+00-4.00000E+00
 -1      3296 2.00000E+01 6.00000E+00-4.00000E+00
 -1      3297 2.00000E+01 4.00000E+00-4.00000E+00
 -1      3298 2.00000E+01 2.00000E+00-4.00000E+00
 -1      3299 2.00000E+01 8.00000E+00-2.00000E+00
 -1      3300 2.00000E+01 6.00000E+00-2.00000E+00
 -1      3301 2.00000E+01 4.00000E+00-2.00000E+00
 -1      3302 2.00000E+01 2.00000E+00-2.00000E+00
 -1      3303 3.00000E+01 8.00000E+00-8.00000E+00
 -1      3304 3.00000E+01 6.00000E+00-8.00000E+00
 -1      3305 3.00000E+01 4.00000E+00-8.00000E+00
 -1      3306 3.00000E+01 2.00000E+00-8.00000E+00
 -1      3307 3.00000E+01 8.00000E+00-6.00000E+00
 -1      3308 3.00000E+01 6.00000E+00-6.00000E+00
 -1      3309 3.00000E+01 4.00000E+00-6.00000E+00
 -1      3310 3.00000E+01 2.00000E+00-6.00000E+00
 -1      3311 3.00000E+01 8.00000E+00-4.00000E+00
 -1      3312 3.00000E+01 6.00000E+00-4.00000E+00
 -1      3313 3.00000E+01 4.00000E+00-4.00000E+00
 -1      3314 3.00000E+01 2.00000E+00-4.00000E+00
 -1      3315 3.00000E+01 8.00000E+00-2.00000E+00
 -1      3316 3.00000E+01 6.00000E+00-2.00000E+00
 -1      3317 3.00000E+01 4.00000E+00-2.00000E+00
 -1      3318 3.00000E+01 2.00000E+00-2.00000E+00
 -1      3319 2.20000E+01 0.00000E+00-8.00000E+00
 -1      3320 2.40000E+01 0.00000E+00-8.00000E+00
 -1      3321 2.60000E+01 0.00000E+00-8.00000E+00
 -1      3322 2.80000E+01 0.00000E+00-8.00000E+00
 -1      3323 2.20000E+01 0.00000E+00-6.00000E+00
 -1      3324 2.40000E+01 0.00000E+00-6.00000E+00
 -1      3325 2.60000E+01 0.00000E+00-6.00000E+00
 -1      3326 2.80000E+01 0.00000E+00-6.00000E+00
 -1      3327 2.20000E+01 0.00000E+00-4.00000E+00
 -1      3328 2.40000E+01 0.00000E+00-4.00000E+00
 -1      3329 2.60000E+01 0.00000E+00-4.00000E+00
 -1      3330 2.80000E+01 0.00000E+00-4.00000E+00
 -1      3331 2.20000E+01 0.00000E+00-2.00000E+00
 -1      3332 2.40000E+01 0.00000E+00-2.00000E+00
 -1      3333 2.60000E+01 0.00000E+00-2.00000E+00
 -1      3334 2.80000E+01 0.00000E+00-2.00000E+00
 -1      3335-2.80000E+01 2.00000E+00-1.00000E+01
 -1      3336-2.60000E+01 2.00000E+00-1.00000E+01
 -1      3337-2.40000E+01 2.00000E+00-1.00000E+01
 -1      3338-2.20000E+01 2.00000E+00-1.00000E+01
 -1      3339-2.80000E+01 4.00000E+00-1.00000E+01
 -1      3340-2.60000E+01 4.00000E+00-1.00000E+01
 -1      3341-2.40000E+01 4.00000E+00-1.00000E+01
 -1      3342-2.20000E+01 4.00000E+00-1.00000E+01
 -1      3343-2.80000E+01 6.00000E+00-1.00000E+01
 -1      3344-2.60000E+01 6.00000E+00-1.00000E+01
 -1      3345-2.40000E+01 6.00000E+00-1.00000E+01
 -1      3346-2.20000E+01 6.00000E+00-1.00000E+01
 -1      3347-2.80000E+01 8.00000E+00-1.00000E+01
 -1      3348-2.60000E+01 8.00000E+00-1.00000E+01
 -1      3349-2.40000E+01 8.00000E+00-1.00000E+01
 -1      3350-2.20000E+01 8.00000E+00-1.00000E+01
 -1      3351-3.00000E+01 2.00000E+00-2.00000E+00
 -1      3352-3.00000E+01 4.00000E+00-2.00000E+00
 -1      3353-3.00000E+01 6.00000E+00-2.00000E+00
 -1      3354-3.00000E+01 8.00000E+00-2.00000E+00
 -1      3355-3.00000E+01 2.00000E+00-4.00000E+00
 -1      3356-3.00000E+01 4.00000E+00-4.00000E+00
 -1      3357-3.00000E+01 6.00000E+00-4.00000E+00
 -1      3358-3.00000E+01 8.00000E+00-4.00000E+00
 -1      3359-3.00000E+01 2.00000E+00-6.00000E+00
 -1      3360-3.00000E+01 4.00000E+00-6.00000E+00
 -1      3361-3.00000E+01 6.00000E+00-6.00000E+00
 -1      3362-3.00000E+01 8.00000E+00-6.00000E+00
 -1      3363-3.00000E+01 2.00000E+00-8.00000E+00
 -1      3364-3.00000E+01 4.00000E+00-8.00000E+00
 -1      3365-3.00000E+01 6.00000E+00-8.00000E+00
 -1      3366-3.00000E+01 8.00000E+00-8.00000E+00
 -1      3367-2.00000E+01 2.00000E+00-2.00000E+00
 -1      3368-2.00000E+01 4.00000E+00-2.00000E+00
 -1      3369-2.00000E+01 6.00000E+00-2.00000E+00
 -1      3370-2.00000E+01 8.00000E+00-2.00000E+00
 -1      3371-2.00000E+01 2.00000E+00-4.00000E+00
 -1      3372-2.00000E+01 4.00000E+00-4.00000E+00
 -1      3373-2.00000E+01 6.00000E+00-4.00000E+00
 -1      3374-2.00000E+01 8.00000E+00-4.00000E+00
 -1      3375-2.00000E+01 2.00000E+00-6.00000E+00
 -1      3376-2.00000E+01 4.00000E+00-6.00000E+00
 -1      3377-2.00000E+01 6.00000E+00-6.00000E+00
 -1      3378-2.00000E+01 8.00000E+00-6.00000E+00
 -1      3379-2.00000E+01 2.00000E+00-8.00000E+00
 -1      3380-2.00000E+01 4.00000E+00-8.00000E+00
 -1      3381-2.00000E+01 6.00000E+00-8.00000E+00
 -1      3382-2.00000E+01 8.00000E+00-8.00000E+00
 -1      3383-2.80000E+01 0.00000E+00-2.00000E+00
 -1      3384-2.60000E+01 0.00000E+00-2.00000E+00
 -1      3385-2.40000E+01 0.00000E+00-2.00000E+00
 -1      3386-2.20000E+01 0.00000E+00-2.00000E+00
 -1      3387-2.80000E+01 0.00000E+00-4.00000E+00
 -1      3388-2.60000E+01 0.00000E+00-4.00000E+00
 -1      3389-2.40000E+01 0.00000E+00-4.00000E+00
 -1      3390-2.20000E+01 0.00000E+00-4.00000E+00
 -1      3391-2.80000E+01 0.00000E+00-6.00000E+00
 -1      3392-2.60000E+01 0.00000E+00-6.00000E+00
 -1      3393-2.40000E+01 0.00000E+00-6.00000E+00
 -1      3394-2.20000E+01 0.00000E+00-6.00000E+00
 -1      3395-2.80000E+01 0.00000E+00-8.00000E+00
 -1      3396-2.60000E+01 0.00000E+00-8.00000E+00
 -1      3397-2.40000E+01 0.00000E+00-8.00000E+00
 -1      3398-2.20000E+01 0.00000E+00-8.00000E+00
 -1      3399-2.80000E+01 1.00000E+01-2.00000E+00
 -1      3400-2.60000E+01 1.00000E+01-2.00000E+00
 -1      3401-2.40000E+01 1.00000E+01-2.00000E+00
 -1      3402-2.20000E+01 1.00000E+01-2.00000E+00
 -1      3403-2.80000E+01 1.00000E+01-4.00000E+00
 -1      3404-2.60000E+01 1.00000E+01-4.00000E+00
 -1      3405-2.40000E+01 1.00000E+01-4.00000E+00
 -1      3406-2.20000E+01 1.00000E+01-4.00000E+00
 -1      3407-2.80000E+01 1.00000E+01-6.00000E+00
 -1      3408-2.60000E+01 1.00000E+01-6.00000E+00
 -1      3409-2.40000E+01 1.00000E+01-6.00000E+00
 -1      3410-2.20000E+01 1.00000E+01-6.00000E+00
 -1      3411-2.80000E+01 1.00000E+01-8.00000E+00
 -1      3412-2.60000E+01 1.00000E+01-8.00000E+00
 -1      3413-2.40000E+01 1.00000E+01-8.00000E+00
 -1      3414-2.20000E+01 1.00000E+01-8.00000E+00
 -1      3415-2.71000E+01 1.37500E+01-1.00000E+01
 -1      3416-2.57000E+01 1.37500E+01-1.00000E+01
 -1      3417-2.43000E+01 1.37500E+01-1.00000E+01
 -1      3418-2.29000E+01 1.37500E+01-1.00000E+01
 -1      3419-2.74000E+01 1.25000E+01-1.00000E+01
 -1      3420-2.58000E+01 1.25000E+01-1.00000E+01
 -1      3421-2.42000E+01 1.25000E+01-1.00000E+01
 -1      3422-2.26000E+01 1.25000E+01-1.00000E+01
 -1      3423-2.77000E+01 1.12500E+01-1.00000E+01
 -1      3424-2.59000E+01 1.12500E+01-1.00000E+01
 -1      3425-2.41000E+01 1.12500E+01-1.00000E+01
 -1      3426-2.23000E+01 1.12500E+01-1.00000E+01
 -1      3427-2.72451E+01 1.31453E+01-4.64330E+00
 -1      3428-2.57484E+01 1.31453E+01-4.64330E+00
 -1      3429-2.42516E+01 1.31453E+01-4.64330E+00
 -1      3430-2.27549E+01 1.31453E+01-4.64330E+00
 -1      3431-2.76327E+01 1.15305E+01-3.60038E+00
 -1      3432-2.58776E+01 1.15305E+01-3.60038E+00
 -1      3433-2.41224E+01 1.15305E+01-3.60038E+00
 -1      3434-2.23673E+01 1.15305E+01-3.60038E+00
 -1      3435-2.79023E+01 1.04069E+01-1.97580E+00
 -1      3436-2.59674E+01 1.04069E+01-1.97580E+00
 -1      3437-2.40326E+01 1.04069E+01-1.97580E+00
 -1      3438-2.20977E+01 1.04069E+01-1.97580E+00
 -1      3439-2.85484E+01 1.36291E+01-8.92866E+00
 -1      3440-2.90776E+01 1.23061E+01-8.72008E+00
 -1      3441-2.95674E+01 1.10814E+01-8.39516E+00
 -1      3442-2.85967E+01 1.35081E+01-7.85732E+00
 -1      3443-2.91551E+01 1.21122E+01-7.44015E+00
 -1      3444-2.96349E+01 1.09128E+01-6.79032E+00
 -1      3445-2.86451E+01 1.33872E+01-6.78598E+00
 -1      3446-2.92327E+01 1.19183E+01-6.16023E+00
 -1      3447-2.97023E+01 1.07442E+01-5.18548E+00
 -1      3448-2.86935E+01 1.32663E+01-5.71464E+00
 -1      3449-2.93102E+01 1.17244E+01-4.88031E+00
 -1      3450-2.97698E+01 1.05755E+01-3.58064E+00
 -1      3451-2.14516E+01 1.36291E+01-8.92866E+00
 -1      3452-2.09224E+01 1.23061E+01-8.72008E+00
 -1      3453-2.04326E+01 1.10814E+01-8.39516E+00
 -1      3454-2.14033E+01 1.35081E+01-7.85732E+00
 -1      3455-2.08449E+01 1.21122E+01-7.44015E+00
 -1      3456-2.03651E+01 1.09128E+01-6.79032E+00
 -1      3457-2.13549E+01 1.33872E+01-6.78598E+00
 -1      3458-2.07673E+01 1.19183E+01-6.16023E+00
 -1      3459-2.02977E+01 1.07442E+01-5.18548E+00
 -1      3460-2.13065E+01 1.32663E+01-5.71464E+00
 -1      3461-2.06898E+01 1.17244E+01-4.88031E+00
 -1      3462-2.02302E+01 1.05756E+01-3.58064E+00
 -1      3463 2.20000E+01 2.17083E+01-2.00000E+00
 -1      3464 2.40000E+01 2.17083E+01-2.00000E+00
 -1      3465 2.60000E+01 2.17083E+01-2.00000E+00
 -1      3466 2.80000E+01 2.17083E+01-2.00000E+00
 -1      3467 2.20000E+01 2.34167E+01-2.00000E+00
 -1      3468 2.40000E+01 2.34167E+01-2.00000E+00
 -1      3469 2.60000E+01 2.34167E+01-2.00000E+00
 -1      3470 2.80000E+01 2.34167E+01-2.00000E+00
 -1      3471 2.20000E+01 2.51250E+01-2.00000E+00
 -1      3472 2.40000E+01 2.51250E+01-2.00000E+00
 -1      3473 2.60000E+01 2.51250E+01-2.00000E+00
 -1      3474 2.80000E+01 2.51250E+01-2.00000E+00
 -1      3475 2.20000E+01 2.71000E+01-2.00000E+00
 -1      3476 2.40000E+01 2.71000E+01-2.00000E+00
 -1      3477 2.60000E+01 2.71000E+01-2.00000E+00
 -1      3478 2.80000E+01 2.71000E+01-2.00000E+00
 -1      3479 2.20000E+01 2.90750E+01-2.00000E+00
 -1      3480 2.40000E+01 2.90750E+01-2.00000E+00
 -1      3481 2.60000E+01 2.90750E+01-2.00000E+00
 -1      3482 2.80000E+01 2.90750E+01-2.00000E+00
 -1      3483 2.20000E+01 3.10500E+01-2.00000E+00
 -1      3484 2.40000E+01 3.10500E+01-2.00000E+00
 -1      3485 2.60000E+01 3.10500E+01-2.00000E+00
 -1      3486 2.80000E+01 3.10500E+01-2.00000E+00
 -1      3487 2.20000E+01 3.30250E+01-2.00000E+00
 -1      3488 2.40000E+01 3.30250E+01-2.00000E+00
 -1      3489 2.60000E+01 3.30250E+01-2.00000E+00
 -1      3490 2.80000E+01 3.30250E+01-2.00000E+00
 -1      3491 2.20000E+01 3.50000E+01-2.00000E+00
 -1      3492 2.40000E+01 3.50000E+01-2.00000E+00
 -1      3493 2.60000E+01 3.50000E+01-2.00000E+00
 -1      3494 2.80000E+01 3.50000E+01-2.00000E+00
 -1      3495 2.20000E+01 3.69750E+01-2.00000E+00
 -1      3496 2.40000E+01 3.69750E+01-2.00000E+00
 -1      3497 2.60000E+01 3.69750E+01-2.00000E+00
 -1      3498 2.80000E+01 3.69750E+01-2.00000E+00
 -1      3499 2.20000E+01 3.89500E+01-2.00000E+00
 -1      3500 2.40000E+01 3.89500E+01-2.00000E+00
 -1      3501 2.60000E+01 3.89500E+01-2.00000E+00
 -1      3502 2.80000E+01 3.89500E+01-2.00000E+00
 -1      3503 2.20000E+01 4.09250E+01-2.00000E+00
 -1      3504 2.40000E+01 4.09250E+01-2.00000E+00
 -1      3505 2.60000E+01 4.09250E+01-2.00000E+00
 -1      3506 2.80000E+01 4.09250E+01-2.00000E+00
 -1      3507 2.20000E+01 4.29000E+01-2.00000E+00
 -1      3508 2.40000E+01 4.29000E+01-2.00000E+00
 -1      3509 2.60000E+01 4.29000E+01-2.00000E+00
 -1      3510 2.80000E+01 4.29000E+01-2.00000E+00
 -1      3511 2.20000E+01 4.48750E+01-2.00000E+00
 -1      3512 2.40000E+01 4.48750E+01-2.00000E+00
 -1      3513 2.60000E+01 4.48750E+01-2.00000E+00
 -1      3514 2.80000E+01 4.48750E+01-2.00000E+00
 -1      3515 2.20000E+01 4.65833E+01-2.00000E+00
 -1      3516 2.40000E+01 4.65833E+01-2.00000E+00
 -1      3517 2.60000E+01 4.65833E+01-2.00000E+00
 -1      3518 2.80000E+01 4.65833E+01-2.00000E+00
 -1      3519 2.20000E+01 4.82917E+01-2.00000E+00
 -1      3520 2.40000E+01 4.82917E+01-2.00000E+00
 -1      3521 2.60000E+01 4.82917E+01-2.00000E+00
 -1      3522 2.80000E+01 4.82917E+01-2.00000E+00
 -1      3523 2.20000E+01 2.17500E+01-4.00000E+00
 -1      3524 2.40000E+01 2.17500E+01-4.00000E+00
 -1      3525 2.60000E+01 2.17500E+01-4.00000E+00
 -1      3526 2.80000E+01 2.17500E+01-4.00000E+00
 -1      3527 2.20000E+01 2.35000E+01-4.00000E+00
 -1      3528 2.40000E+01 2.35000E+01-4.00000E+00
 -1      3529 2.60000E+01 2.35000E+01-4.00000E+00
 -1      3530 2.80000E+01 2.35000E+01-4.00000E+00
 -1      3531 2.20000E+01 2.52500E+01-4.00000E+00
 -1      3532 2.40000E+01 2.52500E+01-4.00000E+00
 -1      3533 2.60000E+01 2.52500E+01-4.00000E+00
 -1      3534 2.80000E+01 2.52500E+01-4.00000E+00
 -1      3535 2.20000E+01 2.72000E+01-4.00000E+00
 -1      3536 2.40000E+01 2.72000E+01-4.00000E+00
 -1      3537 2.60000E+01 2.72000E+01-4.00000E+00
 -1      3538 2.80000E+01 2.72000E+01-4.00000E+00
 -1      3539 2.20000E+01 2.91500E+01-4.00000E+00
 -1      3540 2.40000E+01 2.91500E+01-4.00000E+00
 -1      3541 2.60000E+01 2.91500E+01-4.00000E+00
 -1      3542 2.80000E+01 2.91500E+01-4.00000E+00
 -1      3543 2.20000E+01 3.11000E+01-4.00000E+00
 -1      3544 2.40000E+01 3.11000E+01-4.00000E+00
 -1      3545 2.60000E+01 3.11000E+01-4.00000E+00
 -1      3546 2.80000E+01 3.11000E+01-4.00000E+00
 -1      3547 2.20000E+01 3.30500E+01-4.00000E+00
 -1      3548 2.40000E+01 3.30500E+01-4.00000E+00
 -1      3549 2.60000E+01 3.30500E+01-4.00000E+00
 -1      3550 2.80000E+01 3.30500E+01-4.00000E+00
 -1      3551 2.20000E+01 3.50000E+01-4.00000E+00
 -1      3552 2.40000E+01 3.50000E+01-4.00000E+00
 -1      3553 2.60000E+01 3.50000E+01-4.00000E+00
 -1      3554 2.80000E+01 3.50000E+01-4.00000E+00
 -1      3555 2.20000E+01 3.69500E+01-4.00000E+00
 -1      3556 2.40000E+01 3.69500E+01-4.00000E+00
 -1      3557 2.60000E+01 3.69500E+01-4.00000E+00
 -1      3558 2.80000E+01 3.69500E+01-4.00000E+00
 -1      3559 2.20000E+01 3.89000E+01-4.00000E+00
 -1      3560 2.40000E+01 3.89000E+01-4.00000E+00
 -1      3561 2.60000E+01 3.89000E+01-4.00000E+00
 -1      3562 2.80000E+01 3.89000E+01-4.00000E+00
 -1      3563 2.20000E+01 4.08500E+01-4.00000E+00
 -1      3564 2.40000E+01 4.08500E+01-4.00000E+00
 -1      3565 2.60000E+01 4.08500E+01-4.00000E+00
 -1      3566 2.80000E+01 4.08500E+01-4.00000E+00
 -1      3567 2.20000E+01 4.28000E+01-4.00000E+00
 -1      3568 2.40000E+01 4.28000E+01-4.00000E+00
 -1      3569 2.60000E+01 4.28000E+01-4.00000E+00
 -1      3570 2.80000E+01 4.28000E+01-4.00000E+00
 -1      3571 2.20000E+01 4.47500E+01-4.00000E+00
 -1      3572 2.40000E+01 4.47500E+01-4.00000E+00
 -1      3573 2.60000E+01 4.47500E+01-4.00000E+00
 -1      3574 2.80000E+01 4.47500E+01-4.00000E+00
 -1      3575 2.20000E+01 4.65000E+01-4.00000E+00
 -1      3576 2.40000E+01 4.65000E+01-4.00000E+00
 -1      3577 2.60000E+01 4.65000E+01-4.00000E+00
 -1      3578 2.80000E+01 4.65000E+01-4.00000E+00
 -1      3579 2.20000E+01 4.82500E+01-4.00000E+00
 -1      3580 2.40000E+01 4.82500E+01-4.00000E+00
 -1      3581 2.60000E+01 4.82500E+01-4.00000E+00
 -1      3582 2.80000E+01 4.82500E+01-4.00000E+00
 -1      3583 2.20000E+01 2.17917E+01-6.00000E+00
 -1      3584 2.40000E+01 2.17917E+01-6.00000E+00
 -1      3585 2.60000E+01 2.17917E+01-6.00000E+00
 -1      3586 2.80000E+01 2.17917E+01-6.00000E+00
 -1      3587 2.20000E+01 2.35833E+01-6.00000E+00
 -1      3588 2.40000E+01 2.35833E+01-6.00000E+00
 -1      3589 2.60000E+01 2.35833E+01-6.00000E+00
 -1      3590 2.80000E+01 2.35833E+01-6.00000E+00
 -1      3591 2.20000E+01 2.53750E+01-6.00000E+00
 -1      3592 2.40000E+01 2.53750E+01-6.00000E+00
 -1      3593 2.60000E+01 2.53750E+01-6.00000E+00
 -1      3594 2.80000E+01 2.53750E+01-6.00000E+00
 -1      3595 2.20000E+01 2.73000E+01-6.00000E+00
 -1      3596 2.40000E+01 2.73000E+01-6.00000E+00
 -1      3597 2.60000E+01 2.73000E+01-6.00000E+00
 -1      3598 2.80000E+01 2.73000E+01-6.00000E+00
 -1      3599 2.20000E+01 2.92250E+01-6.00000E+00
 -1      3600 2.40000E+01 2.92250E+01-6.00000E+00
 -1      3601 2.60000E+01 2.92250E+01-6.00000E+00
 -1      3602 2.80000E+01 2.92250E+01-6.00000E+00
 -1      3603 2.20000E+01 3.11500E+01-6.00000E+00
 -1      3604 2.40000E+01 3.11500E+01-6.00000E+00
 -1      3605 2.60000E+01 3.11500E+01-6.00000E+00
 -1      3606 2.80000E+01 3.11500E+01-6.00000E+00
 -1      3607 2.20000E+01 3.30750E+01-6.00000E+00
 -1      3608 2.40000E+01 3.30750E+01-6.00000E+00
 -1      3609 2.60000E+01 3.30750E+01-6.00000E+00
 -1      3610 2.80000E+01 3.30750E+01-6.00000E+00
 -1      3611 2.20000E+01 3.50000E+01-6.00000E+00
 -1      3612 2.40000E+01 3.50000E+01-6.00000E+00
 -1      3613 2.60000E+01 3.50000E+01-6.00000E+00
 -1      3614 2.80000E+01 3.50000E+01-6.00000E+00
 -1      3615 2.20000E+01 3.69250E+01-6.00000E+00
 -1      3616 2.40000E+01 3.69250E+01-6.00000E+00
 -1      3617 2.60000E+01 3.69250E+01-6.00000E+00
 -1      3618 2.80000E+01 3.69250E+01-6.00000E+00
 -1      3619 2.20000E+01 3.88500E+01-6.00000E+00
 -1      3620 2.40000E+01 3.88500E+01-6.00000E+00
 -1      3621 2.60000E+01 3.88500E+01-6.00000E+00
 -1      3622 2.80000E+01 3.88500E+01-6.00000E+00
 -1      3623 2.20000E+01 4.07750E+01-6.00000E+00
 -1      3624 2.40000E+01 4.07750E+01-6.00000E+00
 -1      3625 2.60000E+01 4.07750E+01-6.00000E+00
 -1      3626 2.80000E+01 4.07750E+01-6.00000E+00
 -1      3627 2.20000E+01 4.27000E+01-6.00000E+00
 -1      3628 2.40000E+01 4.27000E+01-6.00000E+00
 -1      3629 2.60000E+01 4.27000E+01-6.00000E+00
 -1      3630 2.80000E+01 4.27000E+01-6.00000E+00
 -1      3631 2.20000E+01 4.46250E+01-6.00000E+00
 -1      3632 2.40000E+01 4.46250E+01-6.00000E+00
 -1      3633 2.60000E+01 4.46250E+01-6.00000E+00
 -1      3634 2.80000E+01 4.46250E+01-6.00000E+00
 -1      3635 2.20000E+01 4.64167E+01-6.00000E+00
 -1      3636 2.40000E+01 4.64167E+01-6.00000E+00
 -1      3637 2.60000E+01 4.64167E+01-6.00000E+00
 -1      3638 2.80000E+01 4.64167E+01-6.00000E+00
 -1      3639 2.20000E+01 4.82083E+01-6.00000E+00
 -1      3640 2.40000E+01 4.82083E+01-6.00000E+00
 -1      3641 2.60000E+01 4.82083E+01-6.00000E+00
 -1      3642 2.80000E+01 4.82083E+01-6.00000E+00
 -1      3643 2.20000E+01 2.18333E+01-8.00000E+00
 -1      3644 2.40000E+01 2.18333E+01-8.00000E+00
 -1      3645 2.60000E+01 2.18333E+01-8.00000E+00
 -1      3646 2.80000E+01 2.18333E+01-8.00000E+00
 -1      3647 2.20000E+01 2.36667E+01-8.00000E+00
 -1      3648 2.40000E+01 2.36667E+01-8.00000E+00
 -1      3649 2.60000E+01 2.36667E+01-8.00000E+00
 -1      3650 2.80000E+01 2.36667E+01-8.00000E+00
 -1      3651 2.20000E+01 2.55000E+01-8.00000E+00
 -1      3652 2.40000E+01 2.55000E+01-8.00000E+00
 -1      3653 2.60000E+01 2.55000E+01-8.00000E+00
 -1      3654 2.80000E+01 2.55000E+01-8.00000E+00
 -1      3655 2.20000E+01 2.74000E+01-8.00000E+00
 -1      3656 2.40000E+01 2.74000E+01-8.00000E+00
 -1      3657 2.60000E+01 2.74000E+01-8.00000E+00
 -1      3658 2.80000E+01 2.74000E+01-8.00000E+00
 -1      3659 2.20000E+01 2.93000E+01-8.00000E+00
 -1      3660 2.40000E+01 2.93000E+01-8.00000E+00
 -1      3661 2.60000E+01 2.93000E+01-8.00000E+00
 -1      3662 2.80000E+01 2.93000E+01-8.00000E+00
 -1      3663 2.20000E+01 3.12000E+01-8.00000E+00
 -1      3664 2.40000E+01 3.12000E+01-8.00000E+00
 -1      3665 2.60000E+01 3.12000E+01-8.00000E+00
 -1      3666 2.80000E+01 3.12000E+01-8.00000E+00
 -1      3667 2.20000E+01 3.31000E+01-8.00000E+00
 -1      3668 2.40000E+01 3.31000E+01-8.00000E+00
 -1      3669 2.60000E+01 3.31000E+01-8.00000E+00
 -1      3670 2.80000E+01 3.31000E+01-8.00000E+00
 -1      3671 2.20000E+01 3.50000E+01-8.00000E+00
 -1      3672 2.40000E+01 3.50000E+01-8.00000E+00
 -1      3673 2.60000E+01 3.50000E+01-8.00000E+00
 -1      3674 2.80000E+01 3.50000E+01-8.00000E+00
 -1      3675 2.20000E+01 3.69000E+01-8.00000E+00
 -1      3676 2.40000E+01 3.69000E+01-8.00000E+00
 -1      3677 2.60000E+01 3.69000E+01-8.00000E+00
 -1      3678 2.80000E+01 3.69000E+01-8.00000E+00
 -1      3679 2.20000E+01 3.88000E+01-8.00000E+00
 -1      3680 2.40000E+01 3.88000E+01-8.00000E+00
 -1      3681 2.60000E+01 3.88000E+01-8.00000E+00
 -1      3682 2.80000E+01 3.88000E+01-8.00000E+00
 -1      3683 2.20000E+01 4.07000E+01-8.00000E+00
 -1      3684 2.40000E+01 4.07000E+01-8.00000E+00
 -1      3685 2.60000E+01 4.07000E+01-8.00000E+00
 -1      3686 2.80000E+01 4.07000E+01-8.00000E+00
 -1      3687 2.20000E+01 4.26000E+01-8.00000E+00
 -1      3688 2.40000E+01 4.26000E+01-8.00000E+00
 -1      3689 2.60000E+01 4.26000E+01-8.00000E+00
 -1      3690 2.80000E+01 4.26000E+01-8.00000E+00
 -1      3691 2.20000E+01 4.45000E+01-8.00000E+00
 -1      3692 2.40000E+01 4.45000E+01-8.00000E+00
 -1      3693 2.60000E+01 4.45000E+01-8.00000E+00
 -1      3694 2.80000E+01 4.45000E+01-8.00000E+00
 -1      3695 2.20000E+01 4.63333E+01-8.00000E+00
 -1      3696 2.40000E+01 4.63333E+01-8.00000E+00
 -1      3697 2.60000E+01 4.63333E+01-8.00000E+00
 -1      3698 2.80000E+01 4.63333E+01-8.00000E+00
 -1      3699 2.20000E+01 4.81667E+01-8.00000E+00
 -1      3700 2.40000E+01 4.81667E+01-8.00000E+00
 -1      3701 2.60000E+01 4.81667E+01-8.00000E+00
 -1      3702 2.80000E+01 4.81667E+01-8.00000E+00
 -1      3703-2.20000E+01 2.18333E+01-8.00000E+00
 -1      3704-2.40000E+01 2.18333E+01-8.00000E+00
 -1      3705-2.60000E+01 2.18333E+01-8.00000E+00
 -1      3706-2.80000E+01 2.18333E+01-8.00000E+00
 -1      3707-2.20000E+01 2.17917E+01-6.00000E+00
 -1      3708-2.40000E+01 2.17917E+01-6.00000E+00
 -1      3709-2.60000E+01 2.17917E+01-6.00000E+00
 -1      3710-2.80000E+01 2.17917E+01-6.00000E+00
 -1      3711-2.20000E+01 2.17500E+01-4.00000E+00
 -1      3712-2.40000E+01 2.17500E+01-4.00000E+00
 -1      3713-2.60000E+01 2.17500E+01-4.00000E+00
 -1      3714-2.80000E+01 2.17500E+01-4.00000E+00
 -1      3715-2.20000E+01 2.17083E+01-2.00000E+00
 -1      3716-2.40000E+01 2.17083E+01-2.00000E+00
 -1      3717-2.60000E+01 2.17083E+01-2.00000E+00
 -1      3718-2.80000E+01 2.17083E+01-2.00000E+00
 -1      3719-2.20000E+01 2.36667E+01-8.00000E+00
 -1      3720-2.40000E+01 2.36667E+01-8.00000E+00
 -1      3721-2.60000E+01 2.36667E+01-8.00000E+00
 -1      3722-2.80000E+01 2.36667E+01-8.00000E+00
 -1      3723-2.20000E+01 2.35833E+01-6.00000E+00
 -1      3724-2.40000E+01 2.35833E+01-6.00000E+00
 -1      3725-2.60000E+01 2.35833E+01-6.00000E+00
 -1      3726-2.80000E+01 2.35833E+01-6.00000E+00
 -1      3727-2.20000E+01 2.35000E+01-4.00000E+00
 -1      3728-2.40000E+01 2.35000E+01-4.00000E+00
 -1      3729-2.60000E+01 2.35000E+01-4.00000E+00
 -1      3730-2.80000E+01 2.35000E+01-4.00000E+00
 -1      3731-2.20000E+01 2.34167E+01-2.00000E+00
 -1      3732-2.40000E+01 2.34167E+01-2.00000E+00
 -1      3733-2.60000E+01 2.34167E+01-2.00000E+00
 -1      3734-2.80000E+01 2.34167E+01-2.00000E+00
 -1      3735-2.20000E+01 2.55000E+01-8.00000E+00
 -1      3736-2.40000E+01 2.55000E+01-8.00000E+00
 -1      3737-2.60000E+01 2.55000E+01-8.00000E+00
 -1      3738-2.80000E+01 2.55000E+01-8.00000E+00
 -1      3739-2.20000E+01 2.53750E+01-6.00000E+00
 -1      3740-2.40000E+01 2.53750E+01-6.00000E+00
 -1      3741-2.60000E+01 2.53750E+01-6.00000E+00
 -1      3742-2.80000E+01 2.53750E+01-6.00000E+00
 -1      3743-2.20000E+01 2.52500E+01-4.00000E+00
 -1      3744-2.40000E+01 2.52500E+01-4.00000E+00
 -1      3745-2.60000E+01 2.52500E+01-4.00000E+00
 -1      3746-2.80000E+01 2.52500E+01-4.00000E+00
 -1      3747-2.20000E+01 2.51250E+01-2.00000E+00
 -1      3748-2.40000E+01 2.51250E+01-2.00000E+00
 -1      3749-2.60000E+01 2.51250E+01-2.00000E+00
 -1      3750-2.80000E+01 2.51250E+01-2.00000E+00
 -1      3751-2.20000E+01 2.74000E+01-8.00000E+00
 -1      3752-2.40000E+01 2.74000E+01-8.00000E+00
 -1      3753-2.60000E+01 2.74000E+01-8.00000E+00
 -1      3754-2.80000E+01 2.74000E+01-8.00000E+00
 -1      3755-2.20000E+01 2.73000E+01-6.00000E+00
 -1      3756-2.40000E+01 2.73000E+01-6.00000E+00
 -1      3757-2.60000E+01 2.73000E+01-6.00000E+00
 -1      3758-2.80000E+01 2.73000E+01-6.00000E+00
 -1      3759-2.20000E+01 2.72000E+01-4.00000E+00
 -1      3760-2.40000E+01 2.72000E+01-4.00000E+00
 -1      3761-2.60000E+01 2.72000E+01-4.00000E+00
 -1      3762-2.80000E+01 2.72000E+01-4.00000E+00
 -1      3763-2.20000E+01 2.71000E+01-2.00000E+00
 -1      3764-2.40000E+01 2.71000E+01-2.00000E+00
 -1      3765-2.60000E+01 2.71000E+01-2.00000E+00
 -1      3766-2.80000E+01 2.71000E+01-2.00000E+00
 -1      3767-2.20000E+01 2.93000E+01-8.00000E+00
 -1      3768-2.40000E+01 2.93000E+01-8.00000E+00
 -1      3769-2.60000E+01 2.93000E+01-8.00000E+00
 -1      3770-2.80000E+01 2.93000E+01-8.00000E+00
 -1      3771-2.20000E+01 2.92250E+01-6.00000E+00
 -1      3772-2.40000E+01 2.92250E+01-6.00000E+00
 -1      3773-2.60000E+01 2.92250E+01-6.00000E+00
 -1      3774-2.80000E+01 2.92250E+01-6.00000E+00
 -1      3775-2.20000E+01 2.91500E+01-4.00000E+00
 -1      3776-2.40000E+01 2.91500E+01-4.00000E+00
 -1      3777-2.60000E+01 2.91500E+01-4.00000E+00
 -1      3778-2.80000E+01 2.91500E+01-4.00000E+00
 -1      3779-2.20000E+01 2.90750E+01-2.00000E+00
 -1      3780-2.40000E+01 2.90750E+01-2.00000E+00
 -1      3781-2.60000E+01 2.90750E+01-2.00000E+00
 -1      3782-2.80000E+01 2.90750E+01-2.00000E+00
 -1      3783-2.20000E+01 3.12000E+01-8.00000E+00
 -1      3784-2.40000E+01 3.12000E+01-8.00000E+00
 -1      3785-2.60000E+01 3.12000E+01-8.00000E+00
 -1      3786-2.80000E+01 3.12000E+01-8.00000E+00
 -1      3787-2.20000E+01 3.11500E+01-6.00000E+00
 -1      3788-2.40000E+01 3.11500E+01-6.00000E+00
 -1      3789-2.60000E+01 3.11500E+01-6.00000E+00
 -1      3790-2.80000E+01 3.11500E+01-6.00000E+00
 -1      3791-2.20000E+01 3.11000E+01-4.00000E+00
 -1      3792-2.40000E+01 3.11000E+01-4.00000E+00
 -1      3793-2.60000E+01 3.11000E+01-4.00000E+00
 -1      3794-2.80000E+01 3.11000E+01-4.00000E+00
 -1      3795-2.20000E+01 3.10500E+01-2.00000E+00
 -1      3796-2.40000E+01 3.10500E+01-2.00000E+00
 -1      3797-2.60000E+01 3.10500E+01-2.00000E+00
 -1      3798-2.80000E+01 3.10500E+01-2.00000E+00
 -1      3799-2.20000E+01 3.31000E+01-8.00000E+00
 -1      3800-2.40000E+01 3.31000E+01-8.00000E+00
 -1      3801-2.60000E+01 3.31000E+01-8.00000E+00
 -1      3802-2.80000E+01 3.31000E+01-8.00000E+00
 -1      3803-2.20000E+01 3.30750E+01-6.00000E+00
 -1      3804-2.40000E+01 3.30750E+01-6.00000E+00
 -1      3805-2.60000E+01 3.30750E+01-6.00000E+00
 -1      3806-2.80000E+01 3.30750E+01-6.00000E+00
 -1      3807-2.20000E+01 3.30500E+01-4.00000E+00
 -1      3808-2.40000E+01 3.30500E+01-4.00000E+00
 -1      3809-2.60000E+01 3.30500E+01-4.00000E+00
 -1      3810-2.80000E+01 3.30500E+01-4.00000E+00
 -1      3811-2.20000E+01 3.30250E+01-2.00000E+00
 -1      3812-2.40000E+01 3.30250E+01-2.00000E+00
 -1      3813-2.60000E+01 3.30250E+01-2.00000E+00
 -1      3814-2.80000E+01 3.30250E+01-2.00000E+00
 -1      3815-2.20000E+01 3.50000E+01-8.00000E+00
 -1      3816-2.40000E+01 3.50000E+01-8.00000E+00
 -1      3817-2.60000E+01 3.50000E+01-8.00000E+00
 -1      3818-2.80000E+01 3.50000E+01-8.00000E+00
 -1      3819-2.20000E+01 3.50000E+01-6.00000E+00
 -1      3820-2.40000E+01 3.50000E+01-6.00000E+00
 -1      3821-2.60000E+01 3.50000E+01-6.00000E+00
 -1      3822-2.80000E+01 3.50000E+01-6.00000E+00
 -1      3823-2.20000E+01 3.50000E+01-4.00000E+00
 -1      3824-2.40000E+01 3.50000E+01-4.00000E+00
 -1      3825-2.60000E+01 3.50000E+01-4.00000E+00
 -1      3826-2.80000E+01 3.50000E+01-4.00000E+00
 -1      3827-2.20000E+01 3.50000E+01-2.00000E+00
 -1      3828-2.40000E+01 3.50000E+01-2.00000E+00
 -1      3829-2.60000E+01 3.50000E+01-2.00000E+00
 -1      3830-2.80000E+01 3.50000E+01-2.00000E+00
 -1      3831-2.20000E+01 3.69000E+01-8.00000E+00
 -1      3832-2.40000E+01 3.69000E+01-8.00000E+00
 -1      3833-2.60000E+01 3.69000E+01-8.00000E+00
 -1      3834-2.80000E+01 3.69000E+01-8.00000E+00
 -1      3835-2.20000E+01 3.69250E+01-6.00000E+00
 -1      3836-2.40000E+01 3.69250E+01-6.00000E+00
 -1      3837-2.60000E+01 3.69250E+01-6.00000E+00
 -1      3838-2.80000E+01 3.69250E+01-6.00000E+00
 -1      3839-2.20000E+01 3.69500E+01-4.00000E+00
 -1      3840-2.40000E+01 3.69500E+01-4.00000E+00
 -1      3841-2.60000E+01 3.69500E+01-4.00000E+00
 -1      3842-2.80000E+01 3.69500E+01-4.00000E+00
 -1      3843-2.20000E+01 3.69750E+01-2.00000E+00
 -1      3844-2.40000E+01 3.69750E+01-2.00000E+00
 -1      3845-2.60000E+01 3.69750E+01-2.00000E+00
 -1      3846-2.80000E+01 3.69750E+01-2.00000E+00
 -1      3847-2.20000E+01 3.88000E+01-8.00000E+00
 -1      3848-2.40000E+01 3.88000E+01-8.00000E+00
 -1      3849-2.60000E+01 3.88000E+01-8.00000E+00
 -1      3850-2.80000E+01 3.88000E+01-8.00000E+00
 -1      3851-2.20000E+01 3.88500E+01-6.00000E+00
 -1      3852-2.40000E+01 3.88500E+01-6.00000E+00
 -1      3853-2.60000E+01 3.88500E+01-6.00000E+00
 -1      3854-2.80000E+01 3.88500E+01-6.00000E+00
 -1      3855-2.20000E+01 3.89000E+01-4.00000E+00
 -1      3856-2.40000E+01 3.89000E+01-4.00000E+00
 -1      3857-2.60000E+01 3.89000E+01-4.00000E+00
 -1      3858-2.80000E+01 3.89000E+01-4.00000E+00
 -1      3859-2.20000E+01 3.89500E+01-2.00000E+00
 -1      3860-2.40000E+01 3.89500E+01-2.00000E+00
 -1      3861-2.60000E+01 3.89500E+01-2.00000E+00
 -1      3862-2.80000E+01 3.89500E+01-2.00000E+00
 -1      3863-2.20000E+01 4.07000E+01-8.00000E+00
 -1      3864-2.40000E+01 4.07000E+01-8.00000E+00
 -1      3865-2.60000E+01 4.07000E+01-8.00000E+00
 -1      3866-2.80000E+01 4.07000E+01-8.00000E+00
 -1      3867-2.20000E+01 4.07750E+01-6.00000E+00
 -1      3868-2.40000E+01 4.07750E+01-6.00000E+00
 -1      3869-2.60000E+01 4.07750E+01-6.00000E+00
 -1      3870-2.80000E+01 4.07750E+01-6.00000E+00
 -1      3871-2.20000E+01 4.08500E+01-4.00000E+00
 -1      3872-2.40000E+01 4.08500E+01-4.00000E+00
 -1      3873-2.60000E+01 4.08500E+01-4.00000E+00
 -1      3874-2.80000E+01 4.08500E+01-4.00000E+00
 -1      3875-2.20000E+01 4.09250E+01-2.00000E+00
 -1      3876-2.40000E+01 4.09250E+01-2.00000E+00
 -1      3877-2.60000E+01 4.09250E+01-2.00000E+00
 -1      3878-2.80000E+01 4.09250E+01-2.00000E+00
 -1      3879-2.20000E+01 4.26000E+01-8.00000E+00
 -1      3880-2.40000E+01 4.26000E+01-8.00000E+00
 -1      3881-2.60000E+01 4.26000E+01-8.00000E+00
 -1      3882-2.80000E+01 4.26000E+01-8.00000E+00
 -1      3883-2.20000E+01 4.27000E+01-6.00000E+00
 -1      3884-2.40000E+01 4.27000E+01-6.00000E+00
 -1      3885-2.60000E+01 4.27000E+01-6.00000E+00
 -1      3886-2.80000E+01 4.27000E+01-6.00000E+00
 -1      3887-2.20000E+01 4.28000E+01-4.00000E+00
 -1      3888-2.40000E+01 4.28000E+01-4.00000E+00
 -1      3889-2.60000E+01 4.28000E+01-4.00000E+00
 -1      3890-2.80000E+01 4.28000E+01-4.00000E+00
 -1      3891-2.20000E+01 4.29000E+01-2.00000E+00
 -1      3892-2.40000E+01 4.29000E+01-2.00000E+00
 -1      3893-2.60000E+01 4.29000E+01-2.00000E+00
 -1      3894-2.80000E+01 4.29000E+01-2.00000E+00
 -1      3895-2.20000E+01 4.45000E+01-8.00000E+00
 -1      3896-2.40000E+01 4.45000E+01-8.00000E+00
 -1      3897-2.60000E+01 4.45000E+01-8.00000E+00
 -1      3898-2.80000E+01 4.45000E+01-8.00000E+00
 -1      3899-2.20000E+01 4.46250E+01-6.00000E+00
 -1      3900-2.40000E+01 4.46250E+01-6.00000E+00
 -1      3901-2.60000E+01 4.46250E+01-6.00000E+00
 -1      3902-2.80000E+01 4.46250E+01-6.00000E+00
 -1      3903-2.20000E+01 4.47500E+01-4.00000E+00
 -1      3904-2.40000E+01 4.47500E+01-4.00000E+00
 -1      3905-2.60000E+01 4.47500E+01-4.00000E+00
 -1      3906-2.80000E+01 4.47500E+01-4.00000E+00
 -1      3907-2.20000E+01 4.48750E+01-2.00000E+00
 -1      3908-2.40000E+01 4.48750E+01-2.00000E+00
 -1      3909-2.60000E+01 4.48750E+01-2.00000E+00
 -1      3910-2.80000E+01 4.48750E+01-2.00000E+00
 -1      3911-2.20000E+01 4.63333E+01-8.00000E+00
 -1      3912-2.40000E+01 4.63333E+01-8.00000E+00
 -1      3913-2.60000E+01 4.63333E+01-8.00000E+00
 -1      3914-2.80000E+01 4.63333E+01-8.00000E+00
 -1      3915-2.20000E+01 4.64167E+01-6.00000E+00
 -1      3916-2.40000E+01 4.64167E+01-6.00000E+00
 -1      3917-2.60000E+01 4.64167E+01-6.00000E+00
 -1      3918-2.80000E+01 4.64167E+01-6.00000E+00
 -1      3919-2.20000E+01 4.65000E+01-4.00000E+00
 -1      3920-2.40000E+01 4.65000E+01-4.00000E+00
 -1      3921-2.60000E+01 4.65000E+01-4.00000E+00
 -1      3922-2.80000E+01 4.65000E+01-4.00000E+00
 -1      3923-2.20000E+01 4.65833E+01-2.00000E+00
 -1      3924-2.40000E+01 4.65833E+01-2.00000E+00
 -1      3925-2.60000E+01 4.65833E+01-2.00000E+00
 -1      3926-2.80000E+01 4.65833E+01-2.00000E+00
 -1      3927-2.20000E+01 4.81667E+01-8.00000E+00
 -1      3928-2.40000E+01 4.81667E+01-8.00000E+00
 -1      3929-2.60000E+01 4.81667E+01-8.00000E+00
 -1      3930-2.80000E+01 4.81667E+01-8.00000E+00
 -1      3931-2.20000E+01 4.82083E+01-6.00000E+00
 -1      3932-2.40000E+01 4.82083E+01-6.00000E+00
 -1      3933-2.60000E+01 4.82083E+01-6.00000E+00
 -1      3934-2.80000E+01 4.82083E+01-6.00000E+00
 -1      3935-2.20000E+01 4.82500E+01-4.00000E+00
 -1      3936-2.40000E+01 4.82500E+01-4.00000E+00
 -1      3937-2.60000E+01 4.82500E+01-4.00000E+00
 -1      3938-2.80000E+01 4.82500E+01-4.00000E+00
 -1      3939-2.20000E+01 4.82917E+01-2.00000E+00
 -1      3940-2.40000E+01 4.82917E+01-2.00000E+00
 -1      3941-2.60000E+01 4.82917E+01-2.00000E+00
 -1      3942-2.80000E+01 4.82917E+01-2.00000E+00
 -1      3943 2.19256E+01 5.18074E+01-2.00000E+00
 -1      3944 2.39189E+01 5.19718E+01-2.00000E+00
 -1      3945 2.59121E+01 5.21361E+01-2.00000E+00
 -1      3946 2.79053E+01 5.23004E+01-2.00000E+00
 -1      3947 2.19264E+01 5.17982E+01-4.00000E+00
 -1      3948 2.39197E+01 5.19616E+01-4.00000E+00
 -1      3949 2.59130E+01 5.21251E+01-4.00000E+00
 -1      3950 2.79063E+01 5.22886E+01-4.00000E+00
 -1      3951 2.19272E+01 5.17889E+01-6.00000E+00
 -1      3952 2.39205E+01 5.19515E+01-6.00000E+00
 -1      3953 2.59139E+01 5.21141E+01-6.00000E+00
 -1      3954 2.79073E+01 5.22767E+01-6.00000E+00
 -1      3955 2.19279E+01 5.17796E+01-8.00000E+00
 -1      3956 2.39214E+01 5.19413E+01-8.00000E+00
 -1      3957 2.59148E+01 5.21031E+01-8.00000E+00
 -1      3958 2.79082E+01 5.22649E+01-8.00000E+00
 -1      3959 2.17030E+01 5.36027E+01-2.00000E+00
 -1      3960 2.36760E+01 5.39302E+01-2.00000E+00
 -1      3961 2.56490E+01 5.42577E+01-2.00000E+00
 -1      3962 2.76220E+01 5.45852E+01-2.00000E+00
 -1      3963 2.17061E+01 5.35843E+01-4.00000E+00
 -1      3964 2.36793E+01 5.39101E+01-4.00000E+00
 -1      3965 2.56526E+01 5.42360E+01-4.00000E+00
 -1      3966 2.76259E+01 5.45618E+01-4.00000E+00
 -1      3967 2.17091E+01 5.35659E+01-6.00000E+00
 -1      3968 2.36826E+01 5.38900E+01-6.00000E+00
 -1      3969 2.56562E+01 5.42142E+01-6.00000E+00
 -1      3970 2.76298E+01 5.45384E+01-6.00000E+00
 -1      3971 2.17121E+01 5.35475E+01-8.00000E+00
 -1      3972 2.36859E+01 5.38700E+01-8.00000E+00
 -1      3973 2.56598E+01 5.41925E+01-8.00000E+00
 -1      3974 2.76336E+01 5.45149E+01-8.00000E+00
 -1      3975 2.13337E+01 5.53736E+01-2.00000E+00
 -1      3976 2.32731E+01 5.58621E+01-2.00000E+00
 -1      3977 2.52125E+01 5.63506E+01-2.00000E+00
 -1      3978 2.71519E+01 5.68391E+01-2.00000E+00
 -1      3979 2.13405E+01 5.53464E+01-4.00000E+00
 -1      3980 2.32805E+01 5.58325E+01-4.00000E+00
 -1      3981 2.52206E+01 5.63185E+01-4.00000E+00
 -1      3982 2.71606E+01 5.68045E+01-4.00000E+00
 -1      3983 2.13473E+01 5.53193E+01-6.00000E+00
 -1      3984 2.32879E+01 5.58028E+01-6.00000E+00
 -1      3985 2.52286E+01 5.62864E+01-6.00000E+00
 -1      3986 2.71692E+01 5.67700E+01-6.00000E+00
 -1      3987 2.13540E+01 5.52921E+01-8.00000E+00
 -1      3988 2.32953E+01 5.57732E+01-8.00000E+00
 -1      3989 2.52366E+01 5.62543E+01-8.00000E+00
 -1      3990 2.71778E+01 5.67354E+01-8.00000E+00
 -1      3991 2.08201E+01 5.71081E+01-2.00000E+00
 -1      3992 2.27128E+01 5.77543E+01-2.00000E+00
 -1      3993 2.46055E+01 5.84005E+01-2.00000E+00
 -1      3994 2.64983E+01 5.90467E+01-2.00000E+00
 -1      3995 2.08321E+01 5.70728E+01-4.00000E+00
 -1      3996 2.27259E+01 5.77158E+01-4.00000E+00
 -1      3997 2.46197E+01 5.83587E+01-4.00000E+00
 -1      3998 2.65136E+01 5.90017E+01-4.00000E+00
 -1      3999 2.08441E+01 5.70374E+01-6.00000E+00
 -1      4000 2.27390E+01 5.76772E+01-6.00000E+00
 -1      4001 2.46339E+01 5.83170E+01-6.00000E+00
 -1      4002 2.65288E+01 5.89567E+01-6.00000E+00
 -1      4003 2.08560E+01 5.70021E+01-8.00000E+00
 -1      4004 2.27520E+01 5.76386E+01-8.00000E+00
 -1      4005 2.46479E+01 5.82752E+01-8.00000E+00
 -1      4006 2.65439E+01 5.89117E+01-8.00000E+00
 -1      4007 2.01657E+01 5.87946E+01-2.00000E+00
 -1      4008 2.19989E+01 5.95941E+01-2.00000E+00
 -1      4009 2.38322E+01 6.03936E+01-2.00000E+00
 -1      4010 2.56654E+01 6.11931E+01-2.00000E+00
 -1      4011 2.01843E+01 5.87518E+01-4.00000E+00
 -1      4012 2.20192E+01 5.95474E+01-4.00000E+00
 -1      4013 2.38542E+01 6.03430E+01-4.00000E+00
 -1      4014 2.56891E+01 6.11387E+01-4.00000E+00
 -1      4015 2.02028E+01 5.87090E+01-6.00000E+00
 -1      4016 2.20394E+01 5.95007E+01-6.00000E+00
 -1      4017 2.38760E+01 6.02924E+01-6.00000E+00
 -1      4018 2.57127E+01 6.10842E+01-6.00000E+00
 -1      4019 2.02212E+01 5.86661E+01-8.00000E+00
 -1      4020 2.20595E+01 5.94540E+01-8.00000E+00
 -1      4021 2.38978E+01 6.02418E+01-8.00000E+00
 -1      4022 2.57361E+01 6.10296E+01-8.00000E+00
 -1      4023 1.93750E+01 6.04216E+01-2.00000E+00
 -1      4024 2.11364E+01 6.13690E+01-2.00000E+00
 -1      4025 2.28977E+01 6.23164E+01-2.00000E+00
 -1      4026 2.46591E+01 6.32638E+01-2.00000E+00
 -1      4027 1.94014E+01 6.03723E+01-4.00000E+00
 -1      4028 2.11652E+01 6.13152E+01-4.00000E+00
 -1      4029 2.29290E+01 6.22581E+01-4.00000E+00
 -1      4030 2.46927E+01 6.32011E+01-4.00000E+00
 -1      4031 1.94278E+01 6.03229E+01-6.00000E+00
 -1      4032 2.11939E+01 6.12613E+01-6.00000E+00
 -1      4033 2.29601E+01 6.21998E+01-6.00000E+00
 -1      4034 2.47262E+01 6.31382E+01-6.00000E+00
 -1      4035 1.94540E+01 6.02734E+01-8.00000E+00
 -1      4036 2.12225E+01 6.12074E+01-8.00000E+00
 -1      4037 2.29910E+01 6.21413E+01-8.00000E+00
 -1      4038 2.47596E+01 6.30753E+01-8.00000E+00
 -1      4039 1.84533E+01 6.19781E+01-2.00000E+00
 -1      4040 2.01309E+01 6.30671E+01-2.00000E+00
 -1      4041 2.18084E+01 6.41560E+01-2.00000E+00
 -1      4042 2.34860E+01 6.52449E+01-2.00000E+00
 -1      4043 1.84888E+01 6.19233E+01-4.00000E+00
 -1      4044 2.01696E+01 6.30073E+01-4.00000E+00
 -1      4045 2.18504E+01 6.40912E+01-4.00000E+00
 -1      4046 2.35311E+01 6.51751E+01-4.00000E+00
 -1      4047 1.85241E+01 6.18684E+01-6.00000E+00
 -1      4048 2.02081E+01 6.29474E+01-6.00000E+00
 -1      4049 2.18921E+01 6.40263E+01-6.00000E+00
 -1      4050 2.35761E+01 6.51052E+01-6.00000E+00
 -1      4051 1.85592E+01 6.18134E+01-8.00000E+00
 -1      4052 2.02464E+01 6.28873E+01-8.00000E+00
 -1      4053 2.19336E+01 6.39613E+01-8.00000E+00
 -1      4054 2.36208E+01 6.50352E+01-8.00000E+00
 -1      4055 1.74068E+01 6.34537E+01-2.00000E+00
 -1      4056 1.89893E+01 6.46768E+01-2.00000E+00
 -1      4057 2.05717E+01 6.58998E+01-2.00000E+00
 -1      4058 2.21541E+01 6.71229E+01-2.00000E+00
 -1      4059 1.74524E+01 6.33946E+01-4.00000E+00
 -1      4060 1.90389E+01 6.46123E+01-4.00000E+00
 -1      4061 2.06255E+01 6.58300E+01-4.00000E+00
 -1      4062 2.22121E+01 6.70477E+01-4.00000E+00
 -1      4063 1.74977E+01 6.33353E+01-6.00000E+00
 -1      4064 1.90884E+01 6.45476E+01-6.00000E+00
 -1      4065 2.06791E+01 6.57599E+01-6.00000E+00
 -1      4066 2.22698E+01 6.69722E+01-6.00000E+00
 -1      4067 1.75428E+01 6.32759E+01-8.00000E+00
 -1      4068 1.91376E+01 6.44828E+01-8.00000E+00
 -1      4069 2.07324E+01 6.56897E+01-8.00000E+00
 -1      4070 2.23272E+01 6.68966E+01-8.00000E+00
 -1      4071 1.62427E+01 6.48383E+01-2.00000E+00
 -1      4072 1.77193E+01 6.61873E+01-2.00000E+00
 -1      4073 1.91959E+01 6.75362E+01-2.00000E+00
 -1      4074 2.06725E+01 6.88851E+01-2.00000E+00
 -1      4075 1.62992E+01 6.47762E+01-4.00000E+00
 -1      4076 1.77809E+01 6.61195E+01-4.00000E+00
 -1      4077 1.92626E+01 6.74628E+01-4.00000E+00
 -1      4078 2.07444E+01 6.88061E+01-4.00000E+00
 -1      4079 1.63554E+01 6.47139E+01-6.00000E+00
 -1      4080 1.78423E+01 6.60516E+01-6.00000E+00
 -1      4081 1.93291E+01 6.73892E+01-6.00000E+00
 -1      4082 2.08160E+01 6.87268E+01-6.00000E+00
 -1      4083 1.64115E+01 6.46514E+01-8.00000E+00
 -1      4084 1.79034E+01 6.59834E+01-8.00000E+00
 -1      4085 1.93954E+01 6.73153E+01-8.00000E+00
 -1      4086 2.08873E+01 6.86473E+01-8.00000E+00
 -1      4087 1.49687E+01 6.61226E+01-2.00000E+00
 -1      4088 1.63295E+01 6.75883E+01-2.00000E+00
 -1      4089 1.76903E+01 6.90540E+01-2.00000E+00
 -1      4090 1.90510E+01 7.05197E+01-2.00000E+00
 -1      4091 1.50369E+01 6.60590E+01-4.00000E+00
 -1      4092 1.64039E+01 6.75189E+01-4.00000E+00
 -1      4093 1.77709E+01 6.89788E+01-4.00000E+00
 -1      4094 1.91379E+01 7.04387E+01-4.00000E+00
 -1      4095 1.51049E+01 6.59951E+01-6.00000E+00
 -1      4096 1.64780E+01 6.74492E+01-6.00000E+00
 -1      4097 1.78512E+01 6.89033E+01-6.00000E+00
 -1      4098 1.92244E+01 7.03574E+01-6.00000E+00
 -1      4099 1.51725E+01 6.59309E+01-8.00000E+00
 -1      4100 1.65519E+01 6.73792E+01-8.00000E+00
 -1      4101 1.79312E+01 6.88275E+01-8.00000E+00
 -1      4102 1.93105E+01 7.02757E+01-8.00000E+00
 -1      4103 1.35935E+01 6.72979E+01-2.00000E+00
 -1      4104 1.48293E+01 6.88704E+01-2.00000E+00
 -1      4105 1.60650E+01 7.04430E+01-2.00000E+00
 -1      4106 1.73008E+01 7.20155E+01-2.00000E+00
 -1      4107 1.36740E+01 6.72343E+01-4.00000E+00
 -1      4108 1.49171E+01 6.88011E+01-4.00000E+00
 -1      4109 1.61602E+01 7.03678E+01-4.00000E+00
 -1      4110 1.74033E+01 7.19346E+01-4.00000E+00
 -1      4111 1.37542E+01 6.71703E+01-6.00000E+00
 -1      4112 1.50046E+01 6.87313E+01-6.00000E+00
 -1      4113 1.62550E+01 7.02922E+01-6.00000E+00
 -1      4114 1.75054E+01 7.18532E+01-6.00000E+00
 -1      4115 1.38342E+01 6.71060E+01-8.00000E+00
 -1      4116 1.50918E+01 6.86611E+01-8.00000E+00
 -1      4117 1.63495E+01 7.02162E+01-8.00000E+00
 -1      4118 1.76071E+01 7.17713E+01-8.00000E+00
 -1      4119 1.21264E+01 6.83562E+01-2.00000E+00
 -1      4120 1.32288E+01 7.00250E+01-2.00000E+00
 -1      4121 1.43312E+01 7.16937E+01-2.00000E+00
 -1      4122 1.54336E+01 7.33624E+01-2.00000E+00
 -1      4123 1.22196E+01 6.82943E+01-4.00000E+00
 -1      4124 1.33305E+01 6.99574E+01-4.00000E+00
 -1      4125 1.44414E+01 7.16205E+01-4.00000E+00
 -1      4126 1.55523E+01 7.32836E+01-4.00000E+00
 -1      4127 1.23126E+01 6.82319E+01-6.00000E+00
 -1      4128 1.34319E+01 6.98893E+01-6.00000E+00
 -1      4129 1.45512E+01 7.15468E+01-6.00000E+00
 -1      4130 1.56705E+01 7.32042E+01-6.00000E+00
 -1      4131 1.24052E+01 6.81690E+01-8.00000E+00
 -1      4132 1.35329E+01 6.98207E+01-8.00000E+00
 -1      4133 1.46606E+01 7.14724E+01-8.00000E+00
 -1      4134 1.57884E+01 7.31242E+01-8.00000E+00
 -1      4135 1.05773E+01 6.92904E+01-2.00000E+00
 -1      4136 1.15389E+01 7.10441E+01-2.00000E+00
 -1      4137 1.25005E+01 7.27978E+01-2.00000E+00
 -1      4138 1.34620E+01 7.45514E+01-2.00000E+00
 -1      4139 1.06835E+01 6.92318E+01-4.00000E+00
 -1      4140 1.16547E+01 7.09802E+01-4.00000E+00
 -1      4141 1.26259E+01 7.27285E+01-4.00000E+00
 -1      4142 1.35972E+01 7.44769E+01-4.00000E+00
 -1      4143 1.07893E+01 6.91726E+01-6.00000E+00
 -1      4144 1.17702E+01 7.09156E+01-6.00000E+00
 -1      4145 1.27510E+01 7.26586E+01-6.00000E+00
 -1      4146 1.37319E+01 7.44016E+01-6.00000E+00
 -1      4147 1.08948E+01 6.91129E+01-8.00000E+00
 -1      4148 1.18853E+01 7.08504E+01-8.00000E+00
 -1      4149 1.28757E+01 7.25880E+01-8.00000E+00
 -1      4150 1.38661E+01 7.43255E+01-8.00000E+00
 -1      4151 8.95672E+00 7.00942E+01-2.00000E+00
 -1      4152 9.77097E+00 7.19210E+01-2.00000E+00
 -1      4153 1.05852E+01 7.37477E+01-2.00000E+00
 -1      4154 1.13995E+01 7.55744E+01-2.00000E+00
 -1      4155 9.07583E+00 7.00407E+01-4.00000E+00
 -1      4156 9.90091E+00 7.18626E+01-4.00000E+00
 -1      4157 1.07260E+01 7.36844E+01-4.00000E+00
 -1      4158 1.15511E+01 7.55063E+01-4.00000E+00
 -1      4159 9.19463E+00 6.99865E+01-6.00000E+00
 -1      4160 1.00305E+01 7.18034E+01-6.00000E+00
 -1      4161 1.08664E+01 7.36204E+01-6.00000E+00
 -1      4162 1.17023E+01 7.54373E+01-6.00000E+00
 -1      4163 9.31310E+00 6.99315E+01-8.00000E+00
 -1      4164 1.01598E+01 7.17435E+01-8.00000E+00
 -1      4165 1.10064E+01 7.35554E+01-8.00000E+00
 -1      4166 1.18530E+01 7.53674E+01-8.00000E+00
 -1      4167 7.27556E+00 7.07621E+01-2.00000E+00
 -1      4168 7.93698E+00 7.26496E+01-2.00000E+00
 -1      4169 8.59839E+00 7.45371E+01-2.00000E+00
 -1      4170 9.25981E+00 7.64245E+01-2.00000E+00
 -1      4171 7.40746E+00 7.07154E+01-4.00000E+00
 -1      4172 8.08086E+00 7.25987E+01-4.00000E+00
 -1      4173 8.75427E+00 7.44819E+01-4.00000E+00
 -1      4174 9.42767E+00 7.63651E+01-4.00000E+00
 -1      4175 7.53905E+00 7.06679E+01-6.00000E+00
 -1      4176 8.22442E+00 7.25468E+01-6.00000E+00
 -1      4177 8.90979E+00 7.44257E+01-6.00000E+00
 -1      4178 9.59516E+00 7.63046E+01-6.00000E+00
 -1      4179 7.67034E+00 7.06196E+01-8.00000E+00
 -1      4180 8.36765E+00 7.24941E+01-8.00000E+00
 -1      4181 9.06495E+00 7.43686E+01-8.00000E+00
 -1      4182 9.76226E+00 7.62431E+01-8.00000E+00
 -1      4183 5.54521E+00 7.12897E+01-2.00000E+00
 -1      4184 6.04932E+00 7.32251E+01-2.00000E+00
 -1      4185 6.55343E+00 7.51605E+01-2.00000E+00
 -1      4186 7.05754E+00 7.70960E+01-2.00000E+00
 -1      4187 5.68951E+00 7.12516E+01-4.00000E+00
 -1      4188 6.20673E+00 7.31835E+01-4.00000E+00
 -1      4189 6.72396E+00 7.51155E+01-4.00000E+00
 -1      4190 7.24119E+00 7.70475E+01-4.00000E+00
 -1      4191 5.83355E+00 7.12125E+01-6.00000E+00
 -1      4192 6.36387E+00 7.31409E+01-6.00000E+00
 -1      4193 6.89419E+00 7.50693E+01-6.00000E+00
 -1      4194 7.42452E+00 7.69977E+01-6.00000E+00
 -1      4195 5.97731E+00 7.11724E+01-8.00000E+00
 -1      4196 6.52071E+00 7.30972E+01-8.00000E+00
 -1      4197 7.06410E+00 7.50220E+01-8.00000E+00
 -1      4198 7.60749E+00 7.69467E+01-8.00000E+00
 -1      4199 3.77737E+00 7.16733E+01-2.00000E+00
 -1      4200 4.12077E+00 7.36436E+01-2.00000E+00
 -1      4201 4.46417E+00 7.56139E+01-2.00000E+00
 -1      4202 4.80756E+00 7.75842E+01-2.00000E+00
 -1      4203 3.93349E+00 7.16455E+01-4.00000E+00
 -1      4204 4.29108E+00 7.36133E+01-4.00000E+00
 -1      4205 4.64867E+00 7.55810E+01-4.00000E+00
 -1      4206 5.00626E+00 7.75488E+01-4.00000E+00
 -1      4207 4.08941E+00 7.16166E+01-6.00000E+00
 -1      4208 4.46117E+00 7.35817E+01-6.00000E+00
 -1      4209 4.83294E+00 7.55469E+01-6.00000E+00
 -1      4210 5.20470E+00 7.75120E+01-6.00000E+00
 -1      4211 4.24511E+00 7.15866E+01-8.00000E+00
 -1      4212 4.63103E+00 7.35490E+01-8.00000E+00
 -1      4213 5.01695E+00 7.55114E+01-8.00000E+00
 -1      4214 5.40287E+00 7.74738E+01-8.00000E+00
 -1      4215 1.98399E+00 7.19104E+01-2.00000E+00
 -1      4216 2.16435E+00 7.39022E+01-2.00000E+00
 -1      4217 2.34471E+00 7.58941E+01-2.00000E+00
 -1      4218 2.52508E+00 7.78859E+01-2.00000E+00
 -1      4219 2.15115E+00 7.18946E+01-4.00000E+00
 -1      4220 2.34670E+00 7.38850E+01-4.00000E+00
 -1      4221 2.54226E+00 7.58754E+01-4.00000E+00
 -1      4222 2.73782E+00 7.78658E+01-4.00000E+00
 -1      4223 2.31819E+00 7.18775E+01-6.00000E+00
 -1      4224 2.52893E+00 7.38664E+01-6.00000E+00
 -1      4225 2.73968E+00 7.58553E+01-6.00000E+00
 -1      4226 2.95042E+00 7.78441E+01-6.00000E+00
 -1      4227 2.48508E+00 7.18592E+01-8.00000E+00
 -1      4228 2.71100E+00 7.38464E+01-8.00000E+00
 -1      4229 2.93692E+00 7.58336E+01-8.00000E+00
 -1      4230 3.16283E+00 7.78208E+01-8.00000E+00
 -1      4231 1.77193E-01 7.19993E+01-2.00000E+00
 -1      4232 1.93302E-01 7.39992E+01-2.00000E+00
 -1      4233 2.09410E-01 7.59992E+01-2.00000E+00
 -1      4234 2.25519E-01 7.79991E+01-2.00000E+00
 -1      4235 3.54409E-01 7.19971E+01-4.00000E+00
 -1      4236 3.86628E-01 7.39969E+01-4.00000E+00
 -1      4237 4.18847E-01 7.59966E+01-4.00000E+00
 -1      4238 4.51066E-01 7.79964E+01-4.00000E+00
 -1      4239 5.31614E-01 7.19936E+01-6.00000E+00
 -1      4240 5.79942E-01 7.39930E+01-6.00000E+00
 -1      4241 6.28271E-01 7.59924E+01-6.00000E+00
 -1      4242 6.76599E-01 7.79918E+01-6.00000E+00
 -1      4243 7.08773E-01 7.19886E+01-8.00000E+00
 -1      4244 7.73206E-01 7.39875E+01-8.00000E+00
 -1      4245 8.37640E-01 7.59865E+01-8.00000E+00
 -1      4246 9.02074E-01 7.79855E+01-8.00000E+00
 -1      4247-1.55823E+00 7.19447E+01-2.00000E+00
 -1      4248-1.69989E+00 7.39397E+01-2.00000E+00
 -1      4249-1.84155E+00 7.59347E+01-2.00000E+00
 -1      4250-1.98321E+00 7.79297E+01-2.00000E+00
 -1      4251-1.39024E+00 7.19560E+01-4.00000E+00
 -1      4252-1.51663E+00 7.39520E+01-4.00000E+00
 -1      4253-1.64302E+00 7.59480E+01-4.00000E+00
 -1      4254-1.76940E+00 7.79440E+01-4.00000E+00
 -1      4255-1.22217E+00 7.19660E+01-6.00000E+00
 -1      4256-1.33327E+00 7.39629E+01-6.00000E+00
 -1      4257-1.44438E+00 7.59599E+01-6.00000E+00
 -1      4258-1.55548E+00 7.79568E+01-6.00000E+00
 -1      4259-1.05402E+00 7.19747E+01-8.00000E+00
 -1      4260-1.14984E+00 7.39724E+01-8.00000E+00
 -1      4261-1.24566E+00 7.59701E+01-8.00000E+00
 -1      4262-1.34148E+00 7.79678E+01-8.00000E+00
 -1      4263-3.28395E+00 7.17535E+01-2.00000E+00
 -1      4264-3.58249E+00 7.37311E+01-2.00000E+00
 -1      4265-3.88104E+00 7.57087E+01-2.00000E+00
 -1      4266-4.17958E+00 7.76863E+01-2.00000E+00
 -1      4267-3.12615E+00 7.17767E+01-4.00000E+00
 -1      4268-3.41035E+00 7.37565E+01-4.00000E+00
 -1      4269-3.69454E+00 7.57362E+01-4.00000E+00
 -1      4270-3.97874E+00 7.77159E+01-4.00000E+00
 -1      4271-2.96818E+00 7.17989E+01-6.00000E+00
 -1      4272-3.23801E+00 7.37806E+01-6.00000E+00
 -1      4273-3.50784E+00 7.57623E+01-6.00000E+00
 -1      4274-3.77768E+00 7.77440E+01-6.00000E+00
 -1      4275-2.81005E+00 7.18198E+01-8.00000E+00
 -1      4276-3.06551E+00 7.38034E+01-8.00000E+00
 -1      4277-3.32097E+00 7.57870E+01-8.00000E+00
 -1      4278-3.57643E+00 7.77707E+01-8.00000E+00
 -1      4279-4.98922E+00 7.14268E+01-2.00000E+00
 -1      4280-5.44278E+00 7.33747E+01-2.00000E+00
 -1      4281-5.89635E+00 7.53226E+01-2.00000E+00
 -1      4282-6.34992E+00 7.72705E+01-2.00000E+00
 -1      4283-4.84239E+00 7.14605E+01-4.00000E+00
 -1      4284-5.28260E+00 7.34114E+01-4.00000E+00
 -1      4285-5.72282E+00 7.53624E+01-4.00000E+00
 -1      4286-6.16304E+00 7.73133E+01-4.00000E+00
 -1      4287-4.69532E+00 7.14931E+01-6.00000E+00
 -1      4288-5.12217E+00 7.34470E+01-6.00000E+00
 -1      4289-5.54901E+00 7.54009E+01-6.00000E+00
 -1      4290-5.97586E+00 7.73549E+01-6.00000E+00
 -1      4291-4.54804E+00 7.15248E+01-8.00000E+00
 -1      4292-4.96150E+00 7.34816E+01-8.00000E+00
 -1      4293-5.37495E+00 7.54383E+01-8.00000E+00
 -1      4294-5.78841E+00 7.73951E+01-8.00000E+00
 -1      4295-6.66341E+00 7.09666E+01-2.00000E+00
 -1      4296-7.26917E+00 7.28727E+01-2.00000E+00
 -1      4297-7.87494E+00 7.47787E+01-2.00000E+00
 -1      4298-8.48070E+00 7.66848E+01-2.00000E+00
 -1      4299-6.52815E+00 7.10091E+01-4.00000E+00
 -1      4300-7.12162E+00 7.29190E+01-4.00000E+00
 -1      4301-7.71509E+00 7.48290E+01-4.00000E+00
 -1      4302-8.30856E+00 7.67389E+01-4.00000E+00
 -1      4303-6.39262E+00 7.10508E+01-6.00000E+00
 -1      4304-6.97376E+00 7.29645E+01-6.00000E+00
 -1      4305-7.55491E+00 7.48782E+01-6.00000E+00
 -1      4306-8.13606E+00 7.67919E+01-6.00000E+00
 -1      4307-6.25682E+00 7.10915E+01-8.00000E+00
 -1      4308-6.82562E+00 7.30089E+01-8.00000E+00
 -1      4309-7.39443E+00 7.49263E+01-8.00000E+00
 -1      4310-7.96323E+00 7.68438E+01-8.00000E+00
 -1      4311-8.29609E+00 7.03758E+01-2.00000E+00
 -1      4312-9.05029E+00 7.22282E+01-2.00000E+00
 -1      4313-9.80448E+00 7.40805E+01-2.00000E+00
 -1      4314-1.05587E+01 7.59329E+01-2.00000E+00
 -1      4315-8.17284E+00 7.04256E+01-4.00000E+00
 -1      4316-8.91582E+00 7.22825E+01-4.00000E+00
 -1      4317-9.65881E+00 7.41393E+01-4.00000E+00
 -1      4318-1.04018E+01 7.59962E+01-4.00000E+00
 -1      4319-8.04928E+00 7.04746E+01-6.00000E+00
 -1      4320-8.78103E+00 7.23359E+01-6.00000E+00
 -1      4321-9.51279E+00 7.41973E+01-6.00000E+00
 -1      4322-1.02445E+01 7.60586E+01-6.00000E+00
 -1      4323-7.92543E+00 7.05229E+01-8.00000E+00
 -1      4324-8.64593E+00 7.23886E+01-8.00000E+00
 -1      4325-9.36642E+00 7.42543E+01-8.00000E+00
 -1      4326-1.00869E+01 7.61200E+01-8.00000E+00
 -1      4327-9.87711E+00 6.96581E+01-2.00000E+00
 -1      4328-1.07750E+01 7.14453E+01-2.00000E+00
 -1      4329-1.16729E+01 7.32324E+01-2.00000E+00
 -1      4330-1.25709E+01 7.50195E+01-2.00000E+00
 -1      4331-9.76610E+00 6.97135E+01-4.00000E+00
 -1      4332-1.06539E+01 7.15057E+01-4.00000E+00
 -1      4333-1.15418E+01 7.32978E+01-4.00000E+00
 -1      4334-1.24296E+01 7.50900E+01-4.00000E+00
 -1      4335-9.65478E+00 6.97683E+01-6.00000E+00
 -1      4336-1.05325E+01 7.15654E+01-6.00000E+00
 -1      4337-1.14102E+01 7.33625E+01-6.00000E+00
 -1      4338-1.22879E+01 7.51596E+01-6.00000E+00
 -1      4339-9.54315E+00 6.98224E+01-8.00000E+00
 -1      4340-1.04107E+01 7.16245E+01-8.00000E+00
 -1      4341-1.12783E+01 7.34265E+01-8.00000E+00
 -1      4342-1.21458E+01 7.52285E+01-8.00000E+00
 -1      4343-1.13966E+01 6.88180E+01-2.00000E+00
 -1      4344-1.24327E+01 7.05287E+01-2.00000E+00
 -1      4345-1.34687E+01 7.22395E+01-2.00000E+00
 -1      4346-1.45048E+01 7.39502E+01-2.00000E+00
 -1      4347-1.12979E+01 6.88774E+01-4.00000E+00
 -1      4348-1.23250E+01 7.05936E+01-4.00000E+00
 -1      4349-1.33521E+01 7.23097E+01-4.00000E+00
 -1      4350-1.43792E+01 7.40258E+01-4.00000E+00
 -1      4351-1.11989E+01 6.89363E+01-6.00000E+00
 -1      4352-1.22170E+01 7.06578E+01-6.00000E+00
 -1      4353-1.32351E+01 7.23793E+01-6.00000E+00
 -1      4354-1.42532E+01 7.41008E+01-6.00000E+00
 -1      4355-1.10996E+01 6.89947E+01-8.00000E+00
 -1      4356-1.21087E+01 7.07215E+01-8.00000E+00
 -1      4357-1.31177E+01 7.24483E+01-8.00000E+00
 -1      4358-1.41268E+01 7.41751E+01-8.00000E+00
 -1      4359-1.28451E+01 6.78607E+01-2.00000E+00
 -1      4360-1.40128E+01 6.94844E+01-2.00000E+00
 -1      4361-1.51806E+01 7.11081E+01-2.00000E+00
 -1      4362-1.63483E+01 7.27318E+01-2.00000E+00
 -1      4363-1.27586E+01 6.79225E+01-4.00000E+00
 -1      4364-1.39185E+01 6.95519E+01-4.00000E+00
 -1      4365-1.50784E+01 7.11812E+01-4.00000E+00
 -1      4366-1.62383E+01 7.28105E+01-4.00000E+00
 -1      4367-1.26719E+01 6.79840E+01-6.00000E+00
 -1      4368-1.38238E+01 6.96189E+01-6.00000E+00
 -1      4369-1.49758E+01 7.12538E+01-6.00000E+00
 -1      4370-1.61278E+01 7.28887E+01-6.00000E+00
 -1      4371-1.25848E+01 6.80450E+01-8.00000E+00
 -1      4372-1.37289E+01 6.96855E+01-8.00000E+00
 -1      4373-1.48729E+01 7.13260E+01-8.00000E+00
 -1      4374-1.60170E+01 7.29664E+01-8.00000E+00
 -1      4375-1.42136E+01 6.67921E+01-2.00000E+00
 -1      4376-1.55057E+01 6.83186E+01-2.00000E+00
 -1      4377-1.67979E+01 6.98452E+01-2.00000E+00
 -1      4378-1.80900E+01 7.13717E+01-2.00000E+00
 -1      4379-1.41391E+01 6.68549E+01-4.00000E+00
 -1      4380-1.54244E+01 6.83871E+01-4.00000E+00
 -1      4381-1.67098E+01 6.99194E+01-4.00000E+00
 -1      4382-1.79952E+01 7.14517E+01-4.00000E+00
 -1      4383-1.40642E+01 6.69174E+01-6.00000E+00
 -1      4384-1.53428E+01 6.84553E+01-6.00000E+00
 -1      4385-1.66214E+01 6.99932E+01-6.00000E+00
 -1      4386-1.79000E+01 7.15312E+01-6.00000E+00
 -1      4387-1.39892E+01 6.69795E+01-8.00000E+00
 -1      4388-1.52609E+01 6.85231E+01-8.00000E+00
 -1      4389-1.65326E+01 7.00667E+01-8.00000E+00
 -1      4390-1.78044E+01 7.16103E+01-8.00000E+00
 -1      4391-1.54936E+01 6.56189E+01-2.00000E+00
 -1      4392-1.69021E+01 6.70388E+01-2.00000E+00
 -1      4393-1.83106E+01 6.84587E+01-2.00000E+00
 -1      4394-1.97191E+01 6.98786E+01-2.00000E+00
 -1      4395-1.54305E+01 6.56812E+01-4.00000E+00
 -1      4396-1.68333E+01 6.71067E+01-4.00000E+00
 -1      4397-1.82361E+01 6.85323E+01-4.00000E+00
 -1      4398-1.96389E+01 6.99578E+01-4.00000E+00
 -1      4399-1.53672E+01 6.57432E+01-6.00000E+00
 -1      4400-1.67643E+01 6.71744E+01-6.00000E+00
 -1      4401-1.81613E+01 6.86056E+01-6.00000E+00
 -1      4402-1.95583E+01 7.00368E+01-6.00000E+00
 -1      4403-1.53037E+01 6.58049E+01-8.00000E+00
 -1      4404-1.66950E+01 6.72418E+01-8.00000E+00
 -1      4405-1.80862E+01 6.86786E+01-8.00000E+00
 -1      4406-1.94775E+01 7.01154E+01-8.00000E+00
 -1      4407-1.66770E+01 6.43484E+01-2.00000E+00
 -1      4408-1.81931E+01 6.56528E+01-2.00000E+00
 -1      4409-1.97092E+01 6.69572E+01-2.00000E+00
 -1      4410-2.12253E+01 6.82616E+01-2.00000E+00
 -1      4411-1.66249E+01 6.44088E+01-4.00000E+00
 -1      4412-1.81363E+01 6.57187E+01-4.00000E+00
 -1      4413-1.96476E+01 6.70285E+01-4.00000E+00
 -1      4414-2.11590E+01 6.83384E+01-4.00000E+00
 -1      4415-1.65726E+01 6.44689E+01-6.00000E+00
 -1      4416-1.80792E+01 6.57843E+01-6.00000E+00
 -1      4417-1.95858E+01 6.70996E+01-6.00000E+00
 -1      4418-2.10924E+01 6.84150E+01-6.00000E+00
 -1      4419-1.65200E+01 6.45289E+01-8.00000E+00
 -1      4420-1.80218E+01 6.58497E+01-8.00000E+00
 -1      4421-1.95236E+01 6.71705E+01-8.00000E+00
 -1      4422-2.10255E+01 6.84913E+01-8.00000E+00
 -1      4423-1.77566E+01 6.29886E+01-2.00000E+00
 -1      4424-1.93709E+01 6.41693E+01-2.00000E+00
 -1      4425-2.09851E+01 6.53501E+01-2.00000E+00
 -1      4426-2.25993E+01 6.65309E+01-2.00000E+00
 -1      4427-1.77147E+01 6.30457E+01-4.00000E+00
 -1      4428-1.93251E+01 6.42317E+01-4.00000E+00
 -1      4429-2.09355E+01 6.54176E+01-4.00000E+00
 -1      4430-2.25459E+01 6.66036E+01-4.00000E+00
 -1      4431-1.76725E+01 6.31027E+01-6.00000E+00
 -1      4432-1.92791E+01 6.42939E+01-6.00000E+00
 -1      4433-2.08857E+01 6.54850E+01-6.00000E+00
 -1      4434-2.24923E+01 6.66762E+01-6.00000E+00
 -1      4435-1.76302E+01 6.31596E+01-8.00000E+00
 -1      4436-1.92330E+01 6.43559E+01-8.00000E+00
 -1      4437-2.08357E+01 6.55522E+01-8.00000E+00
 -1      4438-2.24385E+01 6.67486E+01-8.00000E+00
 -1      4439-1.87256E+01 6.15478E+01-2.00000E+00
 -1      4440-2.04279E+01 6.25976E+01-2.00000E+00
 -1      4441-2.21303E+01 6.36474E+01-2.00000E+00
 -1      4442-2.38326E+01 6.46972E+01-2.00000E+00
 -1      4443-1.86930E+01 6.16006E+01-4.00000E+00
 -1      4444-2.03923E+01 6.26552E+01-4.00000E+00
 -1      4445-2.20917E+01 6.37097E+01-4.00000E+00
 -1      4446-2.37911E+01 6.47643E+01-4.00000E+00
 -1      4447-1.86602E+01 6.16532E+01-6.00000E+00
 -1      4448-2.03566E+01 6.27126E+01-6.00000E+00
 -1      4449-2.20529E+01 6.37720E+01-6.00000E+00
 -1      4450-2.37493E+01 6.48314E+01-6.00000E+00
 -1      4451-1.86273E+01 6.17058E+01-8.00000E+00
 -1      4452-2.03206E+01 6.27699E+01-8.00000E+00
 -1      4453-2.20140E+01 6.38341E+01-8.00000E+00
 -1      4454-2.37074E+01 6.48983E+01-8.00000E+00
 -1      4455-1.95779E+01 6.00351E+01-2.00000E+00
 -1      4456-2.13578E+01 6.09474E+01-2.00000E+00
 -1      4457-2.31376E+01 6.18597E+01-2.00000E+00
 -1      4458-2.49174E+01 6.27720E+01-2.00000E+00
 -1      4459-1.95536E+01 6.00824E+01-4.00000E+00
 -1      4460-2.13312E+01 6.09990E+01-4.00000E+00
 -1      4461-2.31088E+01 6.19156E+01-4.00000E+00
 -1      4462-2.48865E+01 6.28322E+01-4.00000E+00
 -1      4463-1.95292E+01 6.01296E+01-6.00000E+00
 -1      4464-2.13046E+01 6.10505E+01-6.00000E+00
 -1      4465-2.30800E+01 6.19714E+01-6.00000E+00
 -1      4466-2.48554E+01 6.28923E+01-6.00000E+00
 -1      4467-1.95047E+01 6.01768E+01-8.00000E+00
 -1      4468-2.12778E+01 6.11020E+01-8.00000E+00
 -1      4469-2.30510E+01 6.20271E+01-8.00000E+00
 -1      4470-2.48241E+01 6.29523E+01-8.00000E+00
 -1      4471-2.03084E+01 5.84599E+01-2.00000E+00
 -1      4472-2.21546E+01 5.92290E+01-2.00000E+00
 -1      4473-2.40008E+01 5.99981E+01-2.00000E+00
 -1      4474-2.58470E+01 6.07672E+01-2.00000E+00
 -1      4475-2.02913E+01 5.85008E+01-4.00000E+00
 -1      4476-2.21359E+01 5.92736E+01-4.00000E+00
 -1      4477-2.39806E+01 6.00464E+01-4.00000E+00
 -1      4478-2.58253E+01 6.08192E+01-4.00000E+00
 -1      4479-2.02741E+01 5.85417E+01-6.00000E+00
 -1      4480-2.21172E+01 5.93182E+01-6.00000E+00
 -1      4481-2.39603E+01 6.00947E+01-6.00000E+00
 -1      4482-2.58034E+01 6.08712E+01-6.00000E+00
 -1      4483-2.02569E+01 5.85825E+01-8.00000E+00
 -1      4484-2.20984E+01 5.93627E+01-8.00000E+00
 -1      4485-2.39399E+01 6.01429E+01-8.00000E+00
 -1      4486-2.57815E+01 6.09232E+01-8.00000E+00
 -1      4487-2.09123E+01 5.68321E+01-2.00000E+00
 -1      4488-2.28134E+01 5.74532E+01-2.00000E+00
 -1      4489-2.47145E+01 5.80743E+01-2.00000E+00
 -1      4490-2.66156E+01 5.86954E+01-2.00000E+00
 -1      4491-2.09012E+01 5.68658E+01-4.00000E+00
 -1      4492-2.28013E+01 5.74899E+01-4.00000E+00
 -1      4493-2.47015E+01 5.81141E+01-4.00000E+00
 -1      4494-2.66016E+01 5.87382E+01-4.00000E+00
 -1      4495-2.08901E+01 5.68994E+01-6.00000E+00
 -1      4496-2.27892E+01 5.75266E+01-6.00000E+00
 -1      4497-2.46883E+01 5.81539E+01-6.00000E+00
 -1      4498-2.65875E+01 5.87811E+01-6.00000E+00
 -1      4499-2.08790E+01 5.69331E+01-8.00000E+00
 -1      4500-2.27771E+01 5.75634E+01-8.00000E+00
 -1      4501-2.46752E+01 5.81936E+01-8.00000E+00
 -1      4502-2.65733E+01 5.88239E+01-8.00000E+00
 -1      4503-2.13859E+01 5.51616E+01-2.00000E+00
 -1      4504-2.33301E+01 5.56309E+01-2.00000E+00
 -1      4505-2.52743E+01 5.61001E+01-2.00000E+00
 -1      4506-2.72184E+01 5.65694E+01-2.00000E+00
 -1      4507-2.13797E+01 5.51875E+01-4.00000E+00
 -1      4508-2.33233E+01 5.56591E+01-4.00000E+00
 -1      4509-2.52669E+01 5.61307E+01-4.00000E+00
 -1      4510-2.72105E+01 5.66022E+01-4.00000E+00
 -1      4511-2.13734E+01 5.52133E+01-6.00000E+00
 -1      4512-2.33164E+01 5.56872E+01-6.00000E+00
 -1      4513-2.52595E+01 5.61612E+01-6.00000E+00
 -1      4514-2.72025E+01 5.66351E+01-6.00000E+00
 -1      4515-2.13671E+01 5.52391E+01-8.00000E+00
 -1      4516-2.33095E+01 5.57154E+01-8.00000E+00
 -1      4517-2.52520E+01 5.61917E+01-8.00000E+00
 -1      4518-2.71944E+01 5.66680E+01-8.00000E+00
 -1      4519-2.17264E+01 5.34591E+01-2.00000E+00
 -1      4520-2.37015E+01 5.37735E+01-2.00000E+00
 -1      4521-2.56766E+01 5.40880E+01-2.00000E+00
 -1      4522-2.76517E+01 5.44024E+01-2.00000E+00
 -1      4523-2.17236E+01 5.34766E+01-4.00000E+00
 -1      4524-2.36984E+01 5.37926E+01-4.00000E+00
 -1      4525-2.56733E+01 5.41087E+01-4.00000E+00
 -1      4526-2.76482E+01 5.44247E+01-4.00000E+00
 -1      4527-2.17208E+01 5.34941E+01-6.00000E+00
 -1      4528-2.36954E+01 5.38117E+01-6.00000E+00
 -1      4529-2.56700E+01 5.41293E+01-6.00000E+00
 -1      4530-2.76446E+01 5.44470E+01-6.00000E+00
 -1      4531-2.17179E+01 5.35116E+01-8.00000E+00
 -1      4532-2.36923E+01 5.38308E+01-8.00000E+00
 -1      4533-2.56667E+01 5.41500E+01-8.00000E+00
 -1      4534-2.76410E+01 5.44693E+01-8.00000E+00
 -1      4535-2.19315E+01 5.17349E+01-2.00000E+00
 -1      4536-2.39253E+01 5.18927E+01-2.00000E+00
 -1      4537-2.59190E+01 5.20504E+01-2.00000E+00
 -1      4538-2.79128E+01 5.22081E+01-2.00000E+00
 -1      4539-2.19308E+01 5.17438E+01-4.00000E+00
 -1      4540-2.39245E+01 5.19023E+01-4.00000E+00
 -1      4541-2.59182E+01 5.20608E+01-4.00000E+00
 -1      4542-2.79119E+01 5.22193E+01-4.00000E+00
 -1      4543-2.19301E+01 5.17526E+01-6.00000E+00
 -1      4544-2.39237E+01 5.19119E+01-6.00000E+00
 -1      4545-2.59174E+01 5.20713E+01-6.00000E+00
 -1      4546-2.79110E+01 5.22306E+01-6.00000E+00
 -1      4547-2.19294E+01 5.17614E+01-8.00000E+00
 -1      4548-2.39230E+01 5.19216E+01-8.00000E+00
 -1      4549-2.59165E+01 5.20817E+01-8.00000E+00
 -1      4550-2.79101E+01 5.22418E+01-8.00000E+00
 -1      4551 2.79056E+01 5.22974E+01 2.50000E+00
 -1      4552 2.76230E+01 5.45794E+01 2.50000E+00
 -1      4553 2.71541E+01 5.68304E+01 2.50000E+00
 -1      4554 2.65021E+01 5.90354E+01 2.50000E+00
 -1      4555 2.56714E+01 6.11795E+01 2.50000E+00
 -1      4556 2.46675E+01 6.32482E+01 2.50000E+00
 -1      4557 2.34973E+01 6.52275E+01 2.50000E+00
 -1      4558 2.21686E+01 6.71041E+01 2.50000E+00
 -1      4559 2.06905E+01 6.88654E+01 2.50000E+00
 -1      4560 1.90728E+01 7.04995E+01 2.50000E+00
 -1      4561 1.73265E+01 7.19953E+01 2.50000E+00
 -1      4562 1.54633E+01 7.33428E+01 2.50000E+00
 -1      4563 1.34959E+01 7.45329E+01 2.50000E+00
 -1      4564 1.14374E+01 7.55575E+01 2.50000E+00
 -1      4565 9.30180E+00 7.64098E+01 2.50000E+00
 -1      4566 7.10348E+00 7.70840E+01 2.50000E+00
 -1      4567 4.85726E+00 7.75755E+01 2.50000E+00
 -1      4568 2.57827E+00 7.78810E+01 2.50000E+00
 -1      4569 2.81904E-01 7.79986E+01 2.50000E+00
 -1      4570-1.92977E+00 7.79334E+01 2.50000E+00
 -1      4571-4.12939E+00 7.76938E+01 2.50000E+00
 -1      4572-6.30323E+00 7.72813E+01 2.50000E+00
 -1      4573-8.43770E+00 7.66984E+01 2.50000E+00
 -1      4574-1.05195E+01 7.59488E+01 2.50000E+00
 -1      4575-1.25356E+01 7.50372E+01 2.50000E+00
 -1      4576-1.44734E+01 7.39692E+01 2.50000E+00
 -1      4577-1.63208E+01 7.27515E+01 2.50000E+00
 -1      4578-1.80664E+01 7.13917E+01 2.50000E+00
 -1      4579-1.96991E+01 6.98984E+01 2.50000E+00
 -1      4580-2.12088E+01 6.82808E+01 2.50000E+00
 -1      4581-2.25860E+01 6.65491E+01 2.50000E+00
 -1      4582-2.38222E+01 6.47140E+01 2.50000E+00
 -1      4583-2.49097E+01 6.27870E+01 2.50000E+00
 -1      4584-2.58416E+01 6.07802E+01 2.50000E+00
 -1      4585-2.66121E+01 5.87061E+01 2.50000E+00
 -1      4586-2.72165E+01 5.65776E+01 2.50000E+00
 -1      4587-2.76509E+01 5.44080E+01 2.50000E+00
 -1      4588-2.79126E+01 5.22109E+01 2.50000E+00
 -1      4589 2.79068E+01 5.22826E+01 5.00000E+00
 -1      4590 2.76278E+01 5.45501E+01 5.00000E+00
 -1      4591 2.71649E+01 5.67873E+01 5.00000E+00
 -1      4592 2.65212E+01 5.89792E+01 5.00000E+00
 -1      4593 2.57009E+01 6.11114E+01 5.00000E+00
 -1      4594 2.47095E+01 6.31697E+01 5.00000E+00
 -1      4595 2.35536E+01 6.51402E+01 5.00000E+00
 -1      4596 2.22410E+01 6.70100E+01 5.00000E+00
 -1      4597 2.07802E+01 6.87665E+01 5.00000E+00
 -1      4598 1.91812E+01 7.03981E+01 5.00000E+00
 -1      4599 1.74544E+01 7.18939E+01 5.00000E+00
 -1      4600 1.56114E+01 7.32440E+01 5.00000E+00
 -1      4601 1.36646E+01 7.44393E+01 5.00000E+00
 -1      4602 1.16267E+01 7.54719E+01 5.00000E+00
 -1      4603 9.51146E+00 7.63350E+01 5.00000E+00
 -1      4604 7.33290E+00 7.70227E+01 5.00000E+00
 -1      4605 5.10551E+00 7.75306E+01 5.00000E+00
 -1      4606 2.84414E+00 7.78552E+01 5.00000E+00
 -1      4607 5.63837E-01 7.79943E+01 5.00000E+00
 -1      4608-1.66245E+00 7.79506E+01 5.00000E+00
 -1      4609-3.87823E+00 7.77301E+01 5.00000E+00
 -1      4610-6.06948E+00 7.73343E+01 5.00000E+00
 -1      4611-8.22235E+00 7.67655E+01 5.00000E+00
 -1      4612-1.03232E+01 7.60275E+01 5.00000E+00
 -1      4613-1.23588E+01 7.51249E+01 5.00000E+00
 -1      4614-1.43162E+01 7.40634E+01 5.00000E+00
 -1      4615-1.61831E+01 7.28497E+01 5.00000E+00
 -1      4616-1.79476E+01 7.14915E+01 5.00000E+00
 -1      4617-1.95986E+01 6.99973E+01 5.00000E+00
 -1      4618-2.11257E+01 6.83767E+01 5.00000E+00
 -1      4619-2.25192E+01 6.66399E+01 5.00000E+00
 -1      4620-2.37702E+01 6.47979E+01 5.00000E+00
 -1      4621-2.48709E+01 6.28622E+01 5.00000E+00
 -1      4622-2.58144E+01 6.08452E+01 5.00000E+00
 -1      4623-2.65945E+01 5.87597E+01 5.00000E+00
 -1      4624-2.72065E+01 5.66187E+01 5.00000E+00
 -1      4625-2.76464E+01 5.44358E+01 5.00000E+00
 -1      4626-2.79115E+01 5.22250E+01 5.00000E+00
 -1      4627 2.79080E+01 5.22679E+01 7.50000E+00
 -1      4628 2.76326E+01 5.45208E+01 7.50000E+00
 -1      4629 2.71757E+01 5.67441E+01 7.50000E+00
 -1      4630 2.65402E+01 5.89230E+01 7.50000E+00
 -1      4631 2.57303E+01 6.10433E+01 7.50000E+00
 -1      4632 2.47513E+01 6.30910E+01 7.50000E+00
 -1      4633 2.36096E+01 6.50527E+01 7.50000E+00
 -1      4634 2.23129E+01 6.69155E+01 7.50000E+00
 -1      4635 2.08695E+01 6.86672E+01 7.50000E+00
 -1      4636 1.92890E+01 7.02962E+01 7.50000E+00
 -1      4637 1.75817E+01 7.17918E+01 7.50000E+00
 -1      4638 1.57590E+01 7.31442E+01 7.50000E+00
 -1      4639 1.38326E+01 7.43446E+01 7.50000E+00
 -1      4640 1.18154E+01 7.53850E+01 7.50000E+00
 -1      4641 9.72052E+00 7.62586E+01 7.50000E+00
 -1      4642 7.56178E+00 7.69596E+01 7.50000E+00
 -1      4643 5.35335E+00 7.74835E+01 7.50000E+00
 -1      4644 3.10975E+00 7.78268E+01 7.50000E+00
 -1      4645 8.45713E-01 7.79872E+01 7.50000E+00
 -1      4646-1.39499E+00 7.79652E+01 7.50000E+00
 -1      4647-3.62676E+00 7.77641E+01 7.50000E+00
 -1      4648-5.83530E+00 7.73852E+01 7.50000E+00
 -1      4649-8.00646E+00 7.68309E+01 7.50000E+00
 -1      4650-1.01264E+01 7.61047E+01 7.50000E+00
 -1      4651-1.21814E+01 7.52114E+01 7.50000E+00
 -1      4652-1.41584E+01 7.41566E+01 7.50000E+00
 -1      4653-1.60447E+01 7.29470E+01 7.50000E+00
 -1      4654-1.78283E+01 7.15905E+01 7.50000E+00
 -1      4655-1.94977E+01 7.00958E+01 7.50000E+00
 -1      4656-2.10422E+01 6.84723E+01 7.50000E+00
 -1      4657-2.24520E+01 6.67305E+01 7.50000E+00
 -1      4658-2.37179E+01 6.48816E+01 7.50000E+00
 -1      4659-2.48320E+01 6.29373E+01 7.50000E+00
 -1      4660-2.57870E+01 6.09102E+01 7.50000E+00
 -1      4661-2.65768E+01 5.88132E+01 7.50000E+00
 -1      4662-2.71965E+01 5.66598E+01 7.50000E+00
 -1      4663-2.76419E+01 5.44637E+01 7.50000E+00
 -1      4664-2.79103E+01 5.22390E+01 7.50000E+00
 -1      4665 2.59123E+01 5.21333E+01 2.50000E+00
 -1      4666 2.56499E+01 5.42523E+01 2.50000E+00
 -1      4667 2.52145E+01 5.63425E+01 2.50000E+00
 -1      4668 2.46091E+01 5.83900E+01 2.50000E+00
 -1      4669 2.38377E+01 6.03810E+01 2.50000E+00
 -1      4670 2.29056E+01 6.23019E+01 2.50000E+00
 -1      4671 2.18189E+01 6.41398E+01 2.50000E+00
 -1      4672 2.05852E+01 6.58824E+01 2.50000E+00
 -1      4673 1.92126E+01 6.75179E+01 2.50000E+00
 -1      4674 1.77104E+01 6.90352E+01 2.50000E+00
 -1      4675 1.60889E+01 7.04242E+01 2.50000E+00
 -1      4676 1.43588E+01 7.16755E+01 2.50000E+00
 -1      4677 1.25319E+01 7.27805E+01 2.50000E+00
 -1      4678 1.06204E+01 7.37320E+01 2.50000E+00
 -1      4679 8.63739E+00 7.45234E+01 2.50000E+00
 -1      4680 6.59609E+00 7.51494E+01 2.50000E+00
 -1      4681 4.51031E+00 7.56058E+01 2.50000E+00
 -1      4682 2.39411E+00 7.58895E+01 2.50000E+00
 -1      4683 2.61768E-01 7.59987E+01 2.50000E+00
 -1      4684-1.79193E+00 7.59382E+01 2.50000E+00
 -1      4685-3.83443E+00 7.57157E+01 2.50000E+00
 -1      4686-5.85299E+00 7.53326E+01 2.50000E+00
 -1      4687-7.83501E+00 7.47914E+01 2.50000E+00
 -1      4688-9.76809E+00 7.40953E+01 2.50000E+00
 -1      4689-1.16402E+01 7.32488E+01 2.50000E+00
 -1      4690-1.34396E+01 7.22571E+01 2.50000E+00
 -1      4691-1.51551E+01 7.11264E+01 2.50000E+00
 -1      4692-1.67759E+01 6.98638E+01 2.50000E+00
 -1      4693-1.82920E+01 6.84771E+01 2.50000E+00
 -1      4694-1.96938E+01 6.69751E+01 2.50000E+00
 -1      4695-2.09727E+01 6.53670E+01 2.50000E+00
 -1      4696-2.21206E+01 6.36630E+01 2.50000E+00
 -1      4697-2.31304E+01 6.18737E+01 2.50000E+00
 -1      4698-2.39957E+01 6.00102E+01 2.50000E+00
 -1      4699-2.47112E+01 5.80842E+01 2.50000E+00
 -1      4700-2.52724E+01 5.61078E+01 2.50000E+00
 -1      4701-2.56758E+01 5.40932E+01 2.50000E+00
 -1      4702-2.59188E+01 5.20530E+01 2.50000E+00
 -1      4703 2.59135E+01 5.21196E+01 5.00000E+00
 -1      4704 2.56544E+01 5.42251E+01 5.00000E+00
 -1      4705 2.52246E+01 5.63024E+01 5.00000E+00
 -1      4706 2.46268E+01 5.83379E+01 5.00000E+00
 -1      4707 2.38651E+01 6.03177E+01 5.00000E+00
 -1      4708 2.29446E+01 6.22290E+01 5.00000E+00
 -1      4709 2.18712E+01 6.40588E+01 5.00000E+00
 -1      4710 2.06523E+01 6.57950E+01 5.00000E+00
 -1      4711 1.92959E+01 6.74260E+01 5.00000E+00
 -1      4712 1.78111E+01 6.89411E+01 5.00000E+00
 -1      4713 1.62077E+01 7.03301E+01 5.00000E+00
 -1      4714 1.44963E+01 7.15837E+01 5.00000E+00
 -1      4715 1.26885E+01 7.26936E+01 5.00000E+00
 -1      4716 1.07962E+01 7.36525E+01 5.00000E+00
 -1      4717 8.83207E+00 7.44539E+01 5.00000E+00
 -1      4718 6.80912E+00 7.50925E+01 5.00000E+00
 -1      4719 4.74083E+00 7.55641E+01 5.00000E+00
 -1      4720 2.64099E+00 7.58655E+01 5.00000E+00
 -1      4721 5.23563E-01 7.59947E+01 5.00000E+00
 -1      4722-1.54371E+00 7.59541E+01 5.00000E+00
 -1      4723-3.60122E+00 7.57494E+01 5.00000E+00
 -1      4724-5.63595E+00 7.53818E+01 5.00000E+00
 -1      4725-7.63504E+00 7.48537E+01 5.00000E+00
 -1      4726-9.58584E+00 7.41684E+01 5.00000E+00
 -1      4727-1.14760E+01 7.33303E+01 5.00000E+00
 -1      4728-1.32936E+01 7.23446E+01 5.00000E+00
 -1      4729-1.50271E+01 7.12176E+01 5.00000E+00
 -1      4730-1.66656E+01 6.99564E+01 5.00000E+00
 -1      4731-1.81987E+01 6.85690E+01 5.00000E+00
 -1      4732-1.96167E+01 6.70641E+01 5.00000E+00
 -1      4733-2.09107E+01 6.54514E+01 5.00000E+00
 -1      4734-2.20723E+01 6.37409E+01 5.00000E+00
 -1      4735-2.30944E+01 6.19435E+01 5.00000E+00
 -1      4736-2.39705E+01 6.00706E+01 5.00000E+00
 -1      4737-2.46949E+01 5.81340E+01 5.00000E+00
 -1      4738-2.52632E+01 5.61459E+01 5.00000E+00
 -1      4739-2.56717E+01 5.41190E+01 5.00000E+00
 -1      4740-2.59178E+01 5.20660E+01 5.00000E+00
 -1      4741 2.59146E+01 5.21059E+01 7.50000E+00
 -1      4742 2.56589E+01 5.41979E+01 7.50000E+00
 -1      4743 2.52346E+01 5.62623E+01 7.50000E+00
 -1      4744 2.46444E+01 5.82856E+01 7.50000E+00
 -1      4745 2.38924E+01 6.02545E+01 7.50000E+00
 -1      4746 2.29833E+01 6.21559E+01 7.50000E+00
 -1      4747 2.19232E+01 6.39775E+01 7.50000E+00
 -1      4748 2.07191E+01 6.57073E+01 7.50000E+00
 -1      4749 1.93788E+01 6.73338E+01 7.50000E+00
 -1      4750 1.79112E+01 6.88465E+01 7.50000E+00
 -1      4751 1.63259E+01 7.02352E+01 7.50000E+00
 -1      4752 1.46333E+01 7.14911E+01 7.50000E+00
 -1      4753 1.28446E+01 7.26057E+01 7.50000E+00
 -1      4754 1.09714E+01 7.35718E+01 7.50000E+00
 -1      4755 9.02620E+00 7.43829E+01 7.50000E+00
 -1      4756 7.02165E+00 7.50339E+01 7.50000E+00
 -1      4757 4.97097E+00 7.55204E+01 7.50000E+00
 -1      4758 2.88762E+00 7.58391E+01 7.50000E+00
 -1      4759 7.85305E-01 7.59881E+01 7.50000E+00
 -1      4760-1.29535E+00 7.59677E+01 7.50000E+00
 -1      4761-3.36770E+00 7.57810E+01 7.50000E+00
 -1      4762-5.41849E+00 7.54291E+01 7.50000E+00
 -1      4763-7.43457E+00 7.49144E+01 7.50000E+00
 -1      4764-9.40304E+00 7.42401E+01 7.50000E+00
 -1      4765-1.13113E+01 7.34106E+01 7.50000E+00
 -1      4766-1.31471E+01 7.24311E+01 7.50000E+00
 -1      4767-1.48987E+01 7.13080E+01 7.50000E+00
 -1      4768-1.65549E+01 7.00484E+01 7.50000E+00
 -1      4769-1.81050E+01 6.86604E+01 7.50000E+00
 -1      4770-1.95392E+01 6.71528E+01 7.50000E+00
 -1      4771-2.08483E+01 6.55355E+01 7.50000E+00
 -1      4772-2.20238E+01 6.38186E+01 7.50000E+00
 -1      4773-2.30583E+01 6.20132E+01 7.50000E+00
 -1      4774-2.39450E+01 6.01309E+01 7.50000E+00
 -1      4775-2.46785E+01 5.81837E+01 7.50000E+00
 -1      4776-2.52539E+01 5.61841E+01 7.50000E+00
 -1      4777-2.56675E+01 5.41448E+01 7.50000E+00
 -1      4778-2.59167E+01 5.20791E+01 7.50000E+00
 -1      4779 2.39191E+01 5.19692E+01 2.50000E+00
 -1      4780 2.36768E+01 5.39252E+01 2.50000E+00
 -1      4781 2.32749E+01 5.58547E+01 2.50000E+00
 -1      4782 2.27161E+01 5.77446E+01 2.50000E+00
 -1      4783 2.20040E+01 5.95824E+01 2.50000E+00
 -1      4784 2.11436E+01 6.13556E+01 2.50000E+00
 -1      4785 2.01406E+01 6.30521E+01 2.50000E+00
 -1      4786 1.90017E+01 6.46607E+01 2.50000E+00
 -1      4787 1.77347E+01 6.61704E+01 2.50000E+00
 -1      4788 1.63481E+01 6.75710E+01 2.50000E+00
 -1      4789 1.48513E+01 6.88531E+01 2.50000E+00
 -1      4790 1.32543E+01 7.00081E+01 2.50000E+00
 -1      4791 1.15679E+01 7.10282E+01 2.50000E+00
 -1      4792 9.80348E+00 7.19064E+01 2.50000E+00
 -1      4793 7.97297E+00 7.26370E+01 2.50000E+00
 -1      4794 6.08870E+00 7.32148E+01 2.50000E+00
 -1      4795 4.16336E+00 7.36361E+01 2.50000E+00
 -1      4796 2.20995E+00 7.38980E+01 2.50000E+00
 -1      4797 2.41632E-01 7.39988E+01 2.50000E+00
 -1      4798-1.65409E+00 7.39429E+01 2.50000E+00
 -1      4799-3.53948E+00 7.37376E+01 2.50000E+00
 -1      4800-5.40276E+00 7.33840E+01 2.50000E+00
 -1      4801-7.23232E+00 7.28844E+01 2.50000E+00
 -1      4802-9.01670E+00 7.22418E+01 2.50000E+00
 -1      4803-1.07448E+01 7.14604E+01 2.50000E+00
 -1      4804-1.24058E+01 7.05450E+01 2.50000E+00
 -1      4805-1.39893E+01 6.95013E+01 2.50000E+00
 -1      4806-1.54854E+01 6.83358E+01 2.50000E+00
 -1      4807-1.68849E+01 6.70558E+01 2.50000E+00
 -1      4808-1.81789E+01 6.56693E+01 2.50000E+00
 -1      4809-1.93594E+01 6.41849E+01 2.50000E+00
 -1      4810-2.04190E+01 6.26120E+01 2.50000E+00
 -1      4811-2.13511E+01 6.09603E+01 2.50000E+00
 -1      4812-2.21499E+01 5.92402E+01 2.50000E+00
 -1      4813-2.28104E+01 5.74624E+01 2.50000E+00
 -1      4814-2.33284E+01 5.56379E+01 2.50000E+00
 -1      4815-2.37007E+01 5.37783E+01 2.50000E+00
 -1      4816-2.39251E+01 5.18951E+01 2.50000E+00
 -1      4817 2.39201E+01 5.19566E+01 5.00000E+00
 -1      4818 2.36810E+01 5.39001E+01 5.00000E+00
 -1      4819 2.32842E+01 5.58176E+01 5.00000E+00
 -1      4820 2.27324E+01 5.76965E+01 5.00000E+00
 -1      4821 2.20293E+01 5.95241E+01 5.00000E+00
 -1      4822 2.11796E+01 6.12883E+01 5.00000E+00
 -1      4823 2.01888E+01 6.29773E+01 5.00000E+00
 -1      4824 1.90637E+01 6.45800E+01 5.00000E+00
 -1      4825 1.78116E+01 6.60856E+01 5.00000E+00
 -1      4826 1.64410E+01 6.74841E+01 5.00000E+00
 -1      4827 1.49609E+01 6.87662E+01 5.00000E+00
 -1      4828 1.33812E+01 6.99234E+01 5.00000E+00
 -1      4829 1.17125E+01 7.09480E+01 5.00000E+00
 -1      4830 9.96575E+00 7.18331E+01 5.00000E+00
 -1      4831 8.15268E+00 7.25729E+01 5.00000E+00
 -1      4832 6.28534E+00 7.31624E+01 5.00000E+00
 -1      4833 4.37615E+00 7.35977E+01 5.00000E+00
 -1      4834 2.43784E+00 7.38759E+01 5.00000E+00
 -1      4835 4.83289E-01 7.39951E+01 5.00000E+00
 -1      4836-1.42496E+00 7.39577E+01 5.00000E+00
 -1      4837-3.32420E+00 7.37687E+01 5.00000E+00
 -1      4838-5.20241E+00 7.34294E+01 5.00000E+00
 -1      4839-7.04773E+00 7.29419E+01 5.00000E+00
 -1      4840-8.84847E+00 7.23093E+01 5.00000E+00
 -1      4841-1.05932E+01 7.15356E+01 5.00000E+00
 -1      4842-1.22710E+01 7.06257E+01 5.00000E+00
 -1      4843-1.38712E+01 6.95854E+01 5.00000E+00
 -1      4844-1.53837E+01 6.84213E+01 5.00000E+00
 -1      4845-1.67988E+01 6.71406E+01 5.00000E+00
 -1      4846-1.81077E+01 6.57515E+01 5.00000E+00
 -1      4847-1.93021E+01 6.42628E+01 5.00000E+00
 -1      4848-2.03745E+01 6.26839E+01 5.00000E+00
 -1      4849-2.13179E+01 6.10248E+01 5.00000E+00
 -1      4850-2.21266E+01 5.92959E+01 5.00000E+00
 -1      4851-2.27953E+01 5.75083E+01 5.00000E+00
 -1      4852-2.33198E+01 5.56732E+01 5.00000E+00
 -1      4853-2.36969E+01 5.38022E+01 5.00000E+00
 -1      4854-2.39241E+01 5.19071E+01 5.00000E+00
 -1      4855 2.39211E+01 5.19439E+01 7.50000E+00
 -1      4856 2.36851E+01 5.38750E+01 7.50000E+00
 -1      4857 2.32934E+01 5.57806E+01 7.50000E+00
 -1      4858 2.27487E+01 5.76483E+01 7.50000E+00
 -1      4859 2.20545E+01 5.94657E+01 7.50000E+00
 -1      4860 2.12154E+01 6.12209E+01 7.50000E+00
 -1      4861 2.02368E+01 6.29023E+01 7.50000E+00
 -1      4862 1.91253E+01 6.44990E+01 7.50000E+00
 -1      4863 1.78881E+01 6.60005E+01 7.50000E+00
 -1      4864 1.65334E+01 6.73967E+01 7.50000E+00
 -1      4865 1.50701E+01 6.86787E+01 7.50000E+00
 -1      4866 1.35077E+01 6.98379E+01 7.50000E+00
 -1      4867 1.18565E+01 7.08668E+01 7.50000E+00
 -1      4868 1.01275E+01 7.17585E+01 7.50000E+00
 -1      4869 8.33187E+00 7.25073E+01 7.50000E+00
 -1      4870 6.48153E+00 7.31082E+01 7.50000E+00
 -1      4871 4.58859E+00 7.35573E+01 7.50000E+00
 -1      4872 2.66550E+00 7.38515E+01 7.50000E+00
 -1      4873 7.24897E-01 7.39891E+01 7.50000E+00
 -1      4874-1.19571E+00 7.39702E+01 7.50000E+00
 -1      4875-3.10865E+00 7.37978E+01 7.50000E+00
 -1      4876-5.00168E+00 7.34730E+01 7.50000E+00
 -1      4877-6.86268E+00 7.29979E+01 7.50000E+00
 -1      4878-8.67973E+00 7.23755E+01 7.50000E+00
 -1      4879-1.04412E+01 7.16098E+01 7.50000E+00
 -1      4880-1.21358E+01 7.07056E+01 7.50000E+00
 -1      4881-1.37526E+01 6.96689E+01 7.50000E+00
 -1      4882-1.52814E+01 6.85062E+01 7.50000E+00
 -1      4883-1.67123E+01 6.72249E+01 7.50000E+00
 -1      4884-1.80362E+01 6.58334E+01 7.50000E+00
 -1      4885-1.92445E+01 6.43404E+01 7.50000E+00
 -1      4886-2.03296E+01 6.27556E+01 7.50000E+00
 -1      4887-2.12845E+01 6.10891E+01 7.50000E+00
 -1      4888-2.21031E+01 5.93516E+01 7.50000E+00
 -1      4889-2.27801E+01 5.75542E+01 7.50000E+00
 -1      4890-2.33113E+01 5.57084E+01 7.50000E+00
 -1      4891-2.36931E+01 5.38260E+01 7.50000E+00
 -1      4892-2.39231E+01 5.19192E+01 7.50000E+00
 -1      4893 2.19258E+01 5.18051E+01 2.50000E+00
 -1      4894 2.17038E+01 5.35981E+01 2.50000E+00
 -1      4895 2.13354E+01 5.53668E+01 2.50000E+00
 -1      4896 2.08231E+01 5.70993E+01 2.50000E+00
 -1      4897 2.01704E+01 5.87839E+01 2.50000E+00
 -1      4898 1.93816E+01 6.04093E+01 2.50000E+00
 -1      4899 1.84622E+01 6.19645E+01 2.50000E+00
 -1      4900 1.74182E+01 6.34390E+01 2.50000E+00
 -1      4901 1.62568E+01 6.48228E+01 2.50000E+00
 -1      4902 1.49858E+01 6.61067E+01 2.50000E+00
 -1      4903 1.36137E+01 6.72820E+01 2.50000E+00
 -1      4904 1.21497E+01 6.83408E+01 2.50000E+00
 -1      4905 1.06039E+01 6.92758E+01 2.50000E+00
 -1      4906 8.98653E+00 7.00809E+01 2.50000E+00
 -1      4907 7.30856E+00 7.07505E+01 2.50000E+00
 -1      4908 5.58131E+00 7.12802E+01 2.50000E+00
 -1      4909 3.81642E+00 7.16665E+01 2.50000E+00
 -1      4910 2.02579E+00 7.19065E+01 2.50000E+00
 -1      4911 2.21496E-01 7.19989E+01 2.50000E+00
 -1      4912-1.51625E+00 7.19477E+01 2.50000E+00
 -1      4913-3.24452E+00 7.17594E+01 2.50000E+00
 -1      4914-4.95253E+00 7.14353E+01 2.50000E+00
 -1      4915-6.62962E+00 7.09773E+01 2.50000E+00
 -1      4916-8.26531E+00 7.03883E+01 2.50000E+00
 -1      4917-9.84939E+00 6.96721E+01 2.50000E+00
 -1      4918-1.13720E+01 6.88329E+01 2.50000E+00
 -1      4919-1.28235E+01 6.78762E+01 2.50000E+00
 -1      4920-1.41950E+01 6.68078E+01 2.50000E+00
 -1      4921-1.54778E+01 6.56345E+01 2.50000E+00
 -1      4922-1.66640E+01 6.43635E+01 2.50000E+00
 -1      4923-1.77461E+01 6.30029E+01 2.50000E+00
 -1      4924-1.87175E+01 6.15610E+01 2.50000E+00
 -1      4925-1.95719E+01 6.00470E+01 2.50000E+00
 -1      4926-2.03041E+01 5.84702E+01 2.50000E+00
 -1      4927-2.09095E+01 5.68405E+01 2.50000E+00
 -1      4928-2.13844E+01 5.51681E+01 2.50000E+00
 -1      4929-2.17257E+01 5.34634E+01 2.50000E+00
 -1      4930-2.19313E+01 5.17371E+01 2.50000E+00
 -1      4931 2.19268E+01 5.17935E+01 5.00000E+00
 -1      4932 2.17076E+01 5.35751E+01 5.00000E+00
 -1      4933 2.13439E+01 5.53328E+01 5.00000E+00
 -1      4934 2.08381E+01 5.70551E+01 5.00000E+00
 -1      4935 2.01936E+01 5.87304E+01 5.00000E+00
 -1      4936 1.94146E+01 6.03476E+01 5.00000E+00
 -1      4937 1.85064E+01 6.18959E+01 5.00000E+00
 -1      4938 1.74750E+01 6.33650E+01 5.00000E+00
 -1      4939 1.63273E+01 6.47451E+01 5.00000E+00
 -1      4940 1.50709E+01 6.60271E+01 5.00000E+00
 -1      4941 1.37142E+01 6.72024E+01 5.00000E+00
 -1      4942 1.22661E+01 6.82631E+01 5.00000E+00
 -1      4943 1.07364E+01 6.92023E+01 5.00000E+00
 -1      4944 9.13527E+00 7.00137E+01 5.00000E+00
 -1      4945 7.47329E+00 7.06918E+01 5.00000E+00
 -1      4946 5.76156E+00 7.12322E+01 5.00000E+00
 -1      4947 4.01147E+00 7.16312E+01 5.00000E+00
 -1      4948 2.23468E+00 7.18862E+01 5.00000E+00
 -1      4949 4.43015E-01 7.19955E+01 5.00000E+00
 -1      4950-1.30621E+00 7.19612E+01 5.00000E+00
 -1      4951-3.04718E+00 7.17879E+01 5.00000E+00
 -1      4952-4.76888E+00 7.14769E+01 5.00000E+00
 -1      4953-6.46042E+00 7.10300E+01 5.00000E+00
 -1      4954-8.11110E+00 7.04502E+01 5.00000E+00
 -1      4955-9.71048E+00 6.97410E+01 5.00000E+00
 -1      4956-1.12484E+01 6.89069E+01 5.00000E+00
 -1      4957-1.27153E+01 6.79533E+01 5.00000E+00
 -1      4958-1.41017E+01 6.68862E+01 5.00000E+00
 -1      4959-1.53989E+01 6.57122E+01 5.00000E+00
 -1      4960-1.65988E+01 6.44389E+01 5.00000E+00
 -1      4961-1.76936E+01 6.30742E+01 5.00000E+00
 -1      4962-1.86766E+01 6.16269E+01 5.00000E+00
 -1      4963-1.95414E+01 6.01060E+01 5.00000E+00
 -1      4964-2.02827E+01 5.85213E+01 5.00000E+00
 -1      4965-2.08957E+01 5.68826E+01 5.00000E+00
 -1      4966-2.13765E+01 5.52004E+01 5.00000E+00
 -1      4967-2.17222E+01 5.34853E+01 5.00000E+00
 -1      4968-2.19304E+01 5.17482E+01 5.00000E+00
 -1      4969 2.19277E+01 5.17819E+01 7.50000E+00
 -1      4970 2.17114E+01 5.35521E+01 7.50000E+00
 -1      4971 2.13523E+01 5.52989E+01 7.50000E+00
 -1      4972 2.08530E+01 5.70109E+01 7.50000E+00
 -1      4973 2.02166E+01 5.86769E+01 7.50000E+00
 -1      4974 1.94474E+01 6.02858E+01 7.50000E+00
 -1      4975 1.85504E+01 6.18271E+01 7.50000E+00
 -1      4976 1.75315E+01 6.32908E+01 7.50000E+00
 -1      4977 1.63975E+01 6.46671E+01 7.50000E+00
 -1      4978 1.51556E+01 6.59470E+01 7.50000E+00
 -1      4979 1.38142E+01 6.71221E+01 7.50000E+00
 -1      4980 1.23820E+01 6.81848E+01 7.50000E+00
 -1      4981 1.08685E+01 6.91279E+01 7.50000E+00
 -1      4982 9.28352E+00 6.99453E+01 7.50000E+00
 -1      4983 7.63755E+00 7.06317E+01 7.50000E+00
 -1      4984 5.94140E+00 7.11825E+01 7.50000E+00
 -1      4985 4.20621E+00 7.15942E+01 7.50000E+00
 -1      4986 2.44337E+00 7.18639E+01 7.50000E+00
 -1      4987 6.64489E-01 7.19900E+01 7.50000E+00
 -1      4988-1.09606E+00 7.19727E+01 7.50000E+00
 -1      4989-2.84960E+00 7.18147E+01 7.50000E+00
 -1      4990-4.58488E+00 7.15169E+01 7.50000E+00
 -1      4991-6.29079E+00 7.10814E+01 7.50000E+00
 -1      4992-7.95642E+00 7.05109E+01 7.50000E+00
 -1      4993-9.57109E+00 6.98089E+01 7.50000E+00
 -1      4994-1.11245E+01 6.89802E+01 7.50000E+00
 -1      4995-1.26066E+01 6.80298E+01 7.50000E+00
 -1      4996-1.40080E+01 6.69640E+01 7.50000E+00
 -1      4997-1.53196E+01 6.57895E+01 7.50000E+00
 -1      4998-1.65332E+01 6.45139E+01 7.50000E+00
 -1      4999-1.76408E+01 6.31454E+01 7.50000E+00
 -1      5000-1.86355E+01 6.16926E+01 7.50000E+00
 -1      5001-1.95108E+01 6.01650E+01 7.50000E+00
 -1      5002-2.02612E+01 5.85723E+01 7.50000E+00
 -1      5003-2.08818E+01 5.69247E+01 7.50000E+00
 -1      5004-2.13686E+01 5.52327E+01 7.50000E+00
 -1      5005-2.17186E+01 5.35072E+01 7.50000E+00
 -1      5006-2.19295E+01 5.17592E+01 7.50000E+00
 -1      5007 2.80000E+01 4.81771E+01 7.50000E+00
 -1      5008 2.60000E+01 4.81771E+01 7.50000E+00
 -1      5009 2.40000E+01 4.81771E+01 7.50000E+00
 -1      5010 2.20000E+01 4.81771E+01 7.50000E+00
 -1      5011 2.80000E+01 4.63542E+01 7.50000E+00
 -1      5012 2.60000E+01 4.63542E+01 7.50000E+00
 -1      5013 2.40000E+01 4.63542E+01 7.50000E+00
 -1      5014 2.20000E+01 4.63542E+01 7.50000E+00
 -1      5015 2.80000E+01 4.45312E+01 7.50000E+00
 -1      5016 2.60000E+01 4.45312E+01 7.50000E+00
 -1      5017 2.40000E+01 4.45312E+01 7.50000E+00
 -1      5018 2.20000E+01 4.45312E+01 7.50000E+00
 -1      5019 2.80000E+01 4.26250E+01 7.50000E+00
 -1      5020 2.60000E+01 4.26250E+01 7.50000E+00
 -1      5021 2.40000E+01 4.26250E+01 7.50000E+00
 -1      5022 2.20000E+01 4.26250E+01 7.50000E+00
 -1      5023 2.80000E+01 4.07188E+01 7.50000E+00
 -1      5024 2.60000E+01 4.07188E+01 7.50000E+00
 -1      5025 2.40000E+01 4.07188E+01 7.50000E+00
 -1      5026 2.20000E+01 4.07188E+01 7.50000E+00
 -1      5027 2.80000E+01 3.88125E+01 7.50000E+00
 -1      5028 2.60000E+01 3.88125E+01 7.50000E+00
 -1      5029 2.40000E+01 3.88125E+01 7.50000E+00
 -1      5030 2.20000E+01 3.88125E+01 7.50000E+00
 -1      5031 2.80000E+01 3.69062E+01 7.50000E+00
 -1      5032 2.60000E+01 3.69062E+01 7.50000E+00
 -1      5033 2.40000E+01 3.69062E+01 7.50000E+00
 -1      5034 2.20000E+01 3.69062E+01 7.50000E+00
 -1      5035 2.80000E+01 3.50000E+01 7.50000E+00
 -1      5036 2.60000E+01 3.50000E+01 7.50000E+00
 -1      5037 2.40000E+01 3.50000E+01 7.50000E+00
 -1      5038 2.20000E+01 3.50000E+01 7.50000E+00
 -1      5039 2.80000E+01 3.30938E+01 7.50000E+00
 -1      5040 2.60000E+01 3.30938E+01 7.50000E+00
 -1      5041 2.40000E+01 3.30938E+01 7.50000E+00
 -1      5042 2.20000E+01 3.30938E+01 7.50000E+00
 -1      5043 2.80000E+01 3.11875E+01 7.50000E+00
 -1      5044 2.60000E+01 3.11875E+01 7.50000E+00
 -1      5045 2.40000E+01 3.11875E+01 7.50000E+00
 -1      5046 2.20000E+01 3.11875E+01 7.50000E+00
 -1      5047 2.80000E+01 2.92812E+01 7.50000E+00
 -1      5048 2.60000E+01 2.92812E+01 7.50000E+00
 -1      5049 2.40000E+01 2.92812E+01 7.50000E+00
 -1      5050 2.20000E+01 2.92812E+01 7.50000E+00
 -1      5051 2.80000E+01 2.73750E+01 7.50000E+00
 -1      5052 2.60000E+01 2.73750E+01 7.50000E+00
 -1      5053 2.40000E+01 2.73750E+01 7.50000E+00
 -1      5054 2.20000E+01 2.73750E+01 7.50000E+00
 -1      5055 2.80000E+01 2.54688E+01 7.50000E+00
 -1      5056 2.60000E+01 2.54688E+01 7.50000E+00
 -1      5057 2.40000E+01 2.54688E+01 7.50000E+00
 -1      5058 2.20000E+01 2.54688E+01 7.50000E+00
 -1      5059 2.80000E+01 2.36458E+01 7.50000E+00
 -1      5060 2.60000E+01 2.36458E+01 7.50000E+00
 -1      5061 2.40000E+01 2.36458E+01 7.50000E+00
 -1      5062 2.20000E+01 2.36458E+01 7.50000E+00
 -1      5063 2.80000E+01 2.18229E+01 7.50000E+00
 -1      5064 2.60000E+01 2.18229E+01 7.50000E+00
 -1      5065 2.40000E+01 2.18229E+01 7.50000E+00
 -1      5066 2.20000E+01 2.18229E+01 7.50000E+00
 -1      5067 2.80000E+01 4.82292E+01 5.00000E+00
 -1      5068 2.60000E+01 4.82292E+01 5.00000E+00
 -1      5069 2.40000E+01 4.82292E+01 5.00000E+00
 -1      5070 2.20000E+01 4.82292E+01 5.00000E+00
 -1      5071 2.80000E+01 4.64583E+01 5.00000E+00
 -1      5072 2.60000E+01 4.64583E+01 5.00000E+00
 -1      5073 2.40000E+01 4.64583E+01 5.00000E+00
 -1      5074 2.20000E+01 4.64583E+01 5.00000E+00
 -1      5075 2.80000E+01 4.46875E+01 5.00000E+00
 -1      5076 2.60000E+01 4.46875E+01 5.00000E+00
 -1      5077 2.40000E+01 4.46875E+01 5.00000E+00
 -1      5078 2.20000E+01 4.46875E+01 5.00000E+00
 -1      5079 2.80000E+01 4.27500E+01 5.00000E+00
 -1      5080 2.60000E+01 4.27500E+01 5.00000E+00
 -1      5081 2.40000E+01 4.27500E+01 5.00000E+00
 -1      5082 2.20000E+01 4.27500E+01 5.00000E+00
 -1      5083 2.80000E+01 4.08125E+01 5.00000E+00
 -1      5084 2.60000E+01 4.08125E+01 5.00000E+00
 -1      5085 2.40000E+01 4.08125E+01 5.00000E+00
 -1      5086 2.20000E+01 4.08125E+01 5.00000E+00
 -1      5087 2.80000E+01 3.88750E+01 5.00000E+00
 -1      5088 2.60000E+01 3.88750E+01 5.00000E+00
 -1      5089 2.40000E+01 3.88750E+01 5.00000E+00
 -1      5090 2.20000E+01 3.88750E+01 5.00000E+00
 -1      5091 2.80000E+01 3.69375E+01 5.00000E+00
 -1      5092 2.60000E+01 3.69375E+01 5.00000E+00
 -1      5093 2.40000E+01 3.69375E+01 5.00000E+00
 -1      5094 2.20000E+01 3.69375E+01 5.00000E+00
 -1      5095 2.80000E+01 3.50000E+01 5.00000E+00
 -1      5096 2.60000E+01 3.50000E+01 5.00000E+00
 -1      5097 2.40000E+01 3.50000E+01 5.00000E+00
 -1      5098 2.20000E+01 3.50000E+01 5.00000E+00
 -1      5099 2.80000E+01 3.30625E+01 5.00000E+00
 -1      5100 2.60000E+01 3.30625E+01 5.00000E+00
 -1      5101 2.40000E+01 3.30625E+01 5.00000E+00
 -1      5102 2.20000E+01 3.30625E+01 5.00000E+00
 -1      5103 2.80000E+01 3.11250E+01 5.00000E+00
 -1      5104 2.60000E+01 3.11250E+01 5.00000E+00
 -1      5105 2.40000E+01 3.11250E+01 5.00000E+00
 -1      5106 2.20000E+01 3.11250E+01 5.00000E+00
 -1      5107 2.80000E+01 2.91875E+01 5.00000E+00
 -1      5108 2.60000E+01 2.91875E+01 5.00000E+00
 -1      5109 2.40000E+01 2.91875E+01 5.00000E+00
 -1      5110 2.20000E+01 2.91875E+01 5.00000E+00
 -1      5111 2.80000E+01 2.72500E+01 5.00000E+00
 -1      5112 2.60000E+01 2.72500E+01 5.00000E+00
 -1      5113 2.40000E+01 2.72500E+01 5.00000E+00
 -1      5114 2.20000E+01 2.72500E+01 5.00000E+00
 -1      5115 2.80000E+01 2.53125E+01 5.00000E+00
 -1      5116 2.60000E+01 2.53125E+01 5.00000E+00
 -1      5117 2.40000E+01 2.53125E+01 5.00000E+00
 -1      5118 2.20000E+01 2.53125E+01 5.00000E+00
 -1      5119 2.80000E+01 2.35417E+01 5.00000E+00
 -1      5120 2.60000E+01 2.35417E+01 5.00000E+00
 -1      5121 2.40000E+01 2.35417E+01 5.00000E+00
 -1      5122 2.20000E+01 2.35417E+01 5.00000E+00
 -1      5123 2.80000E+01 2.17708E+01 5.00000E+00
 -1      5124 2.60000E+01 2.17708E+01 5.00000E+00
 -1      5125 2.40000E+01 2.17708E+01 5.00000E+00
 -1      5126 2.20000E+01 2.17708E+01 5.00000E+00
 -1      5127 2.80000E+01 4.82812E+01 2.50000E+00
 -1      5128 2.60000E+01 4.82812E+01 2.50000E+00
 -1      5129 2.40000E+01 4.82812E+01 2.50000E+00
 -1      5130 2.20000E+01 4.82812E+01 2.50000E+00
 -1      5131 2.80000E+01 4.65625E+01 2.50000E+00
 -1      5132 2.60000E+01 4.65625E+01 2.50000E+00
 -1      5133 2.40000E+01 4.65625E+01 2.50000E+00
 -1      5134 2.20000E+01 4.65625E+01 2.50000E+00
 -1      5135 2.80000E+01 4.48438E+01 2.50000E+00
 -1      5136 2.60000E+01 4.48438E+01 2.50000E+00
 -1      5137 2.40000E+01 4.48438E+01 2.50000E+00
 -1      5138 2.20000E+01 4.48438E+01 2.50000E+00
 -1      5139 2.80000E+01 4.28750E+01 2.50000E+00
 -1      5140 2.60000E+01 4.28750E+01 2.50000E+00
 -1      5141 2.40000E+01 4.28750E+01 2.50000E+00
 -1      5142 2.20000E+01 4.28750E+01 2.50000E+00
 -1      5143 2.80000E+01 4.09062E+01 2.50000E+00
 -1      5144 2.60000E+01 4.09062E+01 2.50000E+00
 -1      5145 2.40000E+01 4.09062E+01 2.50000E+00
 -1      5146 2.20000E+01 4.09062E+01 2.50000E+00
 -1      5147 2.80000E+01 3.89375E+01 2.50000E+00
 -1      5148 2.60000E+01 3.89375E+01 2.50000E+00
 -1      5149 2.40000E+01 3.89375E+01 2.50000E+00
 -1      5150 2.20000E+01 3.89375E+01 2.50000E+00
 -1      5151 2.80000E+01 3.69688E+01 2.50000E+00
 -1      5152 2.60000E+01 3.69688E+01 2.50000E+00
 -1      5153 2.40000E+01 3.69688E+01 2.50000E+00
 -1      5154 2.20000E+01 3.69688E+01 2.50000E+00
 -1      5155 2.80000E+01 3.50000E+01 2.50000E+00
 -1      5156 2.60000E+01 3.50000E+01 2.50000E+00
 -1      5157 2.40000E+01 3.50000E+01 2.50000E+00
 -1      5158 2.20000E+01 3.50000E+01 2.50000E+00
 -1      5159 2.80000E+01 3.30312E+01 2.50000E+00
 -1      5160 2.60000E+01 3.30312E+01 2.50000E+00
 -1      5161 2.40000E+01 3.30312E+01 2.50000E+00
 -1      5162 2.20000E+01 3.30312E+01 2.50000E+00
 -1      5163 2.80000E+01 3.10625E+01 2.50000E+00
 -1      5164 2.60000E+01 3.10625E+01 2.50000E+00
 -1      5165 2.40000E+01 3.10625E+01 2.50000E+00
 -1      5166 2.20000E+01 3.10625E+01 2.50000E+00
 -1      5167 2.80000E+01 2.90938E+01 2.50000E+00
 -1      5168 2.60000E+01 2.90938E+01 2.50000E+00
 -1      5169 2.40000E+01 2.90938E+01 2.50000E+00
 -1      5170 2.20000E+01 2.90938E+01 2.50000E+00
 -1      5171 2.80000E+01 2.71250E+01 2.50000E+00
 -1      5172 2.60000E+01 2.71250E+01 2.50000E+00
 -1      5173 2.40000E+01 2.71250E+01 2.50000E+00
 -1      5174 2.20000E+01 2.71250E+01 2.50000E+00
 -1      5175 2.80000E+01 2.51562E+01 2.50000E+00
 -1      5176 2.60000E+01 2.51562E+01 2.50000E+00
 -1      5177 2.40000E+01 2.51562E+01 2.50000E+00
 -1      5178 2.20000E+01 2.51562E+01 2.50000E+00
 -1      5179 2.80000E+01 2.34375E+01 2.50000E+00
 -1      5180 2.60000E+01 2.34375E+01 2.50000E+00
 -1      5181 2.40000E+01 2.34375E+01 2.50000E+00
 -1      5182 2.20000E+01 2.34375E+01 2.50000E+00
 -1      5183 2.80000E+01 2.17188E+01 2.50000E+00
 -1      5184 2.60000E+01 2.17188E+01 2.50000E+00
 -1      5185 2.40000E+01 2.17188E+01 2.50000E+00
 -1      5186 2.20000E+01 2.17188E+01 2.50000E+00
 -1      5187 2.27541E+01 1.68580E+01 8.59220E+00
 -1      5188 2.42514E+01 1.68580E+01 8.59220E+00
 -1      5189 2.57486E+01 1.68580E+01 8.59220E+00
 -1      5190 2.72459E+01 1.68580E+01 8.59220E+00
 -1      5191 2.27082E+01 1.70492E+01 7.18439E+00
 -1      5192 2.42361E+01 1.70492E+01 7.18439E+00
 -1      5193 2.57639E+01 1.70492E+01 7.18439E+00
 -1      5194 2.72918E+01 1.70492E+01 7.18439E+00
 -1      5195 2.26623E+01 1.72405E+01 5.77659E+00
 -1      5196 2.42208E+01 1.72405E+01 5.77659E+00
 -1      5197 2.57792E+01 1.72405E+01 5.77659E+00
 -1      5198 2.73377E+01 1.72405E+01 5.77659E+00
 -1      5199 2.23427E+01 1.85721E+01 8.14269E+00
 -1      5200 2.41142E+01 1.85721E+01 8.14269E+00
 -1      5201 2.58858E+01 1.85721E+01 8.14269E+00
 -1      5202 2.76573E+01 1.85721E+01 8.14269E+00
 -1      5203 2.22854E+01 1.88109E+01 6.28538E+00
 -1      5204 2.40951E+01 1.88109E+01 6.28538E+00
 -1      5205 2.59049E+01 1.88109E+01 6.28538E+00
 -1      5206 2.77146E+01 1.88109E+01 6.28538E+00
 -1      5207 2.22281E+01 1.90497E+01 4.42806E+00
 -1      5208 2.40760E+01 1.90497E+01 4.42806E+00
 -1      5209 2.59240E+01 1.90497E+01 4.42806E+00
 -1      5210 2.77719E+01 1.90497E+01 4.42806E+00
 -1      5211-2.80000E+01 2.17188E+01 2.50000E+00
 -1      5212-2.60000E+01 2.17188E+01 2.50000E+00
 -1      5213-2.40000E+01 2.17188E+01 2.50000E+00
 -1      5214-2.20000E+01 2.17188E+01 2.50000E+00
 -1      5215-2.80000E+01 2.34375E+01 2.50000E+00
 -1      5216-2.60000E+01 2.34375E+01 2.50000E+00
 -1      5217-2.40000E+01 2.34375E+01 2.50000E+00
 -1      5218-2.20000E+01 2.34375E+01 2.50000E+00
 -1      5219-2.80000E+01 2.51562E+01 2.50000E+00
 -1      5220-2.60000E+01 2.51562E+01 2.50000E+00
 -1      5221-2.40000E+01 2.51562E+01 2.50000E+00
 -1      5222-2.20000E+01 2.51562E+01 2.50000E+00
 -1      5223-2.80000E+01 2.71250E+01 2.50000E+00
 -1      5224-2.60000E+01 2.71250E+01 2.50000E+00
 -1      5225-2.40000E+01 2.71250E+01 2.50000E+00
 -1      5226-2.20000E+01 2.71250E+01 2.50000E+00
 -1      5227-2.80000E+01 2.90938E+01 2.50000E+00
 -1      5228-2.60000E+01 2.90938E+01 2.50000E+00
 -1      5229-2.40000E+01 2.90938E+01 2.50000E+00
 -1      5230-2.20000E+01 2.90938E+01 2.50000E+00
 -1      5231-2.80000E+01 3.10625E+01 2.50000E+00
 -1      5232-2.60000E+01 3.10625E+01 2.50000E+00
 -1      5233-2.40000E+01 3.10625E+01 2.50000E+00
 -1      5234-2.20000E+01 3.10625E+01 2.50000E+00
 -1      5235-2.80000E+01 3.30312E+01 2.50000E+00
 -1      5236-2.60000E+01 3.30312E+01 2.50000E+00
 -1      5237-2.40000E+01 3.30312E+01 2.50000E+00
 -1      5238-2.20000E+01 3.30312E+01 2.50000E+00
 -1      5239-2.80000E+01 3.50000E+01 2.50000E+00
 -1      5240-2.60000E+01 3.50000E+01 2.50000E+00
 -1      5241-2.40000E+01 3.50000E+01 2.50000E+00
 -1      5242-2.20000E+01 3.50000E+01 2.50000E+00
 -1      5243-2.80000E+01 3.69688E+01 2.50000E+00
 -1      5244-2.60000E+01 3.69688E+01 2.50000E+00
 -1      5245-2.40000E+01 3.69688E+01 2.50000E+00
 -1      5246-2.20000E+01 3.69688E+01 2.50000E+00
 -1      5247-2.80000E+01 3.89375E+01 2.50000E+00
 -1      5248-2.60000E+01 3.89375E+01 2.50000E+00
 -1      5249-2.40000E+01 3.89375E+01 2.50000E+00
 -1      5250-2.20000E+01 3.89375E+01 2.50000E+00
 -1      5251-2.80000E+01 4.09062E+01 2.50000E+00
 -1      5252-2.60000E+01 4.09062E+01 2.50000E+00
 -1      5253-2.40000E+01 4.09062E+01 2.50000E+00
 -1      5254-2.20000E+01 4.09062E+01 2.50000E+00
 -1      5255-2.80000E+01 4.28750E+01 2.50000E+00
 -1      5256-2.60000E+01 4.28750E+01 2.50000E+00
 -1      5257-2.40000E+01 4.28750E+01 2.50000E+00
 -1      5258-2.20000E+01 4.28750E+01 2.50000E+00
 -1      5259-2.80000E+01 4.48438E+01 2.50000E+00
 -1      5260-2.60000E+01 4.48438E+01 2.50000E+00
 -1      5261-2.40000E+01 4.48438E+01 2.50000E+00
 -1      5262-2.20000E+01 4.48438E+01 2.50000E+00
 -1      5263-2.80000E+01 4.65625E+01 2.50000E+00
 -1      5264-2.60000E+01 4.65625E+01 2.50000E+00
 -1      5265-2.40000E+01 4.65625E+01 2.50000E+00
 -1      5266-2.20000E+01 4.65625E+01 2.50000E+00
 -1      5267-2.80000E+01 4.82812E+01 2.50000E+00
 -1      5268-2.60000E+01 4.82812E+01 2.50000E+00
 -1      5269-2.40000E+01 4.82812E+01 2.50000E+00
 -1      5270-2.20000E+01 4.82812E+01 2.50000E+00
 -1      5271-2.80000E+01 2.17708E+01 5.00000E+00
 -1      5272-2.60000E+01 2.17708E+01 5.00000E+00
 -1      5273-2.40000E+01 2.17708E+01 5.00000E+00
 -1      5274-2.20000E+01 2.17708E+01 5.00000E+00
 -1      5275-2.80000E+01 2.35417E+01 5.00000E+00
 -1      5276-2.60000E+01 2.35417E+01 5.00000E+00
 -1      5277-2.40000E+01 2.35417E+01 5.00000E+00
 -1      5278-2.20000E+01 2.35417E+01 5.00000E+00
 -1      5279-2.80000E+01 2.53125E+01 5.00000E+00
 -1      5280-2.60000E+01 2.53125E+01 5.00000E+00
 -1      5281-2.40000E+01 2.53125E+01 5.00000E+00
 -1      5282-2.20000E+01 2.53125E+01 5.00000E+00
 -1      5283-2.80000E+01 2.72500E+01 5.00000E+00
 -1      5284-2.60000E+01 2.72500E+01 5.00000E+00
 -1      5285-2.40000E+01 2.72500E+01 5.00000E+00
 -1      5286-2.20000E+01 2.72500E+01 5.00000E+00
 -1      5287-2.80000E+01 2.91875E+01 5.00000E+00
 -1      5288-2.60000E+01 2.91875E+01 5.00000E+00
 -1      5289-2.40000E+01 2.91875E+01 5.00000E+00
 -1      5290-2.20000E+01 2.91875E+01 5.00000E+00
 -1      5291-2.80000E+01 3.11250E+01 5.00000E+00
 -1      5292-2.60000E+01 3.11250E+01 5.00000E+00
 -1      5293-2.40000E+01 3.11250E+01 5.00000E+00
 -1      5294-2.20000E+01 3.11250E+01 5.00000E+00
 -1      5295-2.80000E+01 3.30625E+01 5.00000E+00
 -1      5296-2.60000E+01 3.30625E+01 5.00000E+00
 -1      5297-2.40000E+01 3.30625E+01 5.00000E+00
 -1      5298-2.20000E+01 3.30625E+01 5.00000E+00
 -1      5299-2.80000E+01 3.50000E+01 5.00000E+00
 -1      5300-2.60000E+01 3.50000E+01 5.00000E+00
 -1      5301-2.40000E+01 3.50000E+01 5.00000E+00
 -1      5302-2.20000E+01 3.50000E+01 5.00000E+00
 -1      5303-2.80000E+01 3.69375E+01 5.00000E+00
 -1      5304-2.60000E+01 3.69375E+01 5.00000E+00
 -1      5305-2.40000E+01 3.69375E+01 5.00000E+00
 -1      5306-2.20000E+01 3.69375E+01 5.00000E+00
 -1      5307-2.80000E+01 3.88750E+01 5.00000E+00
 -1      5308-2.60000E+01 3.88750E+01 5.00000E+00
 -1      5309-2.40000E+01 3.88750E+01 5.00000E+00
 -1      5310-2.20000E+01 3.88750E+01 5.00000E+00
 -1      5311-2.80000E+01 4.08125E+01 5.00000E+00
 -1      5312-2.60000E+01 4.08125E+01 5.00000E+00
 -1      5313-2.40000E+01 4.08125E+01 5.00000E+00
 -1      5314-2.20000E+01 4.08125E+01 5.00000E+00
 -1      5315-2.80000E+01 4.27500E+01 5.00000E+00
 -1      5316-2.60000E+01 4.27500E+01 5.00000E+00
 -1      5317-2.40000E+01 4.27500E+01 5.00000E+00
 -1      5318-2.20000E+01 4.27500E+01 5.00000E+00
 -1      5319-2.80000E+01 4.46875E+01 5.00000E+00
 -1      5320-2.60000E+01 4.46875E+01 5.00000E+00
 -1      5321-2.40000E+01 4.46875E+01 5.00000E+00
 -1      5322-2.20000E+01 4.46875E+01 5.00000E+00
 -1      5323-2.80000E+01 4.64583E+01 5.00000E+00
 -1      5324-2.60000E+01 4.64583E+01 5.00000E+00
 -1      5325-2.40000E+01 4.64583E+01 5.00000E+00
 -1      5326-2.20000E+01 4.64583E+01 5.00000E+00
 -1      5327-2.80000E+01 4.82292E+01 5.00000E+00
 -1      5328-2.60000E+01 4.82292E+01 5.00000E+00
 -1      5329-2.40000E+01 4.82292E+01 5.00000E+00
 -1      5330-2.20000E+01 4.82292E+01 5.00000E+00
 -1      5331-2.80000E+01 2.18229E+01 7.50000E+00
 -1      5332-2.60000E+01 2.18229E+01 7.50000E+00
 -1      5333-2.40000E+01 2.18229E+01 7.50000E+00
 -1      5334-2.20000E+01 2.18229E+01 7.50000E+00
 -1      5335-2.80000E+01 2.36458E+01 7.50000E+00
 -1      5336-2.60000E+01 2.36458E+01 7.50000E+00
 -1      5337-2.40000E+01 2.36458E+01 7.50000E+00
 -1      5338-2.20000E+01 2.36458E+01 7.50000E+00
 -1      5339-2.80000E+01 2.54688E+01 7.50000E+00
 -1      5340-2.60000E+01 2.54688E+01 7.50000E+00
 -1      5341-2.40000E+01 2.54688E+01 7.50000E+00
 -1      5342-2.20000E+01 2.54688E+01 7.50000E+00
 -1      5343-2.80000E+01 2.73750E+01 7.50000E+00
 -1      5344-2.60000E+01 2.73750E+01 7.50000E+00
 -1      5345-2.40000E+01 2.73750E+01 7.50000E+00
 -1      5346-2.20000E+01 2.73750E+01 7.50000E+00
 -1      5347-2.80000E+01 2.92812E+01 7.50000E+00
 -1      5348-2.60000E+01 2.92812E+01 7.50000E+00
 -1      5349-2.40000E+01 2.92812E+01 7.50000E+00
 -1      5350-2.20000E+01 2.92812E+01 7.50000E+00
 -1      5351-2.80000E+01 3.11875E+01 7.50000E+00
 -1      5352-2.60000E+01 3.11875E+01 7.50000E+00
 -1      5353-2.40000E+01 3.11875E+01 7.50000E+00
 -1      5354-2.20000E+01 3.11875E+01 7.50000E+00
 -1      5355-2.80000E+01 3.30938E+01 7.50000E+00
 -1      5356-2.60000E+01 3.30938E+01 7.50000E+00
 -1      5357-2.40000E+01 3.30938E+01 7.50000E+00
 -1      5358-2.20000E+01 3.30938E+01 7.50000E+00
 -1      5359-2.80000E+01 3.50000E+01 7.50000E+00
 -1      5360-2.60000E+01 3.50000E+01 7.50000E+00
 -1      5361-2.40000E+01 3.50000E+01 7.50000E+00
 -1      5362-2.20000E+01 3.50000E+01 7.50000E+00
 -1      5363-2.80000E+01 3.69062E+01 7.50000E+00
 -1      5364-2.60000E+01 3.69062E+01 7.50000E+00
 -1      5365-2.40000E+01 3.69062E+01 7.50000E+00
 -1      5366-2.20000E+01 3.69062E+01 7.50000E+00
 -1      5367-2.80000E+01 3.88125E+01 7.50000E+00
 -1      5368-2.60000E+01 3.88125E+01 7.50000E+00
 -1      5369-2.40000E+01 3.88125E+01 7.50000E+00
 -1      5370-2.20000E+01 3.88125E+01 7.50000E+00
 -1      5371-2.80000E+01 4.07188E+01 7.50000E+00
 -1      5372-2.60000E+01 4.07188E+01 7.50000E+00
 -1      5373-2.40000E+01 4.07188E+01 7.50000E+00
 -1      5374-2.20000E+01 4.07188E+01 7.50000E+00
 -1      5375-2.80000E+01 4.26250E+01 7.50000E+00
 -1      5376-2.60000E+01 4.26250E+01 7.50000E+00
 -1      5377-2.40000E+01 4.26250E+01 7.50000E+00
 -1      5378-2.20000E+01 4.26250E+01 7.50000E+00
 -1      5379-2.80000E+01 4.45312E+01 7.50000E+00
 -1      5380-2.60000E+01 4.45312E+01 7.50000E+00
 -1      5381-2.40000E+01 4.45312E+01 7.50000E+00
 -1      5382-2.20000E+01 4.45312E+01 7.50000E+00
 -1      5383-2.80000E+01 4.63542E+01 7.50000E+00
 -1      5384-2.60000E+01 4.63542E+01 7.50000E+00
 -1      5385-2.40000E+01 4.63542E+01 7.50000E+00
 -1      5386-2.20000E+01 4.63542E+01 7.50000E+00
 -1      5387-2.80000E+01 4.81771E+01 7.50000E+00
 -1      5388-2.60000E+01 4.81771E+01 7.50000E+00
 -1      5389-2.40000E+01 4.81771E+01 7.50000E+00
 -1      5390-2.20000E+01 4.81771E+01 7.50000E+00
 -1      5391-2.27912E+01 1.67035E+01 5.98247E+00
 -1      5392-2.42637E+01 1.67035E+01 5.98247E+00
 -1      5393-2.57363E+01 1.67035E+01 5.98247E+00
 -1      5394-2.72088E+01 1.67035E+01 5.98247E+00
 -1      5395-2.28274E+01 1.65523E+01 7.32165E+00
 -1      5396-2.42758E+01 1.65523E+01 7.32165E+00
 -1      5397-2.57242E+01 1.65523E+01 7.32165E+00
 -1      5398-2.71726E+01 1.65523E+01 7.32165E+00
 -1      5399-2.28637E+01 1.64012E+01 8.66082E+00
 -1      5400-2.42879E+01 1.64012E+01 8.66082E+00
 -1      5401-2.57121E+01 1.64012E+01 8.66082E+00
 -1      5402-2.71363E+01 1.64012E+01 8.66082E+00
 -1      5403-2.24255E+01 1.82271E+01 5.20029E+00
 -1      5404-2.41418E+01 1.82271E+01 5.20029E+00
 -1      5405-2.58582E+01 1.82271E+01 5.20029E+00
 -1      5406-2.75745E+01 1.82271E+01 5.20029E+00
 -1      5407-2.24837E+01 1.79847E+01 6.80019E+00
 -1      5408-2.41612E+01 1.79847E+01 6.80019E+00
 -1      5409-2.58388E+01 1.79847E+01 6.80019E+00
 -1      5410-2.75163E+01 1.79847E+01 6.80019E+00
 -1      5411-2.25418E+01 1.77424E+01 8.40010E+00
 -1      5412-2.41806E+01 1.77424E+01 8.40010E+00
 -1      5413-2.58194E+01 1.77424E+01 8.40010E+00
 -1      5414-2.74582E+01 1.77424E+01 8.40010E+00
 -1      5415-2.21482E+01 1.93823E+01 3.98185E+00
 -1      5416-2.40494E+01 1.93823E+01 3.98185E+00
 -1      5417-2.59506E+01 1.93823E+01 3.98185E+00
 -1      5418-2.78518E+01 1.93823E+01 3.98185E+00
 -1      5419-2.21988E+01 1.91715E+01 5.98790E+00
 -1      5420-2.40663E+01 1.91715E+01 5.98790E+00
 -1      5421-2.59337E+01 1.91715E+01 5.98790E+00
 -1      5422-2.78012E+01 1.91715E+01 5.98790E+00
 -1      5423-2.22494E+01 1.89608E+01 7.99395E+00
 -1      5424-2.40831E+01 1.89608E+01 7.99395E+00
 -1      5425-2.59169E+01 1.89608E+01 7.99395E+00
 -1      5426-2.77506E+01 1.89608E+01 7.99395E+00
 -1      5427 2.77405E+01 1.89186E+01-8.39516E+00
 -1      5428 2.77809E+01 1.90872E+01-6.79032E+00
 -1      5429 2.78214E+01 1.92558E+01-5.18548E+00
 -1      5430 2.78619E+01 1.94244E+01-3.58064E+00
 -1      5431 2.74465E+01 1.76939E+01-8.72008E+00
 -1      5432 2.74931E+01 1.78878E+01-7.44015E+00
 -1      5433 2.75396E+01 1.80817E+01-6.16023E+00
 -1      5434 2.75861E+01 1.82756E+01-4.88031E+00
 -1      5435 2.71290E+01 1.63709E+01-8.92866E+00
 -1      5436 2.71580E+01 1.64919E+01-7.85732E+00
 -1      5437 2.71871E+01 1.66128E+01-6.78598E+00
 -1      5438 2.72161E+01 1.67337E+01-5.71464E+00
 -1      5439 2.59135E+01 1.89186E+01-8.39516E+00
 -1      5440 2.59270E+01 1.90872E+01-6.79032E+00
 -1      5441 2.59405E+01 1.92558E+01-5.18548E+00
 -1      5442 2.59540E+01 1.94244E+01-3.58064E+00
 -1      5443 2.58155E+01 1.76939E+01-8.72008E+00
 -1      5444 2.58310E+01 1.78878E+01-7.44015E+00
 -1      5445 2.58465E+01 1.80817E+01-6.16023E+00
 -1      5446 2.58620E+01 1.82756E+01-4.88031E+00
 -1      5447 2.57097E+01 1.63709E+01-8.92866E+00
 -1      5448 2.57193E+01 1.64919E+01-7.85732E+00
 -1      5449 2.57290E+01 1.66128E+01-6.78598E+00
 -1      5450 2.57387E+01 1.67337E+01-5.71464E+00
 -1      5451 2.40865E+01 1.89186E+01-8.39516E+00
 -1      5452 2.40730E+01 1.90872E+01-6.79032E+00
 -1      5453 2.40595E+01 1.92558E+01-5.18548E+00
 -1      5454 2.40460E+01 1.94244E+01-3.58064E+00
 -1      5455 2.41845E+01 1.76939E+01-8.72008E+00
 -1      5456 2.41690E+01 1.78878E+01-7.44015E+00
 -1      5457 2.41535E+01 1.80817E+01-6.16023E+00
 -1      5458 2.41380E+01 1.82756E+01-4.88031E+00
 -1      5459 2.42903E+01 1.63709E+01-8.92866E+00
 -1      5460 2.42807E+01 1.64919E+01-7.85732E+00
 -1      5461 2.42710E+01 1.66128E+01-6.78598E+00
 -1      5462 2.42613E+01 1.67337E+01-5.71464E+00
 -1      5463 2.22595E+01 1.89186E+01-8.39516E+00
 -1      5464 2.22191E+01 1.90872E+01-6.79032E+00
 -1      5465 2.21786E+01 1.92558E+01-5.18548E+00
 -1      5466 2.21381E+01 1.94244E+01-3.58064E+00
 -1      5467 2.25535E+01 1.76939E+01-8.72008E+00
 -1      5468 2.25069E+01 1.78878E+01-7.44015E+00
 -1      5469 2.24604E+01 1.80817E+01-6.16023E+00
 -1      5470 2.24139E+01 1.82756E+01-4.88031E+00
 -1      5471 2.28710E+01 1.63709E+01-8.92866E+00
 -1      5472 2.28420E+01 1.64919E+01-7.85732E+00
 -1      5473 2.28129E+01 1.66128E+01-6.78598E+00
 -1      5474 2.27839E+01 1.67337E+01-5.71464E+00
 -1      5475 2.22166E+01 1.09025E+01-4.05660E+00
 -1      5476 2.40722E+01 1.09025E+01-4.05660E+00
 -1      5477 2.59278E+01 1.09025E+01-4.05660E+00
 -1      5478 2.77834E+01 1.09025E+01-4.05660E+00
 -1      5479 2.26531E+01 1.27212E+01-5.49503E+00
 -1      5480 2.42177E+01 1.27212E+01-5.49503E+00
 -1      5481 2.57823E+01 1.27212E+01-5.49503E+00
 -1      5482 2.73469E+01 1.27212E+01-5.49503E+00
 -1      5483 2.22625E+01 1.10936E+01-5.54245E+00
 -1      5484 2.40875E+01 1.10936E+01-5.54245E+00
 -1      5485 2.59125E+01 1.10936E+01-5.54245E+00
 -1      5486 2.77375E+01 1.10936E+01-5.54245E+00
 -1      5487 2.26898E+01 1.28742E+01-6.62127E+00
 -1      5488 2.42299E+01 1.28742E+01-6.62127E+00
 -1      5489 2.57701E+01 1.28742E+01-6.62127E+00
 -1      5490 2.73102E+01 1.28742E+01-6.62127E+00
 -1      5491 2.23083E+01 1.12846E+01-7.02830E+00
 -1      5492 2.41028E+01 1.12846E+01-7.02830E+00
 -1      5493 2.58972E+01 1.12846E+01-7.02830E+00
 -1      5494 2.76917E+01 1.12846E+01-7.02830E+00
 -1      5495 2.27265E+01 1.30273E+01-7.74751E+00
 -1      5496 2.42422E+01 1.30273E+01-7.74751E+00
 -1      5497 2.57578E+01 1.30273E+01-7.74751E+00
 -1      5498 2.72735E+01 1.30273E+01-7.74751E+00
 -1      5499 2.23542E+01 1.14756E+01-8.51415E+00
 -1      5500 2.41181E+01 1.14756E+01-8.51415E+00
 -1      5501 2.58819E+01 1.14756E+01-8.51415E+00
 -1      5502 2.76458E+01 1.14756E+01-8.51415E+00
 -1      5503 2.27633E+01 1.31803E+01-8.87376E+00
 -1      5504 2.42544E+01 1.31803E+01-8.87376E+00
 -1      5505 2.57456E+01 1.31803E+01-8.87376E+00
 -1      5506 2.72367E+01 1.31803E+01-8.87376E+00
 -1      5507-2.77405E+01 1.89186E+01-8.39516E+00
 -1      5508-2.59135E+01 1.89186E+01-8.39516E+00
 -1      5509-2.40865E+01 1.89186E+01-8.39516E+00
 -1      5510-2.22595E+01 1.89186E+01-8.39516E+00
 -1      5511-2.74465E+01 1.76939E+01-8.72008E+00
 -1      5512-2.58155E+01 1.76939E+01-8.72008E+00
 -1      5513-2.41845E+01 1.76939E+01-8.72008E+00
 -1      5514-2.25535E+01 1.76939E+01-8.72008E+00
 -1      5515-2.71290E+01 1.63709E+01-8.92866E+00
 -1      5516-2.57097E+01 1.63709E+01-8.92866E+00
 -1      5517-2.42903E+01 1.63709E+01-8.92866E+00
 -1      5518-2.28710E+01 1.63709E+01-8.92866E+00
 -1      5519-2.77809E+01 1.90872E+01-6.79032E+00
 -1      5520-2.59270E+01 1.90872E+01-6.79032E+00
 -1      5521-2.40730E+01 1.90872E+01-6.79032E+00
 -1      5522-2.22191E+01 1.90872E+01-6.79032E+00
 -1      5523-2.74931E+01 1.78878E+01-7.44015E+00
 -1      5524-2.58310E+01 1.78878E+01-7.44015E+00
 -1      5525-2.41690E+01 1.78878E+01-7.44015E+00
 -1      5526-2.25069E+01 1.78878E+01-7.44015E+00
 -1      5527-2.71580E+01 1.64919E+01-7.85732E+00
 -1      5528-2.57193E+01 1.64919E+01-7.85732E+00
 -1      5529-2.42807E+01 1.64919E+01-7.85732E+00
 -1      5530-2.28420E+01 1.64919E+01-7.85732E+00
 -1      5531-2.78214E+01 1.92558E+01-5.18548E+00
 -1      5532-2.59405E+01 1.92558E+01-5.18548E+00
 -1      5533-2.40595E+01 1.92558E+01-5.18548E+00
 -1      5534-2.21786E+01 1.92558E+01-5.18548E+00
 -1      5535-2.75396E+01 1.80817E+01-6.16023E+00
 -1      5536-2.58465E+01 1.80817E+01-6.16023E+00
 -1      5537-2.41535E+01 1.80817E+01-6.16023E+00
 -1      5538-2.24604E+01 1.80817E+01-6.16023E+00
 -1      5539-2.71871E+01 1.66128E+01-6.78598E+00
 -1      5540-2.57290E+01 1.66128E+01-6.78598E+00
 -1      5541-2.42710E+01 1.66128E+01-6.78598E+00
 -1      5542-2.28129E+01 1.66128E+01-6.78598E+00
 -1      5543-2.78619E+01 1.94244E+01-3.58064E+00
 -1      5544-2.59540E+01 1.94244E+01-3.58064E+00
 -1      5545-2.40460E+01 1.94244E+01-3.58064E+00
 -1      5546-2.21381E+01 1.94244E+01-3.58064E+00
 -1      5547-2.75861E+01 1.82756E+01-4.88031E+00
 -1      5548-2.58620E+01 1.82756E+01-4.88031E+00
 -1      5549-2.41380E+01 1.82756E+01-4.88031E+00
 -1      5550-2.24139E+01 1.82756E+01-4.88031E+00
 -1      5551-2.72161E+01 1.67337E+01-5.71464E+00
 -1      5552-2.57387E+01 1.67337E+01-5.71464E+00
 -1      5553-2.42613E+01 1.67337E+01-5.71464E+00
 -1      5554-2.27839E+01 1.67337E+01-5.71464E+00
 -1      5555-2.22494E+01 1.10392E+01 7.99395E+00
 -1      5556-2.21988E+01 1.08285E+01 5.98790E+00
 -1      5557-2.21482E+01 1.06177E+01 3.98185E+00
 -1      5558-2.25418E+01 1.22576E+01 8.40009E+00
 -1      5559-2.24837E+01 1.20153E+01 6.80019E+00
 -1      5560-2.24255E+01 1.17729E+01 5.20029E+00
 -1      5561-2.28637E+01 1.35988E+01 8.66082E+00
 -1      5562-2.28274E+01 1.34477E+01 7.32165E+00
 -1      5563-2.27912E+01 1.32965E+01 5.98247E+00
 -1      5564-2.40831E+01 1.10392E+01 7.99395E+00
 -1      5565-2.40663E+01 1.08285E+01 5.98790E+00
 -1      5566-2.40494E+01 1.06177E+01 3.98185E+00
 -1      5567-2.41806E+01 1.22576E+01 8.40009E+00
 -1      5568-2.41612E+01 1.20153E+01 6.80019E+00
 -1      5569-2.41418E+01 1.17729E+01 5.20029E+00
 -1      5570-2.42879E+01 1.35988E+01 8.66082E+00
 -1      5571-2.42758E+01 1.34477E+01 7.32165E+00
 -1      5572-2.42637E+01 1.32965E+01 5.98247E+00
 -1      5573-2.59169E+01 1.10392E+01 7.99395E+00
 -1      5574-2.59337E+01 1.08285E+01 5.98790E+00
 -1      5575-2.59506E+01 1.06177E+01 3.98185E+00
 -1      5576-2.58194E+01 1.22576E+01 8.40010E+00
 -1      5577-2.58388E+01 1.20153E+01 6.80019E+00
 -1      5578-2.58582E+01 1.17729E+01 5.20029E+00
 -1      5579-2.57121E+01 1.35988E+01 8.66082E+00
 -1      5580-2.57242E+01 1.34477E+01 7.32165E+00
 -1      5581-2.57363E+01 1.32965E+01 5.98247E+00
 -1      5582-2.77506E+01 1.10392E+01 7.99395E+00
 -1      5583-2.78012E+01 1.08285E+01 5.98790E+00
 -1      5584-2.78518E+01 1.06177E+01 3.98185E+00
 -1      5585-2.74582E+01 1.22576E+01 8.40010E+00
 -1      5586-2.75163E+01 1.20153E+01 6.80019E+00
 -1      5587-2.75745E+01 1.17729E+01 5.20029E+00
 -1      5588-2.71363E+01 1.35988E+01 8.66082E+00
 -1      5589-2.71726E+01 1.34477E+01 7.32165E+00
 -1      5590-2.72088E+01 1.32965E+01 5.98247E+00
 -1      5591-2.20000E+01 8.00000E+00 2.50000E+00
 -1      5592-2.40000E+01 8.00000E+00 2.50000E+00
 -1      5593-2.60000E+01 8.00000E+00 2.50000E+00
 -1      5594-2.80000E+01 8.00000E+00 2.50000E+00
 -1      5595-2.20000E+01 8.00000E+00 5.00000E+00
 -1      5596-2.40000E+01 8.00000E+00 5.00000E+00
 -1      5597-2.60000E+01 8.00000E+00 5.00000E+00
 -1      5598-2.80000E+01 8.00000E+00 5.00000E+00
 -1      5599-2.20000E+01 8.00000E+00 7.50000E+00
 -1      5600-2.40000E+01 8.00000E+00 7.50000E+00
 -1      5601-2.60000E+01 8.00000E+00 7.50000E+00
 -1      5602-2.80000E+01 8.00000E+00 7.50000E+00
 -1      5603-2.20000E+01 6.00000E+00 2.50000E+00
 -1      5604-2.40000E+01 6.00000E+00 2.50000E+00
 -1      5605-2.60000E+01 6.00000E+00 2.50000E+00
 -1      5606-2.80000E+01 6.00000E+00 2.50000E+00
 -1      5607-2.20000E+01 6.00000E+00 5.00000E+00
 -1      5608-2.40000E+01 6.00000E+00 5.00000E+00
 -1      5609-2.60000E+01 6.00000E+00 5.00000E+00
 -1      5610-2.80000E+01 6.00000E+00 5.00000E+00
 -1      5611-2.20000E+01 6.00000E+00 7.50000E+00
 -1      5612-2.40000E+01 6.00000E+00 7.50000E+00
 -1      5613-2.60000E+01 6.00000E+00 7.50000E+00
 -1      5614-2.80000E+01 6.00000E+00 7.50000E+00
 -1      5615-2.20000E+01 4.00000E+00 2.50000E+00
 -1      5616-2.40000E+01 4.00000E+00 2.50000E+00
 -1      5617-2.60000E+01 4.00000E+00 2.50000E+00
 -1      5618-2.80000E+01 4.00000E+00 2.50000E+00
 -1      5619-2.20000E+01 4.00000E+00 5.00000E+00
 -1      5620-2.40000E+01 4.00000E+00 5.00000E+00
 -1      5621-2.60000E+01 4.00000E+00 5.00000E+00
 -1      5622-2.80000E+01 4.00000E+00 5.00000E+00
 -1      5623-2.20000E+01 4.00000E+00 7.50000E+00
 -1      5624-2.40000E+01 4.00000E+00 7.50000E+00
 -1      5625-2.60000E+01 4.00000E+00 7.50000E+00
 -1      5626-2.80000E+01 4.00000E+00 7.50000E+00
 -1      5627-2.20000E+01 2.00000E+00 2.50000E+00
 -1      5628-2.40000E+01 2.00000E+00 2.50000E+00
 -1      5629-2.60000E+01 2.00000E+00 2.50000E+00
 -1      5630-2.80000E+01 2.00000E+00 2.50000E+00
 -1      5631-2.20000E+01 2.00000E+00 5.00000E+00
 -1      5632-2.40000E+01 2.00000E+00 5.00000E+00
 -1      5633-2.60000E+01 2.00000E+00 5.00000E+00
 -1      5634-2.80000E+01 2.00000E+00 5.00000E+00
 -1      5635-2.20000E+01 2.00000E+00 7.50000E+00
 -1      5636-2.40000E+01 2.00000E+00 7.50000E+00
 -1      5637-2.60000E+01 2.00000E+00 7.50000E+00
 -1      5638-2.80000E+01 2.00000E+00 7.50000E+00
 -1      5639 2.80000E+01 8.00000E+00 2.50000E+00
 -1      5640 2.60000E+01 8.00000E+00 2.50000E+00
 -1      5641 2.40000E+01 8.00000E+00 2.50000E+00
 -1      5642 2.20000E+01 8.00000E+00 2.50000E+00
 -1      5643 2.80000E+01 8.00000E+00 5.00000E+00
 -1      5644 2.60000E+01 8.00000E+00 5.00000E+00
 -1      5645 2.40000E+01 8.00000E+00 5.00000E+00
 -1      5646 2.20000E+01 8.00000E+00 5.00000E+00
 -1      5647 2.80000E+01 8.00000E+00 7.50000E+00
 -1      5648 2.60000E+01 8.00000E+00 7.50000E+00
 -1      5649 2.40000E+01 8.00000E+00 7.50000E+00
 -1      5650 2.20000E+01 8.00000E+00 7.50000E+00
 -1      5651 2.80000E+01 6.00000E+00 2.50000E+00
 -1      5652 2.60000E+01 6.00000E+00 2.50000E+00
 -1      5653 2.40000E+01 6.00000E+00 2.50000E+00
 -1      5654 2.20000E+01 6.00000E+00 2.50000E+00
 -1      5655 2.80000E+01 6.00000E+00 5.00000E+00
 -1      5656 2.60000E+01 6.00000E+00 5.00000E+00
 -1      5657 2.40000E+01 6.00000E+00 5.00000E+00
 -1      5658 2.20000E+01 6.00000E+00 5.00000E+00
 -1      5659 2.80000E+01 6.00000E+00 7.50000E+00
 -1      5660 2.60000E+01 6.00000E+00 7.50000E+00
 -1      5661 2.40000E+01 6.00000E+00 7.50000E+00
 -1      5662 2.20000E+01 6.00000E+00 7.50000E+00
 -1      5663 2.80000E+01 4.00000E+00 2.50000E+00
 -1      5664 2.60000E+01 4.00000E+00 2.50000E+00
 -1      5665 2.40000E+01 4.00000E+00 2.50000E+00
 -1      5666 2.20000E+01 4.00000E+00 2.50000E+00
 -1      5667 2.80000E+01 4.00000E+00 5.00000E+00
 -1      5668 2.60000E+01 4.00000E+00 5.00000E+00
 -1      5669 2.40000E+01 4.00000E+00 5.00000E+00
 -1      5670 2.20000E+01 4.00000E+00 5.00000E+00
 -1      5671 2.80000E+01 4.00000E+00 7.50000E+00
 -1      5672 2.60000E+01 4.00000E+00 7.50000E+00
 -1      5673 2.40000E+01 4.00000E+00 7.50000E+00
 -1      5674 2.20000E+01 4.00000E+00 7.50000E+00
 -1      5675 2.80000E+01 2.00000E+00 2.50000E+00
 -1      5676 2.60000E+01 2.00000E+00 2.50000E+00
 -1      5677 2.40000E+01 2.00000E+00 2.50000E+00
 -1      5678 2.20000E+01 2.00000E+00 2.50000E+00
 -1      5679 2.80000E+01 2.00000E+00 5.00000E+00
 -1      5680 2.60000E+01 2.00000E+00 5.00000E+00
 -1      5681 2.40000E+01 2.00000E+00 5.00000E+00
 -1      5682 2.20000E+01 2.00000E+00 5.00000E+00
 -1      5683 2.80000E+01 2.00000E+00 7.50000E+00
 -1      5684 2.60000E+01 2.00000E+00 7.50000E+00
 -1      5685 2.40000E+01 2.00000E+00 7.50000E+00
 -1      5686 2.20000E+01 2.00000E+00 7.50000E+00
 -1      5687 2.28637E+01 1.35988E+01 8.66082E+00
 -1      5688 2.28274E+01 1.34477E+01 7.32165E+00
 -1      5689 2.27912E+01 1.32965E+01 5.98247E+00
 -1      5690 2.25418E+01 1.22576E+01 8.40010E+00
 -1      5691 2.24837E+01 1.20153E+01 6.80019E+00
 -1      5692 2.24255E+01 1.17729E+01 5.20029E+00
 -1      5693 2.22494E+01 1.10392E+01 7.99395E+00
 -1      5694 2.21988E+01 1.08285E+01 5.98790E+00
 -1      5695 2.21482E+01 1.06177E+01 3.98185E+00
 -1      5696 2.42879E+01 1.35988E+01 8.66082E+00
 -1      5697 2.42758E+01 1.34477E+01 7.32165E+00
 -1      5698 2.42637E+01 1.32965E+01 5.98247E+00
 -1      5699 2.41806E+01 1.22576E+01 8.40010E+00
 -1      5700 2.41612E+01 1.20153E+01 6.80019E+00
 -1      5701 2.41418E+01 1.17729E+01 5.20029E+00
 -1      5702 2.40831E+01 1.10392E+01 7.99395E+00
 -1      5703 2.40663E+01 1.08285E+01 5.98790E+00
 -1      5704 2.40494E+01 1.06177E+01 3.98185E+00
 -1      5705 2.57121E+01 1.35988E+01 8.66082E+00
 -1      5706 2.57242E+01 1.34477E+01 7.32165E+00
 -1      5707 2.57363E+01 1.32965E+01 5.98247E+00
 -1      5708 2.58194E+01 1.22576E+01 8.40009E+00
 -1      5709 2.58388E+01 1.20153E+01 6.80019E+00
 -1      5710 2.58582E+01 1.17729E+01 5.20029E+00
 -1      5711 2.59169E+01 1.10392E+01 7.99395E+00
 -1      5712 2.59337E+01 1.08285E+01 5.98790E+00
 -1      5713 2.59506E+01 1.06177E+01 3.98185E+00
 -1      5714 2.71363E+01 1.35988E+01 8.66082E+00
 -1      5715 2.71726E+01 1.34477E+01 7.32165E+00
 -1      5716 2.72088E+01 1.32965E+01 5.98247E+00
 -1      5717 2.74582E+01 1.22576E+01 8.40009E+00
 -1      5718 2.75163E+01 1.20153E+01 6.80019E+00
 -1      5719 2.75745E+01 1.17729E+01 5.20029E+00
 -1      5720 2.77506E+01 1.10392E+01 7.99395E+00
 -1      5721 2.78012E+01 1.08285E+01 5.98790E+00
 -1      5722 2.78518E+01 1.06177E+01 3.98185E+00
 -1      5723 2.20000E+01 8.00000E+00-8.00000E+00
 -1      5724 2.40000E+01 8.00000E+00-8.00000E+00
 -1      5725 2.60000E+01 8.00000E+00-8.00000E+00
 -1      5726 2.80000E+01 8.00000E+00-8.00000E+00
 -1      5727 2.20000E+01 6.00000E+00-8.00000E+00
 -1      5728 2.40000E+01 6.00000E+00-8.00000E+00
 -1      5729 2.60000E+01 6.00000E+00-8.00000E+00
 -1      5730 2.80000E+01 6.00000E+00-8.00000E+00
 -1      5731 2.20000E+01 4.00000E+00-8.00000E+00
 -1      5732 2.40000E+01 4.00000E+00-8.00000E+00
 -1      5733 2.60000E+01 4.00000E+00-8.00000E+00
 -1      5734 2.80000E+01 4.00000E+00-8.00000E+00
 -1      5735 2.20000E+01 2.00000E+00-8.00000E+00
 -1      5736 2.40000E+01 2.00000E+00-8.00000E+00
 -1      5737 2.60000E+01 2.00000E+00-8.00000E+00
 -1      5738 2.80000E+01 2.00000E+00-8.00000E+00
 -1      5739 2.20000E+01 8.00000E+00-6.00000E+00
 -1      5740 2.40000E+01 8.00000E+00-6.00000E+00
 -1      5741 2.60000E+01 8.00000E+00-6.00000E+00
 -1      5742 2.80000E+01 8.00000E+00-6.00000E+00
 -1      5743 2.20000E+01 6.00000E+00-6.00000E+00
 -1      5744 2.40000E+01 6.00000E+00-6.00000E+00
 -1      5745 2.60000E+01 6.00000E+00-6.00000E+00
 -1      5746 2.80000E+01 6.00000E+00-6.00000E+00
 -1      5747 2.20000E+01 4.00000E+00-6.00000E+00
 -1      5748 2.40000E+01 4.00000E+00-6.00000E+00
 -1      5749 2.60000E+01 4.00000E+00-6.00000E+00
 -1      5750 2.80000E+01 4.00000E+00-6.00000E+00
 -1      5751 2.20000E+01 2.00000E+00-6.00000E+00
 -1      5752 2.40000E+01 2.00000E+00-6.00000E+00
 -1      5753 2.60000E+01 2.00000E+00-6.00000E+00
 -1      5754 2.80000E+01 2.00000E+00-6.00000E+00
 -1      5755 2.20000E+01 8.00000E+00-4.00000E+00
 -1      5756 2.40000E+01 8.00000E+00-4.00000E+00
 -1      5757 2.60000E+01 8.00000E+00-4.00000E+00
 -1      5758 2.80000E+01 8.00000E+00-4.00000E+00
 -1      5759 2.20000E+01 6.00000E+00-4.00000E+00
 -1      5760 2.40000E+01 6.00000E+00-4.00000E+00
 -1      5761 2.60000E+01 6.00000E+00-4.00000E+00
 -1      5762 2.80000E+01 6.00000E+00-4.00000E+00
 -1      5763 2.20000E+01 4.00000E+00-4.00000E+00
 -1      5764 2.40000E+01 4.00000E+00-4.00000E+00
 -1      5765 2.60000E+01 4.00000E+00-4.00000E+00
 -1      5766 2.80000E+01 4.00000E+00-4.00000E+00
 -1      5767 2.20000E+01 2.00000E+00-4.00000E+00
 -1      5768 2.40000E+01 2.00000E+00-4.00000E+00
 -1      5769 2.60000E+01 2.00000E+00-4.00000E+00
 -1      5770 2.80000E+01 2.00000E+00-4.00000E+00
 -1      5771 2.20000E+01 8.00000E+00-2.00000E+00
 -1      5772 2.40000E+01 8.00000E+00-2.00000E+00
 -1      5773 2.60000E+01 8.00000E+00-2.00000E+00
 -1      5774 2.80000E+01 8.00000E+00-2.00000E+00
 -1      5775 2.20000E+01 6.00000E+00-2.00000E+00
 -1      5776 2.40000E+01 6.00000E+00-2.00000E+00
 -1      5777 2.60000E+01 6.00000E+00-2.00000E+00
 -1      5778 2.80000E+01 6.00000E+00-2.00000E+00
 -1      5779 2.20000E+01 4.00000E+00-2.00000E+00
 -1      5780 2.40000E+01 4.00000E+00-2.00000E+00
 -1      5781 2.60000E+01 4.00000E+00-2.00000E+00
 -1      5782 2.80000E+01 4.00000E+00-2.00000E+00
 -1      5783 2.20000E+01 2.00000E+00-2.00000E+00
 -1      5784 2.40000E+01 2.00000E+00-2.00000E+00
 -1      5785 2.60000E+01 2.00000E+00-2.00000E+00
 -1      5786 2.80000E+01 2.00000E+00-2.00000E+00
 -1      5787-2.80000E+01 2.00000E+00-2.00000E+00
 -1      5788-2.60000E+01 2.00000E+00-2.00000E+00
 -1      5789-2.40000E+01 2.00000E+00-2.00000E+00
 -1      5790-2.20000E+01 2.00000E+00-2.00000E+00
 -1      5791-2.80000E+01 4.00000E+00-2.00000E+00
 -1      5792-2.60000E+01 4.00000E+00-2.00000E+00
 -1      5793-2.40000E+01 4.00000E+00-2.00000E+00
 -1      5794-2.20000E+01 4.00000E+00-2.00000E+00
 -1      5795-2.80000E+01 6.00000E+00-2.00000E+00
 -1      5796-2.60000E+01 6.00000E+00-2.00000E+00
 -1      5797-2.40000E+01 6.00000E+00-2.00000E+00
 -1      5798-2.20000E+01 6.00000E+00-2.00000E+00
 -1      5799-2.80000E+01 8.00000E+00-2.00000E+00
 -1      5800-2.60000E+01 8.00000E+00-2.00000E+00
 -1      5801-2.40000E+01 8.00000E+00-2.00000E+00
 -1      5802-2.20000E+01 8.00000E+00-2.00000E+00
 -1      5803-2.80000E+01 2.00000E+00-4.00000E+00
 -1      5804-2.60000E+01 2.00000E+00-4.00000E+00
 -1      5805-2.40000E+01 2.00000E+00-4.00000E+00
 -1      5806-2.20000E+01 2.00000E+00-4.00000E+00
 -1      5807-2.80000E+01 4.00000E+00-4.00000E+00
 -1      5808-2.60000E+01 4.00000E+00-4.00000E+00
 -1      5809-2.40000E+01 4.00000E+00-4.00000E+00
 -1      5810-2.20000E+01 4.00000E+00-4.00000E+00
 -1      5811-2.80000E+01 6.00000E+00-4.00000E+00
 -1      5812-2.60000E+01 6.00000E+00-4.00000E+00
 -1      5813-2.40000E+01 6.00000E+00-4.00000E+00
 -1      5814-2.20000E+01 6.00000E+00-4.00000E+00
 -1      5815-2.80000E+01 8.00000E+00-4.00000E+00
 -1      5816-2.60000E+01 8.00000E+00-4.00000E+00
 -1      5817-2.40000E+01 8.00000E+00-4.00000E+00
 -1      5818-2.20000E+01 8.00000E+00-4.00000E+00
 -1      5819-2.80000E+01 2.00000E+00-6.00000E+00
 -1      5820-2.60000E+01 2.00000E+00-6.00000E+00
 -1      5821-2.40000E+01 2.00000E+00-6.00000E+00
 -1      5822-2.20000E+01 2.00000E+00-6.00000E+00
 -1      5823-2.80000E+01 4.00000E+00-6.00000E+00
 -1      5824-2.60000E+01 4.00000E+00-6.00000E+00
 -1      5825-2.40000E+01 4.00000E+00-6.00000E+00
 -1      5826-2.20000E+01 4.00000E+00-6.00000E+00
 -1      5827-2.80000E+01 6.00000E+00-6.00000E+00
 -1      5828-2.60000E+01 6.00000E+00-6.00000E+00
 -1      5829-2.40000E+01 6.00000E+00-6.00000E+00
 -1      5830-2.20000E+01 6.00000E+00-6.00000E+00
 -1      5831-2.80000E+01 8.00000E+00-6.00000E+00
 -1      5832-2.60000E+01 8.00000E+00-6.00000E+00
 -1      5833-2.40000E+01 8.00000E+00-6.00000E+00
 -1      5834-2.20000E+01 8.00000E+00-6.00000E+00
 -1      5835-2.80000E+01 2.00000E+00-8.00000E+00
 -1      5836-2.60000E+01 2.00000E+00-8.00000E+00
 -1      5837-2.40000E+01 2.00000E+00-8.00000E+00
 -1      5838-2.20000E+01 2.00000E+00-8.00000E+00
 -1      5839-2.80000E+01 4.00000E+00-8.00000E+00
 -1      5840-2.60000E+01 4.00000E+00-8.00000E+00
 -1      5841-2.40000E+01 4.00000E+00-8.00000E+00
 -1      5842-2.20000E+01 4.00000E+00-8.00000E+00
 -1      5843-2.80000E+01 6.00000E+00-8.00000E+00
 -1      5844-2.60000E+01 6.00000E+00-8.00000E+00
 -1      5845-2.40000E+01 6.00000E+00-8.00000E+00
 -1      5846-2.20000E+01 6.00000E+00-8.00000E+00
 -1      5847-2.80000E+01 8.00000E+00-8.00000E+00
 -1      5848-2.60000E+01 8.00000E+00-8.00000E+00
 -1      5849-2.40000E+01 8.00000E+00-8.00000E+00
 -1      5850-2.20000E+01 8.00000E+00-8.00000E+00
 -1      5851-2.71290E+01 1.36291E+01-8.92866E+00
 -1      5852-2.57097E+01 1.36291E+01-8.92866E+00
 -1      5853-2.42903E+01 1.36291E+01-8.92866E+00
 -1      5854-2.28710E+01 1.36291E+01-8.92866E+00
 -1      5855-2.74465E+01 1.23061E+01-8.72008E+00
 -1      5856-2.58155E+01 1.23061E+01-8.72008E+00
 -1      5857-2.41845E+01 1.23061E+01-8.72008E+00
 -1      5858-2.25535E+01 1.23061E+01-8.72008E+00
 -1      5859-2.77405E+01 1.10814E+01-8.39516E+00
 -1      5860-2.59135E+01 1.10814E+01-8.39516E+00
 -1      5861-2.40865E+01 1.10814E+01-8.39516E+00
 -1      5862-2.22595E+01 1.10814E+01-8.39516E+00
 -1      5863-2.71580E+01 1.35081E+01-7.85732E+00
 -1      5864-2.57193E+01 1.35081E+01-7.85732E+00
 -1      5865-2.42807E+01 1.35081E+01-7.85732E+00
 -1      5866-2.28420E+01 1.35081E+01-7.85732E+00
 -1      5867-2.74931E+01 1.21122E+01-7.44015E+00
 -1      5868-2.58310E+01 1.21122E+01-7.44015E+00
 -1      5869-2.41690E+01 1.21122E+01-7.44015E+00
 -1      5870-2.25069E+01 1.21122E+01-7.44015E+00
 -1      5871-2.77809E+01 1.09128E+01-6.79032E+00
 -1      5872-2.59270E+01 1.09128E+01-6.79032E+00
 -1      5873-2.40730E+01 1.09128E+01-6.79032E+00
 -1      5874-2.22191E+01 1.09128E+01-6.79032E+00
 -1      5875-2.71871E+01 1.33872E+01-6.78598E+00
 -1      5876-2.57290E+01 1.33872E+01-6.78598E+00
 -1      5877-2.42710E+01 1.33872E+01-6.78598E+00
 -1      5878-2.28129E+01 1.33872E+01-6.78598E+00
 -1      5879-2.75396E+01 1.19183E+01-6.16023E+00
 -1      5880-2.58465E+01 1.19183E+01-6.16023E+00
 -1      5881-2.41535E+01 1.19183E+01-6.16023E+00
 -1      5882-2.24604E+01 1.19183E+01-6.16023E+00
 -1      5883-2.78214E+01 1.07442E+01-5.18548E+00
 -1      5884-2.59405E+01 1.07442E+01-5.18548E+00
 -1      5885-2.40595E+01 1.07442E+01-5.18548E+00
 -1      5886-2.21786E+01 1.07442E+01-5.18548E+00
 -1      5887-2.72161E+01 1.32663E+01-5.71464E+00
 -1      5888-2.57387E+01 1.32663E+01-5.71464E+00
 -1      5889-2.42613E+01 1.32663E+01-5.71464E+00
 -1      5890-2.27839E+01 1.32663E+01-5.71464E+00
 -1      5891-2.75861E+01 1.17244E+01-4.88031E+00
 -1      5892-2.58620E+01 1.17244E+01-4.88031E+00
 -1      5893-2.41380E+01 1.17244E+01-4.88031E+00
 -1      5894-2.24139E+01 1.17244E+01-4.88031E+00
 -1      5895-2.78619E+01 1.05755E+01-3.58064E+00
 -1      5896-2.59540E+01 1.05755E+01-3.58064E+00
 -1      5897-2.40460E+01 1.05756E+01-3.58064E+00
 -1      5898-2.21381E+01 1.05756E+01-3.58064E+00
 -3
    3C                          4320                                     1
 -1         1    1    0    1
 -2       173      1138      3463      1018         1        79       915        89
 -1         2    1    0    1
 -2      1138      1139      3464      3463        79        80       916       915
 -1         3    1    0    1
 -2      1139      1140      3465      3464        80        81       917       916
 -1         4    1    0    1
 -2      1140      1141      3466      3465        81        82       918       917
 -1         5    1    0    1
 -2      1141       178      1078      3466        82         2        83       918
 -1         6    1    0    1
 -2      1018      3463      3467      1019        89       915       919        88
 -1         7    1    0    1
 -2      3463      3464      3468      3467       915       916       920       919
 -1         8    1    0    1
 -2      3464      3465      3469      3468       916       917       921       920
 -1         9    1    0    1
 -2      3465      3466      3470      3469       917       918       922       921
 -1        10    1    0    1
 -2      3466      1078      1079      3470       918        83        84       922
 -1        11    1    0    1
 -2      1019      3467      3471      1020        88       919        86         5
 -1        12    1    0    1
 -2      3467      3468      3472      3471       919       920        85        86
 -1        13    1    0    1
 -2      3468      3469      3473      3472       920       921         3        85
 -1        14    1    0    1
 -2      3469      3470      3474      3473       921       922        87         3
 -1        15    1    0    1
 -2      3470      1079      1080      3474       922        84         4        87
 -1        16    1    0    1
 -2      1020      3471      3475      1021         5        86       932       109
 -1        17    1    0    1
 -2      3471      3472      3476      3475        86        85       923       932
 -1        18    1    0    1
 -2      3472      3473      3477      3476        85         3        90       923
 -1        19    1    0    1
 -2      3473      3474      3478      3477         3        87       949        90
 -1        20    1    0    1
 -2      3474      1080      1081      3478        87         4       110       949
 -1        21    1    0    1
 -2      1021      3475      3479      1022       109       932       933       108
 -1        22    1    0    1
 -2      3475      3476      3480      3479       932       923       924       933
 -1        23    1    0    1
 -2      3476      3477      3481      3480       923        90        91       924
 -1        24    1    0    1
 -2      3477      3478      3482      3481        90       949       948        91
 -1        25    1    0    1
 -2      3478      1081      1082      3482       949       110       111       948
 -1        26    1    0    1
 -2      1022      3479      3483      1023       108       933       934       107
 -1        27    1    0    1
 -2      3479      3480      3484      3483       933       924       925       934
 -1        28    1    0    1
 -2      3480      3481      3485      3484       924        91        92       925
 -1        29    1    0    1
 -2      3481      3482      3486      3485        91       948       947        92
 -1        30    1    0    1
 -2      3482      1082      1083      3486       948       111       112       947
 -1        31    1    0    1
 -2      1023      3483      3487      1024       107       934       935       106
 -1        32    1    0    1
 -2      3483      3484      3488      3487       934       925       926       935
 -1        33    1    0    1
 -2      3484      3485      3489      3488       925        92        93       926
 -1        34    1    0    1
 -2      3485      3486      3490      3489        92       947       946        93
 -1        35    1    0    1
 -2      3486      1083      1084      3490       947       112       113       946
 -1        36    1    0    1
 -2      1024      3487      3491      1025       106       935       936       105
 -1        37    1    0    1
 -2      3487      3488      3492      3491       935       926       927       936
 -1        38    1    0    1
 -2      3488      3489      3493      3492       926        93        94       927
 -1        39    1    0    1
 -2      3489      3490      3494      3493        93       946       945        94
 -1        40    1    0    1
 -2      3490      1084      1085      3494       946       113       114       945
 -1        41    1    0    1
 -2      1025      3491      3495      1026       105       936       937       104
 -1        42    1    0    1
 -2      3491      3492      3496      3495       936       927       928       937
 -1        43    1    0    1
 -2      3492      3493      3497      3496       927        94        95       928
 -1        44    1    0    1
 -2      3493      3494      3498      3497        94       945       944        95
 -1        45    1    0    1
 -2      3494      1085      1086      3498       945       114       115       944
 -1        46    1    0    1
 -2      1026      3495      3499      1027       104       937       938       103
 -1        47    1    0    1
 -2      3495      3496      3500      3499       937       928       929       938
 -1        48    1    0    1
 -2      3496      3497      3501      3500       928        95        96       929
 -1        49    1    0    1
 -2      3497      3498      3502      3501        95       944       943        96
 -1        50    1    0    1
 -2      3498      1086      1087      3502       944       115       116       943
 -1        51    1    0    1
 -2      1027      3499      3503      1028       103       938       939       102
 -1        52    1    0    1
 -2      3499      3500      3504      3503       938       929       930       939
 -1        53    1    0    1
 -2      3500      3501      3505      3504       929        96        97       930
 -1        54    1    0    1
 -2      3501      3502      3506      3505        96       943       942        97
 -1        55    1    0    1
 -2      3502      1087      1088      3506       943       116       117       942
 -1        56    1    0    1
 -2      1028      3503      3507      1029       102       939       940       101
 -1        57    1    0    1
 -2      3503      3504      3508      3507       939       930       931       940
 -1        58    1    0    1
 -2      3504      3505      3509      3508       930        97        98       931
 -1        59    1    0    1
 -2      3505      3506      3510      3509        97       942       941        98
 -1        60    1    0    1
 -2      3506      1088      1089      3510       942       117       118       941
 -1        61    1    0    1
 -2      1029      3507      3511      1030       101       940       100         7
 -1        62    1    0    1
 -2      3507      3508      3512      3511       940       931        99       100
 -1        63    1    0    1
 -2      3508      3509      3513      3512       931        98         6        99
 -1        64    1    0    1
 -2      3509      3510      3514      3513        98       941       119         6
 -1        65    1    0    1
 -2      3510      1089      1090      3514       941       118         8       119
 -1        66    1    0    1
 -2      1030      3511      3515      1031         7       100       950       127
 -1        67    1    0    1
 -2      3511      3512      3516      3515       100        99       951       950
 -1        68    1    0    1
 -2      3512      3513      3517      3516        99         6       952       951
 -1        69    1    0    1
 -2      3513      3514      3518      3517         6       119       953       952
 -1        70    1    0    1
 -2      3514      1090      1091      3518       119         8       120       953
 -1        71    1    0    1
 -2      1031      3515      3519      1032       127       950       954       126
 -1        72    1    0    1
 -2      3515      3516      3520      3519       950       951       955       954
 -1        73    1    0    1
 -2      3516      3517      3521      3520       951       952       956       955
 -1        74    1    0    1
 -2      3517      3518      3522      3521       952       953       957       956
 -1        75    1    0    1
 -2      3518      1091      1092      3522       953       120       121       957
 -1        76    1    0    1
 -2      1032      3519      1154       166       126       954       125        10
 -1        77    1    0    1
 -2      3519      3520      1155      1154       954       955       124       125
 -1        78    1    0    1
 -2      3520      3521      1156      1155       955       956       123       124
 -1        79    1    0    1
 -2      3521      3522      1157      1156       956       957       122       123
 -1        80    1    0    1
 -2      3522      1092       177      1157       957       121         9       122
 -1        81    1    0    1
 -2       172      1142      3523      1033       173      1138      3463      1018
 -1        82    1    0    1
 -2      1142      1143      3524      3523      1138      1139      3464      3463
 -1        83    1    0    1
 -2      1143      1144      3525      3524      1139      1140      3465      3464
 -1        84    1    0    1
 -2      1144      1145      3526      3525      1140      1141      3466      3465
 -1        85    1    0    1
 -2      1145       179      1093      3526      1141       178      1078      3466
 -1        86    1    0    1
 -2      1033      3523      3527      1034      1018      3463      3467      1019
 -1        87    1    0    1
 -2      3523      3524      3528      3527      3463      3464      3468      3467
 -1        88    1    0    1
 -2      3524      3525      3529      3528      3464      3465      3469      3468
 -1        89    1    0    1
 -2      3525      3526      3530      3529      3465      3466      3470      3469
 -1        90    1    0    1
 -2      3526      1093      1094      3530      3466      1078      1079      3470
 -1        91    1    0    1
 -2      1034      3527      3531      1035      1019      3467      3471      1020
 -1        92    1    0    1
 -2      3527      3528      3532      3531      3467      3468      3472      3471
 -1        93    1    0    1
 -2      3528      3529      3533      3532      3468      3469      3473      3472
 -1        94    1    0    1
 -2      3529      3530      3534      3533      3469      3470      3474      3473
 -1        95    1    0    1
 -2      3530      1094      1095      3534      3470      1079      1080      3474
 -1        96    1    0    1
 -2      1035      3531      3535      1036      1020      3471      3475      1021
 -1        97    1    0    1
 -2      3531      3532      3536      3535      3471      3472      3476      3475
 -1        98    1    0    1
 -2      3532      3533      3537      3536      3472      3473      3477      3476
 -1        99    1    0    1
 -2      3533      3534      3538      3537      3473      3474      3478      3477
 -1       100    1    0    1
 -2      3534      1095      1096      3538      3474      1080      1081      3478
 -1       101    1    0    1
 -2      1036      3535      3539      1037      1021      3475      3479      1022
 -1       102    1    0    1
 -2      3535      3536      3540      3539      3475      3476      3480      3479
 -1       103    1    0    1
 -2      3536      3537      3541      3540      3476      3477      3481      3480
 -1       104    1    0    1
 -2      3537      3538      3542      3541      3477      3478      3482      3481
 -1       105    1    0    1
 -2      3538      1096      1097      3542      3478      1081      1082      3482
 -1       106    1    0    1
 -2      1037      3539      3543      1038      1022      3479      3483      1023
 -1       107    1    0    1
 -2      3539      3540      3544      3543      3479      3480      3484      3483
 -1       108    1    0    1
 -2      3540      3541      3545      3544      3480      3481      3485      3484
 -1       109    1    0    1
 -2      3541      3542      3546      3545      3481      3482      3486      3485
 -1       110    1    0    1
 -2      3542      1097      1098      3546      3482      1082      1083      3486
 -1       111    1    0    1
 -2      1038      3543      3547      1039      1023      3483      3487      1024
 -1       112    1    0    1
 -2      3543      3544      3548      3547      3483      3484      3488      3487
 -1       113    1    0    1
 -2      3544      3545      3549      3548      3484      3485      3489      3488
 -1       114    1    0    1
 -2      3545      3546      3550      3549      3485      3486      3490      3489
 -1       115    1    0    1
 -2      3546      1098      1099      3550      3486      1083      1084      3490
 -1       116    1    0    1
 -2      1039      3547      3551      1040      1024      3487      3491      1025
 -1       117    1    0    1
 -2      3547      3548      3552      3551      3487      3488      3492      3491
 -1       118    1    0    1
 -2      3548      3549      3553      3552      3488      3489      3493      3492
 -1       119    1    0    1
 -2      3549      3550      3554      3553      3489      3490      3494      3493
 -1       120    1    0    1
 -2      3550      1099      1100      3554      3490      1084      1085      3494
 -1       121    1    0    1
 -2      1040      3551      3555      1041      1025      3491      3495      1026
 -1       122    1    0    1
 -2      3551      3552      3556      3555      3491      3492      3496      3495
 -1       123    1    0    1
 -2      3552      3553      3557      3556      3492      3493      3497      3496
 -1       124    1    0    1
 -2      3553      3554      3558      3557      3493      3494      3498      3497
 -1       125    1    0    1
 -2      3554      1100      1101      3558      3494      1085      1086      3498
 -1       126    1    0    1
 -2      1041      3555      3559      1042      1026      3495      3499      1027
 -1       127    1    0    1
 -2      3555      3556      3560      3559      3495      3496      3500      3499
 -1       128    1    0    1
 -2      3556      3557      3561      3560      3496      3497      3501      3500
 -1       129    1    0    1
 -2      3557      3558      3562      3561      3497      3498      3502      3501
 -1       130    1    0    1
 -2      3558      1101      1102      3562      3498      1086      1087      3502
 -1       131    1    0    1
 -2      1042      3559      3563      1043      1027      3499      3503      1028
 -1       132    1    0    1
 -2      3559      3560      3564      3563      3499      3500      3504      3503
 -1       133    1    0    1
 -2      3560      3561      3565      3564      3500      3501      3505      3504
 -1       134    1    0    1
 -2      3561      3562      3566      3565      3501      3502      3506      3505
 -1       135    1    0    1
 -2      3562      1102      1103      3566      3502      1087      1088      3506
 -1       136    1    0    1
 -2      1043      3563      3567      1044      1028      3503      3507      1029
 -1       137    1    0    1
 -2      3563      3564      3568      3567      3503      3504      3508      3507
 -1       138    1    0    1
 -2      3564      3565      3569      3568      3504      3505      3509      3508
 -1       139    1    0    1
 -2      3565      3566      3570      3569      3505      3506      3510      3509
 -1       140    1    0    1
 -2      3566      1103      1104      3570      3506      1088      1089      3510
 -1       141    1    0    1
 -2      1044      3567      3571      1045      1029      3507      3511      1030
 -1       142    1    0    1
 -2      3567      3568      3572      3571      3507      3508      3512      3511
 -1       143    1    0    1
 -2      3568      3569      3573      3572      3508      3509      3513      3512
 -1       144    1    0    1
 -2      3569      3570      3574      3573      3509      3510      3514      3513
 -1       145    1    0    1
 -2      3570      1104      1105      3574      3510      1089      1090      3514
 -1       146    1    0    1
 -2      1045      3571      3575      1046      1030      3511      3515      1031
 -1       147    1    0    1
 -2      3571      3572      3576      3575      3511      3512      3516      3515
 -1       148    1    0    1
 -2      3572      3573      3577      3576      3512      3513      3517      3516
 -1       149    1    0    1
 -2      3573      3574      3578      3577      3513      3514      3518      3517
 -1       150    1    0    1
 -2      3574      1105      1106      3578      3514      1090      1091      3518
 -1       151    1    0    1
 -2      1046      3575      3579      1047      1031      3515      3519      1032
 -1       152    1    0    1
 -2      3575      3576      3580      3579      3515      3516      3520      3519
 -1       153    1    0    1
 -2      3576      3577      3581      3580      3516      3517      3521      3520
 -1       154    1    0    1
 -2      3577      3578      3582      3581      3517      3518      3522      3521
 -1       155    1    0    1
 -2      3578      1106      1107      3582      3518      1091      1092      3522
 -1       156    1    0    1
 -2      1047      3579      1158       167      1032      3519      1154       166
 -1       157    1    0    1
 -2      3579      3580      1159      1158      3519      3520      1155      1154
 -1       158    1    0    1
 -2      3580      3581      1160      1159      3520      3521      1156      1155
 -1       159    1    0    1
 -2      3581      3582      1161      1160      3521      3522      1157      1156
 -1       160    1    0    1
 -2      3582      1107       176      1161      3522      1092       177      1157
 -1       161    1    0    1
 -2       171      1146      3583      1048       172      1142      3523      1033
 -1       162    1    0    1
 -2      1146      1147      3584      3583      1142      1143      3524      3523
 -1       163    1    0    1
 -2      1147      1148      3585      3584      1143      1144      3525      3524
 -1       164    1    0    1
 -2      1148      1149      3586      3585      1144      1145      3526      3525
 -1       165    1    0    1
 -2      1149       180      1108      3586      1145       179      1093      3526
 -1       166    1    0    1
 -2      1048      3583      3587      1049      1033      3523      3527      1034
 -1       167    1    0    1
 -2      3583      3584      3588      3587      3523      3524      3528      3527
 -1       168    1    0    1
 -2      3584      3585      3589      3588      3524      3525      3529      3528
 -1       169    1    0    1
 -2      3585      3586      3590      3589      3525      3526      3530      3529
 -1       170    1    0    1
 -2      3586      1108      1109      3590      3526      1093      1094      3530
 -1       171    1    0    1
 -2      1049      3587      3591      1050      1034      3527      3531      1035
 -1       172    1    0    1
 -2      3587      3588      3592      3591      3527      3528      3532      3531
 -1       173    1    0    1
 -2      3588      3589      3593      3592      3528      3529      3533      3532
 -1       174    1    0    1
 -2      3589      3590      3594      3593      3529      3530      3534      3533
 -1       175    1    0    1
 -2      3590      1109      1110      3594      3530      1094      1095      3534
 -1       176    1    0    1
 -2      1050      3591      3595      1051      1035      3531      3535      1036
 -1       177    1    0    1
 -2      3591      3592      3596      3595      3531      3532      3536      3535
 -1       178    1    0    1
 -2      3592      3593      3597      3596      3532      3533      3537      3536
 -1       179    1    0    1
 -2      3593      3594      3598      3597      3533      3534      3538      3537
 -1       180    1    0    1
 -2      3594      1110      1111      3598      3534      1095      1096      3538
 -1       181    1    0    1
 -2      1051      3595      3599      1052      1036      3535      3539      1037
 -1       182    1    0    1
 -2      3595      3596      3600      3599      3535      3536      3540      3539
 -1       183    1    0    1
 -2      3596      3597      3601      3600      3536      3537      3541      3540
 -1       184    1    0    1
 -2      3597      3598      3602      3601      3537      3538      3542      3541
 -1       185    1    0    1
 -2      3598      1111      1112      3602      3538      1096      1097      3542
 -1       186    1    0    1
 -2      1052      3599      3603      1053      1037      3539      3543      1038
 -1       187    1    0    1
 -2      3599      3600      3604      3603      3539      3540      3544      3543
 -1       188    1    0    1
 -2      3600      3601      3605      3604      3540      3541      3545      3544
 -1       189    1    0    1
 -2      3601      3602      3606      3605      3541      3542      3546      3545
 -1       190    1    0    1
 -2      3602      1112      1113      3606      3542      1097      1098      3546
 -1       191    1    0    1
 -2      1053      3603      3607      1054      1038      3543      3547      1039
 -1       192    1    0    1
 -2      3603      3604      3608      3607      3543      3544      3548      3547
 -1       193    1    0    1
 -2      3604      3605      3609      3608      3544      3545      3549      3548
 -1       194    1    0    1
 -2      3605      3606      3610      3609      3545      3546      3550      3549
 -1       195    1    0    1
 -2      3606      1113      1114      3610      3546      1098      1099      3550
 -1       196    1    0    1
 -2      1054      3607      3611      1055      1039      3547      3551      1040
 -1       197    1    0    1
 -2      3607      3608      3612      3611      3547      3548      3552      3551
 -1       198    1    0    1
 -2      3608      3609      3613      3612      3548      3549      3553      3552
 -1       199    1    0    1
 -2      3609      3610      3614      3613      3549      3550      3554      3553
 -1       200    1    0    1
 -2      3610      1114      1115      3614      3550      1099      1100      3554
 -1       201    1    0    1
 -2      1055      3611      3615      1056      1040      3551      3555      1041
 -1       202    1    0    1
 -2      3611      3612      3616      3615      3551      3552      3556      3555
 -1       203    1    0    1
 -2      3612      3613      3617      3616      3552      3553      3557      3556
 -1       204    1    0    1
 -2      3613      3614      3618      3617      3553      3554      3558      3557
 -1       205    1    0    1
 -2      3614      1115      1116      3618      3554      1100      1101      3558
 -1       206    1    0    1
 -2      1056      3615      3619      1057      1041      3555      3559      1042
 -1       207    1    0    1
 -2      3615      3616      3620      3619      3555      3556      3560      3559
 -1       208    1    0    1
 -2      3616      3617      3621      3620      3556      3557      3561      3560
 -1       209    1    0    1
 -2      3617      3618      3622      3621      3557      3558      3562      3561
 -1       210    1    0    1
 -2      3618      1116      1117      3622      3558      1101      1102      3562
 -1       211    1    0    1
 -2      1057      3619      3623      1058      1042      3559      3563      1043
 -1       212    1    0    1
 -2      3619      3620      3624      3623      3559      3560      3564      3563
 -1       213    1    0    1
 -2      3620      3621      3625      3624      3560      3561      3565      3564
 -1       214    1    0    1
 -2      3621      3622      3626      3625      3561      3562      3566      3565
 -1       215    1    0    1
 -2      3622      1117      1118      3626      3562      1102      1103      3566
 -1       216    1    0    1
 -2      1058      3623      3627      1059      1043      3563      3567      1044
 -1       217    1    0    1
 -2      3623      3624      3628      3627      3563      3564      3568      3567
 -1       218    1    0    1
 -2      3624      3625      3629      3628      3564      3565      3569      3568
 -1       219    1    0    1
 -2      3625      3626      3630      3629      3565      3566      3570      3569
 -1       220    1    0    1
 -2      3626      1118      1119      3630      3566      1103      1104      3570
 -1       221    1    0    1
 -2      1059      3627      3631      1060      1044      3567      3571      1045
 -1       222    1    0    1
 -2      3627      3628      3632      3631      3567      3568      3572      3571
 -1       223    1    0    1
 -2      3628      3629      3633      3632      3568      3569      3573      3572
 -1       224    1    0    1
 -2      3629      3630      3634      3633      3569      3570      3574      3573
 -1       225    1    0    1
 -2      3630      1119      1120      3634      3570      1104      1105      3574
 -1       226    1    0    1
 -2      1060      3631      3635      1061      1045      3571      3575      1046
 -1       227    1    0    1
 -2      3631      3632      3636      3635      3571      3572      3576      3575
 -1       228    1    0    1
 -2      3632      3633      3637      3636      3572      3573      3577      3576
 -1       229    1    0    1
 -2      3633      3634      3638      3637      3573      3574      3578      3577
 -1       230    1    0    1
 -2      3634      1120      1121      3638      3574      1105      1106      3578
 -1       231    1    0    1
 -2      1061      3635      3639      1062      1046      3575      3579      1047
 -1       232    1    0    1
 -2      3635      3636      3640      3639      3575      3576      3580      3579
 -1       233    1    0    1
 -2      3636      3637      3641      3640      3576      3577      3581      3580
 -1       234    1    0    1
 -2      3637      3638      3642      3641      3577      3578      3582      3581
 -1       235    1    0    1
 -2      3638      1121      1122      3642      3578      1106      1107      3582
 -1       236    1    0    1
 -2      1062      3639      1162       168      1047      3579      1158       167
 -1       237    1    0    1
 -2      3639      3640      1163      1162      3579      3580      1159      1158
 -1       238    1    0    1
 -2      3640      3641      1164      1163      3580      3581      1160      1159
 -1       239    1    0    1
 -2      3641      3642      1165      1164      3581      3582      1161      1160
 -1       240    1    0    1
 -2      3642      1122       175      1165      3582      1107       176      1161
 -1       241    1    0    1
 -2       170      1150      3643      1063       171      1146      3583      1048
 -1       242    1    0    1
 -2      1150      1151      3644      3643      1146      1147      3584      3583
 -1       243    1    0    1
 -2      1151      1152      3645      3644      1147      1148      3585      3584
 -1       244    1    0    1
 -2      1152      1153      3646      3645      1148      1149      3586      3585
 -1       245    1    0    1
 -2      1153       181      1123      3646      1149       180      1108      3586
 -1       246    1    0    1
 -2      1063      3643      3647      1064      1048      3583      3587      1049
 -1       247    1    0    1
 -2      3643      3644      3648      3647      3583      3584      3588      3587
 -1       248    1    0    1
 -2      3644      3645      3649      3648      3584      3585      3589      3588
 -1       249    1    0    1
 -2      3645      3646      3650      3649      3585      3586      3590      3589
 -1       250    1    0    1
 -2      3646      1123      1124      3650      3586      1108      1109      3590
 -1       251    1    0    1
 -2      1064      3647      3651      1065      1049      3587      3591      1050
 -1       252    1    0    1
 -2      3647      3648      3652      3651      3587      3588      3592      3591
 -1       253    1    0    1
 -2      3648      3649      3653      3652      3588      3589      3593      3592
 -1       254    1    0    1
 -2      3649      3650      3654      3653      3589      3590      3594      3593
 -1       255    1    0    1
 -2      3650      1124      1125      3654      3590      1109      1110      3594
 -1       256    1    0    1
 -2      1065      3651      3655      1066      1050      3591      3595      1051
 -1       257    1    0    1
 -2      3651      3652      3656      3655      3591      3592      3596      3595
 -1       258    1    0    1
 -2      3652      3653      3657      3656      3592      3593      3597      3596
 -1       259    1    0    1
 -2      3653      3654      3658      3657      3593      3594      3598      3597
 -1       260    1    0    1
 -2      3654      1125      1126      3658      3594      1110      1111      3598
 -1       261    1    0    1
 -2      1066      3655      3659      1067      1051      3595      3599      1052
 -1       262    1    0    1
 -2      3655      3656      3660      3659      3595      3596      3600      3599
 -1       263    1    0    1
 -2      3656      3657      3661      3660      3596      3597      3601      3600
 -1       264    1    0    1
 -2      3657      3658      3662      3661      3597      3598      3602      3601
 -1       265    1    0    1
 -2      3658      1126      1127      3662      3598      1111      1112      3602
 -1       266    1    0    1
 -2      1067      3659      3663      1068      1052      3599      3603      1053
 -1       267    1    0    1
 -2      3659      3660      3664      3663      3599      3600      3604      3603
 -1       268    1    0    1
 -2      3660      3661      3665      3664      3600      3601      3605      3604
 -1       269    1    0    1
 -2      3661      3662      3666      3665      3601      3602      3606      3605
 -1       270    1    0    1
 -2      3662      1127      1128      3666      3602      1112      1113      3606
 -1       271    1    0    1
 -2      1068      3663      3667      1069      1053      3603      3607      1054
 -1       272    1    0    1
 -2      3663      3664      3668      3667      3603      3604      3608      3607
 -1       273    1    0    1
 -2      3664      3665      3669      3668      3604      3605      3609      3608
 -1       274    1    0    1
 -2      3665      3666      3670      3669      3605      3606      3610      3609
 -1       275    1    0    1
 -2      3666      1128      1129      3670      3606      1113      1114      3610
 -1       276    1    0    1
 -2      1069      3667      3671      1070      1054      3607      3611      1055
 -1       277    1    0    1
 -2      3667      3668      3672      3671      3607      3608      3612      3611
 -1       278    1    0    1
 -2      3668      3669      3673      3672      3608      3609      3613      3612
 -1       279    1    0    1
 -2      3669      3670      3674      3673      3609      3610      3614      3613
 -1       280    1    0    1
 -2      3670      1129      1130      3674      3610      1114      1115      3614
 -1       281    1    0    1
 -2      1070      3671      3675      1071      1055      3611      3615      1056
 -1       282    1    0    1
 -2      3671      3672      3676      3675      3611      3612      3616      3615
 -1       283    1    0    1
 -2      3672      3673      3677      3676      3612      3613      3617      3616
 -1       284    1    0    1
 -2      3673      3674      3678      3677      3613      3614      3618      3617
 -1       285    1    0    1
 -2      3674      1130      1131      3678      3614      1115      1116      3618
 -1       286    1    0    1
 -2      1071      3675      3679      1072      1056      3615      3619      1057
 -1       287    1    0    1
 -2      3675      3676      3680      3679      3615      3616      3620      3619
 -1       288    1    0    1
 -2      3676      3677      3681      3680      3616      3617      3621      3620
 -1       289    1    0    1
 -2      3677      3678      3682      3681      3617      3618      3622      3621
 -1       290    1    0    1
 -2      3678      1131      1132      3682      3618      1116      1117      3622
 -1       291    1    0    1
 -2      1072      3679      3683      1073      1057      3619      3623      1058
 -1       292    1    0    1
 -2      3679      3680      3684      3683      3619      3620      3624      3623
 -1       293    1    0    1
 -2      3680      3681      3685      3684      3620      3621      3625      3624
 -1       294    1    0    1
 -2      3681      3682      3686      3685      3621      3622      3626      3625
 -1       295    1    0    1
 -2      3682      1132      1133      3686      3622      1117      1118      3626
 -1       296    1    0    1
 -2      1073      3683      3687      1074      1058      3623      3627      1059
 -1       297    1    0    1
 -2      3683      3684      3688      3687      3623      3624      3628      3627
 -1       298    1    0    1
 -2      3684      3685      3689      3688      3624      3625      3629      3628
 -1       299    1    0    1
 -2      3685      3686      3690      3689      3625      3626      3630      3629
 -1       300    1    0    1
 -2      3686      1133      1134      3690      3626      1118      1119      3630
 -1       301    1    0    1
 -2      1074      3687      3691      1075      1059      3627      3631      1060
 -1       302    1    0    1
 -2      3687      3688      3692      3691      3627      3628      3632      3631
 -1       303    1    0    1
 -2      3688      3689      3693      3692      3628      3629      3633      3632
 -1       304    1    0    1
 -2      3689      3690      3694      3693      3629      3630      3634      3633
 -1       305    1    0    1
 -2      3690      1134      1135      3694      3630      1119      1120      3634
 -1       306    1    0    1
 -2      1075      3691      3695      1076      1060      3631      3635      1061
 -1       307    1    0    1
 -2      3691      3692      3696      3695      3631      3632      3636      3635
 -1       308    1    0    1
 -2      3692      3693      3697      3696      3632      3633      3637      3636
 -1       309    1    0    1
 -2      3693      3694      3698      3697      3633      3634      3638      3637
 -1       310    1    0    1
 -2      3694      1135      1136      3698      3634      1120      1121      3638
 -1       311    1    0    1
 -2      1076      3695      3699      1077      1061      3635      3639      1062
 -1       312    1    0    1
 -2      3695      3696      3700      3699      3635      3636      3640      3639
 -1       313    1    0    1
 -2      3696      3697      3701      3700      3636      3637      3641      3640
 -1       314    1    0    1
 -2      3697      3698      3702      3701      3637      3638      3642      3641
 -1       315    1    0    1
 -2      3698      1136      1137      3702      3638      1121      1122      3642
 -1       316    1    0    1
 -2      1077      3699      1166       169      1062      3639      1162       168
 -1       317    1    0    1
 -2      3699      3700      1167      1166      3639      3640      1163      1162
 -1       318    1    0    1
 -2      3700      3701      1168      1167      3640      3641      1164      1163
 -1       319    1    0    1
 -2      3701      3702      1169      1168      3641      3642      1165      1164
 -1       320    1    0    1
 -2      3702      1137       174      1169      3642      1122       175      1165
 -1       321    1    0    1
 -2        14       131       958       151       170      1150      3643      1063
 -1       322    1    0    1
 -2       131       130       959       958      1150      1151      3644      3643
 -1       323    1    0    1
 -2       130       129       960       959      1151      1152      3645      3644
 -1       324    1    0    1
 -2       129       128       961       960      1152      1153      3646      3645
 -1       325    1    0    1
 -2       128        11       146       961      1153       181      1123      3646
 -1       326    1    0    1
 -2       151       958       962       152      1063      3643      3647      1064
 -1       327    1    0    1
 -2       958       959       963       962      3643      3644      3648      3647
 -1       328    1    0    1
 -2       959       960       964       963      3644      3645      3649      3648
 -1       329    1    0    1
 -2       960       961       965       964      3645      3646      3650      3649
 -1       330    1    0    1
 -2       961       146       145       965      3646      1123      1124      3650
 -1       331    1    0    1
 -2       152       962       966       153      1064      3647      3651      1065
 -1       332    1    0    1
 -2       962       963       967       966      3647      3648      3652      3651
 -1       333    1    0    1
 -2       963       964       968       967      3648      3649      3653      3652
 -1       334    1    0    1
 -2       964       965       969       968      3649      3650      3654      3653
 -1       335    1    0    1
 -2       965       145       144       969      3650      1124      1125      3654
 -1       336    1    0    1
 -2       153       966       970       154      1065      3651      3655      1066
 -1       337    1    0    1
 -2       966       967       971       970      3651      3652      3656      3655
 -1       338    1    0    1
 -2       967       968       972       971      3652      3653      3657      3656
 -1       339    1    0    1
 -2       968       969       973       972      3653      3654      3658      3657
 -1       340    1    0    1
 -2       969       144       143       973      3654      1125      1126      3658
 -1       341    1    0    1
 -2       154       970       974       155      1066      3655      3659      1067
 -1       342    1    0    1
 -2       970       971       975       974      3655      3656      3660      3659
 -1       343    1    0    1
 -2       971       972       976       975      3656      3657      3661      3660
 -1       344    1    0    1
 -2       972       973       977       976      3657      3658      3662      3661
 -1       345    1    0    1
 -2       973       143       142       977      3658      1126      1127      3662
 -1       346    1    0    1
 -2       155       974       978       156      1067      3659      3663      1068
 -1       347    1    0    1
 -2       974       975       979       978      3659      3660      3664      3663
 -1       348    1    0    1
 -2       975       976       980       979      3660      3661      3665      3664
 -1       349    1    0    1
 -2       976       977       981       980      3661      3662      3666      3665
 -1       350    1    0    1
 -2       977       142       141       981      3662      1127      1128      3666
 -1       351    1    0    1
 -2       156       978       982       157      1068      3663      3667      1069
 -1       352    1    0    1
 -2       978       979       983       982      3663      3664      3668      3667
 -1       353    1    0    1
 -2       979       980       984       983      3664      3665      3669      3668
 -1       354    1    0    1
 -2       980       981       985       984      3665      3666      3670      3669
 -1       355    1    0    1
 -2       981       141       140       985      3666      1128      1129      3670
 -1       356    1    0    1
 -2       157       982       986       158      1069      3667      3671      1070
 -1       357    1    0    1
 -2       982       983       987       986      3667      3668      3672      3671
 -1       358    1    0    1
 -2       983       984       988       987      3668      3669      3673      3672
 -1       359    1    0    1
 -2       984       985       989       988      3669      3670      3674      3673
 -1       360    1    0    1
 -2       985       140       139       989      3670      1129      1130      3674
 -1       361    1    0    1
 -2       158       986       990       159      1070      3671      3675      1071
 -1       362    1    0    1
 -2       986       987       991       990      3671      3672      3676      3675
 -1       363    1    0    1
 -2       987       988       992       991      3672      3673      3677      3676
 -1       364    1    0    1
 -2       988       989       993       992      3673      3674      3678      3677
 -1       365    1    0    1
 -2       989       139       138       993      3674      1130      1131      3678
 -1       366    1    0    1
 -2       159       990       994       160      1071      3675      3679      1072
 -1       367    1    0    1
 -2       990       991       995       994      3675      3676      3680      3679
 -1       368    1    0    1
 -2       991       992       996       995      3676      3677      3681      3680
 -1       369    1    0    1
 -2       992       993       997       996      3677      3678      3682      3681
 -1       370    1    0    1
 -2       993       138       137       997      3678      1131      1132      3682
 -1       371    1    0    1
 -2       160       994       998       161      1072      3679      3683      1073
 -1       372    1    0    1
 -2       994       995       999       998      3679      3680      3684      3683
 -1       373    1    0    1
 -2       995       996      1000       999      3680      3681      3685      3684
 -1       374    1    0    1
 -2       996       997      1001      1000      3681      3682      3686      3685
 -1       375    1    0    1
 -2       997       137       136      1001      3682      1132      1133      3686
 -1       376    1    0    1
 -2       161       998      1002       162      1073      3683      3687      1074
 -1       377    1    0    1
 -2       998       999      1003      1002      3683      3684      3688      3687
 -1       378    1    0    1
 -2       999      1000      1004      1003      3684      3685      3689      3688
 -1       379    1    0    1
 -2      1000      1001      1005      1004      3685      3686      3690      3689
 -1       380    1    0    1
 -2      1001       136       135      1005      3686      1133      1134      3690
 -1       381    1    0    1
 -2       162      1002      1006       163      1074      3687      3691      1075
 -1       382    1    0    1
 -2      1002      1003      1007      1006      3687      3688      3692      3691
 -1       383    1    0    1
 -2      1003      1004      1008      1007      3688      3689      3693      3692
 -1       384    1    0    1
 -2      1004      1005      1009      1008      3689      3690      3694      3693
 -1       385    1    0    1
 -2      1005       135       134      1009      3690      1134      1135      3694
 -1       386    1    0    1
 -2       163      1006      1010       164      1075      3691      3695      1076
 -1       387    1    0    1
 -2      1006      1007      1011      1010      3691      3692      3696      3695
 -1       388    1    0    1
 -2      1007      1008      1012      1011      3692      3693      3697      3696
 -1       389    1    0    1
 -2      1008      1009      1013      1012      3693      3694      3698      3697
 -1       390    1    0    1
 -2      1009       134       133      1013      3694      1135      1136      3698
 -1       391    1    0    1
 -2       164      1010      1014       165      1076      3695      3699      1077
 -1       392    1    0    1
 -2      1010      1011      1015      1014      3695      3696      3700      3699
 -1       393    1    0    1
 -2      1011      1012      1016      1015      3696      3697      3701      3700
 -1       394    1    0    1
 -2      1012      1013      1017      1016      3697      3698      3702      3701
 -1       395    1    0    1
 -2      1013       133       132      1017      3698      1136      1137      3702
 -1       396    1    0    1
 -2       165      1014       147        13      1077      3699      1166       169
 -1       397    1    0    1
 -2      1014      1015       148       147      3699      3700      1167      1166
 -1       398    1    0    1
 -2      1015      1016       149       148      3700      3701      1168      1167
 -1       399    1    0    1
 -2      1016      1017       150       149      3701      3702      1169      1168
 -1       400    1    0    1
 -2      1017       132        12       150      3702      1137       174      1169
 -1       401    1    0    1
 -2        15       182      1170       197       227      1322      3703      1202
 -1       402    1    0    1
 -2       182       183      1171      1170      1322      1323      3704      3703
 -1       403    1    0    1
 -2       183       184      1172      1171      1323      1324      3705      3704
 -1       404    1    0    1
 -2       184       185      1173      1172      1324      1325      3706      3705
 -1       405    1    0    1
 -2       185        16       186      1173      1325       269      1262      3706
 -1       406    1    0    1
 -2       197      1170      1174       196      1202      3703      3707      1203
 -1       407    1    0    1
 -2      1170      1171      1175      1174      3703      3704      3708      3707
 -1       408    1    0    1
 -2      1171      1172      1176      1175      3704      3705      3709      3708
 -1       409    1    0    1
 -2      1172      1173      1177      1176      3705      3706      3710      3709
 -1       410    1    0    1
 -2      1173       186       187      1177      3706      1262      1263      3710
 -1       411    1    0    1
 -2       196      1174      1178       195      1203      3707      3711      1204
 -1       412    1    0    1
 -2      1174      1175      1179      1178      3707      3708      3712      3711
 -1       413    1    0    1
 -2      1175      1176      1180      1179      3708      3709      3713      3712
 -1       414    1    0    1
 -2      1176      1177      1181      1180      3709      3710      3714      3713
 -1       415    1    0    1
 -2      1177       187       188      1181      3710      1263      1264      3714
 -1       416    1    0    1
 -2       195      1178      1182       194      1204      3711      3715      1205
 -1       417    1    0    1
 -2      1178      1179      1183      1182      3711      3712      3716      3715
 -1       418    1    0    1
 -2      1179      1180      1184      1183      3712      3713      3717      3716
 -1       419    1    0    1
 -2      1180      1181      1185      1184      3713      3714      3718      3717
 -1       420    1    0    1
 -2      1181       188       189      1185      3714      1264      1265      3718
 -1       421    1    0    1
 -2       194      1182       193        18      1205      3715      1382       215
 -1       422    1    0    1
 -2      1182      1183       192       193      3715      3716      1383      1382
 -1       423    1    0    1
 -2      1183      1184       191       192      3716      3717      1384      1383
 -1       424    1    0    1
 -2      1184      1185       190       191      3717      3718      1385      1384
 -1       425    1    0    1
 -2      1185       189        17       190      3718      1265       242      1385
 -1       426    1    0    1
 -2       227      1322      3703      1202       228      1326      3719      1206
 -1       427    1    0    1
 -2      1322      1323      3704      3703      1326      1327      3720      3719
 -1       428    1    0    1
 -2      1323      1324      3705      3704      1327      1328      3721      3720
 -1       429    1    0    1
 -2      1324      1325      3706      3705      1328      1329      3722      3721
 -1       430    1    0    1
 -2      1325       269      1262      3706      1329       268      1266      3722
 -1       431    1    0    1
 -2      1202      3703      3707      1203      1206      3719      3723      1207
 -1       432    1    0    1
 -2      3703      3704      3708      3707      3719      3720      3724      3723
 -1       433    1    0    1
 -2      3704      3705      3709      3708      3720      3721      3725      3724
 -1       434    1    0    1
 -2      3705      3706      3710      3709      3721      3722      3726      3725
 -1       435    1    0    1
 -2      3706      1262      1263      3710      3722      1266      1267      3726
 -1       436    1    0    1
 -2      1203      3707      3711      1204      1207      3723      3727      1208
 -1       437    1    0    1
 -2      3707      3708      3712      3711      3723      3724      3728      3727
 -1       438    1    0    1
 -2      3708      3709      3713      3712      3724      3725      3729      3728
 -1       439    1    0    1
 -2      3709      3710      3714      3713      3725      3726      3730      3729
 -1       440    1    0    1
 -2      3710      1263      1264      3714      3726      1267      1268      3730
 -1       441    1    0    1
 -2      1204      3711      3715      1205      1208      3727      3731      1209
 -1       442    1    0    1
 -2      3711      3712      3716      3715      3727      3728      3732      3731
 -1       443    1    0    1
 -2      3712      3713      3717      3716      3728      3729      3733      3732
 -1       444    1    0    1
 -2      3713      3714      3718      3717      3729      3730      3734      3733
 -1       445    1    0    1
 -2      3714      1264      1265      3718      3730      1268      1269      3734
 -1       446    1    0    1
 -2      1205      3715      1382       215      1209      3731      1386       214
 -1       447    1    0    1
 -2      3715      3716      1383      1382      3731      3732      1387      1386
 -1       448    1    0    1
 -2      3716      3717      1384      1383      3732      3733      1388      1387
 -1       449    1    0    1
 -2      3717      3718      1385      1384      3733      3734      1389      1388
 -1       450    1    0    1
 -2      3718      1265       242      1385      3734      1269       243      1389
 -1       451    1    0    1
 -2       228      1326      3719      1206       229      1330      3735      1210
 -1       452    1    0    1
 -2      1326      1327      3720      3719      1330      1331      3736      3735
 -1       453    1    0    1
 -2      1327      1328      3721      3720      1331      1332      3737      3736
 -1       454    1    0    1
 -2      1328      1329      3722      3721      1332      1333      3738      3737
 -1       455    1    0    1
 -2      1329       268      1266      3722      1333       267      1270      3738
 -1       456    1    0    1
 -2      1206      3719      3723      1207      1210      3735      3739      1211
 -1       457    1    0    1
 -2      3719      3720      3724      3723      3735      3736      3740      3739
 -1       458    1    0    1
 -2      3720      3721      3725      3724      3736      3737      3741      3740
 -1       459    1    0    1
 -2      3721      3722      3726      3725      3737      3738      3742      3741
 -1       460    1    0    1
 -2      3722      1266      1267      3726      3738      1270      1271      3742
 -1       461    1    0    1
 -2      1207      3723      3727      1208      1211      3739      3743      1212
 -1       462    1    0    1
 -2      3723      3724      3728      3727      3739      3740      3744      3743
 -1       463    1    0    1
 -2      3724      3725      3729      3728      3740      3741      3745      3744
 -1       464    1    0    1
 -2      3725      3726      3730      3729      3741      3742      3746      3745
 -1       465    1    0    1
 -2      3726      1267      1268      3730      3742      1271      1272      3746
 -1       466    1    0    1
 -2      1208      3727      3731      1209      1212      3743      3747      1213
 -1       467    1    0    1
 -2      3727      3728      3732      3731      3743      3744      3748      3747
 -1       468    1    0    1
 -2      3728      3729      3733      3732      3744      3745      3749      3748
 -1       469    1    0    1
 -2      3729      3730      3734      3733      3745      3746      3750      3749
 -1       470    1    0    1
 -2      3730      1268      1269      3734      3746      1272      1273      3750
 -1       471    1    0    1
 -2      1209      3731      1386       214      1213      3747       270        23
 -1       472    1    0    1
 -2      3731      3732      1387      1386      3747      3748       271       270
 -1       473    1    0    1
 -2      3732      3733      1388      1387      3748      3749        27       271
 -1       474    1    0    1
 -2      3733      3734      1389      1388      3749      3750       272        27
 -1       475    1    0    1
 -2      3734      1269       243      1389      3750      1273        25       272
 -1       476    1    0    1
 -2       229      1330      3735      1210       230      1334      3751      1214
 -1       477    1    0    1
 -2      1330      1331      3736      3735      1334      1335      3752      3751
 -1       478    1    0    1
 -2      1331      1332      3737      3736      1335      1336      3753      3752
 -1       479    1    0    1
 -2      1332      1333      3738      3737      1336      1337      3754      3753
 -1       480    1    0    1
 -2      1333       267      1270      3738      1337       266      1274      3754
 -1       481    1    0    1
 -2      1210      3735      3739      1211      1214      3751      3755      1215
 -1       482    1    0    1
 -2      3735      3736      3740      3739      3751      3752      3756      3755
 -1       483    1    0    1
 -2      3736      3737      3741      3740      3752      3753      3757      3756
 -1       484    1    0    1
 -2      3737      3738      3742      3741      3753      3754      3758      3757
 -1       485    1    0    1
 -2      3738      1270      1271      3742      3754      1274      1275      3758
 -1       486    1    0    1
 -2      1211      3739      3743      1212      1215      3755      3759      1216
 -1       487    1    0    1
 -2      3739      3740      3744      3743      3755      3756      3760      3759
 -1       488    1    0    1
 -2      3740      3741      3745      3744      3756      3757      3761      3760
 -1       489    1    0    1
 -2      3741      3742      3746      3745      3757      3758      3762      3761
 -1       490    1    0    1
 -2      3742      1271      1272      3746      3758      1275      1276      3762
 -1       491    1    0    1
 -2      1212      3743      3747      1213      1216      3759      3763      1217
 -1       492    1    0    1
 -2      3743      3744      3748      3747      3759      3760      3764      3763
 -1       493    1    0    1
 -2      3744      3745      3749      3748      3760      3761      3765      3764
 -1       494    1    0    1
 -2      3745      3746      3750      3749      3761      3762      3766      3765
 -1       495    1    0    1
 -2      3746      1272      1273      3750      3762      1276      1277      3766
 -1       496    1    0    1
 -2      1213      3747       270        23      1217      3763      1407       224
 -1       497    1    0    1
 -2      3747      3748       271       270      3763      3764      1398      1407
 -1       498    1    0    1
 -2      3748      3749        27       271      3764      3765       281      1398
 -1       499    1    0    1
 -2      3749      3750       272        27      3765      3766      1408       281
 -1       500    1    0    1
 -2      3750      1273        25       272      3766      1277       244      1408
 -1       501    1    0    1
 -2       230      1334      3751      1214       231      1338      3767      1218
 -1       502    1    0    1
 -2      1334      1335      3752      3751      1338      1339      3768      3767
 -1       503    1    0    1
 -2      1335      1336      3753      3752      1339      1340      3769      3768
 -1       504    1    0    1
 -2      1336      1337      3754      3753      1340      1341      3770      3769
 -1       505    1    0    1
 -2      1337       266      1274      3754      1341       265      1278      3770
 -1       506    1    0    1
 -2      1214      3751      3755      1215      1218      3767      3771      1219
 -1       507    1    0    1
 -2      3751      3752      3756      3755      3767      3768      3772      3771
 -1       508    1    0    1
 -2      3752      3753      3757      3756      3768      3769      3773      3772
 -1       509    1    0    1
 -2      3753      3754      3758      3757      3769      3770      3774      3773
 -1       510    1    0    1
 -2      3754      1274      1275      3758      3770      1278      1279      3774
 -1       511    1    0    1
 -2      1215      3755      3759      1216      1219      3771      3775      1220
 -1       512    1    0    1
 -2      3755      3756      3760      3759      3771      3772      3776      3775
 -1       513    1    0    1
 -2      3756      3757      3761      3760      3772      3773      3777      3776
 -1       514    1    0    1
 -2      3757      3758      3762      3761      3773      3774      3778      3777
 -1       515    1    0    1
 -2      3758      1275      1276      3762      3774      1279      1280      3778
 -1       516    1    0    1
 -2      1216      3759      3763      1217      1220      3775      3779      1221
 -1       517    1    0    1
 -2      3759      3760      3764      3763      3775      3776      3780      3779
 -1       518    1    0    1
 -2      3760      3761      3765      3764      3776      3777      3781      3780
 -1       519    1    0    1
 -2      3761      3762      3766      3765      3777      3778      3782      3781
 -1       520    1    0    1
 -2      3762      1276      1277      3766      3778      1280      1281      3782
 -1       521    1    0    1
 -2      1217      3763      1407       224      1221      3779      1406       223
 -1       522    1    0    1
 -2      3763      3764      1398      1407      3779      3780      1397      1406
 -1       523    1    0    1
 -2      3764      3765       281      1398      3780      3781       280      1397
 -1       524    1    0    1
 -2      3765      3766      1408       281      3781      3782      1409       280
 -1       525    1    0    1
 -2      3766      1277       244      1408      3782      1281       245      1409
 -1       526    1    0    1
 -2       231      1338      3767      1218       232      1342      3783      1222
 -1       527    1    0    1
 -2      1338      1339      3768      3767      1342      1343      3784      3783
 -1       528    1    0    1
 -2      1339      1340      3769      3768      1343      1344      3785      3784
 -1       529    1    0    1
 -2      1340      1341      3770      3769      1344      1345      3786      3785
 -1       530    1    0    1
 -2      1341       265      1278      3770      1345       264      1282      3786
 -1       531    1    0    1
 -2      1218      3767      3771      1219      1222      3783      3787      1223
 -1       532    1    0    1
 -2      3767      3768      3772      3771      3783      3784      3788      3787
 -1       533    1    0    1
 -2      3768      3769      3773      3772      3784      3785      3789      3788
 -1       534    1    0    1
 -2      3769      3770      3774      3773      3785      3786      3790      3789
 -1       535    1    0    1
 -2      3770      1278      1279      3774      3786      1282      1283      3790
 -1       536    1    0    1
 -2      1219      3771      3775      1220      1223      3787      3791      1224
 -1       537    1    0    1
 -2      3771      3772      3776      3775      3787      3788      3792      3791
 -1       538    1    0    1
 -2      3772      3773      3777      3776      3788      3789      3793      3792
 -1       539    1    0    1
 -2      3773      3774      3778      3777      3789      3790      3794      3793
 -1       540    1    0    1
 -2      3774      1279      1280      3778      3790      1283      1284      3794
 -1       541    1    0    1
 -2      1220      3775      3779      1221      1224      3791      3795      1225
 -1       542    1    0    1
 -2      3775      3776      3780      3779      3791      3792      3796      3795
 -1       543    1    0    1
 -2      3776      3777      3781      3780      3792      3793      3797      3796
 -1       544    1    0    1
 -2      3777      3778      3782      3781      3793      3794      3798      3797
 -1       545    1    0    1
 -2      3778      1280      1281      3782      3794      1284      1285      3798
 -1       546    1    0    1
 -2      1221      3779      1406       223      1225      3795      1405       222
 -1       547    1    0    1
 -2      3779      3780      1397      1406      3795      3796      1396      1405
 -1       548    1    0    1
 -2      3780      3781       280      1397      3796      3797       279      1396
 -1       549    1    0    1
 -2      3781      3782      1409       280      3797      3798      1410       279
 -1       550    1    0    1
 -2      3782      1281       245      1409      3798      1285       246      1410
 -1       551    1    0    1
 -2       232      1342      3783      1222       233      1346      3799      1226
 -1       552    1    0    1
 -2      1342      1343      3784      3783      1346      1347      3800      3799
 -1       553    1    0    1
 -2      1343      1344      3785      3784      1347      1348      3801      3800
 -1       554    1    0    1
 -2      1344      1345      3786      3785      1348      1349      3802      3801
 -1       555    1    0    1
 -2      1345       264      1282      3786      1349       263      1286      3802
 -1       556    1    0    1
 -2      1222      3783      3787      1223      1226      3799      3803      1227
 -1       557    1    0    1
 -2      3783      3784      3788      3787      3799      3800      3804      3803
 -1       558    1    0    1
 -2      3784      3785      3789      3788      3800      3801      3805      3804
 -1       559    1    0    1
 -2      3785      3786      3790      3789      3801      3802      3806      3805
 -1       560    1    0    1
 -2      3786      1282      1283      3790      3802      1286      1287      3806
 -1       561    1    0    1
 -2      1223      3787      3791      1224      1227      3803      3807      1228
 -1       562    1    0    1
 -2      3787      3788      3792      3791      3803      3804      3808      3807
 -1       563    1    0    1
 -2      3788      3789      3793      3792      3804      3805      3809      3808
 -1       564    1    0    1
 -2      3789      3790      3794      3793      3805      3806      3810      3809
 -1       565    1    0    1
 -2      3790      1283      1284      3794      3806      1287      1288      3810
 -1       566    1    0    1
 -2      1224      3791      3795      1225      1228      3807      3811      1229
 -1       567    1    0    1
 -2      3791      3792      3796      3795      3807      3808      3812      3811
 -1       568    1    0    1
 -2      3792      3793      3797      3796      3808      3809      3813      3812
 -1       569    1    0    1
 -2      3793      3794      3798      3797      3809      3810      3814      3813
 -1       570    1    0    1
 -2      3794      1284      1285      3798      3810      1288      1289      3814
 -1       571    1    0    1
 -2      1225      3795      1405       222      1229      3811      1404       221
 -1       572    1    0    1
 -2      3795      3796      1396      1405      3811      3812      1395      1404
 -1       573    1    0    1
 -2      3796      3797       279      1396      3812      3813       278      1395
 -1       574    1    0    1
 -2      3797      3798      1410       279      3813      3814      1411       278
 -1       575    1    0    1
 -2      3798      1285       246      1410      3814      1289       247      1411
 -1       576    1    0    1
 -2       233      1346      3799      1226       234      1350      3815      1230
 -1       577    1    0    1
 -2      1346      1347      3800      3799      1350      1351      3816      3815
 -1       578    1    0    1
 -2      1347      1348      3801      3800      1351      1352      3817      3816
 -1       579    1    0    1
 -2      1348      1349      3802      3801      1352      1353      3818      3817
 -1       580    1    0    1
 -2      1349       263      1286      3802      1353       262      1290      3818
 -1       581    1    0    1
 -2      1226      3799      3803      1227      1230      3815      3819      1231
 -1       582    1    0    1
 -2      3799      3800      3804      3803      3815      3816      3820      3819
 -1       583    1    0    1
 -2      3800      3801      3805      3804      3816      3817      3821      3820
 -1       584    1    0    1
 -2      3801      3802      3806      3805      3817      3818      3822      3821
 -1       585    1    0    1
 -2      3802      1286      1287      3806      3818      1290      1291      3822
 -1       586    1    0    1
 -2      1227      3803      3807      1228      1231      3819      3823      1232
 -1       587    1    0    1
 -2      3803      3804      3808      3807      3819      3820      3824      3823
 -1       588    1    0    1
 -2      3804      3805      3809      3808      3820      3821      3825      3824
 -1       589    1    0    1
 -2      3805      3806      3810      3809      3821      3822      3826      3825
 -1       590    1    0    1
 -2      3806      1287      1288      3810      3822      1291      1292      3826
 -1       591    1    0    1
 -2      1228      3807      3811      1229      1232      3823      3827      1233
 -1       592    1    0    1
 -2      3807      3808      3812      3811      3823      3824      3828      3827
 -1       593    1    0    1
 -2      3808      3809      3813      3812      3824      3825      3829      3828
 -1       594    1    0    1
 -2      3809      3810      3814      3813      3825      3826      3830      3829
 -1       595    1    0    1
 -2      3810      1288      1289      3814      3826      1292      1293      3830
 -1       596    1    0    1
 -2      1229      3811      1404       221      1233      3827      1403       220
 -1       597    1    0    1
 -2      3811      3812      1395      1404      3827      3828      1394      1403
 -1       598    1    0    1
 -2      3812      3813       278      1395      3828      3829       277      1394
 -1       599    1    0    1
 -2      3813      3814      1411       278      3829      3830      1412       277
 -1       600    1    0    1
 -2      3814      1289       247      1411      3830      1293       248      1412
 -1       601    1    0    1
 -2       234      1350      3815      1230       235      1354      3831      1234
 -1       602    1    0    1
 -2      1350      1351      3816      3815      1354      1355      3832      3831
 -1       603    1    0    1
 -2      1351      1352      3817      3816      1355      1356      3833      3832
 -1       604    1    0    1
 -2      1352      1353      3818      3817      1356      1357      3834      3833
 -1       605    1    0    1
 -2      1353       262      1290      3818      1357       261      1294      3834
 -1       606    1    0    1
 -2      1230      3815      3819      1231      1234      3831      3835      1235
 -1       607    1    0    1
 -2      3815      3816      3820      3819      3831      3832      3836      3835
 -1       608    1    0    1
 -2      3816      3817      3821      3820      3832      3833      3837      3836
 -1       609    1    0    1
 -2      3817      3818      3822      3821      3833      3834      3838      3837
 -1       610    1    0    1
 -2      3818      1290      1291      3822      3834      1294      1295      3838
 -1       611    1    0    1
 -2      1231      3819      3823      1232      1235      3835      3839      1236
 -1       612    1    0    1
 -2      3819      3820      3824      3823      3835      3836      3840      3839
 -1       613    1    0    1
 -2      3820      3821      3825      3824      3836      3837      3841      3840
 -1       614    1    0    1
 -2      3821      3822      3826      3825      3837      3838      3842      3841
 -1       615    1    0    1
 -2      3822      1291      1292      3826      3838      1295      1296      3842
 -1       616    1    0    1
 -2      1232      3823      3827      1233      1236      3839      3843      1237
 -1       617    1    0    1
 -2      3823      3824      3828      3827      3839      3840      3844      3843
 -1       618    1    0    1
 -2      3824      3825      3829      3828      3840      3841      3845      3844
 -1       619    1    0    1
 -2      3825      3826      3830      3829      3841      3842      3846      3845
 -1       620    1    0    1
 -2      3826      1292      1293      3830      3842      1296      1297      3846
 -1       621    1    0    1
 -2      1233      3827      1403       220      1237      3843      1402       219
 -1       622    1    0    1
 -2      3827      3828      1394      1403      3843      3844      1393      1402
 -1       623    1    0    1
 -2      3828      3829       277      1394      3844      3845       276      1393
 -1       624    1    0    1
 -2      3829      3830      1412       277      3845      3846      1413       276
 -1       625    1    0    1
 -2      3830      1293       248      1412      3846      1297       249      1413
 -1       626    1    0    1
 -2       235      1354      3831      1234       236      1358      3847      1238
 -1       627    1    0    1
 -2      1354      1355      3832      3831      1358      1359      3848      3847
 -1       628    1    0    1
 -2      1355      1356      3833      3832      1359      1360      3849      3848
 -1       629    1    0    1
 -2      1356      1357      3834      3833      1360      1361      3850      3849
 -1       630    1    0    1
 -2      1357       261      1294      3834      1361       260      1298      3850
 -1       631    1    0    1
 -2      1234      3831      3835      1235      1238      3847      3851      1239
 -1       632    1    0    1
 -2      3831      3832      3836      3835      3847      3848      3852      3851
 -1       633    1    0    1
 -2      3832      3833      3837      3836      3848      3849      3853      3852
 -1       634    1    0    1
 -2      3833      3834      3838      3837      3849      3850      3854      3853
 -1       635    1    0    1
 -2      3834      1294      1295      3838      3850      1298      1299      3854
 -1       636    1    0    1
 -2      1235      3835      3839      1236      1239      3851      3855      1240
 -1       637    1    0    1
 -2      3835      3836      3840      3839      3851      3852      3856      3855
 -1       638    1    0    1
 -2      3836      3837      3841      3840      3852      3853      3857      3856
 -1       639    1    0    1
 -2      3837      3838      3842      3841      3853      3854      3858      3857
 -1       640    1    0    1
 -2      3838      1295      1296      3842      3854      1299      1300      3858
 -1       641    1    0    1
 -2      1236      3839      3843      1237      1240      3855      3859      1241
 -1       642    1    0    1
 -2      3839      3840      3844      3843      3855      3856      3860      3859
 -1       643    1    0    1
 -2      3840      3841      3845      3844      3856      3857      3861      3860
 -1       644    1    0    1
 -2      3841      3842      3846      3845      3857      3858      3862      3861
 -1       645    1    0    1
 -2      3842      1296      1297      3846      3858      1300      1301      3862
 -1       646    1    0    1
 -2      1237      3843      1402       219      1241      3859      1401       218
 -1       647    1    0    1
 -2      3843      3844      1393      1402      3859      3860      1392      1401
 -1       648    1    0    1
 -2      3844      3845       276      1393      3860      3861       275      1392
 -1       649    1    0    1
 -2      3845      3846      1413       276      3861      3862      1414       275
 -1       650    1    0    1
 -2      3846      1297       249      1413      3862      1301       250      1414
 -1       651    1    0    1
 -2       236      1358      3847      1238       237      1362      3863      1242
 -1       652    1    0    1
 -2      1358      1359      3848      3847      1362      1363      3864      3863
 -1       653    1    0    1
 -2      1359      1360      3849      3848      1363      1364      3865      3864
 -1       654    1    0    1
 -2      1360      1361      3850      3849      1364      1365      3866      3865
 -1       655    1    0    1
 -2      1361       260      1298      3850      1365       259      1302      3866
 -1       656    1    0    1
 -2      1238      3847      3851      1239      1242      3863      3867      1243
 -1       657    1    0    1
 -2      3847      3848      3852      3851      3863      3864      3868      3867
 -1       658    1    0    1
 -2      3848      3849      3853      3852      3864      3865      3869      3868
 -1       659    1    0    1
 -2      3849      3850      3854      3853      3865      3866      3870      3869
 -1       660    1    0    1
 -2      3850      1298      1299      3854      3866      1302      1303      3870
 -1       661    1    0    1
 -2      1239      3851      3855      1240      1243      3867      3871      1244
 -1       662    1    0    1
 -2      3851      3852      3856      3855      3867      3868      3872      3871
 -1       663    1    0    1
 -2      3852      3853      3857      3856      3868      3869      3873      3872
 -1       664    1    0    1
 -2      3853      3854      3858      3857      3869      3870      3874      3873
 -1       665    1    0    1
 -2      3854      1299      1300      3858      3870      1303      1304      3874
 -1       666    1    0    1
 -2      1240      3855      3859      1241      1244      3871      3875      1245
 -1       667    1    0    1
 -2      3855      3856      3860      3859      3871      3872      3876      3875
 -1       668    1    0    1
 -2      3856      3857      3861      3860      3872      3873      3877      3876
 -1       669    1    0    1
 -2      3857      3858      3862      3861      3873      3874      3878      3877
 -1       670    1    0    1
 -2      3858      1300      1301      3862      3874      1304      1305      3878
 -1       671    1    0    1
 -2      1241      3859      1401       218      1245      3875      1400       217
 -1       672    1    0    1
 -2      3859      3860      1392      1401      3875      3876      1391      1400
 -1       673    1    0    1
 -2      3860      3861       275      1392      3876      3877       274      1391
 -1       674    1    0    1
 -2      3861      3862      1414       275      3877      3878      1415       274
 -1       675    1    0    1
 -2      3862      1301       250      1414      3878      1305       251      1415
 -1       676    1    0    1
 -2       237      1362      3863      1242       238      1366      3879      1246
 -1       677    1    0    1
 -2      1362      1363      3864      3863      1366      1367      3880      3879
 -1       678    1    0    1
 -2      1363      1364      3865      3864      1367      1368      3881      3880
 -1       679    1    0    1
 -2      1364      1365      3866      3865      1368      1369      3882      3881
 -1       680    1    0    1
 -2      1365       259      1302      3866      1369       258      1306      3882
 -1       681    1    0    1
 -2      1242      3863      3867      1243      1246      3879      3883      1247
 -1       682    1    0    1
 -2      3863      3864      3868      3867      3879      3880      3884      3883
 -1       683    1    0    1
 -2      3864      3865      3869      3868      3880      3881      3885      3884
 -1       684    1    0    1
 -2      3865      3866      3870      3869      3881      3882      3886      3885
 -1       685    1    0    1
 -2      3866      1302      1303      3870      3882      1306      1307      3886
 -1       686    1    0    1
 -2      1243      3867      3871      1244      1247      3883      3887      1248
 -1       687    1    0    1
 -2      3867      3868      3872      3871      3883      3884      3888      3887
 -1       688    1    0    1
 -2      3868      3869      3873      3872      3884      3885      3889      3888
 -1       689    1    0    1
 -2      3869      3870      3874      3873      3885      3886      3890      3889
 -1       690    1    0    1
 -2      3870      1303      1304      3874      3886      1307      1308      3890
 -1       691    1    0    1
 -2      1244      3871      3875      1245      1248      3887      3891      1249
 -1       692    1    0    1
 -2      3871      3872      3876      3875      3887      3888      3892      3891
 -1       693    1    0    1
 -2      3872      3873      3877      3876      3888      3889      3893      3892
 -1       694    1    0    1
 -2      3873      3874      3878      3877      3889      3890      3894      3893
 -1       695    1    0    1
 -2      3874      1304      1305      3878      3890      1308      1309      3894
 -1       696    1    0    1
 -2      1245      3875      1400       217      1249      3891      1399       216
 -1       697    1    0    1
 -2      3875      3876      1391      1400      3891      3892      1390      1399
 -1       698    1    0    1
 -2      3876      3877       274      1391      3892      3893       273      1390
 -1       699    1    0    1
 -2      3877      3878      1415       274      3893      3894      1416       273
 -1       700    1    0    1
 -2      3878      1305       251      1415      3894      1309       252      1416
 -1       701    1    0    1
 -2       238      1366      3879      1246       239      1370      3895      1250
 -1       702    1    0    1
 -2      1366      1367      3880      3879      1370      1371      3896      3895
 -1       703    1    0    1
 -2      1367      1368      3881      3880      1371      1372      3897      3896
 -1       704    1    0    1
 -2      1368      1369      3882      3881      1372      1373      3898      3897
 -1       705    1    0    1
 -2      1369       258      1306      3882      1373       257      1310      3898
 -1       706    1    0    1
 -2      1246      3879      3883      1247      1250      3895      3899      1251
 -1       707    1    0    1
 -2      3879      3880      3884      3883      3895      3896      3900      3899
 -1       708    1    0    1
 -2      3880      3881      3885      3884      3896      3897      3901      3900
 -1       709    1    0    1
 -2      3881      3882      3886      3885      3897      3898      3902      3901
 -1       710    1    0    1
 -2      3882      1306      1307      3886      3898      1310      1311      3902
 -1       711    1    0    1
 -2      1247      3883      3887      1248      1251      3899      3903      1252
 -1       712    1    0    1
 -2      3883      3884      3888      3887      3899      3900      3904      3903
 -1       713    1    0    1
 -2      3884      3885      3889      3888      3900      3901      3905      3904
 -1       714    1    0    1
 -2      3885      3886      3890      3889      3901      3902      3906      3905
 -1       715    1    0    1
 -2      3886      1307      1308      3890      3902      1311      1312      3906
 -1       716    1    0    1
 -2      1248      3887      3891      1249      1252      3903      3907      1253
 -1       717    1    0    1
 -2      3887      3888      3892      3891      3903      3904      3908      3907
 -1       718    1    0    1
 -2      3888      3889      3893      3892      3904      3905      3909      3908
 -1       719    1    0    1
 -2      3889      3890      3894      3893      3905      3906      3910      3909
 -1       720    1    0    1
 -2      3890      1308      1309      3894      3906      1312      1313      3910
 -1       721    1    0    1
 -2      1249      3891      1399       216      1253      3907       282        24
 -1       722    1    0    1
 -2      3891      3892      1390      1399      3907      3908       283       282
 -1       723    1    0    1
 -2      3892      3893       273      1390      3908      3909        28       283
 -1       724    1    0    1
 -2      3893      3894      1416       273      3909      3910       284        28
 -1       725    1    0    1
 -2      3894      1309       252      1416      3910      1313        26       284
 -1       726    1    0    1
 -2       239      1370      3895      1250       240      1374      3911      1254
 -1       727    1    0    1
 -2      1370      1371      3896      3895      1374      1375      3912      3911
 -1       728    1    0    1
 -2      1371      1372      3897      3896      1375      1376      3913      3912
 -1       729    1    0    1
 -2      1372      1373      3898      3897      1376      1377      3914      3913
 -1       730    1    0    1
 -2      1373       257      1310      3898      1377       256      1314      3914
 -1       731    1    0    1
 -2      1250      3895      3899      1251      1254      3911      3915      1255
 -1       732    1    0    1
 -2      3895      3896      3900      3899      3911      3912      3916      3915
 -1       733    1    0    1
 -2      3896      3897      3901      3900      3912      3913      3917      3916
 -1       734    1    0    1
 -2      3897      3898      3902      3901      3913      3914      3918      3917
 -1       735    1    0    1
 -2      3898      1310      1311      3902      3914      1314      1315      3918
 -1       736    1    0    1
 -2      1251      3899      3903      1252      1255      3915      3919      1256
 -1       737    1    0    1
 -2      3899      3900      3904      3903      3915      3916      3920      3919
 -1       738    1    0    1
 -2      3900      3901      3905      3904      3916      3917      3921      3920
 -1       739    1    0    1
 -2      3901      3902      3906      3905      3917      3918      3922      3921
 -1       740    1    0    1
 -2      3902      1311      1312      3906      3918      1315      1316      3922
 -1       741    1    0    1
 -2      1252      3903      3907      1253      1256      3919      3923      1257
 -1       742    1    0    1
 -2      3903      3904      3908      3907      3919      3920      3924      3923
 -1       743    1    0    1
 -2      3904      3905      3909      3908      3920      3921      3925      3924
 -1       744    1    0    1
 -2      3905      3906      3910      3909      3921      3922      3926      3925
 -1       745    1    0    1
 -2      3906      1312      1313      3910      3922      1316      1317      3926
 -1       746    1    0    1
 -2      1253      3907       282        24      1257      3923      1420       226
 -1       747    1    0    1
 -2      3907      3908       283       282      3923      3924      1419      1420
 -1       748    1    0    1
 -2      3908      3909        28       283      3924      3925      1418      1419
 -1       749    1    0    1
 -2      3909      3910       284        28      3925      3926      1417      1418
 -1       750    1    0    1
 -2      3910      1313        26       284      3926      1317       253      1417
 -1       751    1    0    1
 -2       240      1374      3911      1254       241      1378      3927      1258
 -1       752    1    0    1
 -2      1374      1375      3912      3911      1378      1379      3928      3927
 -1       753    1    0    1
 -2      1375      1376      3913      3912      1379      1380      3929      3928
 -1       754    1    0    1
 -2      1376      1377      3914      3913      1380      1381      3930      3929
 -1       755    1    0    1
 -2      1377       256      1314      3914      1381       255      1318      3930
 -1       756    1    0    1
 -2      1254      3911      3915      1255      1258      3927      3931      1259
 -1       757    1    0    1
 -2      3911      3912      3916      3915      3927      3928      3932      3931
 -1       758    1    0    1
 -2      3912      3913      3917      3916      3928      3929      3933      3932
 -1       759    1    0    1
 -2      3913      3914      3918      3917      3929      3930      3934      3933
 -1       760    1    0    1
 -2      3914      1314      1315      3918      3930      1318      1319      3934
 -1       761    1    0    1
 -2      1255      3915      3919      1256      1259      3931      3935      1260
 -1       762    1    0    1
 -2      3915      3916      3920      3919      3931      3932      3936      3935
 -1       763    1    0    1
 -2      3916      3917      3921      3920      3932      3933      3937      3936
 -1       764    1    0    1
 -2      3917      3918      3922      3921      3933      3934      3938      3937
 -1       765    1    0    1
 -2      3918      1315      1316      3922      3934      1319      1320      3938
 -1       766    1    0    1
 -2      1256      3919      3923      1257      1260      3935      3939      1261
 -1       767    1    0    1
 -2      3919      3920      3924      3923      3935      3936      3940      3939
 -1       768    1    0    1
 -2      3920      3921      3925      3924      3936      3937      3941      3940
 -1       769    1    0    1
 -2      3921      3922      3926      3925      3937      3938      3942      3941
 -1       770    1    0    1
 -2      3922      1316      1317      3926      3938      1320      1321      3942
 -1       771    1    0    1
 -2      1257      3923      1420       226      1261      3939      1424       225
 -1       772    1    0    1
 -2      3923      3924      1419      1420      3939      3940      1423      1424
 -1       773    1    0    1
 -2      3924      3925      1418      1419      3940      3941      1422      1423
 -1       774    1    0    1
 -2      3925      3926      1417      1418      3941      3942      1421      1422
 -1       775    1    0    1
 -2      3926      1317       253      1417      3942      1321       254      1421
 -1       776    1    0    1
 -2       241      1378      3927      1258        19       198      1186       213
 -1       777    1    0    1
 -2      1378      1379      3928      3927       198       199      1187      1186
 -1       778    1    0    1
 -2      1379      1380      3929      3928       199       200      1188      1187
 -1       779    1    0    1
 -2      1380      1381      3930      3929       200       201      1189      1188
 -1       780    1    0    1
 -2      1381       255      1318      3930       201        20       202      1189
 -1       781    1    0    1
 -2      1258      3927      3931      1259       213      1186      1190       212
 -1       782    1    0    1
 -2      3927      3928      3932      3931      1186      1187      1191      1190
 -1       783    1    0    1
 -2      3928      3929      3933      3932      1187      1188      1192      1191
 -1       784    1    0    1
 -2      3929      3930      3934      3933      1188      1189      1193      1192
 -1       785    1    0    1
 -2      3930      1318      1319      3934      1189       202       203      1193
 -1       786    1    0    1
 -2      1259      3931      3935      1260       212      1190      1194       211
 -1       787    1    0    1
 -2      3931      3932      3936      3935      1190      1191      1195      1194
 -1       788    1    0    1
 -2      3932      3933      3937      3936      1191      1192      1196      1195
 -1       789    1    0    1
 -2      3933      3934      3938      3937      1192      1193      1197      1196
 -1       790    1    0    1
 -2      3934      1319      1320      3938      1193       203       204      1197
 -1       791    1    0    1
 -2      1260      3935      3939      1261       211      1194      1198       210
 -1       792    1    0    1
 -2      3935      3936      3940      3939      1194      1195      1199      1198
 -1       793    1    0    1
 -2      3936      3937      3941      3940      1195      1196      1200      1199
 -1       794    1    0    1
 -2      3937      3938      3942      3941      1196      1197      1201      1200
 -1       795    1    0    1
 -2      3938      1320      1321      3942      1197       204       205      1201
 -1       796    1    0    1
 -2      1261      3939      1424       225       210      1198       209        22
 -1       797    1    0    1
 -2      3939      3940      1423      1424      1198      1199       208       209
 -1       798    1    0    1
 -2      3940      3941      1422      1423      1199      1200       207       208
 -1       799    1    0    1
 -2      3941      3942      1421      1422      1200      1201       206       207
 -1       800    1    0    1
 -2      3942      1321       254      1421      1201       205        21       206
 -1       801    1    0    1
 -2        10       125      1154       166       323      1729      3943      1425
 -1       802    1    0    1
 -2       125       124      1155      1154      1729      1730      3944      3943
 -1       803    1    0    1
 -2       124       123      1156      1155      1730      1731      3945      3944
 -1       804    1    0    1
 -2       123       122      1157      1156      1731      1732      3946      3945
 -1       805    1    0    1
 -2       122         9       177      1157      1732       415      1577      3946
 -1       806    1    0    1
 -2       166      1154      1158       167      1425      3943      3947      1426
 -1       807    1    0    1
 -2      1154      1155      1159      1158      3943      3944      3948      3947
 -1       808    1    0    1
 -2      1155      1156      1160      1159      3944      3945      3949      3948
 -1       809    1    0    1
 -2      1156      1157      1161      1160      3945      3946      3950      3949
 -1       810    1    0    1
 -2      1157       177       176      1161      3946      1577      1578      3950
 -1       811    1    0    1
 -2       167      1158      1162       168      1426      3947      3951      1427
 -1       812    1    0    1
 -2      1158      1159      1163      1162      3947      3948      3952      3951
 -1       813    1    0    1
 -2      1159      1160      1164      1163      3948      3949      3953      3952
 -1       814    1    0    1
 -2      1160      1161      1165      1164      3949      3950      3954      3953
 -1       815    1    0    1
 -2      1161       176       175      1165      3950      1578      1579      3954
 -1       816    1    0    1
 -2       168      1162      1166       169      1427      3951      3955      1428
 -1       817    1    0    1
 -2      1162      1163      1167      1166      3951      3952      3956      3955
 -1       818    1    0    1
 -2      1163      1164      1168      1167      3952      3953      3957      3956
 -1       819    1    0    1
 -2      1164      1165      1169      1168      3953      3954      3958      3957
 -1       820    1    0    1
 -2      1165       175       174      1169      3954      1579      1580      3958
 -1       821    1    0    1
 -2       169      1166       147        13      1428      3955      1877       322
 -1       822    1    0    1
 -2      1166      1167       148       147      3955      3956      1878      1877
 -1       823    1    0    1
 -2      1167      1168       149       148      3956      3957      1879      1878
 -1       824    1    0    1
 -2      1168      1169       150       149      3957      3958      1880      1879
 -1       825    1    0    1
 -2      1169       174        12       150      3958      1580       360      1880
 -1       826    1    0    1
 -2       323      1729      3943      1425       324      1733      3959      1429
 -1       827    1    0    1
 -2      1729      1730      3944      3943      1733      1734      3960      3959
 -1       828    1    0    1
 -2      1730      1731      3945      3944      1734      1735      3961      3960
 -1       829    1    0    1
 -2      1731      1732      3946      3945      1735      1736      3962      3961
 -1       830    1    0    1
 -2      1732       415      1577      3946      1736       414      1581      3962
 -1       831    1    0    1
 -2      1425      3943      3947      1426      1429      3959      3963      1430
 -1       832    1    0    1
 -2      3943      3944      3948      3947      3959      3960      3964      3963
 -1       833    1    0    1
 -2      3944      3945      3949      3948      3960      3961      3965      3964
 -1       834    1    0    1
 -2      3945      3946      3950      3949      3961      3962      3966      3965
 -1       835    1    0    1
 -2      3946      1577      1578      3950      3962      1581      1582      3966
 -1       836    1    0    1
 -2      1426      3947      3951      1427      1430      3963      3967      1431
 -1       837    1    0    1
 -2      3947      3948      3952      3951      3963      3964      3968      3967
 -1       838    1    0    1
 -2      3948      3949      3953      3952      3964      3965      3969      3968
 -1       839    1    0    1
 -2      3949      3950      3954      3953      3965      3966      3970      3969
 -1       840    1    0    1
 -2      3950      1578      1579      3954      3966      1582      1583      3970
 -1       841    1    0    1
 -2      1427      3951      3955      1428      1431      3967      3971      1432
 -1       842    1    0    1
 -2      3951      3952      3956      3955      3967      3968      3972      3971
 -1       843    1    0    1
 -2      3952      3953      3957      3956      3968      3969      3973      3972
 -1       844    1    0    1
 -2      3953      3954      3958      3957      3969      3970      3974      3973
 -1       845    1    0    1
 -2      3954      1579      1580      3958      3970      1583      1584      3974
 -1       846    1    0    1
 -2      1428      3955      1877       322      1432      3971      1881       321
 -1       847    1    0    1
 -2      3955      3956      1878      1877      3971      3972      1882      1881
 -1       848    1    0    1
 -2      3956      3957      1879      1878      3972      3973      1883      1882
 -1       849    1    0    1
 -2      3957      3958      1880      1879      3973      3974      1884      1883
 -1       850    1    0    1
 -2      3958      1580       360      1880      3974      1584       361      1884
 -1       851    1    0    1
 -2       324      1733      3959      1429       325      1737      3975      1433
 -1       852    1    0    1
 -2      1733      1734      3960      3959      1737      1738      3976      3975
 -1       853    1    0    1
 -2      1734      1735      3961      3960      1738      1739      3977      3976
 -1       854    1    0    1
 -2      1735      1736      3962      3961      1739      1740      3978      3977
 -1       855    1    0    1
 -2      1736       414      1581      3962      1740       413      1585      3978
 -1       856    1    0    1
 -2      1429      3959      3963      1430      1433      3975      3979      1434
 -1       857    1    0    1
 -2      3959      3960      3964      3963      3975      3976      3980      3979
 -1       858    1    0    1
 -2      3960      3961      3965      3964      3976      3977      3981      3980
 -1       859    1    0    1
 -2      3961      3962      3966      3965      3977      3978      3982      3981
 -1       860    1    0    1
 -2      3962      1581      1582      3966      3978      1585      1586      3982
 -1       861    1    0    1
 -2      1430      3963      3967      1431      1434      3979      3983      1435
 -1       862    1    0    1
 -2      3963      3964      3968      3967      3979      3980      3984      3983
 -1       863    1    0    1
 -2      3964      3965      3969      3968      3980      3981      3985      3984
 -1       864    1    0    1
 -2      3965      3966      3970      3969      3981      3982      3986      3985
 -1       865    1    0    1
 -2      3966      1582      1583      3970      3982      1586      1587      3986
 -1       866    1    0    1
 -2      1431      3967      3971      1432      1435      3983      3987      1436
 -1       867    1    0    1
 -2      3967      3968      3972      3971      3983      3984      3988      3987
 -1       868    1    0    1
 -2      3968      3969      3973      3972      3984      3985      3989      3988
 -1       869    1    0    1
 -2      3969      3970      3974      3973      3985      3986      3990      3989
 -1       870    1    0    1
 -2      3970      1583      1584      3974      3986      1587      1588      3990
 -1       871    1    0    1
 -2      1432      3971      1881       321      1436      3987      1885       320
 -1       872    1    0    1
 -2      3971      3972      1882      1881      3987      3988      1886      1885
 -1       873    1    0    1
 -2      3972      3973      1883      1882      3988      3989      1887      1886
 -1       874    1    0    1
 -2      3973      3974      1884      1883      3989      3990      1888      1887
 -1       875    1    0    1
 -2      3974      1584       361      1884      3990      1588       362      1888
 -1       876    1    0    1
 -2       325      1737      3975      1433       326      1741      3991      1437
 -1       877    1    0    1
 -2      1737      1738      3976      3975      1741      1742      3992      3991
 -1       878    1    0    1
 -2      1738      1739      3977      3976      1742      1743      3993      3992
 -1       879    1    0    1
 -2      1739      1740      3978      3977      1743      1744      3994      3993
 -1       880    1    0    1
 -2      1740       413      1585      3978      1744       412      1589      3994
 -1       881    1    0    1
 -2      1433      3975      3979      1434      1437      3991      3995      1438
 -1       882    1    0    1
 -2      3975      3976      3980      3979      3991      3992      3996      3995
 -1       883    1    0    1
 -2      3976      3977      3981      3980      3992      3993      3997      3996
 -1       884    1    0    1
 -2      3977      3978      3982      3981      3993      3994      3998      3997
 -1       885    1    0    1
 -2      3978      1585      1586      3982      3994      1589      1590      3998
 -1       886    1    0    1
 -2      1434      3979      3983      1435      1438      3995      3999      1439
 -1       887    1    0    1
 -2      3979      3980      3984      3983      3995      3996      4000      3999
 -1       888    1    0    1
 -2      3980      3981      3985      3984      3996      3997      4001      4000
 -1       889    1    0    1
 -2      3981      3982      3986      3985      3997      3998      4002      4001
 -1       890    1    0    1
 -2      3982      1586      1587      3986      3998      1590      1591      4002
 -1       891    1    0    1
 -2      1435      3983      3987      1436      1439      3999      4003      1440
 -1       892    1    0    1
 -2      3983      3984      3988      3987      3999      4000      4004      4003
 -1       893    1    0    1
 -2      3984      3985      3989      3988      4000      4001      4005      4004
 -1       894    1    0    1
 -2      3985      3986      3990      3989      4001      4002      4006      4005
 -1       895    1    0    1
 -2      3986      1587      1588      3990      4002      1591      1592      4006
 -1       896    1    0    1
 -2      1436      3987      1885       320      1440      4003      1889       319
 -1       897    1    0    1
 -2      3987      3988      1886      1885      4003      4004      1890      1889
 -1       898    1    0    1
 -2      3988      3989      1887      1886      4004      4005      1891      1890
 -1       899    1    0    1
 -2      3989      3990      1888      1887      4005      4006      1892      1891
 -1       900    1    0    1
 -2      3990      1588       362      1888      4006      1592       363      1892
 -1       901    1    0    1
 -2       326      1741      3991      1437       327      1745      4007      1441
 -1       902    1    0    1
 -2      1741      1742      3992      3991      1745      1746      4008      4007
 -1       903    1    0    1
 -2      1742      1743      3993      3992      1746      1747      4009      4008
 -1       904    1    0    1
 -2      1743      1744      3994      3993      1747      1748      4010      4009
 -1       905    1    0    1
 -2      1744       412      1589      3994      1748       411      1593      4010
 -1       906    1    0    1
 -2      1437      3991      3995      1438      1441      4007      4011      1442
 -1       907    1    0    1
 -2      3991      3992      3996      3995      4007      4008      4012      4011
 -1       908    1    0    1
 -2      3992      3993      3997      3996      4008      4009      4013      4012
 -1       909    1    0    1
 -2      3993      3994      3998      3997      4009      4010      4014      4013
 -1       910    1    0    1
 -2      3994      1589      1590      3998      4010      1593      1594      4014
 -1       911    1    0    1
 -2      1438      3995      3999      1439      1442      4011      4015      1443
 -1       912    1    0    1
 -2      3995      3996      4000      3999      4011      4012      4016      4015
 -1       913    1    0    1
 -2      3996      3997      4001      4000      4012      4013      4017      4016
 -1       914    1    0    1
 -2      3997      3998      4002      4001      4013      4014      4018      4017
 -1       915    1    0    1
 -2      3998      1590      1591      4002      4014      1594      1595      4018
 -1       916    1    0    1
 -2      1439      3999      4003      1440      1443      4015      4019      1444
 -1       917    1    0    1
 -2      3999      4000      4004      4003      4015      4016      4020      4019
 -1       918    1    0    1
 -2      4000      4001      4005      4004      4016      4017      4021      4020
 -1       919    1    0    1
 -2      4001      4002      4006      4005      4017      4018      4022      4021
 -1       920    1    0    1
 -2      4002      1591      1592      4006      4018      1595      1596      4022
 -1       921    1    0    1
 -2      1440      4003      1889       319      1444      4019      1893       318
 -1       922    1    0    1
 -2      4003      4004      1890      1889      4019      4020      1894      1893
 -1       923    1    0    1
 -2      4004      4005      1891      1890      4020      4021      1895      1894
 -1       924    1    0    1
 -2      4005      4006      1892      1891      4021      4022      1896      1895
 -1       925    1    0    1
 -2      4006      1592       363      1892      4022      1596       364      1896
 -1       926    1    0    1
 -2       327      1745      4007      1441       328      1749      4023      1445
 -1       927    1    0    1
 -2      1745      1746      4008      4007      1749      1750      4024      4023
 -1       928    1    0    1
 -2      1746      1747      4009      4008      1750      1751      4025      4024
 -1       929    1    0    1
 -2      1747      1748      4010      4009      1751      1752      4026      4025
 -1       930    1    0    1
 -2      1748       411      1593      4010      1752       410      1597      4026
 -1       931    1    0    1
 -2      1441      4007      4011      1442      1445      4023      4027      1446
 -1       932    1    0    1
 -2      4007      4008      4012      4011      4023      4024      4028      4027
 -1       933    1    0    1
 -2      4008      4009      4013      4012      4024      4025      4029      4028
 -1       934    1    0    1
 -2      4009      4010      4014      4013      4025      4026      4030      4029
 -1       935    1    0    1
 -2      4010      1593      1594      4014      4026      1597      1598      4030
 -1       936    1    0    1
 -2      1442      4011      4015      1443      1446      4027      4031      1447
 -1       937    1    0    1
 -2      4011      4012      4016      4015      4027      4028      4032      4031
 -1       938    1    0    1
 -2      4012      4013      4017      4016      4028      4029      4033      4032
 -1       939    1    0    1
 -2      4013      4014      4018      4017      4029      4030      4034      4033
 -1       940    1    0    1
 -2      4014      1594      1595      4018      4030      1598      1599      4034
 -1       941    1    0    1
 -2      1443      4015      4019      1444      1447      4031      4035      1448
 -1       942    1    0    1
 -2      4015      4016      4020      4019      4031      4032      4036      4035
 -1       943    1    0    1
 -2      4016      4017      4021      4020      4032      4033      4037      4036
 -1       944    1    0    1
 -2      4017      4018      4022      4021      4033      4034      4038      4037
 -1       945    1    0    1
 -2      4018      1595      1596      4022      4034      1599      1600      4038
 -1       946    1    0    1
 -2      1444      4019      1893       318      1448      4035      1897       317
 -1       947    1    0    1
 -2      4019      4020      1894      1893      4035      4036      1898      1897
 -1       948    1    0    1
 -2      4020      4021      1895      1894      4036      4037      1899      1898
 -1       949    1    0    1
 -2      4021      4022      1896      1895      4037      4038      1900      1899
 -1       950    1    0    1
 -2      4022      1596       364      1896      4038      1600       365      1900
 -1       951    1    0    1
 -2       328      1749      4023      1445       329      1753      4039      1449
 -1       952    1    0    1
 -2      1749      1750      4024      4023      1753      1754      4040      4039
 -1       953    1    0    1
 -2      1750      1751      4025      4024      1754      1755      4041      4040
 -1       954    1    0    1
 -2      1751      1752      4026      4025      1755      1756      4042      4041
 -1       955    1    0    1
 -2      1752       410      1597      4026      1756       409      1601      4042
 -1       956    1    0    1
 -2      1445      4023      4027      1446      1449      4039      4043      1450
 -1       957    1    0    1
 -2      4023      4024      4028      4027      4039      4040      4044      4043
 -1       958    1    0    1
 -2      4024      4025      4029      4028      4040      4041      4045      4044
 -1       959    1    0    1
 -2      4025      4026      4030      4029      4041      4042      4046      4045
 -1       960    1    0    1
 -2      4026      1597      1598      4030      4042      1601      1602      4046
 -1       961    1    0    1
 -2      1446      4027      4031      1447      1450      4043      4047      1451
 -1       962    1    0    1
 -2      4027      4028      4032      4031      4043      4044      4048      4047
 -1       963    1    0    1
 -2      4028      4029      4033      4032      4044      4045      4049      4048
 -1       964    1    0    1
 -2      4029      4030      4034      4033      4045      4046      4050      4049
 -1       965    1    0    1
 -2      4030      1598      1599      4034      4046      1602      1603      4050
 -1       966    1    0    1
 -2      1447      4031      4035      1448      1451      4047      4051      1452
 -1       967    1    0    1
 -2      4031      4032      4036      4035      4047      4048      4052      4051
 -1       968    1    0    1
 -2      4032      4033      4037      4036      4048      4049      4053      4052
 -1       969    1    0    1
 -2      4033      4034      4038      4037      4049      4050      4054      4053
 -1       970    1    0    1
 -2      4034      1599      1600      4038      4050      1603      1604      4054
 -1       971    1    0    1
 -2      1448      4035      1897       317      1452      4051      1901       316
 -1       972    1    0    1
 -2      4035      4036      1898      1897      4051      4052      1902      1901
 -1       973    1    0    1
 -2      4036      4037      1899      1898      4052      4053      1903      1902
 -1       974    1    0    1
 -2      4037      4038      1900      1899      4053      4054      1904      1903
 -1       975    1    0    1
 -2      4038      1600       365      1900      4054      1604       366      1904
 -1       976    1    0    1
 -2       329      1753      4039      1449       330      1757      4055      1453
 -1       977    1    0    1
 -2      1753      1754      4040      4039      1757      1758      4056      4055
 -1       978    1    0    1
 -2      1754      1755      4041      4040      1758      1759      4057      4056
 -1       979    1    0    1
 -2      1755      1756      4042      4041      1759      1760      4058      4057
 -1       980    1    0    1
 -2      1756       409      1601      4042      1760       408      1605      4058
 -1       981    1    0    1
 -2      1449      4039      4043      1450      1453      4055      4059      1454
 -1       982    1    0    1
 -2      4039      4040      4044      4043      4055      4056      4060      4059
 -1       983    1    0    1
 -2      4040      4041      4045      4044      4056      4057      4061      4060
 -1       984    1    0    1
 -2      4041      4042      4046      4045      4057      4058      4062      4061
 -1       985    1    0    1
 -2      4042      1601      1602      4046      4058      1605      1606      4062
 -1       986    1    0    1
 -2      1450      4043      4047      1451      1454      4059      4063      1455
 -1       987    1    0    1
 -2      4043      4044      4048      4047      4059      4060      4064      4063
 -1       988    1    0    1
 -2      4044      4045      4049      4048      4060      4061      4065      4064
 -1       989    1    0    1
 -2      4045      4046      4050      4049      4061      4062      4066      4065
 -1       990    1    0    1
 -2      4046      1602      1603      4050      4062      1606      1607      4066
 -1       991    1    0    1
 -2      1451      4047      4051      1452      1455      4063      4067      1456
 -1       992    1    0    1
 -2      4047      4048      4052      4051      4063      4064      4068      4067
 -1       993    1    0    1
 -2      4048      4049      4053      4052      4064      4065      4069      4068
 -1       994    1    0    1
 -2      4049      4050      4054      4053      4065      4066      4070      4069
 -1       995    1    0    1
 -2      4050      1603      1604      4054      4066      1607      1608      4070
 -1       996    1    0    1
 -2      1452      4051      1901       316      1456      4067      1905       315
 -1       997    1    0    1
 -2      4051      4052      1902      1901      4067      4068      1906      1905
 -1       998    1    0    1
 -2      4052      4053      1903      1902      4068      4069      1907      1906
 -1       999    1    0    1
 -2      4053      4054      1904      1903      4069      4070      1908      1907
 -1      1000    1    0    1
 -2      4054      1604       366      1904      4070      1608       367      1908
 -1      1001    1    0    1
 -2       330      1757      4055      1453       331      1761      4071      1457
 -1      1002    1    0    1
 -2      1757      1758      4056      4055      1761      1762      4072      4071
 -1      1003    1    0    1
 -2      1758      1759      4057      4056      1762      1763      4073      4072
 -1      1004    1    0    1
 -2      1759      1760      4058      4057      1763      1764      4074      4073
 -1      1005    1    0    1
 -2      1760       408      1605      4058      1764       407      1609      4074
 -1      1006    1    0    1
 -2      1453      4055      4059      1454      1457      4071      4075      1458
 -1      1007    1    0    1
 -2      4055      4056      4060      4059      4071      4072      4076      4075
 -1      1008    1    0    1
 -2      4056      4057      4061      4060      4072      4073      4077      4076
 -1      1009    1    0    1
 -2      4057      4058      4062      4061      4073      4074      4078      4077
 -1      1010    1    0    1
 -2      4058      1605      1606      4062      4074      1609      1610      4078
 -1      1011    1    0    1
 -2      1454      4059      4063      1455      1458      4075      4079      1459
 -1      1012    1    0    1
 -2      4059      4060      4064      4063      4075      4076      4080      4079
 -1      1013    1    0    1
 -2      4060      4061      4065      4064      4076      4077      4081      4080
 -1      1014    1    0    1
 -2      4061      4062      4066      4065      4077      4078      4082      4081
 -1      1015    1    0    1
 -2      4062      1606      1607      4066      4078      1610      1611      4082
 -1      1016    1    0    1
 -2      1455      4063      4067      1456      1459      4079      4083      1460
 -1      1017    1    0    1
 -2      4063      4064      4068      4067      4079      4080      4084      4083
 -1      1018    1    0    1
 -2      4064      4065      4069      4068      4080      4081      4085      4084
 -1      1019    1    0    1
 -2      4065      4066      4070      4069      4081      4082      4086      4085
 -1      1020    1    0    1
 -2      4066      1607      1608      4070      4082      1611      1612      4086
 -1      1021    1    0    1
 -2      1456      4067      1905       315      1460      4083      1909       314
 -1      1022    1    0    1
 -2      4067      4068      1906      1905      4083      4084      1910      1909
 -1      1023    1    0    1
 -2      4068      4069      1907      1906      4084      4085      1911      1910
 -1      1024    1    0    1
 -2      4069      4070      1908      1907      4085      4086      1912      1911
 -1      1025    1    0    1
 -2      4070      1608       367      1908      4086      1612       368      1912
 -1      1026    1    0    1
 -2       331      1761      4071      1457       332      1765      4087      1461
 -1      1027    1    0    1
 -2      1761      1762      4072      4071      1765      1766      4088      4087
 -1      1028    1    0    1
 -2      1762      1763      4073      4072      1766      1767      4089      4088
 -1      1029    1    0    1
 -2      1763      1764      4074      4073      1767      1768      4090      4089
 -1      1030    1    0    1
 -2      1764       407      1609      4074      1768       406      1613      4090
 -1      1031    1    0    1
 -2      1457      4071      4075      1458      1461      4087      4091      1462
 -1      1032    1    0    1
 -2      4071      4072      4076      4075      4087      4088      4092      4091
 -1      1033    1    0    1
 -2      4072      4073      4077      4076      4088      4089      4093      4092
 -1      1034    1    0    1
 -2      4073      4074      4078      4077      4089      4090      4094      4093
 -1      1035    1    0    1
 -2      4074      1609      1610      4078      4090      1613      1614      4094
 -1      1036    1    0    1
 -2      1458      4075      4079      1459      1462      4091      4095      1463
 -1      1037    1    0    1
 -2      4075      4076      4080      4079      4091      4092      4096      4095
 -1      1038    1    0    1
 -2      4076      4077      4081      4080      4092      4093      4097      4096
 -1      1039    1    0    1
 -2      4077      4078      4082      4081      4093      4094      4098      4097
 -1      1040    1    0    1
 -2      4078      1610      1611      4082      4094      1614      1615      4098
 -1      1041    1    0    1
 -2      1459      4079      4083      1460      1463      4095      4099      1464
 -1      1042    1    0    1
 -2      4079      4080      4084      4083      4095      4096      4100      4099
 -1      1043    1    0    1
 -2      4080      4081      4085      4084      4096      4097      4101      4100
 -1      1044    1    0    1
 -2      4081      4082      4086      4085      4097      4098      4102      4101
 -1      1045    1    0    1
 -2      4082      1611      1612      4086      4098      1615      1616      4102
 -1      1046    1    0    1
 -2      1460      4083      1909       314      1464      4099      1913       313
 -1      1047    1    0    1
 -2      4083      4084      1910      1909      4099      4100      1914      1913
 -1      1048    1    0    1
 -2      4084      4085      1911      1910      4100      4101      1915      1914
 -1      1049    1    0    1
 -2      4085      4086      1912      1911      4101      4102      1916      1915
 -1      1050    1    0    1
 -2      4086      1612       368      1912      4102      1616       369      1916
 -1      1051    1    0    1
 -2       332      1765      4087      1461       333      1769      4103      1465
 -1      1052    1    0    1
 -2      1765      1766      4088      4087      1769      1770      4104      4103
 -1      1053    1    0    1
 -2      1766      1767      4089      4088      1770      1771      4105      4104
 -1      1054    1    0    1
 -2      1767      1768      4090      4089      1771      1772      4106      4105
 -1      1055    1    0    1
 -2      1768       406      1613      4090      1772       405      1617      4106
 -1      1056    1    0    1
 -2      1461      4087      4091      1462      1465      4103      4107      1466
 -1      1057    1    0    1
 -2      4087      4088      4092      4091      4103      4104      4108      4107
 -1      1058    1    0    1
 -2      4088      4089      4093      4092      4104      4105      4109      4108
 -1      1059    1    0    1
 -2      4089      4090      4094      4093      4105      4106      4110      4109
 -1      1060    1    0    1
 -2      4090      1613      1614      4094      4106      1617      1618      4110
 -1      1061    1    0    1
 -2      1462      4091      4095      1463      1466      4107      4111      1467
 -1      1062    1    0    1
 -2      4091      4092      4096      4095      4107      4108      4112      4111
 -1      1063    1    0    1
 -2      4092      4093      4097      4096      4108      4109      4113      4112
 -1      1064    1    0    1
 -2      4093      4094      4098      4097      4109      4110      4114      4113
 -1      1065    1    0    1
 -2      4094      1614      1615      4098      4110      1618      1619      4114
 -1      1066    1    0    1
 -2      1463      4095      4099      1464      1467      4111      4115      1468
 -1      1067    1    0    1
 -2      4095      4096      4100      4099      4111      4112      4116      4115
 -1      1068    1    0    1
 -2      4096      4097      4101      4100      4112      4113      4117      4116
 -1      1069    1    0    1
 -2      4097      4098      4102      4101      4113      4114      4118      4117
 -1      1070    1    0    1
 -2      4098      1615      1616      4102      4114      1619      1620      4118
 -1      1071    1    0    1
 -2      1464      4099      1913       313      1468      4115      1917       312
 -1      1072    1    0    1
 -2      4099      4100      1914      1913      4115      4116      1918      1917
 -1      1073    1    0    1
 -2      4100      4101      1915      1914      4116      4117      1919      1918
 -1      1074    1    0    1
 -2      4101      4102      1916      1915      4117      4118      1920      1919
 -1      1075    1    0    1
 -2      4102      1616       369      1916      4118      1620       370      1920
 -1      1076    1    0    1
 -2       333      1769      4103      1465       334      1773      4119      1469
 -1      1077    1    0    1
 -2      1769      1770      4104      4103      1773      1774      4120      4119
 -1      1078    1    0    1
 -2      1770      1771      4105      4104      1774      1775      4121      4120
 -1      1079    1    0    1
 -2      1771      1772      4106      4105      1775      1776      4122      4121
 -1      1080    1    0    1
 -2      1772       405      1617      4106      1776       404      1621      4122
 -1      1081    1    0    1
 -2      1465      4103      4107      1466      1469      4119      4123      1470
 -1      1082    1    0    1
 -2      4103      4104      4108      4107      4119      4120      4124      4123
 -1      1083    1    0    1
 -2      4104      4105      4109      4108      4120      4121      4125      4124
 -1      1084    1    0    1
 -2      4105      4106      4110      4109      4121      4122      4126      4125
 -1      1085    1    0    1
 -2      4106      1617      1618      4110      4122      1621      1622      4126
 -1      1086    1    0    1
 -2      1466      4107      4111      1467      1470      4123      4127      1471
 -1      1087    1    0    1
 -2      4107      4108      4112      4111      4123      4124      4128      4127
 -1      1088    1    0    1
 -2      4108      4109      4113      4112      4124      4125      4129      4128
 -1      1089    1    0    1
 -2      4109      4110      4114      4113      4125      4126      4130      4129
 -1      1090    1    0    1
 -2      4110      1618      1619      4114      4126      1622      1623      4130
 -1      1091    1    0    1
 -2      1467      4111      4115      1468      1471      4127      4131      1472
 -1      1092    1    0    1
 -2      4111      4112      4116      4115      4127      4128      4132      4131
 -1      1093    1    0    1
 -2      4112      4113      4117      4116      4128      4129      4133      4132
 -1      1094    1    0    1
 -2      4113      4114      4118      4117      4129      4130      4134      4133
 -1      1095    1    0    1
 -2      4114      1619      1620      4118      4130      1623      1624      4134
 -1      1096    1    0    1
 -2      1468      4115      1917       312      1472      4131      1921       311
 -1      1097    1    0    1
 -2      4115      4116      1918      1917      4131      4132      1922      1921
 -1      1098    1    0    1
 -2      4116      4117      1919      1918      4132      4133      1923      1922
 -1      1099    1    0    1
 -2      4117      4118      1920      1919      4133      4134      1924      1923
 -1      1100    1    0    1
 -2      4118      1620       370      1920      4134      1624       371      1924
 -1      1101    1    0    1
 -2       334      1773      4119      1469       335      1777      4135      1473
 -1      1102    1    0    1
 -2      1773      1774      4120      4119      1777      1778      4136      4135
 -1      1103    1    0    1
 -2      1774      1775      4121      4120      1778      1779      4137      4136
 -1      1104    1    0    1
 -2      1775      1776      4122      4121      1779      1780      4138      4137
 -1      1105    1    0    1
 -2      1776       404      1621      4122      1780       403      1625      4138
 -1      1106    1    0    1
 -2      1469      4119      4123      1470      1473      4135      4139      1474
 -1      1107    1    0    1
 -2      4119      4120      4124      4123      4135      4136      4140      4139
 -1      1108    1    0    1
 -2      4120      4121      4125      4124      4136      4137      4141      4140
 -1      1109    1    0    1
 -2      4121      4122      4126      4125      4137      4138      4142      4141
 -1      1110    1    0    1
 -2      4122      1621      1622      4126      4138      1625      1626      4142
 -1      1111    1    0    1
 -2      1470      4123      4127      1471      1474      4139      4143      1475
 -1      1112    1    0    1
 -2      4123      4124      4128      4127      4139      4140      4144      4143
 -1      1113    1    0    1
 -2      4124      4125      4129      4128      4140      4141      4145      4144
 -1      1114    1    0    1
 -2      4125      4126      4130      4129      4141      4142      4146      4145
 -1      1115    1    0    1
 -2      4126      1622      1623      4130      4142      1626      1627      4146
 -1      1116    1    0    1
 -2      1471      4127      4131      1472      1475      4143      4147      1476
 -1      1117    1    0    1
 -2      4127      4128      4132      4131      4143      4144      4148      4147
 -1      1118    1    0    1
 -2      4128      4129      4133      4132      4144      4145      4149      4148
 -1      1119    1    0    1
 -2      4129      4130      4134      4133      4145      4146      4150      4149
 -1      1120    1    0    1
 -2      4130      1623      1624      4134      4146      1627      1628      4150
 -1      1121    1    0    1
 -2      1472      4131      1921       311      1476      4147      1925       310
 -1      1122    1    0    1
 -2      4131      4132      1922      1921      4147      4148      1926      1925
 -1      1123    1    0    1
 -2      4132      4133      1923      1922      4148      4149      1927      1926
 -1      1124    1    0    1
 -2      4133      4134      1924      1923      4149      4150      1928      1927
 -1      1125    1    0    1
 -2      4134      1624       371      1924      4150      1628       372      1928
 -1      1126    1    0    1
 -2       335      1777      4135      1473       336      1781      4151      1477
 -1      1127    1    0    1
 -2      1777      1778      4136      4135      1781      1782      4152      4151
 -1      1128    1    0    1
 -2      1778      1779      4137      4136      1782      1783      4153      4152
 -1      1129    1    0    1
 -2      1779      1780      4138      4137      1783      1784      4154      4153
 -1      1130    1    0    1
 -2      1780       403      1625      4138      1784       402      1629      4154
 -1      1131    1    0    1
 -2      1473      4135      4139      1474      1477      4151      4155      1478
 -1      1132    1    0    1
 -2      4135      4136      4140      4139      4151      4152      4156      4155
 -1      1133    1    0    1
 -2      4136      4137      4141      4140      4152      4153      4157      4156
 -1      1134    1    0    1
 -2      4137      4138      4142      4141      4153      4154      4158      4157
 -1      1135    1    0    1
 -2      4138      1625      1626      4142      4154      1629      1630      4158
 -1      1136    1    0    1
 -2      1474      4139      4143      1475      1478      4155      4159      1479
 -1      1137    1    0    1
 -2      4139      4140      4144      4143      4155      4156      4160      4159
 -1      1138    1    0    1
 -2      4140      4141      4145      4144      4156      4157      4161      4160
 -1      1139    1    0    1
 -2      4141      4142      4146      4145      4157      4158      4162      4161
 -1      1140    1    0    1
 -2      4142      1626      1627      4146      4158      1630      1631      4162
 -1      1141    1    0    1
 -2      1475      4143      4147      1476      1479      4159      4163      1480
 -1      1142    1    0    1
 -2      4143      4144      4148      4147      4159      4160      4164      4163
 -1      1143    1    0    1
 -2      4144      4145      4149      4148      4160      4161      4165      4164
 -1      1144    1    0    1
 -2      4145      4146      4150      4149      4161      4162      4166      4165
 -1      1145    1    0    1
 -2      4146      1627      1628      4150      4162      1631      1632      4166
 -1      1146    1    0    1
 -2      1476      4147      1925       310      1480      4163      1929       309
 -1      1147    1    0    1
 -2      4147      4148      1926      1925      4163      4164      1930      1929
 -1      1148    1    0    1
 -2      4148      4149      1927      1926      4164      4165      1931      1930
 -1      1149    1    0    1
 -2      4149      4150      1928      1927      4165      4166      1932      1931
 -1      1150    1    0    1
 -2      4150      1628       372      1928      4166      1632       373      1932
 -1      1151    1    0    1
 -2       336      1781      4151      1477       337      1785      4167      1481
 -1      1152    1    0    1
 -2      1781      1782      4152      4151      1785      1786      4168      4167
 -1      1153    1    0    1
 -2      1782      1783      4153      4152      1786      1787      4169      4168
 -1      1154    1    0    1
 -2      1783      1784      4154      4153      1787      1788      4170      4169
 -1      1155    1    0    1
 -2      1784       402      1629      4154      1788       401      1633      4170
 -1      1156    1    0    1
 -2      1477      4151      4155      1478      1481      4167      4171      1482
 -1      1157    1    0    1
 -2      4151      4152      4156      4155      4167      4168      4172      4171
 -1      1158    1    0    1
 -2      4152      4153      4157      4156      4168      4169      4173      4172
 -1      1159    1    0    1
 -2      4153      4154      4158      4157      4169      4170      4174      4173
 -1      1160    1    0    1
 -2      4154      1629      1630      4158      4170      1633      1634      4174
 -1      1161    1    0    1
 -2      1478      4155      4159      1479      1482      4171      4175      1483
 -1      1162    1    0    1
 -2      4155      4156      4160      4159      4171      4172      4176      4175
 -1      1163    1    0    1
 -2      4156      4157      4161      4160      4172      4173      4177      4176
 -1      1164    1    0    1
 -2      4157      4158      4162      4161      4173      4174      4178      4177
 -1      1165    1    0    1
 -2      4158      1630      1631      4162      4174      1634      1635      4178
 -1      1166    1    0    1
 -2      1479      4159      4163      1480      1483      4175      4179      1484
 -1      1167    1    0    1
 -2      4159      4160      4164      4163      4175      4176      4180      4179
 -1      1168    1    0    1
 -2      4160      4161      4165      4164      4176      4177      4181      4180
 -1      1169    1    0    1
 -2      4161      4162      4166      4165      4177      4178      4182      4181
 -1      1170    1    0    1
 -2      4162      1631      1632      4166      4178      1635      1636      4182
 -1      1171    1    0    1
 -2      1480      4163      1929       309      1484      4179      1933       308
 -1      1172    1    0    1
 -2      4163      4164      1930      1929      4179      4180      1934      1933
 -1      1173    1    0    1
 -2      4164      4165      1931      1930      4180      4181      1935      1934
 -1      1174    1    0    1
 -2      4165      4166      1932      1931      4181      4182      1936      1935
 -1      1175    1    0    1
 -2      4166      1632       373      1932      4182      1636       374      1936
 -1      1176    1    0    1
 -2       337      1785      4167      1481       338      1789      4183      1485
 -1      1177    1    0    1
 -2      1785      1786      4168      4167      1789      1790      4184      4183
 -1      1178    1    0    1
 -2      1786      1787      4169      4168      1790      1791      4185      4184
 -1      1179    1    0    1
 -2      1787      1788      4170      4169      1791      1792      4186      4185
 -1      1180    1    0    1
 -2      1788       401      1633      4170      1792       400      1637      4186
 -1      1181    1    0    1
 -2      1481      4167      4171      1482      1485      4183      4187      1486
 -1      1182    1    0    1
 -2      4167      4168      4172      4171      4183      4184      4188      4187
 -1      1183    1    0    1
 -2      4168      4169      4173      4172      4184      4185      4189      4188
 -1      1184    1    0    1
 -2      4169      4170      4174      4173      4185      4186      4190      4189
 -1      1185    1    0    1
 -2      4170      1633      1634      4174      4186      1637      1638      4190
 -1      1186    1    0    1
 -2      1482      4171      4175      1483      1486      4187      4191      1487
 -1      1187    1    0    1
 -2      4171      4172      4176      4175      4187      4188      4192      4191
 -1      1188    1    0    1
 -2      4172      4173      4177      4176      4188      4189      4193      4192
 -1      1189    1    0    1
 -2      4173      4174      4178      4177      4189      4190      4194      4193
 -1      1190    1    0    1
 -2      4174      1634      1635      4178      4190      1638      1639      4194
 -1      1191    1    0    1
 -2      1483      4175      4179      1484      1487      4191      4195      1488
 -1      1192    1    0    1
 -2      4175      4176      4180      4179      4191      4192      4196      4195
 -1      1193    1    0    1
 -2      4176      4177      4181      4180      4192      4193      4197      4196
 -1      1194    1    0    1
 -2      4177      4178      4182      4181      4193      4194      4198      4197
 -1      1195    1    0    1
 -2      4178      1635      1636      4182      4194      1639      1640      4198
 -1      1196    1    0    1
 -2      1484      4179      1933       308      1488      4195      1937       307
 -1      1197    1    0    1
 -2      4179      4180      1934      1933      4195      4196      1938      1937
 -1      1198    1    0    1
 -2      4180      4181      1935      1934      4196      4197      1939      1938
 -1      1199    1    0    1
 -2      4181      4182      1936      1935      4197      4198      1940      1939
 -1      1200    1    0    1
 -2      4182      1636       374      1936      4198      1640       375      1940
 -1      1201    1    0    1
 -2       338      1789      4183      1485       339      1793      4199      1489
 -1      1202    1    0    1
 -2      1789      1790      4184      4183      1793      1794      4200      4199
 -1      1203    1    0    1
 -2      1790      1791      4185      4184      1794      1795      4201      4200
 -1      1204    1    0    1
 -2      1791      1792      4186      4185      1795      1796      4202      4201
 -1      1205    1    0    1
 -2      1792       400      1637      4186      1796       399      1641      4202
 -1      1206    1    0    1
 -2      1485      4183      4187      1486      1489      4199      4203      1490
 -1      1207    1    0    1
 -2      4183      4184      4188      4187      4199      4200      4204      4203
 -1      1208    1    0    1
 -2      4184      4185      4189      4188      4200      4201      4205      4204
 -1      1209    1    0    1
 -2      4185      4186      4190      4189      4201      4202      4206      4205
 -1      1210    1    0    1
 -2      4186      1637      1638      4190      4202      1641      1642      4206
 -1      1211    1    0    1
 -2      1486      4187      4191      1487      1490      4203      4207      1491
 -1      1212    1    0    1
 -2      4187      4188      4192      4191      4203      4204      4208      4207
 -1      1213    1    0    1
 -2      4188      4189      4193      4192      4204      4205      4209      4208
 -1      1214    1    0    1
 -2      4189      4190      4194      4193      4205      4206      4210      4209
 -1      1215    1    0    1
 -2      4190      1638      1639      4194      4206      1642      1643      4210
 -1      1216    1    0    1
 -2      1487      4191      4195      1488      1491      4207      4211      1492
 -1      1217    1    0    1
 -2      4191      4192      4196      4195      4207      4208      4212      4211
 -1      1218    1    0    1
 -2      4192      4193      4197      4196      4208      4209      4213      4212
 -1      1219    1    0    1
 -2      4193      4194      4198      4197      4209      4210      4214      4213
 -1      1220    1    0    1
 -2      4194      1639      1640      4198      4210      1643      1644      4214
 -1      1221    1    0    1
 -2      1488      4195      1937       307      1492      4211      1941       306
 -1      1222    1    0    1
 -2      4195      4196      1938      1937      4211      4212      1942      1941
 -1      1223    1    0    1
 -2      4196      4197      1939      1938      4212      4213      1943      1942
 -1      1224    1    0    1
 -2      4197      4198      1940      1939      4213      4214      1944      1943
 -1      1225    1    0    1
 -2      4198      1640       375      1940      4214      1644       376      1944
 -1      1226    1    0    1
 -2       339      1793      4199      1489       340      1797      4215      1493
 -1      1227    1    0    1
 -2      1793      1794      4200      4199      1797      1798      4216      4215
 -1      1228    1    0    1
 -2      1794      1795      4201      4200      1798      1799      4217      4216
 -1      1229    1    0    1
 -2      1795      1796      4202      4201      1799      1800      4218      4217
 -1      1230    1    0    1
 -2      1796       399      1641      4202      1800       398      1645      4218
 -1      1231    1    0    1
 -2      1489      4199      4203      1490      1493      4215      4219      1494
 -1      1232    1    0    1
 -2      4199      4200      4204      4203      4215      4216      4220      4219
 -1      1233    1    0    1
 -2      4200      4201      4205      4204      4216      4217      4221      4220
 -1      1234    1    0    1
 -2      4201      4202      4206      4205      4217      4218      4222      4221
 -1      1235    1    0    1
 -2      4202      1641      1642      4206      4218      1645      1646      4222
 -1      1236    1    0    1
 -2      1490      4203      4207      1491      1494      4219      4223      1495
 -1      1237    1    0    1
 -2      4203      4204      4208      4207      4219      4220      4224      4223
 -1      1238    1    0    1
 -2      4204      4205      4209      4208      4220      4221      4225      4224
 -1      1239    1    0    1
 -2      4205      4206      4210      4209      4221      4222      4226      4225
 -1      1240    1    0    1
 -2      4206      1642      1643      4210      4222      1646      1647      4226
 -1      1241    1    0    1
 -2      1491      4207      4211      1492      1495      4223      4227      1496
 -1      1242    1    0    1
 -2      4207      4208      4212      4211      4223      4224      4228      4227
 -1      1243    1    0    1
 -2      4208      4209      4213      4212      4224      4225      4229      4228
 -1      1244    1    0    1
 -2      4209      4210      4214      4213      4225      4226      4230      4229
 -1      1245    1    0    1
 -2      4210      1643      1644      4214      4226      1647      1648      4230
 -1      1246    1    0    1
 -2      1492      4211      1941       306      1496      4227      1945       305
 -1      1247    1    0    1
 -2      4211      4212      1942      1941      4227      4228      1946      1945
 -1      1248    1    0    1
 -2      4212      4213      1943      1942      4228      4229      1947      1946
 -1      1249    1    0    1
 -2      4213      4214      1944      1943      4229      4230      1948      1947
 -1      1250    1    0    1
 -2      4214      1644       376      1944      4230      1648       377      1948
 -1      1251    1    0    1
 -2       340      1797      4215      1493        29       438      4231      1497
 -1      1252    1    0    1
 -2      1797      1798      4216      4215       438       437      4232      4231
 -1      1253    1    0    1
 -2      1798      1799      4217      4216       437       436      4233      4232
 -1      1254    1    0    1
 -2      1799      1800      4218      4217       436       435      4234      4233
 -1      1255    1    0    1
 -2      1800       398      1645      4218       435        30      1649      4234
 -1      1256    1    0    1
 -2      1493      4215      4219      1494      1497      4231      4235      1498
 -1      1257    1    0    1
 -2      4215      4216      4220      4219      4231      4232      4236      4235
 -1      1258    1    0    1
 -2      4216      4217      4221      4220      4232      4233      4237      4236
 -1      1259    1    0    1
 -2      4217      4218      4222      4221      4233      4234      4238      4237
 -1      1260    1    0    1
 -2      4218      1645      1646      4222      4234      1649      1650      4238
 -1      1261    1    0    1
 -2      1494      4219      4223      1495      1498      4235      4239      1499
 -1      1262    1    0    1
 -2      4219      4220      4224      4223      4235      4236      4240      4239
 -1      1263    1    0    1
 -2      4220      4221      4225      4224      4236      4237      4241      4240
 -1      1264    1    0    1
 -2      4221      4222      4226      4225      4237      4238      4242      4241
 -1      1265    1    0    1
 -2      4222      1646      1647      4226      4238      1650      1651      4242
 -1      1266    1    0    1
 -2      1495      4223      4227      1496      1499      4239      4243      1500
 -1      1267    1    0    1
 -2      4223      4224      4228      4227      4239      4240      4244      4243
 -1      1268    1    0    1
 -2      4224      4225      4229      4228      4240      4241      4245      4244
 -1      1269    1    0    1
 -2      4225      4226      4230      4229      4241      4242      4246      4245
 -1      1270    1    0    1
 -2      4226      1647      1648      4230      4242      1651      1652      4246
 -1      1271    1    0    1
 -2      1496      4227      1945       305      1500      4243      1949       304
 -1      1272    1    0    1
 -2      4227      4228      1946      1945      4243      4244      1950      1949
 -1      1273    1    0    1
 -2      4228      4229      1947      1946      4244      4245      1951      1950
 -1      1274    1    0    1
 -2      4229      4230      1948      1947      4245      4246      1952      1951
 -1      1275    1    0    1
 -2      4230      1648       377      1948      4246      1652       378      1952
 -1      1276    1    0    1
 -2        29       438      4231      1497       341      1801      4247      1501
 -1      1277    1    0    1
 -2       438       437      4232      4231      1801      1802      4248      4247
 -1      1278    1    0    1
 -2       437       436      4233      4232      1802      1803      4249      4248
 -1      1279    1    0    1
 -2       436       435      4234      4233      1803      1804      4250      4249
 -1      1280    1    0    1
 -2       435        30      1649      4234      1804       434      1653      4250
 -1      1281    1    0    1
 -2      1497      4231      4235      1498      1501      4247      4251      1502
 -1      1282    1    0    1
 -2      4231      4232      4236      4235      4247      4248      4252      4251
 -1      1283    1    0    1
 -2      4232      4233      4237      4236      4248      4249      4253      4252
 -1      1284    1    0    1
 -2      4233      4234      4238      4237      4249      4250      4254      4253
 -1      1285    1    0    1
 -2      4234      1649      1650      4238      4250      1653      1654      4254
 -1      1286    1    0    1
 -2      1498      4235      4239      1499      1502      4251      4255      1503
 -1      1287    1    0    1
 -2      4235      4236      4240      4239      4251      4252      4256      4255
 -1      1288    1    0    1
 -2      4236      4237      4241      4240      4252      4253      4257      4256
 -1      1289    1    0    1
 -2      4237      4238      4242      4241      4253      4254      4258      4257
 -1      1290    1    0    1
 -2      4238      1650      1651      4242      4254      1654      1655      4258
 -1      1291    1    0    1
 -2      1499      4239      4243      1500      1503      4255      4259      1504
 -1      1292    1    0    1
 -2      4239      4240      4244      4243      4255      4256      4260      4259
 -1      1293    1    0    1
 -2      4240      4241      4245      4244      4256      4257      4261      4260
 -1      1294    1    0    1
 -2      4241      4242      4246      4245      4257      4258      4262      4261
 -1      1295    1    0    1
 -2      4242      1651      1652      4246      4258      1655      1656      4262
 -1      1296    1    0    1
 -2      1500      4243      1949       304      1504      4259      1953       303
 -1      1297    1    0    1
 -2      4243      4244      1950      1949      4259      4260      1954      1953
 -1      1298    1    0    1
 -2      4244      4245      1951      1950      4260      4261      1955      1954
 -1      1299    1    0    1
 -2      4245      4246      1952      1951      4261      4262      1956      1955
 -1      1300    1    0    1
 -2      4246      1652       378      1952      4262      1656       379      1956
 -1      1301    1    0    1
 -2       341      1801      4247      1501       342      1805      4263      1505
 -1      1302    1    0    1
 -2      1801      1802      4248      4247      1805      1806      4264      4263
 -1      1303    1    0    1
 -2      1802      1803      4249      4248      1806      1807      4265      4264
 -1      1304    1    0    1
 -2      1803      1804      4250      4249      1807      1808      4266      4265
 -1      1305    1    0    1
 -2      1804       434      1653      4250      1808       433      1657      4266
 -1      1306    1    0    1
 -2      1501      4247      4251      1502      1505      4263      4267      1506
 -1      1307    1    0    1
 -2      4247      4248      4252      4251      4263      4264      4268      4267
 -1      1308    1    0    1
 -2      4248      4249      4253      4252      4264      4265      4269      4268
 -1      1309    1    0    1
 -2      4249      4250      4254      4253      4265      4266      4270      4269
 -1      1310    1    0    1
 -2      4250      1653      1654      4254      4266      1657      1658      4270
 -1      1311    1    0    1
 -2      1502      4251      4255      1503      1506      4267      4271      1507
 -1      1312    1    0    1
 -2      4251      4252      4256      4255      4267      4268      4272      4271
 -1      1313    1    0    1
 -2      4252      4253      4257      4256      4268      4269      4273      4272
 -1      1314    1    0    1
 -2      4253      4254      4258      4257      4269      4270      4274      4273
 -1      1315    1    0    1
 -2      4254      1654      1655      4258      4270      1658      1659      4274
 -1      1316    1    0    1
 -2      1503      4255      4259      1504      1507      4271      4275      1508
 -1      1317    1    0    1
 -2      4255      4256      4260      4259      4271      4272      4276      4275
 -1      1318    1    0    1
 -2      4256      4257      4261      4260      4272      4273      4277      4276
 -1      1319    1    0    1
 -2      4257      4258      4262      4261      4273      4274      4278      4277
 -1      1320    1    0    1
 -2      4258      1655      1656      4262      4274      1659      1660      4278
 -1      1321    1    0    1
 -2      1504      4259      1953       303      1508      4275      1957       302
 -1      1322    1    0    1
 -2      4259      4260      1954      1953      4275      4276      1958      1957
 -1      1323    1    0    1
 -2      4260      4261      1955      1954      4276      4277      1959      1958
 -1      1324    1    0    1
 -2      4261      4262      1956      1955      4277      4278      1960      1959
 -1      1325    1    0    1
 -2      4262      1656       379      1956      4278      1660       380      1960
 -1      1326    1    0    1
 -2       342      1805      4263      1505       343      1809      4279      1509
 -1      1327    1    0    1
 -2      1805      1806      4264      4263      1809      1810      4280      4279
 -1      1328    1    0    1
 -2      1806      1807      4265      4264      1810      1811      4281      4280
 -1      1329    1    0    1
 -2      1807      1808      4266      4265      1811      1812      4282      4281
 -1      1330    1    0    1
 -2      1808       433      1657      4266      1812       432      1661      4282
 -1      1331    1    0    1
 -2      1505      4263      4267      1506      1509      4279      4283      1510
 -1      1332    1    0    1
 -2      4263      4264      4268      4267      4279      4280      4284      4283
 -1      1333    1    0    1
 -2      4264      4265      4269      4268      4280      4281      4285      4284
 -1      1334    1    0    1
 -2      4265      4266      4270      4269      4281      4282      4286      4285
 -1      1335    1    0    1
 -2      4266      1657      1658      4270      4282      1661      1662      4286
 -1      1336    1    0    1
 -2      1506      4267      4271      1507      1510      4283      4287      1511
 -1      1337    1    0    1
 -2      4267      4268      4272      4271      4283      4284      4288      4287
 -1      1338    1    0    1
 -2      4268      4269      4273      4272      4284      4285      4289      4288
 -1      1339    1    0    1
 -2      4269      4270      4274      4273      4285      4286      4290      4289
 -1      1340    1    0    1
 -2      4270      1658      1659      4274      4286      1662      1663      4290
 -1      1341    1    0    1
 -2      1507      4271      4275      1508      1511      4287      4291      1512
 -1      1342    1    0    1
 -2      4271      4272      4276      4275      4287      4288      4292      4291
 -1      1343    1    0    1
 -2      4272      4273      4277      4276      4288      4289      4293      4292
 -1      1344    1    0    1
 -2      4273      4274      4278      4277      4289      4290      4294      4293
 -1      1345    1    0    1
 -2      4274      1659      1660      4278      4290      1663      1664      4294
 -1      1346    1    0    1
 -2      1508      4275      1957       302      1512      4291      1961       301
 -1      1347    1    0    1
 -2      4275      4276      1958      1957      4291      4292      1962      1961
 -1      1348    1    0    1
 -2      4276      4277      1959      1958      4292      4293      1963      1962
 -1      1349    1    0    1
 -2      4277      4278      1960      1959      4293      4294      1964      1963
 -1      1350    1    0    1
 -2      4278      1660       380      1960      4294      1664       381      1964
 -1      1351    1    0    1
 -2       343      1809      4279      1509       344      1813      4295      1513
 -1      1352    1    0    1
 -2      1809      1810      4280      4279      1813      1814      4296      4295
 -1      1353    1    0    1
 -2      1810      1811      4281      4280      1814      1815      4297      4296
 -1      1354    1    0    1
 -2      1811      1812      4282      4281      1815      1816      4298      4297
 -1      1355    1    0    1
 -2      1812       432      1661      4282      1816       431      1665      4298
 -1      1356    1    0    1
 -2      1509      4279      4283      1510      1513      4295      4299      1514
 -1      1357    1    0    1
 -2      4279      4280      4284      4283      4295      4296      4300      4299
 -1      1358    1    0    1
 -2      4280      4281      4285      4284      4296      4297      4301      4300
 -1      1359    1    0    1
 -2      4281      4282      4286      4285      4297      4298      4302      4301
 -1      1360    1    0    1
 -2      4282      1661      1662      4286      4298      1665      1666      4302
 -1      1361    1    0    1
 -2      1510      4283      4287      1511      1514      4299      4303      1515
 -1      1362    1    0    1
 -2      4283      4284      4288      4287      4299      4300      4304      4303
 -1      1363    1    0    1
 -2      4284      4285      4289      4288      4300      4301      4305      4304
 -1      1364    1    0    1
 -2      4285      4286      4290      4289      4301      4302      4306      4305
 -1      1365    1    0    1
 -2      4286      1662      1663      4290      4302      1666      1667      4306
 -1      1366    1    0    1
 -2      1511      4287      4291      1512      1515      4303      4307      1516
 -1      1367    1    0    1
 -2      4287      4288      4292      4291      4303      4304      4308      4307
 -1      1368    1    0    1
 -2      4288      4289      4293      4292      4304      4305      4309      4308
 -1      1369    1    0    1
 -2      4289      4290      4294      4293      4305      4306      4310      4309
 -1      1370    1    0    1
 -2      4290      1663      1664      4294      4306      1667      1668      4310
 -1      1371    1    0    1
 -2      1512      4291      1961       301      1516      4307      1965       300
 -1      1372    1    0    1
 -2      4291      4292      1962      1961      4307      4308      1966      1965
 -1      1373    1    0    1
 -2      4292      4293      1963      1962      4308      4309      1967      1966
 -1      1374    1    0    1
 -2      4293      4294      1964      1963      4309      4310      1968      1967
 -1      1375    1    0    1
 -2      4294      1664       381      1964      4310      1668       382      1968
 -1      1376    1    0    1
 -2       344      1813      4295      1513       345      1817      4311      1517
 -1      1377    1    0    1
 -2      1813      1814      4296      4295      1817      1818      4312      4311
 -1      1378    1    0    1
 -2      1814      1815      4297      4296      1818      1819      4313      4312
 -1      1379    1    0    1
 -2      1815      1816      4298      4297      1819      1820      4314      4313
 -1      1380    1    0    1
 -2      1816       431      1665      4298      1820       430      1669      4314
 -1      1381    1    0    1
 -2      1513      4295      4299      1514      1517      4311      4315      1518
 -1      1382    1    0    1
 -2      4295      4296      4300      4299      4311      4312      4316      4315
 -1      1383    1    0    1
 -2      4296      4297      4301      4300      4312      4313      4317      4316
 -1      1384    1    0    1
 -2      4297      4298      4302      4301      4313      4314      4318      4317
 -1      1385    1    0    1
 -2      4298      1665      1666      4302      4314      1669      1670      4318
 -1      1386    1    0    1
 -2      1514      4299      4303      1515      1518      4315      4319      1519
 -1      1387    1    0    1
 -2      4299      4300      4304      4303      4315      4316      4320      4319
 -1      1388    1    0    1
 -2      4300      4301      4305      4304      4316      4317      4321      4320
 -1      1389    1    0    1
 -2      4301      4302      4306      4305      4317      4318      4322      4321
 -1      1390    1    0    1
 -2      4302      1666      1667      4306      4318      1670      1671      4322
 -1      1391    1    0    1
 -2      1515      4303      4307      1516      1519      4319      4323      1520
 -1      1392    1    0    1
 -2      4303      4304      4308      4307      4319      4320      4324      4323
 -1      1393    1    0    1
 -2      4304      4305      4309      4308      4320      4321      4325      4324
 -1      1394    1    0    1
 -2      4305      4306      4310      4309      4321      4322      4326      4325
 -1      1395    1    0    1
 -2      4306      1667      1668      4310      4322      1671      1672      4326
 -1      1396    1    0    1
 -2      1516      4307      1965       300      1520      4323      1969       299
 -1      1397    1    0    1
 -2      4307      4308      1966      1965      4323      4324      1970      1969
 -1      1398    1    0    1
 -2      4308      4309      1967      1966      4324      4325      1971      1970
 -1      1399    1    0    1
 -2      4309      4310      1968      1967      4325      4326      1972      1971
 -1      1400    1    0    1
 -2      4310      1668       382      1968      4326      1672       383      1972
 -1      1401    1    0    1
 -2       345      1817      4311      1517       346      1821      4327      1521
 -1      1402    1    0    1
 -2      1817      1818      4312      4311      1821      1822      4328      4327
 -1      1403    1    0    1
 -2      1818      1819      4313      4312      1822      1823      4329      4328
 -1      1404    1    0    1
 -2      1819      1820      4314      4313      1823      1824      4330      4329
 -1      1405    1    0    1
 -2      1820       430      1669      4314      1824       429      1673      4330
 -1      1406    1    0    1
 -2      1517      4311      4315      1518      1521      4327      4331      1522
 -1      1407    1    0    1
 -2      4311      4312      4316      4315      4327      4328      4332      4331
 -1      1408    1    0    1
 -2      4312      4313      4317      4316      4328      4329      4333      4332
 -1      1409    1    0    1
 -2      4313      4314      4318      4317      4329      4330      4334      4333
 -1      1410    1    0    1
 -2      4314      1669      1670      4318      4330      1673      1674      4334
 -1      1411    1    0    1
 -2      1518      4315      4319      1519      1522      4331      4335      1523
 -1      1412    1    0    1
 -2      4315      4316      4320      4319      4331      4332      4336      4335
 -1      1413    1    0    1
 -2      4316      4317      4321      4320      4332      4333      4337      4336
 -1      1414    1    0    1
 -2      4317      4318      4322      4321      4333      4334      4338      4337
 -1      1415    1    0    1
 -2      4318      1670      1671      4322      4334      1674      1675      4338
 -1      1416    1    0    1
 -2      1519      4319      4323      1520      1523      4335      4339      1524
 -1      1417    1    0    1
 -2      4319      4320      4324      4323      4335      4336      4340      4339
 -1      1418    1    0    1
 -2      4320      4321      4325      4324      4336      4337      4341      4340
 -1      1419    1    0    1
 -2      4321      4322      4326      4325      4337      4338      4342      4341
 -1      1420    1    0    1
 -2      4322      1671      1672      4326      4338      1675      1676      4342
 -1      1421    1    0    1
 -2      1520      4323      1969       299      1524      4339      1973       298
 -1      1422    1    0    1
 -2      4323      4324      1970      1969      4339      4340      1974      1973
 -1      1423    1    0    1
 -2      4324      4325      1971      1970      4340      4341      1975      1974
 -1      1424    1    0    1
 -2      4325      4326      1972      1971      4341      4342      1976      1975
 -1      1425    1    0    1
 -2      4326      1672       383      1972      4342      1676       384      1976
 -1      1426    1    0    1
 -2       346      1821      4327      1521       347      1825      4343      1525
 -1      1427    1    0    1
 -2      1821      1822      4328      4327      1825      1826      4344      4343
 -1      1428    1    0    1
 -2      1822      1823      4329      4328      1826      1827      4345      4344
 -1      1429    1    0    1
 -2      1823      1824      4330      4329      1827      1828      4346      4345
 -1      1430    1    0    1
 -2      1824       429      1673      4330      1828       428      1677      4346
 -1      1431    1    0    1
 -2      1521      4327      4331      1522      1525      4343      4347      1526
 -1      1432    1    0    1
 -2      4327      4328      4332      4331      4343      4344      4348      4347
 -1      1433    1    0    1
 -2      4328      4329      4333      4332      4344      4345      4349      4348
 -1      1434    1    0    1
 -2      4329      4330      4334      4333      4345      4346      4350      4349
 -1      1435    1    0    1
 -2      4330      1673      1674      4334      4346      1677      1678      4350
 -1      1436    1    0    1
 -2      1522      4331      4335      1523      1526      4347      4351      1527
 -1      1437    1    0    1
 -2      4331      4332      4336      4335      4347      4348      4352      4351
 -1      1438    1    0    1
 -2      4332      4333      4337      4336      4348      4349      4353      4352
 -1      1439    1    0    1
 -2      4333      4334      4338      4337      4349      4350      4354      4353
 -1      1440    1    0    1
 -2      4334      1674      1675      4338      4350      1678      1679      4354
 -1      1441    1    0    1
 -2      1523      4335      4339      1524      1527      4351      4355      1528
 -1      1442    1    0    1
 -2      4335      4336      4340      4339      4351      4352      4356      4355
 -1      1443    1    0    1
 -2      4336      4337      4341      4340      4352      4353      4357      4356
 -1      1444    1    0    1
 -2      4337      4338      4342      4341      4353      4354      4358      4357
 -1      1445    1    0    1
 -2      4338      1675      1676      4342      4354      1679      1680      4358
 -1      1446    1    0    1
 -2      1524      4339      1973       298      1528      4355      1977       297
 -1      1447    1    0    1
 -2      4339      4340      1974      1973      4355      4356      1978      1977
 -1      1448    1    0    1
 -2      4340      4341      1975      1974      4356      4357      1979      1978
 -1      1449    1    0    1
 -2      4341      4342      1976      1975      4357      4358      1980      1979
 -1      1450    1    0    1
 -2      4342      1676       384      1976      4358      1680       385      1980
 -1      1451    1    0    1
 -2       347      1825      4343      1525       348      1829      4359      1529
 -1      1452    1    0    1
 -2      1825      1826      4344      4343      1829      1830      4360      4359
 -1      1453    1    0    1
 -2      1826      1827      4345      4344      1830      1831      4361      4360
 -1      1454    1    0    1
 -2      1827      1828      4346      4345      1831      1832      4362      4361
 -1      1455    1    0    1
 -2      1828       428      1677      4346      1832       427      1681      4362
 -1      1456    1    0    1
 -2      1525      4343      4347      1526      1529      4359      4363      1530
 -1      1457    1    0    1
 -2      4343      4344      4348      4347      4359      4360      4364      4363
 -1      1458    1    0    1
 -2      4344      4345      4349      4348      4360      4361      4365      4364
 -1      1459    1    0    1
 -2      4345      4346      4350      4349      4361      4362      4366      4365
 -1      1460    1    0    1
 -2      4346      1677      1678      4350      4362      1681      1682      4366
 -1      1461    1    0    1
 -2      1526      4347      4351      1527      1530      4363      4367      1531
 -1      1462    1    0    1
 -2      4347      4348      4352      4351      4363      4364      4368      4367
 -1      1463    1    0    1
 -2      4348      4349      4353      4352      4364      4365      4369      4368
 -1      1464    1    0    1
 -2      4349      4350      4354      4353      4365      4366      4370      4369
 -1      1465    1    0    1
 -2      4350      1678      1679      4354      4366      1682      1683      4370
 -1      1466    1    0    1
 -2      1527      4351      4355      1528      1531      4367      4371      1532
 -1      1467    1    0    1
 -2      4351      4352      4356      4355      4367      4368      4372      4371
 -1      1468    1    0    1
 -2      4352      4353      4357      4356      4368      4369      4373      4372
 -1      1469    1    0    1
 -2      4353      4354      4358      4357      4369      4370      4374      4373
 -1      1470    1    0    1
 -2      4354      1679      1680      4358      4370      1683      1684      4374
 -1      1471    1    0    1
 -2      1528      4355      1977       297      1532      4371      1981       296
 -1      1472    1    0    1
 -2      4355      4356      1978      1977      4371      4372      1982      1981
 -1      1473    1    0    1
 -2      4356      4357      1979      1978      4372      4373      1983      1982
 -1      1474    1    0    1
 -2      4357      4358      1980      1979      4373      4374      1984      1983
 -1      1475    1    0    1
 -2      4358      1680       385      1980      4374      1684       386      1984
 -1      1476    1    0    1
 -2       348      1829      4359      1529       349      1833      4375      1533
 -1      1477    1    0    1
 -2      1829      1830      4360      4359      1833      1834      4376      4375
 -1      1478    1    0    1
 -2      1830      1831      4361      4360      1834      1835      4377      4376
 -1      1479    1    0    1
 -2      1831      1832      4362      4361      1835      1836      4378      4377
 -1      1480    1    0    1
 -2      1832       427      1681      4362      1836       426      1685      4378
 -1      1481    1    0    1
 -2      1529      4359      4363      1530      1533      4375      4379      1534
 -1      1482    1    0    1
 -2      4359      4360      4364      4363      4375      4376      4380      4379
 -1      1483    1    0    1
 -2      4360      4361      4365      4364      4376      4377      4381      4380
 -1      1484    1    0    1
 -2      4361      4362      4366      4365      4377      4378      4382      4381
 -1      1485    1    0    1
 -2      4362      1681      1682      4366      4378      1685      1686      4382
 -1      1486    1    0    1
 -2      1530      4363      4367      1531      1534      4379      4383      1535
 -1      1487    1    0    1
 -2      4363      4364      4368      4367      4379      4380      4384      4383
 -1      1488    1    0    1
 -2      4364      4365      4369      4368      4380      4381      4385      4384
 -1      1489    1    0    1
 -2      4365      4366      4370      4369      4381      4382      4386      4385
 -1      1490    1    0    1
 -2      4366      1682      1683      4370      4382      1686      1687      4386
 -1      1491    1    0    1
 -2      1531      4367      4371      1532      1535      4383      4387      1536
 -1      1492    1    0    1
 -2      4367      4368      4372      4371      4383      4384      4388      4387
 -1      1493    1    0    1
 -2      4368      4369      4373      4372      4384      4385      4389      4388
 -1      1494    1    0    1
 -2      4369      4370      4374      4373      4385      4386      4390      4389
 -1      1495    1    0    1
 -2      4370      1683      1684      4374      4386      1687      1688      4390
 -1      1496    1    0    1
 -2      1532      4371      1981       296      1536      4387      1985       295
 -1      1497    1    0    1
 -2      4371      4372      1982      1981      4387      4388      1986      1985
 -1      1498    1    0    1
 -2      4372      4373      1983      1982      4388      4389      1987      1986
 -1      1499    1    0    1
 -2      4373      4374      1984      1983      4389      4390      1988      1987
 -1      1500    1    0    1
 -2      4374      1684       386      1984      4390      1688       387      1988
 -1      1501    1    0    1
 -2       349      1833      4375      1533       350      1837      4391      1537
 -1      1502    1    0    1
 -2      1833      1834      4376      4375      1837      1838      4392      4391
 -1      1503    1    0    1
 -2      1834      1835      4377      4376      1838      1839      4393      4392
 -1      1504    1    0    1
 -2      1835      1836      4378      4377      1839      1840      4394      4393
 -1      1505    1    0    1
 -2      1836       426      1685      4378      1840       425      1689      4394
 -1      1506    1    0    1
 -2      1533      4375      4379      1534      1537      4391      4395      1538
 -1      1507    1    0    1
 -2      4375      4376      4380      4379      4391      4392      4396      4395
 -1      1508    1    0    1
 -2      4376      4377      4381      4380      4392      4393      4397      4396
 -1      1509    1    0    1
 -2      4377      4378      4382      4381      4393      4394      4398      4397
 -1      1510    1    0    1
 -2      4378      1685      1686      4382      4394      1689      1690      4398
 -1      1511    1    0    1
 -2      1534      4379      4383      1535      1538      4395      4399      1539
 -1      1512    1    0    1
 -2      4379      4380      4384      4383      4395      4396      4400      4399
 -1      1513    1    0    1
 -2      4380      4381      4385      4384      4396      4397      4401      4400
 -1      1514    1    0    1
 -2      4381      4382      4386      4385      4397      4398      4402      4401
 -1      1515    1    0    1
 -2      4382      1686      1687      4386      4398      1690      1691      4402
 -1      1516    1    0    1
 -2      1535      4383      4387      1536      1539      4399      4403      1540
 -1      1517    1    0    1
 -2      4383      4384      4388      4387      4399      4400      4404      4403
 -1      1518    1    0    1
 -2      4384      4385      4389      4388      4400      4401      4405      4404
 -1      1519    1    0    1
 -2      4385      4386      4390      4389      4401      4402      4406      4405
 -1      1520    1    0    1
 -2      4386      1687      1688      4390      4402      1691      1692      4406
 -1      1521    1    0    1
 -2      1536      4387      1985       295      1540      4403      1989       294
 -1      1522    1    0    1
 -2      4387      4388      1986      1985      4403      4404      1990      1989
 -1      1523    1    0    1
 -2      4388      4389      1987      1986      4404      4405      1991      1990
 -1      1524    1    0    1
 -2      4389      4390      1988      1987      4405      4406      1992      1991
 -1      1525    1    0    1
 -2      4390      1688       387      1988      4406      1692       388      1992
 -1      1526    1    0    1
 -2       350      1837      4391      1537       351      1841      4407      1541
 -1      1527    1    0    1
 -2      1837      1838      4392      4391      1841      1842      4408      4407
 -1      1528    1    0    1
 -2      1838      1839      4393      4392      1842      1843      4409      4408
 -1      1529    1    0    1
 -2      1839      1840      4394      4393      1843      1844      4410      4409
 -1      1530    1    0    1
 -2      1840       425      1689      4394      1844       424      1693      4410
 -1      1531    1    0    1
 -2      1537      4391      4395      1538      1541      4407      4411      1542
 -1      1532    1    0    1
 -2      4391      4392      4396      4395      4407      4408      4412      4411
 -1      1533    1    0    1
 -2      4392      4393      4397      4396      4408      4409      4413      4412
 -1      1534    1    0    1
 -2      4393      4394      4398      4397      4409      4410      4414      4413
 -1      1535    1    0    1
 -2      4394      1689      1690      4398      4410      1693      1694      4414
 -1      1536    1    0    1
 -2      1538      4395      4399      1539      1542      4411      4415      1543
 -1      1537    1    0    1
 -2      4395      4396      4400      4399      4411      4412      4416      4415
 -1      1538    1    0    1
 -2      4396      4397      4401      4400      4412      4413      4417      4416
 -1      1539    1    0    1
 -2      4397      4398      4402      4401      4413      4414      4418      4417
 -1      1540    1    0    1
 -2      4398      1690      1691      4402      4414      1694      1695      4418
 -1      1541    1    0    1
 -2      1539      4399      4403      1540      1543      4415      4419      1544
 -1      1542    1    0    1
 -2      4399      4400      4404      4403      4415      4416      4420      4419
 -1      1543    1    0    1
 -2      4400      4401      4405      4404      4416      4417      4421      4420
 -1      1544    1    0    1
 -2      4401      4402      4406      4405      4417      4418      4422      4421
 -1      1545    1    0    1
 -2      4402      1691      1692      4406      4418      1695      1696      4422
 -1      1546    1    0    1
 -2      1540      4403      1989       294      1544      4419      1993       293
 -1      1547    1    0    1
 -2      4403      4404      1990      1989      4419      4420      1994      1993
 -1      1548    1    0    1
 -2      4404      4405      1991      1990      4420      4421      1995      1994
 -1      1549    1    0    1
 -2      4405      4406      1992      1991      4421      4422      1996      1995
 -1      1550    1    0    1
 -2      4406      1692       388      1992      4422      1696       389      1996
 -1      1551    1    0    1
 -2       351      1841      4407      1541       352      1845      4423      1545
 -1      1552    1    0    1
 -2      1841      1842      4408      4407      1845      1846      4424      4423
 -1      1553    1    0    1
 -2      1842      1843      4409      4408      1846      1847      4425      4424
 -1      1554    1    0    1
 -2      1843      1844      4410      4409      1847      1848      4426      4425
 -1      1555    1    0    1
 -2      1844       424      1693      4410      1848       423      1697      4426
 -1      1556    1    0    1
 -2      1541      4407      4411      1542      1545      4423      4427      1546
 -1      1557    1    0    1
 -2      4407      4408      4412      4411      4423      4424      4428      4427
 -1      1558    1    0    1
 -2      4408      4409      4413      4412      4424      4425      4429      4428
 -1      1559    1    0    1
 -2      4409      4410      4414      4413      4425      4426      4430      4429
 -1      1560    1    0    1
 -2      4410      1693      1694      4414      4426      1697      1698      4430
 -1      1561    1    0    1
 -2      1542      4411      4415      1543      1546      4427      4431      1547
 -1      1562    1    0    1
 -2      4411      4412      4416      4415      4427      4428      4432      4431
 -1      1563    1    0    1
 -2      4412      4413      4417      4416      4428      4429      4433      4432
 -1      1564    1    0    1
 -2      4413      4414      4418      4417      4429      4430      4434      4433
 -1      1565    1    0    1
 -2      4414      1694      1695      4418      4430      1698      1699      4434
 -1      1566    1    0    1
 -2      1543      4415      4419      1544      1547      4431      4435      1548
 -1      1567    1    0    1
 -2      4415      4416      4420      4419      4431      4432      4436      4435
 -1      1568    1    0    1
 -2      4416      4417      4421      4420      4432      4433      4437      4436
 -1      1569    1    0    1
 -2      4417      4418      4422      4421      4433      4434      4438      4437
 -1      1570    1    0    1
 -2      4418      1695      1696      4422      4434      1699      1700      4438
 -1      1571    1    0    1
 -2      1544      4419      1993       293      1548      4435      1997       292
 -1      1572    1    0    1
 -2      4419      4420      1994      1993      4435      4436      1998      1997
 -1      1573    1    0    1
 -2      4420      4421      1995      1994      4436      4437      1999      1998
 -1      1574    1    0    1
 -2      4421      4422      1996      1995      4437      4438      2000      1999
 -1      1575    1    0    1
 -2      4422      1696       389      1996      4438      1700       390      2000
 -1      1576    1    0    1
 -2       352      1845      4423      1545       353      1849      4439      1549
 -1      1577    1    0    1
 -2      1845      1846      4424      4423      1849      1850      4440      4439
 -1      1578    1    0    1
 -2      1846      1847      4425      4424      1850      1851      4441      4440
 -1      1579    1    0    1
 -2      1847      1848      4426      4425      1851      1852      4442      4441
 -1      1580    1    0    1
 -2      1848       423      1697      4426      1852       422      1701      4442
 -1      1581    1    0    1
 -2      1545      4423      4427      1546      1549      4439      4443      1550
 -1      1582    1    0    1
 -2      4423      4424      4428      4427      4439      4440      4444      4443
 -1      1583    1    0    1
 -2      4424      4425      4429      4428      4440      4441      4445      4444
 -1      1584    1    0    1
 -2      4425      4426      4430      4429      4441      4442      4446      4445
 -1      1585    1    0    1
 -2      4426      1697      1698      4430      4442      1701      1702      4446
 -1      1586    1    0    1
 -2      1546      4427      4431      1547      1550      4443      4447      1551
 -1      1587    1    0    1
 -2      4427      4428      4432      4431      4443      4444      4448      4447
 -1      1588    1    0    1
 -2      4428      4429      4433      4432      4444      4445      4449      4448
 -1      1589    1    0    1
 -2      4429      4430      4434      4433      4445      4446      4450      4449
 -1      1590    1    0    1
 -2      4430      1698      1699      4434      4446      1702      1703      4450
 -1      1591    1    0    1
 -2      1547      4431      4435      1548      1551      4447      4451      1552
 -1      1592    1    0    1
 -2      4431      4432      4436      4435      4447      4448      4452      4451
 -1      1593    1    0    1
 -2      4432      4433      4437      4436      4448      4449      4453      4452
 -1      1594    1    0    1
 -2      4433      4434      4438      4437      4449      4450      4454      4453
 -1      1595    1    0    1
 -2      4434      1699      1700      4438      4450      1703      1704      4454
 -1      1596    1    0    1
 -2      1548      4435      1997       292      1552      4451      2001       291
 -1      1597    1    0    1
 -2      4435      4436      1998      1997      4451      4452      2002      2001
 -1      1598    1    0    1
 -2      4436      4437      1999      1998      4452      4453      2003      2002
 -1      1599    1    0    1
 -2      4437      4438      2000      1999      4453      4454      2004      2003
 -1      1600    1    0    1
 -2      4438      1700       390      2000      4454      1704       391      2004
 -1      1601    1    0    1
 -2       353      1849      4439      1549       354      1853      4455      1553
 -1      1602    1    0    1
 -2      1849      1850      4440      4439      1853      1854      4456      4455
 -1      1603    1    0    1
 -2      1850      1851      4441      4440      1854      1855      4457      4456
 -1      1604    1    0    1
 -2      1851      1852      4442      4441      1855      1856      4458      4457
 -1      1605    1    0    1
 -2      1852       422      1701      4442      1856       421      1705      4458
 -1      1606    1    0    1
 -2      1549      4439      4443      1550      1553      4455      4459      1554
 -1      1607    1    0    1
 -2      4439      4440      4444      4443      4455      4456      4460      4459
 -1      1608    1    0    1
 -2      4440      4441      4445      4444      4456      4457      4461      4460
 -1      1609    1    0    1
 -2      4441      4442      4446      4445      4457      4458      4462      4461
 -1      1610    1    0    1
 -2      4442      1701      1702      4446      4458      1705      1706      4462
 -1      1611    1    0    1
 -2      1550      4443      4447      1551      1554      4459      4463      1555
 -1      1612    1    0    1
 -2      4443      4444      4448      4447      4459      4460      4464      4463
 -1      1613    1    0    1
 -2      4444      4445      4449      4448      4460      4461      4465      4464
 -1      1614    1    0    1
 -2      4445      4446      4450      4449      4461      4462      4466      4465
 -1      1615    1    0    1
 -2      4446      1702      1703      4450      4462      1706      1707      4466
 -1      1616    1    0    1
 -2      1551      4447      4451      1552      1555      4463      4467      1556
 -1      1617    1    0    1
 -2      4447      4448      4452      4451      4463      4464      4468      4467
 -1      1618    1    0    1
 -2      4448      4449      4453      4452      4464      4465      4469      4468
 -1      1619    1    0    1
 -2      4449      4450      4454      4453      4465      4466      4470      4469
 -1      1620    1    0    1
 -2      4450      1703      1704      4454      4466      1707      1708      4470
 -1      1621    1    0    1
 -2      1552      4451      2001       291      1556      4467      2005       290
 -1      1622    1    0    1
 -2      4451      4452      2002      2001      4467      4468      2006      2005
 -1      1623    1    0    1
 -2      4452      4453      2003      2002      4468      4469      2007      2006
 -1      1624    1    0    1
 -2      4453      4454      2004      2003      4469      4470      2008      2007
 -1      1625    1    0    1
 -2      4454      1704       391      2004      4470      1708       392      2008
 -1      1626    1    0    1
 -2       354      1853      4455      1553       355      1857      4471      1557
 -1      1627    1    0    1
 -2      1853      1854      4456      4455      1857      1858      4472      4471
 -1      1628    1    0    1
 -2      1854      1855      4457      4456      1858      1859      4473      4472
 -1      1629    1    0    1
 -2      1855      1856      4458      4457      1859      1860      4474      4473
 -1      1630    1    0    1
 -2      1856       421      1705      4458      1860       420      1709      4474
 -1      1631    1    0    1
 -2      1553      4455      4459      1554      1557      4471      4475      1558
 -1      1632    1    0    1
 -2      4455      4456      4460      4459      4471      4472      4476      4475
 -1      1633    1    0    1
 -2      4456      4457      4461      4460      4472      4473      4477      4476
 -1      1634    1    0    1
 -2      4457      4458      4462      4461      4473      4474      4478      4477
 -1      1635    1    0    1
 -2      4458      1705      1706      4462      4474      1709      1710      4478
 -1      1636    1    0    1
 -2      1554      4459      4463      1555      1558      4475      4479      1559
 -1      1637    1    0    1
 -2      4459      4460      4464      4463      4475      4476      4480      4479
 -1      1638    1    0    1
 -2      4460      4461      4465      4464      4476      4477      4481      4480
 -1      1639    1    0    1
 -2      4461      4462      4466      4465      4477      4478      4482      4481
 -1      1640    1    0    1
 -2      4462      1706      1707      4466      4478      1710      1711      4482
 -1      1641    1    0    1
 -2      1555      4463      4467      1556      1559      4479      4483      1560
 -1      1642    1    0    1
 -2      4463      4464      4468      4467      4479      4480      4484      4483
 -1      1643    1    0    1
 -2      4464      4465      4469      4468      4480      4481      4485      4484
 -1      1644    1    0    1
 -2      4465      4466      4470      4469      4481      4482      4486      4485
 -1      1645    1    0    1
 -2      4466      1707      1708      4470      4482      1711      1712      4486
 -1      1646    1    0    1
 -2      1556      4467      2005       290      1560      4483      2009       289
 -1      1647    1    0    1
 -2      4467      4468      2006      2005      4483      4484      2010      2009
 -1      1648    1    0    1
 -2      4468      4469      2007      2006      4484      4485      2011      2010
 -1      1649    1    0    1
 -2      4469      4470      2008      2007      4485      4486      2012      2011
 -1      1650    1    0    1
 -2      4470      1708       392      2008      4486      1712       393      2012
 -1      1651    1    0    1
 -2       355      1857      4471      1557       356      1861      4487      1561
 -1      1652    1    0    1
 -2      1857      1858      4472      4471      1861      1862      4488      4487
 -1      1653    1    0    1
 -2      1858      1859      4473      4472      1862      1863      4489      4488
 -1      1654    1    0    1
 -2      1859      1860      4474      4473      1863      1864      4490      4489
 -1      1655    1    0    1
 -2      1860       420      1709      4474      1864       419      1713      4490
 -1      1656    1    0    1
 -2      1557      4471      4475      1558      1561      4487      4491      1562
 -1      1657    1    0    1
 -2      4471      4472      4476      4475      4487      4488      4492      4491
 -1      1658    1    0    1
 -2      4472      4473      4477      4476      4488      4489      4493      4492
 -1      1659    1    0    1
 -2      4473      4474      4478      4477      4489      4490      4494      4493
 -1      1660    1    0    1
 -2      4474      1709      1710      4478      4490      1713      1714      4494
 -1      1661    1    0    1
 -2      1558      4475      4479      1559      1562      4491      4495      1563
 -1      1662    1    0    1
 -2      4475      4476      4480      4479      4491      4492      4496      4495
 -1      1663    1    0    1
 -2      4476      4477      4481      4480      4492      4493      4497      4496
 -1      1664    1    0    1
 -2      4477      4478      4482      4481      4493      4494      4498      4497
 -1      1665    1    0    1
 -2      4478      1710      1711      4482      4494      1714      1715      4498
 -1      1666    1    0    1
 -2      1559      4479      4483      1560      1563      4495      4499      1564
 -1      1667    1    0    1
 -2      4479      4480      4484      4483      4495      4496      4500      4499
 -1      1668    1    0    1
 -2      4480      4481      4485      4484      4496      4497      4501      4500
 -1      1669    1    0    1
 -2      4481      4482      4486      4485      4497      4498      4502      4501
 -1      1670    1    0    1
 -2      4482      1711      1712      4486      4498      1715      1716      4502
 -1      1671    1    0    1
 -2      1560      4483      2009       289      1564      4499      2013       288
 -1      1672    1    0    1
 -2      4483      4484      2010      2009      4499      4500      2014      2013
 -1      1673    1    0    1
 -2      4484      4485      2011      2010      4500      4501      2015      2014
 -1      1674    1    0    1
 -2      4485      4486      2012      2011      4501      4502      2016      2015
 -1      1675    1    0    1
 -2      4486      1712       393      2012      4502      1716       394      2016
 -1      1676    1    0    1
 -2       356      1861      4487      1561       357      1865      4503      1565
 -1      1677    1    0    1
 -2      1861      1862      4488      4487      1865      1866      4504      4503
 -1      1678    1    0    1
 -2      1862      1863      4489      4488      1866      1867      4505      4504
 -1      1679    1    0    1
 -2      1863      1864      4490      4489      1867      1868      4506      4505
 -1      1680    1    0    1
 -2      1864       419      1713      4490      1868       418      1717      4506
 -1      1681    1    0    1
 -2      1561      4487      4491      1562      1565      4503      4507      1566
 -1      1682    1    0    1
 -2      4487      4488      4492      4491      4503      4504      4508      4507
 -1      1683    1    0    1
 -2      4488      4489      4493      4492      4504      4505      4509      4508
 -1      1684    1    0    1
 -2      4489      4490      4494      4493      4505      4506      4510      4509
 -1      1685    1    0    1
 -2      4490      1713      1714      4494      4506      1717      1718      4510
 -1      1686    1    0    1
 -2      1562      4491      4495      1563      1566      4507      4511      1567
 -1      1687    1    0    1
 -2      4491      4492      4496      4495      4507      4508      4512      4511
 -1      1688    1    0    1
 -2      4492      4493      4497      4496      4508      4509      4513      4512
 -1      1689    1    0    1
 -2      4493      4494      4498      4497      4509      4510      4514      4513
 -1      1690    1    0    1
 -2      4494      1714      1715      4498      4510      1718      1719      4514
 -1      1691    1    0    1
 -2      1563      4495      4499      1564      1567      4511      4515      1568
 -1      1692    1    0    1
 -2      4495      4496      4500      4499      4511      4512      4516      4515
 -1      1693    1    0    1
 -2      4496      4497      4501      4500      4512      4513      4517      4516
 -1      1694    1    0    1
 -2      4497      4498      4502      4501      4513      4514      4518      4517
 -1      1695    1    0    1
 -2      4498      1715      1716      4502      4514      1719      1720      4518
 -1      1696    1    0    1
 -2      1564      4499      2013       288      1568      4515      2017       287
 -1      1697    1    0    1
 -2      4499      4500      2014      2013      4515      4516      2018      2017
 -1      1698    1    0    1
 -2      4500      4501      2015      2014      4516      4517      2019      2018
 -1      1699    1    0    1
 -2      4501      4502      2016      2015      4517      4518      2020      2019
 -1      1700    1    0    1
 -2      4502      1716       394      2016      4518      1720       395      2020
 -1      1701    1    0    1
 -2       357      1865      4503      1565       358      1869      4519      1569
 -1      1702    1    0    1
 -2      1865      1866      4504      4503      1869      1870      4520      4519
 -1      1703    1    0    1
 -2      1866      1867      4505      4504      1870      1871      4521      4520
 -1      1704    1    0    1
 -2      1867      1868      4506      4505      1871      1872      4522      4521
 -1      1705    1    0    1
 -2      1868       418      1717      4506      1872       417      1721      4522
 -1      1706    1    0    1
 -2      1565      4503      4507      1566      1569      4519      4523      1570
 -1      1707    1    0    1
 -2      4503      4504      4508      4507      4519      4520      4524      4523
 -1      1708    1    0    1
 -2      4504      4505      4509      4508      4520      4521      4525      4524
 -1      1709    1    0    1
 -2      4505      4506      4510      4509      4521      4522      4526      4525
 -1      1710    1    0    1
 -2      4506      1717      1718      4510      4522      1721      1722      4526
 -1      1711    1    0    1
 -2      1566      4507      4511      1567      1570      4523      4527      1571
 -1      1712    1    0    1
 -2      4507      4508      4512      4511      4523      4524      4528      4527
 -1      1713    1    0    1
 -2      4508      4509      4513      4512      4524      4525      4529      4528
 -1      1714    1    0    1
 -2      4509      4510      4514      4513      4525      4526      4530      4529
 -1      1715    1    0    1
 -2      4510      1718      1719      4514      4526      1722      1723      4530
 -1      1716    1    0    1
 -2      1567      4511      4515      1568      1571      4527      4531      1572
 -1      1717    1    0    1
 -2      4511      4512      4516      4515      4527      4528      4532      4531
 -1      1718    1    0    1
 -2      4512      4513      4517      4516      4528      4529      4533      4532
 -1      1719    1    0    1
 -2      4513      4514      4518      4517      4529      4530      4534      4533
 -1      1720    1    0    1
 -2      4514      1719      1720      4518      4530      1723      1724      4534
 -1      1721    1    0    1
 -2      1568      4515      2017       287      1572      4531      2021       286
 -1      1722    1    0    1
 -2      4515      4516      2018      2017      4531      4532      2022      2021
 -1      1723    1    0    1
 -2      4516      4517      2019      2018      4532      4533      2023      2022
 -1      1724    1    0    1
 -2      4517      4518      2020      2019      4533      4534      2024      2023
 -1      1725    1    0    1
 -2      4518      1720       395      2020      4534      1724       396      2024
 -1      1726    1    0    1
 -2       358      1869      4519      1569       359      1873      4535      1573
 -1      1727    1    0    1
 -2      1869      1870      4520      4519      1873      1874      4536      4535
 -1      1728    1    0    1
 -2      1870      1871      4521      4520      1874      1875      4537      4536
 -1      1729    1    0    1
 -2      1871      1872      4522      4521      1875      1876      4538      4537
 -1      1730    1    0    1
 -2      1872       417      1721      4522      1876       416      1725      4538
 -1      1731    1    0    1
 -2      1569      4519      4523      1570      1573      4535      4539      1574
 -1      1732    1    0    1
 -2      4519      4520      4524      4523      4535      4536      4540      4539
 -1      1733    1    0    1
 -2      4520      4521      4525      4524      4536      4537      4541      4540
 -1      1734    1    0    1
 -2      4521      4522      4526      4525      4537      4538      4542      4541
 -1      1735    1    0    1
 -2      4522      1721      1722      4526      4538      1725      1726      4542
 -1      1736    1    0    1
 -2      1570      4523      4527      1571      1574      4539      4543      1575
 -1      1737    1    0    1
 -2      4523      4524      4528      4527      4539      4540      4544      4543
 -1      1738    1    0    1
 -2      4524      4525      4529      4528      4540      4541      4545      4544
 -1      1739    1    0    1
 -2      4525      4526      4530      4529      4541      4542      4546      4545
 -1      1740    1    0    1
 -2      4526      1722      1723      4530      4542      1726      1727      4546
 -1      1741    1    0    1
 -2      1571      4527      4531      1572      1575      4543      4547      1576
 -1      1742    1    0    1
 -2      4527      4528      4532      4531      4543      4544      4548      4547
 -1      1743    1    0    1
 -2      4528      4529      4533      4532      4544      4545      4549      4548
 -1      1744    1    0    1
 -2      4529      4530      4534      4533      4545      4546      4550      4549
 -1      1745    1    0    1
 -2      4530      1723      1724      4534      4546      1727      1728      4550
 -1      1746    1    0    1
 -2      1572      4531      2021       286      1576      4547      2025       285
 -1      1747    1    0    1
 -2      4531      4532      2022      2021      4547      4548      2026      2025
 -1      1748    1    0    1
 -2      4532      4533      2023      2022      4548      4549      2027      2026
 -1      1749    1    0    1
 -2      4533      4534      2024      2023      4549      4550      2028      2027
 -1      1750    1    0    1
 -2      4534      1724       396      2024      4550      1728       397      2028
 -1      1751    1    0    1
 -2       359      1873      4535      1573        22       209      1198       210
 -1      1752    1    0    1
 -2      1873      1874      4536      4535       209       208      1199      1198
 -1      1753    1    0    1
 -2      1874      1875      4537      4536       208       207      1200      1199
 -1      1754    1    0    1
 -2      1875      1876      4538      4537       207       206      1201      1200
 -1      1755    1    0    1
 -2      1876       416      1725      4538       206        21       205      1201
 -1      1756    1    0    1
 -2      1573      4535      4539      1574       210      1198      1194       211
 -1      1757    1    0    1
 -2      4535      4536      4540      4539      1198      1199      1195      1194
 -1      1758    1    0    1
 -2      4536      4537      4541      4540      1199      1200      1196      1195
 -1      1759    1    0    1
 -2      4537      4538      4542      4541      1200      1201      1197      1196
 -1      1760    1    0    1
 -2      4538      1725      1726      4542      1201       205       204      1197
 -1      1761    1    0    1
 -2      1574      4539      4543      1575       211      1194      1190       212
 -1      1762    1    0    1
 -2      4539      4540      4544      4543      1194      1195      1191      1190
 -1      1763    1    0    1
 -2      4540      4541      4545      4544      1195      1196      1192      1191
 -1      1764    1    0    1
 -2      4541      4542      4546      4545      1196      1197      1193      1192
 -1      1765    1    0    1
 -2      4542      1726      1727      4546      1197       204       203      1193
 -1      1766    1    0    1
 -2      1575      4543      4547      1576       212      1190      1186       213
 -1      1767    1    0    1
 -2      4543      4544      4548      4547      1190      1191      1187      1186
 -1      1768    1    0    1
 -2      4544      4545      4549      4548      1191      1192      1188      1187
 -1      1769    1    0    1
 -2      4545      4546      4550      4549      1192      1193      1189      1188
 -1      1770    1    0    1
 -2      4546      1727      1728      4550      1193       203       202      1189
 -1      1771    1    0    1
 -2      1576      4547      2025       285       213      1186       198        19
 -1      1772    1    0    1
 -2      4547      4548      2026      2025      1186      1187       199       198
 -1      1773    1    0    1
 -2      4548      4549      2027      2026      1187      1188       200       199
 -1      1774    1    0    1
 -2      4549      4550      2028      2027      1188      1189       201       200
 -1      1775    1    0    1
 -2      4550      1728       397      2028      1189       202        20       201
 -1      1776    1    0    1
 -2       122      1732      4551      2257         9       415      2029       482
 -1      1777    1    0    1
 -2      1732      1736      4552      4551       415       414      2030      2029
 -1      1778    1    0    1
 -2      1736      1740      4553      4552       414       413      2031      2030
 -1      1779    1    0    1
 -2      1740      1744      4554      4553       413       412      2032      2031
 -1      1780    1    0    1
 -2      1744      1748      4555      4554       412       411      2033      2032
 -1      1781    1    0    1
 -2      1748      1752      4556      4555       411       410      2034      2033
 -1      1782    1    0    1
 -2      1752      1756      4557      4556       410       409      2035      2034
 -1      1783    1    0    1
 -2      1756      1760      4558      4557       409       408      2036      2035
 -1      1784    1    0    1
 -2      1760      1764      4559      4558       408       407      2037      2036
 -1      1785    1    0    1
 -2      1764      1768      4560      4559       407       406      2038      2037
 -1      1786    1    0    1
 -2      1768      1772      4561      4560       406       405      2039      2038
 -1      1787    1    0    1
 -2      1772      1776      4562      4561       405       404      2040      2039
 -1      1788    1    0    1
 -2      1776      1780      4563      4562       404       403      2041      2040
 -1      1789    1    0    1
 -2      1780      1784      4564      4563       403       402      2042      2041
 -1      1790    1    0    1
 -2      1784      1788      4565      4564       402       401      2043      2042
 -1      1791    1    0    1
 -2      1788      1792      4566      4565       401       400      2044      2043
 -1      1792    1    0    1
 -2      1792      1796      4567      4566       400       399      2045      2044
 -1      1793    1    0    1
 -2      1796      1800      4568      4567       399       398      2046      2045
 -1      1794    1    0    1
 -2      1800       435      4569      4568       398        30      2047      2046
 -1      1795    1    0    1
 -2       435      1804      4570      4569        30       434      2048      2047
 -1      1796    1    0    1
 -2      1804      1808      4571      4570       434       433      2049      2048
 -1      1797    1    0    1
 -2      1808      1812      4572      4571       433       432      2050      2049
 -1      1798    1    0    1
 -2      1812      1816      4573      4572       432       431      2051      2050
 -1      1799    1    0    1
 -2      1816      1820      4574      4573       431       430      2052      2051
 -1      1800    1    0    1
 -2      1820      1824      4575      4574       430       429      2053      2052
 -1      1801    1    0    1
 -2      1824      1828      4576      4575       429       428      2054      2053
 -1      1802    1    0    1
 -2      1828      1832      4577      4576       428       427      2055      2054
 -1      1803    1    0    1
 -2      1832      1836      4578      4577       427       426      2056      2055
 -1      1804    1    0    1
 -2      1836      1840      4579      4578       426       425      2057      2056
 -1      1805    1    0    1
 -2      1840      1844      4580      4579       425       424      2058      2057
 -1      1806    1    0    1
 -2      1844      1848      4581      4580       424       423      2059      2058
 -1      1807    1    0    1
 -2      1848      1852      4582      4581       423       422      2060      2059
 -1      1808    1    0    1
 -2      1852      1856      4583      4582       422       421      2061      2060
 -1      1809    1    0    1
 -2      1856      1860      4584      4583       421       420      2062      2061
 -1      1810    1    0    1
 -2      1860      1864      4585      4584       420       419      2063      2062
 -1      1811    1    0    1
 -2      1864      1868      4586      4585       419       418      2064      2063
 -1      1812    1    0    1
 -2      1868      1872      4587      4586       418       417      2065      2064
 -1      1813    1    0    1
 -2      1872      1876      4588      4587       417       416      2066      2065
 -1      1814    1    0    1
 -2      1876       206      2269      4588       416        21       439      2066
 -1      1815    1    0    1
 -2      2257      4551      4589      2258       482      2029      2067       481
 -1      1816    1    0    1
 -2      4551      4552      4590      4589      2029      2030      2068      2067
 -1      1817    1    0    1
 -2      4552      4553      4591      4590      2030      2031      2069      2068
 -1      1818    1    0    1
 -2      4553      4554      4592      4591      2031      2032      2070      2069
 -1      1819    1    0    1
 -2      4554      4555      4593      4592      2032      2033      2071      2070
 -1      1820    1    0    1
 -2      4555      4556      4594      4593      2033      2034      2072      2071
 -1      1821    1    0    1
 -2      4556      4557      4595      4594      2034      2035      2073      2072
 -1      1822    1    0    1
 -2      4557      4558      4596      4595      2035      2036      2074      2073
 -1      1823    1    0    1
 -2      4558      4559      4597      4596      2036      2037      2075      2074
 -1      1824    1    0    1
 -2      4559      4560      4598      4597      2037      2038      2076      2075
 -1      1825    1    0    1
 -2      4560      4561      4599      4598      2038      2039      2077      2076
 -1      1826    1    0    1
 -2      4561      4562      4600      4599      2039      2040      2078      2077
 -1      1827    1    0    1
 -2      4562      4563      4601      4600      2040      2041      2079      2078
 -1      1828    1    0    1
 -2      4563      4564      4602      4601      2041      2042      2080      2079
 -1      1829    1    0    1
 -2      4564      4565      4603      4602      2042      2043      2081      2080
 -1      1830    1    0    1
 -2      4565      4566      4604      4603      2043      2044      2082      2081
 -1      1831    1    0    1
 -2      4566      4567      4605      4604      2044      2045      2083      2082
 -1      1832    1    0    1
 -2      4567      4568      4606      4605      2045      2046      2084      2083
 -1      1833    1    0    1
 -2      4568      4569      4607      4606      2046      2047      2085      2084
 -1      1834    1    0    1
 -2      4569      4570      4608      4607      2047      2048      2086      2085
 -1      1835    1    0    1
 -2      4570      4571      4609      4608      2048      2049      2087      2086
 -1      1836    1    0    1
 -2      4571      4572      4610      4609      2049      2050      2088      2087
 -1      1837    1    0    1
 -2      4572      4573      4611      4610      2050      2051      2089      2088
 -1      1838    1    0    1
 -2      4573      4574      4612      4611      2051      2052      2090      2089
 -1      1839    1    0    1
 -2      4574      4575      4613      4612      2052      2053      2091      2090
 -1      1840    1    0    1
 -2      4575      4576      4614      4613      2053      2054      2092      2091
 -1      1841    1    0    1
 -2      4576      4577      4615      4614      2054      2055      2093      2092
 -1      1842    1    0    1
 -2      4577      4578      4616      4615      2055      2056      2094      2093
 -1      1843    1    0    1
 -2      4578      4579      4617      4616      2056      2057      2095      2094
 -1      1844    1    0    1
 -2      4579      4580      4618      4617      2057      2058      2096      2095
 -1      1845    1    0    1
 -2      4580      4581      4619      4618      2058      2059      2097      2096
 -1      1846    1    0    1
 -2      4581      4582      4620      4619      2059      2060      2098      2097
 -1      1847    1    0    1
 -2      4582      4583      4621      4620      2060      2061      2099      2098
 -1      1848    1    0    1
 -2      4583      4584      4622      4621      2061      2062      2100      2099
 -1      1849    1    0    1
 -2      4584      4585      4623      4622      2062      2063      2101      2100
 -1      1850    1    0    1
 -2      4585      4586      4624      4623      2063      2064      2102      2101
 -1      1851    1    0    1
 -2      4586      4587      4625      4624      2064      2065      2103      2102
 -1      1852    1    0    1
 -2      4587      4588      4626      4625      2065      2066      2104      2103
 -1      1853    1    0    1
 -2      4588      2269      2270      4626      2066       439       440      2104
 -1      1854    1    0    1
 -2      2258      4589      4627      2259       481      2067      2105       480
 -1      1855    1    0    1
 -2      4589      4590      4628      4627      2067      2068      2106      2105
 -1      1856    1    0    1
 -2      4590      4591      4629      4628      2068      2069      2107      2106
 -1      1857    1    0    1
 -2      4591      4592      4630      4629      2069      2070      2108      2107
 -1      1858    1    0    1
 -2      4592      4593      4631      4630      2070      2071      2109      2108
 -1      1859    1    0    1
 -2      4593      4594      4632      4631      2071      2072      2110      2109
 -1      1860    1    0    1
 -2      4594      4595      4633      4632      2072      2073      2111      2110
 -1      1861    1    0    1
 -2      4595      4596      4634      4633      2073      2074      2112      2111
 -1      1862    1    0    1
 -2      4596      4597      4635      4634      2074      2075      2113      2112
 -1      1863    1    0    1
 -2      4597      4598      4636      4635      2075      2076      2114      2113
 -1      1864    1    0    1
 -2      4598      4599      4637      4636      2076      2077      2115      2114
 -1      1865    1    0    1
 -2      4599      4600      4638      4637      2077      2078      2116      2115
 -1      1866    1    0    1
 -2      4600      4601      4639      4638      2078      2079      2117      2116
 -1      1867    1    0    1
 -2      4601      4602      4640      4639      2079      2080      2118      2117
 -1      1868    1    0    1
 -2      4602      4603      4641      4640      2080      2081      2119      2118
 -1      1869    1    0    1
 -2      4603      4604      4642      4641      2081      2082      2120      2119
 -1      1870    1    0    1
 -2      4604      4605      4643      4642      2082      2083      2121      2120
 -1      1871    1    0    1
 -2      4605      4606      4644      4643      2083      2084      2122      2121
 -1      1872    1    0    1
 -2      4606      4607      4645      4644      2084      2085      2123      2122
 -1      1873    1    0    1
 -2      4607      4608      4646      4645      2085      2086      2124      2123
 -1      1874    1    0    1
 -2      4608      4609      4647      4646      2086      2087      2125      2124
 -1      1875    1    0    1
 -2      4609      4610      4648      4647      2087      2088      2126      2125
 -1      1876    1    0    1
 -2      4610      4611      4649      4648      2088      2089      2127      2126
 -1      1877    1    0    1
 -2      4611      4612      4650      4649      2089      2090      2128      2127
 -1      1878    1    0    1
 -2      4612      4613      4651      4650      2090      2091      2129      2128
 -1      1879    1    0    1
 -2      4613      4614      4652      4651      2091      2092      2130      2129
 -1      1880    1    0    1
 -2      4614      4615      4653      4652      2092      2093      2131      2130
 -1      1881    1    0    1
 -2      4615      4616      4654      4653      2093      2094      2132      2131
 -1      1882    1    0    1
 -2      4616      4617      4655      4654      2094      2095      2133      2132
 -1      1883    1    0    1
 -2      4617      4618      4656      4655      2095      2096      2134      2133
 -1      1884    1    0    1
 -2      4618      4619      4657      4656      2096      2097      2135      2134
 -1      1885    1    0    1
 -2      4619      4620      4658      4657      2097      2098      2136      2135
 -1      1886    1    0    1
 -2      4620      4621      4659      4658      2098      2099      2137      2136
 -1      1887    1    0    1
 -2      4621      4622      4660      4659      2099      2100      2138      2137
 -1      1888    1    0    1
 -2      4622      4623      4661      4660      2100      2101      2139      2138
 -1      1889    1    0    1
 -2      4623      4624      4662      4661      2101      2102      2140      2139
 -1      1890    1    0    1
 -2      4624      4625      4663      4662      2102      2103      2141      2140
 -1      1891    1    0    1
 -2      4625      4626      4664      4663      2103      2104      2142      2141
 -1      1892    1    0    1
 -2      4626      2270      2271      4664      2104       440       441      2142
 -1      1893    1    0    1
 -2      2259      4627      2281       530       480      2105       479        32
 -1      1894    1    0    1
 -2      4627      4628      2282      2281      2105      2106       478       479
 -1      1895    1    0    1
 -2      4628      4629      2283      2282      2106      2107       477       478
 -1      1896    1    0    1
 -2      4629      4630      2284      2283      2107      2108       476       477
 -1      1897    1    0    1
 -2      4630      4631      2285      2284      2108      2109       475       476
 -1      1898    1    0    1
 -2      4631      4632      2286      2285      2109      2110       474       475
 -1      1899    1    0    1
 -2      4632      4633      2287      2286      2110      2111       473       474
 -1      1900    1    0    1
 -2      4633      4634      2288      2287      2111      2112       472       473
 -1      1901    1    0    1
 -2      4634      4635      2289      2288      2112      2113       471       472
 -1      1902    1    0    1
 -2      4635      4636      2290      2289      2113      2114       470       471
 -1      1903    1    0    1
 -2      4636      4637      2291      2290      2114      2115       469       470
 -1      1904    1    0    1
 -2      4637      4638      2292      2291      2115      2116       468       469
 -1      1905    1    0    1
 -2      4638      4639      2293      2292      2116      2117       467       468
 -1      1906    1    0    1
 -2      4639      4640      2294      2293      2117      2118       466       467
 -1      1907    1    0    1
 -2      4640      4641      2295      2294      2118      2119       465       466
 -1      1908    1    0    1
 -2      4641      4642      2296      2295      2119      2120       464       465
 -1      1909    1    0    1
 -2      4642      4643      2297      2296      2120      2121       463       464
 -1      1910    1    0    1
 -2      4643      4644      2298      2297      2121      2122       462       463
 -1      1911    1    0    1
 -2      4644      4645      2299      2298      2122      2123       461       462
 -1      1912    1    0    1
 -2      4645      4646      2300      2299      2123      2124       460       461
 -1      1913    1    0    1
 -2      4646      4647      2301      2300      2124      2125       459       460
 -1      1914    1    0    1
 -2      4647      4648      2302      2301      2125      2126       458       459
 -1      1915    1    0    1
 -2      4648      4649      2303      2302      2126      2127       457       458
 -1      1916    1    0    1
 -2      4649      4650      2304      2303      2127      2128       456       457
 -1      1917    1    0    1
 -2      4650      4651      2305      2304      2128      2129       455       456
 -1      1918    1    0    1
 -2      4651      4652      2306      2305      2129      2130       454       455
 -1      1919    1    0    1
 -2      4652      4653      2307      2306      2130      2131       453       454
 -1      1920    1    0    1
 -2      4653      4654      2308      2307      2131      2132       452       453
 -1      1921    1    0    1
 -2      4654      4655      2309      2308      2132      2133       451       452
 -1      1922    1    0    1
 -2      4655      4656      2310      2309      2133      2134       450       451
 -1      1923    1    0    1
 -2      4656      4657      2311      2310      2134      2135       449       450
 -1      1924    1    0    1
 -2      4657      4658      2312      2311      2135      2136       448       449
 -1      1925    1    0    1
 -2      4658      4659      2313      2312      2136      2137       447       448
 -1      1926    1    0    1
 -2      4659      4660      2314      2313      2137      2138       446       447
 -1      1927    1    0    1
 -2      4660      4661      2315      2314      2138      2139       445       446
 -1      1928    1    0    1
 -2      4661      4662      2316      2315      2139      2140       444       445
 -1      1929    1    0    1
 -2      4662      4663      2317      2316      2140      2141       443       444
 -1      1930    1    0    1
 -2      4663      4664      2318      2317      2141      2142       442       443
 -1      1931    1    0    1
 -2      4664      2271       531      2318      2142       441        31       442
 -1      1932    1    0    1
 -2       123      1731      4665      2260       122      1732      4551      2257
 -1      1933    1    0    1
 -2      1731      1735      4666      4665      1732      1736      4552      4551
 -1      1934    1    0    1
 -2      1735      1739      4667      4666      1736      1740      4553      4552
 -1      1935    1    0    1
 -2      1739      1743      4668      4667      1740      1744      4554      4553
 -1      1936    1    0    1
 -2      1743      1747      4669      4668      1744      1748      4555      4554
 -1      1937    1    0    1
 -2      1747      1751      4670      4669      1748      1752      4556      4555
 -1      1938    1    0    1
 -2      1751      1755      4671      4670      1752      1756      4557      4556
 -1      1939    1    0    1
 -2      1755      1759      4672      4671      1756      1760      4558      4557
 -1      1940    1    0    1
 -2      1759      1763      4673      4672      1760      1764      4559      4558
 -1      1941    1    0    1
 -2      1763      1767      4674      4673      1764      1768      4560      4559
 -1      1942    1    0    1
 -2      1767      1771      4675      4674      1768      1772      4561      4560
 -1      1943    1    0    1
 -2      1771      1775      4676      4675      1772      1776      4562      4561
 -1      1944    1    0    1
 -2      1775      1779      4677      4676      1776      1780      4563      4562
 -1      1945    1    0    1
 -2      1779      1783      4678      4677      1780      1784      4564      4563
 -1      1946    1    0    1
 -2      1783      1787      4679      4678      1784      1788      4565      4564
 -1      1947    1    0    1
 -2      1787      1791      4680      4679      1788      1792      4566      4565
 -1      1948    1    0    1
 -2      1791      1795      4681      4680      1792      1796      4567      4566
 -1      1949    1    0    1
 -2      1795      1799      4682      4681      1796      1800      4568      4567
 -1      1950    1    0    1
 -2      1799       436      4683      4682      1800       435      4569      4568
 -1      1951    1    0    1
 -2       436      1803      4684      4683       435      1804      4570      4569
 -1      1952    1    0    1
 -2      1803      1807      4685      4684      1804      1808      4571      4570
 -1      1953    1    0    1
 -2      1807      1811      4686      4685      1808      1812      4572      4571
 -1      1954    1    0    1
 -2      1811      1815      4687      4686      1812      1816      4573      4572
 -1      1955    1    0    1
 -2      1815      1819      4688      4687      1816      1820      4574      4573
 -1      1956    1    0    1
 -2      1819      1823      4689      4688      1820      1824      4575      4574
 -1      1957    1    0    1
 -2      1823      1827      4690      4689      1824      1828      4576      4575
 -1      1958    1    0    1
 -2      1827      1831      4691      4690      1828      1832      4577      4576
 -1      1959    1    0    1
 -2      1831      1835      4692      4691      1832      1836      4578      4577
 -1      1960    1    0    1
 -2      1835      1839      4693      4692      1836      1840      4579      4578
 -1      1961    1    0    1
 -2      1839      1843      4694      4693      1840      1844      4580      4579
 -1      1962    1    0    1
 -2      1843      1847      4695      4694      1844      1848      4581      4580
 -1      1963    1    0    1
 -2      1847      1851      4696      4695      1848      1852      4582      4581
 -1      1964    1    0    1
 -2      1851      1855      4697      4696      1852      1856      4583      4582
 -1      1965    1    0    1
 -2      1855      1859      4698      4697      1856      1860      4584      4583
 -1      1966    1    0    1
 -2      1859      1863      4699      4698      1860      1864      4585      4584
 -1      1967    1    0    1
 -2      1863      1867      4700      4699      1864      1868      4586      4585
 -1      1968    1    0    1
 -2      1867      1871      4701      4700      1868      1872      4587      4586
 -1      1969    1    0    1
 -2      1871      1875      4702      4701      1872      1876      4588      4587
 -1      1970    1    0    1
 -2      1875       207      2272      4702      1876       206      2269      4588
 -1      1971    1    0    1
 -2      2260      4665      4703      2261      2257      4551      4589      2258
 -1      1972    1    0    1
 -2      4665      4666      4704      4703      4551      4552      4590      4589
 -1      1973    1    0    1
 -2      4666      4667      4705      4704      4552      4553      4591      4590
 -1      1974    1    0    1
 -2      4667      4668      4706      4705      4553      4554      4592      4591
 -1      1975    1    0    1
 -2      4668      4669      4707      4706      4554      4555      4593      4592
 -1      1976    1    0    1
 -2      4669      4670      4708      4707      4555      4556      4594      4593
 -1      1977    1    0    1
 -2      4670      4671      4709      4708      4556      4557      4595      4594
 -1      1978    1    0    1
 -2      4671      4672      4710      4709      4557      4558      4596      4595
 -1      1979    1    0    1
 -2      4672      4673      4711      4710      4558      4559      4597      4596
 -1      1980    1    0    1
 -2      4673      4674      4712      4711      4559      4560      4598      4597
 -1      1981    1    0    1
 -2      4674      4675      4713      4712      4560      4561      4599      4598
 -1      1982    1    0    1
 -2      4675      4676      4714      4713      4561      4562      4600      4599
 -1      1983    1    0    1
 -2      4676      4677      4715      4714      4562      4563      4601      4600
 -1      1984    1    0    1
 -2      4677      4678      4716      4715      4563      4564      4602      4601
 -1      1985    1    0    1
 -2      4678      4679      4717      4716      4564      4565      4603      4602
 -1      1986    1    0    1
 -2      4679      4680      4718      4717      4565      4566      4604      4603
 -1      1987    1    0    1
 -2      4680      4681      4719      4718      4566      4567      4605      4604
 -1      1988    1    0    1
 -2      4681      4682      4720      4719      4567      4568      4606      4605
 -1      1989    1    0    1
 -2      4682      4683      4721      4720      4568      4569      4607      4606
 -1      1990    1    0    1
 -2      4683      4684      4722      4721      4569      4570      4608      4607
 -1      1991    1    0    1
 -2      4684      4685      4723      4722      4570      4571      4609      4608
 -1      1992    1    0    1
 -2      4685      4686      4724      4723      4571      4572      4610      4609
 -1      1993    1    0    1
 -2      4686      4687      4725      4724      4572      4573      4611      4610
 -1      1994    1    0    1
 -2      4687      4688      4726      4725      4573      4574      4612      4611
 -1      1995    1    0    1
 -2      4688      4689      4727      4726      4574      4575      4613      4612
 -1      1996    1    0    1
 -2      4689      4690      4728      4727      4575      4576      4614      4613
 -1      1997    1    0    1
 -2      4690      4691      4729      4728      4576      4577      4615      4614
 -1      1998    1    0    1
 -2      4691      4692      4730      4729      4577      4578      4616      4615
 -1      1999    1    0    1
 -2      4692      4693      4731      4730      4578      4579      4617      4616
 -1      2000    1    0    1
 -2      4693      4694      4732      4731      4579      4580      4618      4617
 -1      2001    1    0    1
 -2      4694      4695      4733      4732      4580      4581      4619      4618
 -1      2002    1    0    1
 -2      4695      4696      4734      4733      4581      4582      4620      4619
 -1      2003    1    0    1
 -2      4696      4697      4735      4734      4582      4583      4621      4620
 -1      2004    1    0    1
 -2      4697      4698      4736      4735      4583      4584      4622      4621
 -1      2005    1    0    1
 -2      4698      4699      4737      4736      4584      4585      4623      4622
 -1      2006    1    0    1
 -2      4699      4700      4738      4737      4585      4586      4624      4623
 -1      2007    1    0    1
 -2      4700      4701      4739      4738      4586      4587      4625      4624
 -1      2008    1    0    1
 -2      4701      4702      4740      4739      4587      4588      4626      4625
 -1      2009    1    0    1
 -2      4702      2272      2273      4740      4588      2269      2270      4626
 -1      2010    1    0    1
 -2      2261      4703      4741      2262      2258      4589      4627      2259
 -1      2011    1    0    1
 -2      4703      4704      4742      4741      4589      4590      4628      4627
 -1      2012    1    0    1
 -2      4704      4705      4743      4742      4590      4591      4629      4628
 -1      2013    1    0    1
 -2      4705      4706      4744      4743      4591      4592      4630      4629
 -1      2014    1    0    1
 -2      4706      4707      4745      4744      4592      4593      4631      4630
 -1      2015    1    0    1
 -2      4707      4708      4746      4745      4593      4594      4632      4631
 -1      2016    1    0    1
 -2      4708      4709      4747      4746      4594      4595      4633      4632
 -1      2017    1    0    1
 -2      4709      4710      4748      4747      4595      4596      4634      4633
 -1      2018    1    0    1
 -2      4710      4711      4749      4748      4596      4597      4635      4634
 -1      2019    1    0    1
 -2      4711      4712      4750      4749      4597      4598      4636      4635
 -1      2020    1    0    1
 -2      4712      4713      4751      4750      4598      4599      4637      4636
 -1      2021    1    0    1
 -2      4713      4714      4752      4751      4599      4600      4638      4637
 -1      2022    1    0    1
 -2      4714      4715      4753      4752      4600      4601      4639      4638
 -1      2023    1    0    1
 -2      4715      4716      4754      4753      4601      4602      4640      4639
 -1      2024    1    0    1
 -2      4716      4717      4755      4754      4602      4603      4641      4640
 -1      2025    1    0    1
 -2      4717      4718      4756      4755      4603      4604      4642      4641
 -1      2026    1    0    1
 -2      4718      4719      4757      4756      4604      4605      4643      4642
 -1      2027    1    0    1
 -2      4719      4720      4758      4757      4605      4606      4644      4643
 -1      2028    1    0    1
 -2      4720      4721      4759      4758      4606      4607      4645      4644
 -1      2029    1    0    1
 -2      4721      4722      4760      4759      4607      4608      4646      4645
 -1      2030    1    0    1
 -2      4722      4723      4761      4760      4608      4609      4647      4646
 -1      2031    1    0    1
 -2      4723      4724      4762      4761      4609      4610      4648      4647
 -1      2032    1    0    1
 -2      4724      4725      4763      4762      4610      4611      4649      4648
 -1      2033    1    0    1
 -2      4725      4726      4764      4763      4611      4612      4650      4649
 -1      2034    1    0    1
 -2      4726      4727      4765      4764      4612      4613      4651      4650
 -1      2035    1    0    1
 -2      4727      4728      4766      4765      4613      4614      4652      4651
 -1      2036    1    0    1
 -2      4728      4729      4767      4766      4614      4615      4653      4652
 -1      2037    1    0    1
 -2      4729      4730      4768      4767      4615      4616      4654      4653
 -1      2038    1    0    1
 -2      4730      4731      4769      4768      4616      4617      4655      4654
 -1      2039    1    0    1
 -2      4731      4732      4770      4769      4617      4618      4656      4655
 -1      2040    1    0    1
 -2      4732      4733      4771      4770      4618      4619      4657      4656
 -1      2041    1    0    1
 -2      4733      4734      4772      4771      4619      4620      4658      4657
 -1      2042    1    0    1
 -2      4734      4735      4773      4772      4620      4621      4659      4658
 -1      2043    1    0    1
 -2      4735      4736      4774      4773      4621      4622      4660      4659
 -1      2044    1    0    1
 -2      4736      4737      4775      4774      4622      4623      4661      4660
 -1      2045    1    0    1
 -2      4737      4738      4776      4775      4623      4624      4662      4661
 -1      2046    1    0    1
 -2      4738      4739      4777      4776      4624      4625      4663      4662
 -1      2047    1    0    1
 -2      4739      4740      4778      4777      4625      4626      4664      4663
 -1      2048    1    0    1
 -2      4740      2273      2274      4778      4626      2270      2271      4664
 -1      2049    1    0    1
 -2      2262      4741      2319       529      2259      4627      2281       530
 -1      2050    1    0    1
 -2      4741      4742      2320      2319      4627      4628      2282      2281
 -1      2051    1    0    1
 -2      4742      4743      2321      2320      4628      4629      2283      2282
 -1      2052    1    0    1
 -2      4743      4744      2322      2321      4629      4630      2284      2283
 -1      2053    1    0    1
 -2      4744      4745      2323      2322      4630      4631      2285      2284
 -1      2054    1    0    1
 -2      4745      4746      2324      2323      4631      4632      2286      2285
 -1      2055    1    0    1
 -2      4746      4747      2325      2324      4632      4633      2287      2286
 -1      2056    1    0    1
 -2      4747      4748      2326      2325      4633      4634      2288      2287
 -1      2057    1    0    1
 -2      4748      4749      2327      2326      4634      4635      2289      2288
 -1      2058    1    0    1
 -2      4749      4750      2328      2327      4635      4636      2290      2289
 -1      2059    1    0    1
 -2      4750      4751      2329      2328      4636      4637      2291      2290
 -1      2060    1    0    1
 -2      4751      4752      2330      2329      4637      4638      2292      2291
 -1      2061    1    0    1
 -2      4752      4753      2331      2330      4638      4639      2293      2292
 -1      2062    1    0    1
 -2      4753      4754      2332      2331      4639      4640      2294      2293
 -1      2063    1    0    1
 -2      4754      4755      2333      2332      4640      4641      2295      2294
 -1      2064    1    0    1
 -2      4755      4756      2334      2333      4641      4642      2296      2295
 -1      2065    1    0    1
 -2      4756      4757      2335      2334      4642      4643      2297      2296
 -1      2066    1    0    1
 -2      4757      4758      2336      2335      4643      4644      2298      2297
 -1      2067    1    0    1
 -2      4758      4759      2337      2336      4644      4645      2299      2298
 -1      2068    1    0    1
 -2      4759      4760      2338      2337      4645      4646      2300      2299
 -1      2069    1    0    1
 -2      4760      4761      2339      2338      4646      4647      2301      2300
 -1      2070    1    0    1
 -2      4761      4762      2340      2339      4647      4648      2302      2301
 -1      2071    1    0    1
 -2      4762      4763      2341      2340      4648      4649      2303      2302
 -1      2072    1    0    1
 -2      4763      4764      2342      2341      4649      4650      2304      2303
 -1      2073    1    0    1
 -2      4764      4765      2343      2342      4650      4651      2305      2304
 -1      2074    1    0    1
 -2      4765      4766      2344      2343      4651      4652      2306      2305
 -1      2075    1    0    1
 -2      4766      4767      2345      2344      4652      4653      2307      2306
 -1      2076    1    0    1
 -2      4767      4768      2346      2345      4653      4654      2308      2307
 -1      2077    1    0    1
 -2      4768      4769      2347      2346      4654      4655      2309      2308
 -1      2078    1    0    1
 -2      4769      4770      2348      2347      4655      4656      2310      2309
 -1      2079    1    0    1
 -2      4770      4771      2349      2348      4656      4657      2311      2310
 -1      2080    1    0    1
 -2      4771      4772      2350      2349      4657      4658      2312      2311
 -1      2081    1    0    1
 -2      4772      4773      2351      2350      4658      4659      2313      2312
 -1      2082    1    0    1
 -2      4773      4774      2352      2351      4659      4660      2314      2313
 -1      2083    1    0    1
 -2      4774      4775      2353      2352      4660      4661      2315      2314
 -1      2084    1    0    1
 -2      4775      4776      2354      2353      4661      4662      2316      2315
 -1      2085    1    0    1
 -2      4776      4777      2355      2354      4662      4663      2317      2316
 -1      2086    1    0    1
 -2      4777      4778      2356      2355      4663      4664      2318      2317
 -1      2087    1    0    1
 -2      4778      2274       532      2356      4664      2271       531      2318
 -1      2088    1    0    1
 -2       124      1730      4779      2263       123      1731      4665      2260
 -1      2089    1    0    1
 -2      1730      1734      4780      4779      1731      1735      4666      4665
 -1      2090    1    0    1
 -2      1734      1738      4781      4780      1735      1739      4667      4666
 -1      2091    1    0    1
 -2      1738      1742      4782      4781      1739      1743      4668      4667
 -1      2092    1    0    1
 -2      1742      1746      4783      4782      1743      1747      4669      4668
 -1      2093    1    0    1
 -2      1746      1750      4784      4783      1747      1751      4670      4669
 -1      2094    1    0    1
 -2      1750      1754      4785      4784      1751      1755      4671      4670
 -1      2095    1    0    1
 -2      1754      1758      4786      4785      1755      1759      4672      4671
 -1      2096    1    0    1
 -2      1758      1762      4787      4786      1759      1763      4673      4672
 -1      2097    1    0    1
 -2      1762      1766      4788      4787      1763      1767      4674      4673
 -1      2098    1    0    1
 -2      1766      1770      4789      4788      1767      1771      4675      4674
 -1      2099    1    0    1
 -2      1770      1774      4790      4789      1771      1775      4676      4675
 -1      2100    1    0    1
 -2      1774      1778      4791      4790      1775      1779      4677      4676
 -1      2101    1    0    1
 -2      1778      1782      4792      4791      1779      1783      4678      4677
 -1      2102    1    0    1
 -2      1782      1786      4793      4792      1783      1787      4679      4678
 -1      2103    1    0    1
 -2      1786      1790      4794      4793      1787      1791      4680      4679
 -1      2104    1    0    1
 -2      1790      1794      4795      4794      1791      1795      4681      4680
 -1      2105    1    0    1
 -2      1794      1798      4796      4795      1795      1799      4682      4681
 -1      2106    1    0    1
 -2      1798       437      4797      4796      1799       436      4683      4682
 -1      2107    1    0    1
 -2       437      1802      4798      4797       436      1803      4684      4683
 -1      2108    1    0    1
 -2      1802      1806      4799      4798      1803      1807      4685      4684
 -1      2109    1    0    1
 -2      1806      1810      4800      4799      1807      1811      4686      4685
 -1      2110    1    0    1
 -2      1810      1814      4801      4800      1811      1815      4687      4686
 -1      2111    1    0    1
 -2      1814      1818      4802      4801      1815      1819      4688      4687
 -1      2112    1    0    1
 -2      1818      1822      4803      4802      1819      1823      4689      4688
 -1      2113    1    0    1
 -2      1822      1826      4804      4803      1823      1827      4690      4689
 -1      2114    1    0    1
 -2      1826      1830      4805      4804      1827      1831      4691      4690
 -1      2115    1    0    1
 -2      1830      1834      4806      4805      1831      1835      4692      4691
 -1      2116    1    0    1
 -2      1834      1838      4807      4806      1835      1839      4693      4692
 -1      2117    1    0    1
 -2      1838      1842      4808      4807      1839      1843      4694      4693
 -1      2118    1    0    1
 -2      1842      1846      4809      4808      1843      1847      4695      4694
 -1      2119    1    0    1
 -2      1846      1850      4810      4809      1847      1851      4696      4695
 -1      2120    1    0    1
 -2      1850      1854      4811      4810      1851      1855      4697      4696
 -1      2121    1    0    1
 -2      1854      1858      4812      4811      1855      1859      4698      4697
 -1      2122    1    0    1
 -2      1858      1862      4813      4812      1859      1863      4699      4698
 -1      2123    1    0    1
 -2      1862      1866      4814      4813      1863      1867      4700      4699
 -1      2124    1    0    1
 -2      1866      1870      4815      4814      1867      1871      4701      4700
 -1      2125    1    0    1
 -2      1870      1874      4816      4815      1871      1875      4702      4701
 -1      2126    1    0    1
 -2      1874       208      2275      4816      1875       207      2272      4702
 -1      2127    1    0    1
 -2      2263      4779      4817      2264      2260      4665      4703      2261
 -1      2128    1    0    1
 -2      4779      4780      4818      4817      4665      4666      4704      4703
 -1      2129    1    0    1
 -2      4780      4781      4819      4818      4666      4667      4705      4704
 -1      2130    1    0    1
 -2      4781      4782      4820      4819      4667      4668      4706      4705
 -1      2131    1    0    1
 -2      4782      4783      4821      4820      4668      4669      4707      4706
 -1      2132    1    0    1
 -2      4783      4784      4822      4821      4669      4670      4708      4707
 -1      2133    1    0    1
 -2      4784      4785      4823      4822      4670      4671      4709      4708
 -1      2134    1    0    1
 -2      4785      4786      4824      4823      4671      4672      4710      4709
 -1      2135    1    0    1
 -2      4786      4787      4825      4824      4672      4673      4711      4710
 -1      2136    1    0    1
 -2      4787      4788      4826      4825      4673      4674      4712      4711
 -1      2137    1    0    1
 -2      4788      4789      4827      4826      4674      4675      4713      4712
 -1      2138    1    0    1
 -2      4789      4790      4828      4827      4675      4676      4714      4713
 -1      2139    1    0    1
 -2      4790      4791      4829      4828      4676      4677      4715      4714
 -1      2140    1    0    1
 -2      4791      4792      4830      4829      4677      4678      4716      4715
 -1      2141    1    0    1
 -2      4792      4793      4831      4830      4678      4679      4717      4716
 -1      2142    1    0    1
 -2      4793      4794      4832      4831      4679      4680      4718      4717
 -1      2143    1    0    1
 -2      4794      4795      4833      4832      4680      4681      4719      4718
 -1      2144    1    0    1
 -2      4795      4796      4834      4833      4681      4682      4720      4719
 -1      2145    1    0    1
 -2      4796      4797      4835      4834      4682      4683      4721      4720
 -1      2146    1    0    1
 -2      4797      4798      4836      4835      4683      4684      4722      4721
 -1      2147    1    0    1
 -2      4798      4799      4837      4836      4684      4685      4723      4722
 -1      2148    1    0    1
 -2      4799      4800      4838      4837      4685      4686      4724      4723
 -1      2149    1    0    1
 -2      4800      4801      4839      4838      4686      4687      4725      4724
 -1      2150    1    0    1
 -2      4801      4802      4840      4839      4687      4688      4726      4725
 -1      2151    1    0    1
 -2      4802      4803      4841      4840      4688      4689      4727      4726
 -1      2152    1    0    1
 -2      4803      4804      4842      4841      4689      4690      4728      4727
 -1      2153    1    0    1
 -2      4804      4805      4843      4842      4690      4691      4729      4728
 -1      2154    1    0    1
 -2      4805      4806      4844      4843      4691      4692      4730      4729
 -1      2155    1    0    1
 -2      4806      4807      4845      4844      4692      4693      4731      4730
 -1      2156    1    0    1
 -2      4807      4808      4846      4845      4693      4694      4732      4731
 -1      2157    1    0    1
 -2      4808      4809      4847      4846      4694      4695      4733      4732
 -1      2158    1    0    1
 -2      4809      4810      4848      4847      4695      4696      4734      4733
 -1      2159    1    0    1
 -2      4810      4811      4849      4848      4696      4697      4735      4734
 -1      2160    1    0    1
 -2      4811      4812      4850      4849      4697      4698      4736      4735
 -1      2161    1    0    1
 -2      4812      4813      4851      4850      4698      4699      4737      4736
 -1      2162    1    0    1
 -2      4813      4814      4852      4851      4699      4700      4738      4737
 -1      2163    1    0    1
 -2      4814      4815      4853      4852      4700      4701      4739      4738
 -1      2164    1    0    1
 -2      4815      4816      4854      4853      4701      4702      4740      4739
 -1      2165    1    0    1
 -2      4816      2275      2276      4854      4702      2272      2273      4740
 -1      2166    1    0    1
 -2      2264      4817      4855      2265      2261      4703      4741      2262
 -1      2167    1    0    1
 -2      4817      4818      4856      4855      4703      4704      4742      4741
 -1      2168    1    0    1
 -2      4818      4819      4857      4856      4704      4705      4743      4742
 -1      2169    1    0    1
 -2      4819      4820      4858      4857      4705      4706      4744      4743
 -1      2170    1    0    1
 -2      4820      4821      4859      4858      4706      4707      4745      4744
 -1      2171    1    0    1
 -2      4821      4822      4860      4859      4707      4708      4746      4745
 -1      2172    1    0    1
 -2      4822      4823      4861      4860      4708      4709      4747      4746
 -1      2173    1    0    1
 -2      4823      4824      4862      4861      4709      4710      4748      4747
 -1      2174    1    0    1
 -2      4824      4825      4863      4862      4710      4711      4749      4748
 -1      2175    1    0    1
 -2      4825      4826      4864      4863      4711      4712      4750      4749
 -1      2176    1    0    1
 -2      4826      4827      4865      4864      4712      4713      4751      4750
 -1      2177    1    0    1
 -2      4827      4828      4866      4865      4713      4714      4752      4751
 -1      2178    1    0    1
 -2      4828      4829      4867      4866      4714      4715      4753      4752
 -1      2179    1    0    1
 -2      4829      4830      4868      4867      4715      4716      4754      4753
 -1      2180    1    0    1
 -2      4830      4831      4869      4868      4716      4717      4755      4754
 -1      2181    1    0    1
 -2      4831      4832      4870      4869      4717      4718      4756      4755
 -1      2182    1    0    1
 -2      4832      4833      4871      4870      4718      4719      4757      4756
 -1      2183    1    0    1
 -2      4833      4834      4872      4871      4719      4720      4758      4757
 -1      2184    1    0    1
 -2      4834      4835      4873      4872      4720      4721      4759      4758
 -1      2185    1    0    1
 -2      4835      4836      4874      4873      4721      4722      4760      4759
 -1      2186    1    0    1
 -2      4836      4837      4875      4874      4722      4723      4761      4760
 -1      2187    1    0    1
 -2      4837      4838      4876      4875      4723      4724      4762      4761
 -1      2188    1    0    1
 -2      4838      4839      4877      4876      4724      4725      4763      4762
 -1      2189    1    0    1
 -2      4839      4840      4878      4877      4725      4726      4764      4763
 -1      2190    1    0    1
 -2      4840      4841      4879      4878      4726      4727      4765      4764
 -1      2191    1    0    1
 -2      4841      4842      4880      4879      4727      4728      4766      4765
 -1      2192    1    0    1
 -2      4842      4843      4881      4880      4728      4729      4767      4766
 -1      2193    1    0    1
 -2      4843      4844      4882      4881      4729      4730      4768      4767
 -1      2194    1    0    1
 -2      4844      4845      4883      4882      4730      4731      4769      4768
 -1      2195    1    0    1
 -2      4845      4846      4884      4883      4731      4732      4770      4769
 -1      2196    1    0    1
 -2      4846      4847      4885      4884      4732      4733      4771      4770
 -1      2197    1    0    1
 -2      4847      4848      4886      4885      4733      4734      4772      4771
 -1      2198    1    0    1
 -2      4848      4849      4887      4886      4734      4735      4773      4772
 -1      2199    1    0    1
 -2      4849      4850      4888      4887      4735      4736      4774      4773
 -1      2200    1    0    1
 -2      4850      4851      4889      4888      4736      4737      4775      4774
 -1      2201    1    0    1
 -2      4851      4852      4890      4889      4737      4738      4776      4775
 -1      2202    1    0    1
 -2      4852      4853      4891      4890      4738      4739      4777      4776
 -1      2203    1    0    1
 -2      4853      4854      4892      4891      4739      4740      4778      4777
 -1      2204    1    0    1
 -2      4854      2276      2277      4892      4740      2273      2274      4778
 -1      2205    1    0    1
 -2      2265      4855      2357       528      2262      4741      2319       529
 -1      2206    1    0    1
 -2      4855      4856      2358      2357      4741      4742      2320      2319
 -1      2207    1    0    1
 -2      4856      4857      2359      2358      4742      4743      2321      2320
 -1      2208    1    0    1
 -2      4857      4858      2360      2359      4743      4744      2322      2321
 -1      2209    1    0    1
 -2      4858      4859      2361      2360      4744      4745      2323      2322
 -1      2210    1    0    1
 -2      4859      4860      2362      2361      4745      4746      2324      2323
 -1      2211    1    0    1
 -2      4860      4861      2363      2362      4746      4747      2325      2324
 -1      2212    1    0    1
 -2      4861      4862      2364      2363      4747      4748      2326      2325
 -1      2213    1    0    1
 -2      4862      4863      2365      2364      4748      4749      2327      2326
 -1      2214    1    0    1
 -2      4863      4864      2366      2365      4749      4750      2328      2327
 -1      2215    1    0    1
 -2      4864      4865      2367      2366      4750      4751      2329      2328
 -1      2216    1    0    1
 -2      4865      4866      2368      2367      4751      4752      2330      2329
 -1      2217    1    0    1
 -2      4866      4867      2369      2368      4752      4753      2331      2330
 -1      2218    1    0    1
 -2      4867      4868      2370      2369      4753      4754      2332      2331
 -1      2219    1    0    1
 -2      4868      4869      2371      2370      4754      4755      2333      2332
 -1      2220    1    0    1
 -2      4869      4870      2372      2371      4755      4756      2334      2333
 -1      2221    1    0    1
 -2      4870      4871      2373      2372      4756      4757      2335      2334
 -1      2222    1    0    1
 -2      4871      4872      2374      2373      4757      4758      2336      2335
 -1      2223    1    0    1
 -2      4872      4873      2375      2374      4758      4759      2337      2336
 -1      2224    1    0    1
 -2      4873      4874      2376      2375      4759      4760      2338      2337
 -1      2225    1    0    1
 -2      4874      4875      2377      2376      4760      4761      2339      2338
 -1      2226    1    0    1
 -2      4875      4876      2378      2377      4761      4762      2340      2339
 -1      2227    1    0    1
 -2      4876      4877      2379      2378      4762      4763      2341      2340
 -1      2228    1    0    1
 -2      4877      4878      2380      2379      4763      4764      2342      2341
 -1      2229    1    0    1
 -2      4878      4879      2381      2380      4764      4765      2343      2342
 -1      2230    1    0    1
 -2      4879      4880      2382      2381      4765      4766      2344      2343
 -1      2231    1    0    1
 -2      4880      4881      2383      2382      4766      4767      2345      2344
 -1      2232    1    0    1
 -2      4881      4882      2384      2383      4767      4768      2346      2345
 -1      2233    1    0    1
 -2      4882      4883      2385      2384      4768      4769      2347      2346
 -1      2234    1    0    1
 -2      4883      4884      2386      2385      4769      4770      2348      2347
 -1      2235    1    0    1
 -2      4884      4885      2387      2386      4770      4771      2349      2348
 -1      2236    1    0    1
 -2      4885      4886      2388      2387      4771      4772      2350      2349
 -1      2237    1    0    1
 -2      4886      4887      2389      2388      4772      4773      2351      2350
 -1      2238    1    0    1
 -2      4887      4888      2390      2389      4773      4774      2352      2351
 -1      2239    1    0    1
 -2      4888      4889      2391      2390      4774      4775      2353      2352
 -1      2240    1    0    1
 -2      4889      4890      2392      2391      4775      4776      2354      2353
 -1      2241    1    0    1
 -2      4890      4891      2393      2392      4776      4777      2355      2354
 -1      2242    1    0    1
 -2      4891      4892      2394      2393      4777      4778      2356      2355
 -1      2243    1    0    1
 -2      4892      2277       533      2394      4778      2274       532      2356
 -1      2244    1    0    1
 -2       125      1729      4893      2266       124      1730      4779      2263
 -1      2245    1    0    1
 -2      1729      1733      4894      4893      1730      1734      4780      4779
 -1      2246    1    0    1
 -2      1733      1737      4895      4894      1734      1738      4781      4780
 -1      2247    1    0    1
 -2      1737      1741      4896      4895      1738      1742      4782      4781
 -1      2248    1    0    1
 -2      1741      1745      4897      4896      1742      1746      4783      4782
 -1      2249    1    0    1
 -2      1745      1749      4898      4897      1746      1750      4784      4783
 -1      2250    1    0    1
 -2      1749      1753      4899      4898      1750      1754      4785      4784
 -1      2251    1    0    1
 -2      1753      1757      4900      4899      1754      1758      4786      4785
 -1      2252    1    0    1
 -2      1757      1761      4901      4900      1758      1762      4787      4786
 -1      2253    1    0    1
 -2      1761      1765      4902      4901      1762      1766      4788      4787
 -1      2254    1    0    1
 -2      1765      1769      4903      4902      1766      1770      4789      4788
 -1      2255    1    0    1
 -2      1769      1773      4904      4903      1770      1774      4790      4789
 -1      2256    1    0    1
 -2      1773      1777      4905      4904      1774      1778      4791      4790
 -1      2257    1    0    1
 -2      1777      1781      4906      4905      1778      1782      4792      4791
 -1      2258    1    0    1
 -2      1781      1785      4907      4906      1782      1786      4793      4792
 -1      2259    1    0    1
 -2      1785      1789      4908      4907      1786      1790      4794      4793
 -1      2260    1    0    1
 -2      1789      1793      4909      4908      1790      1794      4795      4794
 -1      2261    1    0    1
 -2      1793      1797      4910      4909      1794      1798      4796      4795
 -1      2262    1    0    1
 -2      1797       438      4911      4910      1798       437      4797      4796
 -1      2263    1    0    1
 -2       438      1801      4912      4911       437      1802      4798      4797
 -1      2264    1    0    1
 -2      1801      1805      4913      4912      1802      1806      4799      4798
 -1      2265    1    0    1
 -2      1805      1809      4914      4913      1806      1810      4800      4799
 -1      2266    1    0    1
 -2      1809      1813      4915      4914      1810      1814      4801      4800
 -1      2267    1    0    1
 -2      1813      1817      4916      4915      1814      1818      4802      4801
 -1      2268    1    0    1
 -2      1817      1821      4917      4916      1818      1822      4803      4802
 -1      2269    1    0    1
 -2      1821      1825      4918      4917      1822      1826      4804      4803
 -1      2270    1    0    1
 -2      1825      1829      4919      4918      1826      1830      4805      4804
 -1      2271    1    0    1
 -2      1829      1833      4920      4919      1830      1834      4806      4805
 -1      2272    1    0    1
 -2      1833      1837      4921      4920      1834      1838      4807      4806
 -1      2273    1    0    1
 -2      1837      1841      4922      4921      1838      1842      4808      4807
 -1      2274    1    0    1
 -2      1841      1845      4923      4922      1842      1846      4809      4808
 -1      2275    1    0    1
 -2      1845      1849      4924      4923      1846      1850      4810      4809
 -1      2276    1    0    1
 -2      1849      1853      4925      4924      1850      1854      4811      4810
 -1      2277    1    0    1
 -2      1853      1857      4926      4925      1854      1858      4812      4811
 -1      2278    1    0    1
 -2      1857      1861      4927      4926      1858      1862      4813      4812
 -1      2279    1    0    1
 -2      1861      1865      4928      4927      1862      1866      4814      4813
 -1      2280    1    0    1
 -2      1865      1869      4929      4928      1866      1870      4815      4814
 -1      2281    1    0    1
 -2      1869      1873      4930      4929      1870      1874      4816      4815
 -1      2282    1    0    1
 -2      1873       209      2278      4930      1874       208      2275      4816
 -1      2283    1    0    1
 -2      2266      4893      4931      2267      2263      4779      4817      2264
 -1      2284    1    0    1
 -2      4893      4894      4932      4931      4779      4780      4818      4817
 -1      2285    1    0    1
 -2      4894      4895      4933      4932      4780      4781      4819      4818
 -1      2286    1    0    1
 -2      4895      4896      4934      4933      4781      4782      4820      4819
 -1      2287    1    0    1
 -2      4896      4897      4935      4934      4782      4783      4821      4820
 -1      2288    1    0    1
 -2      4897      4898      4936      4935      4783      4784      4822      4821
 -1      2289    1    0    1
 -2      4898      4899      4937      4936      4784      4785      4823      4822
 -1      2290    1    0    1
 -2      4899      4900      4938      4937      4785      4786      4824      4823
 -1      2291    1    0    1
 -2      4900      4901      4939      4938      4786      4787      4825      4824
 -1      2292    1    0    1
 -2      4901      4902      4940      4939      4787      4788      4826      4825
 -1      2293    1    0    1
 -2      4902      4903      4941      4940      4788      4789      4827      4826
 -1      2294    1    0    1
 -2      4903      4904      4942      4941      4789      4790      4828      4827
 -1      2295    1    0    1
 -2      4904      4905      4943      4942      4790      4791      4829      4828
 -1      2296    1    0    1
 -2      4905      4906      4944      4943      4791      4792      4830      4829
 -1      2297    1    0    1
 -2      4906      4907      4945      4944      4792      4793      4831      4830
 -1      2298    1    0    1
 -2      4907      4908      4946      4945      4793      4794      4832      4831
 -1      2299    1    0    1
 -2      4908      4909      4947      4946      4794      4795      4833      4832
 -1      2300    1    0    1
 -2      4909      4910      4948      4947      4795      4796      4834      4833
 -1      2301    1    0    1
 -2      4910      4911      4949      4948      4796      4797      4835      4834
 -1      2302    1    0    1
 -2      4911      4912      4950      4949      4797      4798      4836      4835
 -1      2303    1    0    1
 -2      4912      4913      4951      4950      4798      4799      4837      4836
 -1      2304    1    0    1
 -2      4913      4914      4952      4951      4799      4800      4838      4837
 -1      2305    1    0    1
 -2      4914      4915      4953      4952      4800      4801      4839      4838
 -1      2306    1    0    1
 -2      4915      4916      4954      4953      4801      4802      4840      4839
 -1      2307    1    0    1
 -2      4916      4917      4955      4954      4802      4803      4841      4840
 -1      2308    1    0    1
 -2      4917      4918      4956      4955      4803      4804      4842      4841
 -1      2309    1    0    1
 -2      4918      4919      4957      4956      4804      4805      4843      4842
 -1      2310    1    0    1
 -2      4919      4920      4958      4957      4805      4806      4844      4843
 -1      2311    1    0    1
 -2      4920      4921      4959      4958      4806      4807      4845      4844
 -1      2312    1    0    1
 -2      4921      4922      4960      4959      4807      4808      4846      4845
 -1      2313    1    0    1
 -2      4922      4923      4961      4960      4808      4809      4847      4846
 -1      2314    1    0    1
 -2      4923      4924      4962      4961      4809      4810      4848      4847
 -1      2315    1    0    1
 -2      4924      4925      4963      4962      4810      4811      4849      4848
 -1      2316    1    0    1
 -2      4925      4926      4964      4963      4811      4812      4850      4849
 -1      2317    1    0    1
 -2      4926      4927      4965      4964      4812      4813      4851      4850
 -1      2318    1    0    1
 -2      4927      4928      4966      4965      4813      4814      4852      4851
 -1      2319    1    0    1
 -2      4928      4929      4967      4966      4814      4815      4853      4852
 -1      2320    1    0    1
 -2      4929      4930      4968      4967      4815      4816      4854      4853
 -1      2321    1    0    1
 -2      4930      2278      2279      4968      4816      2275      2276      4854
 -1      2322    1    0    1
 -2      2267      4931      4969      2268      2264      4817      4855      2265
 -1      2323    1    0    1
 -2      4931      4932      4970      4969      4817      4818      4856      4855
 -1      2324    1    0    1
 -2      4932      4933      4971      4970      4818      4819      4857      4856
 -1      2325    1    0    1
 -2      4933      4934      4972      4971      4819      4820      4858      4857
 -1      2326    1    0    1
 -2      4934      4935      4973      4972      4820      4821      4859      4858
 -1      2327    1    0    1
 -2      4935      4936      4974      4973      4821      4822      4860      4859
 -1      2328    1    0    1
 -2      4936      4937      4975      4974      4822      4823      4861      4860
 -1      2329    1    0    1
 -2      4937      4938      4976      4975      4823      4824      4862      4861
 -1      2330    1    0    1
 -2      4938      4939      4977      4976      4824      4825      4863      4862
 -1      2331    1    0    1
 -2      4939      4940      4978      4977      4825      4826      4864      4863
 -1      2332    1    0    1
 -2      4940      4941      4979      4978      4826      4827      4865      4864
 -1      2333    1    0    1
 -2      4941      4942      4980      4979      4827      4828      4866      4865
 -1      2334    1    0    1
 -2      4942      4943      4981      4980      4828      4829      4867      4866
 -1      2335    1    0    1
 -2      4943      4944      4982      4981      4829      4830      4868      4867
 -1      2336    1    0    1
 -2      4944      4945      4983      4982      4830      4831      4869      4868
 -1      2337    1    0    1
 -2      4945      4946      4984      4983      4831      4832      4870      4869
 -1      2338    1    0    1
 -2      4946      4947      4985      4984      4832      4833      4871      4870
 -1      2339    1    0    1
 -2      4947      4948      4986      4985      4833      4834      4872      4871
 -1      2340    1    0    1
 -2      4948      4949      4987      4986      4834      4835      4873      4872
 -1      2341    1    0    1
 -2      4949      4950      4988      4987      4835      4836      4874      4873
 -1      2342    1    0    1
 -2      4950      4951      4989      4988      4836      4837      4875      4874
 -1      2343    1    0    1
 -2      4951      4952      4990      4989      4837      4838      4876      4875
 -1      2344    1    0    1
 -2      4952      4953      4991      4990      4838      4839      4877      4876
 -1      2345    1    0    1
 -2      4953      4954      4992      4991      4839      4840      4878      4877
 -1      2346    1    0    1
 -2      4954      4955      4993      4992      4840      4841      4879      4878
 -1      2347    1    0    1
 -2      4955      4956      4994      4993      4841      4842      4880      4879
 -1      2348    1    0    1
 -2      4956      4957      4995      4994      4842      4843      4881      4880
 -1      2349    1    0    1
 -2      4957      4958      4996      4995      4843      4844      4882      4881
 -1      2350    1    0    1
 -2      4958      4959      4997      4996      4844      4845      4883      4882
 -1      2351    1    0    1
 -2      4959      4960      4998      4997      4845      4846      4884      4883
 -1      2352    1    0    1
 -2      4960      4961      4999      4998      4846      4847      4885      4884
 -1      2353    1    0    1
 -2      4961      4962      5000      4999      4847      4848      4886      4885
 -1      2354    1    0    1
 -2      4962      4963      5001      5000      4848      4849      4887      4886
 -1      2355    1    0    1
 -2      4963      4964      5002      5001      4849      4850      4888      4887
 -1      2356    1    0    1
 -2      4964      4965      5003      5002      4850      4851      4889      4888
 -1      2357    1    0    1
 -2      4965      4966      5004      5003      4851      4852      4890      4889
 -1      2358    1    0    1
 -2      4966      4967      5005      5004      4852      4853      4891      4890
 -1      2359    1    0    1
 -2      4967      4968      5006      5005      4853      4854      4892      4891
 -1      2360    1    0    1
 -2      4968      2279      2280      5006      4854      2276      2277      4892
 -1      2361    1    0    1
 -2      2268      4969      2395       527      2265      4855      2357       528
 -1      2362    1    0    1
 -2      4969      4970      2396      2395      4855      4856      2358      2357
 -1      2363    1    0    1
 -2      4970      4971      2397      2396      4856      4857      2359      2358
 -1      2364    1    0    1
 -2      4971      4972      2398      2397      4857      4858      2360      2359
 -1      2365    1    0    1
 -2      4972      4973      2399      2398      4858      4859      2361      2360
 -1      2366    1    0    1
 -2      4973      4974      2400      2399      4859      4860      2362      2361
 -1      2367    1    0    1
 -2      4974      4975      2401      2400      4860      4861      2363      2362
 -1      2368    1    0    1
 -2      4975      4976      2402      2401      4861      4862      2364      2363
 -1      2369    1    0    1
 -2      4976      4977      2403      2402      4862      4863      2365      2364
 -1      2370    1    0    1
 -2      4977      4978      2404      2403      4863      4864      2366      2365
 -1      2371    1    0    1
 -2      4978      4979      2405      2404      4864      4865      2367      2366
 -1      2372    1    0    1
 -2      4979      4980      2406      2405      4865      4866      2368      2367
 -1      2373    1    0    1
 -2      4980      4981      2407      2406      4866      4867      2369      2368
 -1      2374    1    0    1
 -2      4981      4982      2408      2407      4867      4868      2370      2369
 -1      2375    1    0    1
 -2      4982      4983      2409      2408      4868      4869      2371      2370
 -1      2376    1    0    1
 -2      4983      4984      2410      2409      4869      4870      2372      2371
 -1      2377    1    0    1
 -2      4984      4985      2411      2410      4870      4871      2373      2372
 -1      2378    1    0    1
 -2      4985      4986      2412      2411      4871      4872      2374      2373
 -1      2379    1    0    1
 -2      4986      4987      2413      2412      4872      4873      2375      2374
 -1      2380    1    0    1
 -2      4987      4988      2414      2413      4873      4874      2376      2375
 -1      2381    1    0    1
 -2      4988      4989      2415      2414      4874      4875      2377      2376
 -1      2382    1    0    1
 -2      4989      4990      2416      2415      4875      4876      2378      2377
 -1      2383    1    0    1
 -2      4990      4991      2417      2416      4876      4877      2379      2378
 -1      2384    1    0    1
 -2      4991      4992      2418      2417      4877      4878      2380      2379
 -1      2385    1    0    1
 -2      4992      4993      2419      2418      4878      4879      2381      2380
 -1      2386    1    0    1
 -2      4993      4994      2420      2419      4879      4880      2382      2381
 -1      2387    1    0    1
 -2      4994      4995      2421      2420      4880      4881      2383      2382
 -1      2388    1    0    1
 -2      4995      4996      2422      2421      4881      4882      2384      2383
 -1      2389    1    0    1
 -2      4996      4997      2423      2422      4882      4883      2385      2384
 -1      2390    1    0    1
 -2      4997      4998      2424      2423      4883      4884      2386      2385
 -1      2391    1    0    1
 -2      4998      4999      2425      2424      4884      4885      2387      2386
 -1      2392    1    0    1
 -2      4999      5000      2426      2425      4885      4886      2388      2387
 -1      2393    1    0    1
 -2      5000      5001      2427      2426      4886      4887      2389      2388
 -1      2394    1    0    1
 -2      5001      5002      2428      2427      4887      4888      2390      2389
 -1      2395    1    0    1
 -2      5002      5003      2429      2428      4888      4889      2391      2390
 -1      2396    1    0    1
 -2      5003      5004      2430      2429      4889      4890      2392      2391
 -1      2397    1    0    1
 -2      5004      5005      2431      2430      4890      4891      2393      2392
 -1      2398    1    0    1
 -2      5005      5006      2432      2431      4891      4892      2394      2393
 -1      2399    1    0    1
 -2      5006      2280       534      2432      4892      2277       533      2394
 -1      2400    1    0    1
 -2        10       323      2143       524       125      1729      4893      2266
 -1      2401    1    0    1
 -2       323       324      2144      2143      1729      1733      4894      4893
 -1      2402    1    0    1
 -2       324       325      2145      2144      1733      1737      4895      4894
 -1      2403    1    0    1
 -2       325       326      2146      2145      1737      1741      4896      4895
 -1      2404    1    0    1
 -2       326       327      2147      2146      1741      1745      4897      4896
 -1      2405    1    0    1
 -2       327       328      2148      2147      1745      1749      4898      4897
 -1      2406    1    0    1
 -2       328       329      2149      2148      1749      1753      4899      4898
 -1      2407    1    0    1
 -2       329       330      2150      2149      1753      1757      4900      4899
 -1      2408    1    0    1
 -2       330       331      2151      2150      1757      1761      4901      4900
 -1      2409    1    0    1
 -2       331       332      2152      2151      1761      1765      4902      4901
 -1      2410    1    0    1
 -2       332       333      2153      2152      1765      1769      4903      4902
 -1      2411    1    0    1
 -2       333       334      2154      2153      1769      1773      4904      4903
 -1      2412    1    0    1
 -2       334       335      2155      2154      1773      1777      4905      4904
 -1      2413    1    0    1
 -2       335       336      2156      2155      1777      1781      4906      4905
 -1      2414    1    0    1
 -2       336       337      2157      2156      1781      1785      4907      4906
 -1      2415    1    0    1
 -2       337       338      2158      2157      1785      1789      4908      4907
 -1      2416    1    0    1
 -2       338       339      2159      2158      1789      1793      4909      4908
 -1      2417    1    0    1
 -2       339       340      2160      2159      1793      1797      4910      4909
 -1      2418    1    0    1
 -2       340        29      2161      2160      1797       438      4911      4910
 -1      2419    1    0    1
 -2        29       341      2162      2161       438      1801      4912      4911
 -1      2420    1    0    1
 -2       341       342      2163      2162      1801      1805      4913      4912
 -1      2421    1    0    1
 -2       342       343      2164      2163      1805      1809      4914      4913
 -1      2422    1    0    1
 -2       343       344      2165      2164      1809      1813      4915      4914
 -1      2423    1    0    1
 -2       344       345      2166      2165      1813      1817      4916      4915
 -1      2424    1    0    1
 -2       345       346      2167      2166      1817      1821      4917      4916
 -1      2425    1    0    1
 -2       346       347      2168      2167      1821      1825      4918      4917
 -1      2426    1    0    1
 -2       347       348      2169      2168      1825      1829      4919      4918
 -1      2427    1    0    1
 -2       348       349      2170      2169      1829      1833      4920      4919
 -1      2428    1    0    1
 -2       349       350      2171      2170      1833      1837      4921      4920
 -1      2429    1    0    1
 -2       350       351      2172      2171      1837      1841      4922      4921
 -1      2430    1    0    1
 -2       351       352      2173      2172      1841      1845      4923      4922
 -1      2431    1    0    1
 -2       352       353      2174      2173      1845      1849      4924      4923
 -1      2432    1    0    1
 -2       353       354      2175      2174      1849      1853      4925      4924
 -1      2433    1    0    1
 -2       354       355      2176      2175      1853      1857      4926      4925
 -1      2434    1    0    1
 -2       355       356      2177      2176      1857      1861      4927      4926
 -1      2435    1    0    1
 -2       356       357      2178      2177      1861      1865      4928      4927
 -1      2436    1    0    1
 -2       357       358      2179      2178      1865      1869      4929      4928
 -1      2437    1    0    1
 -2       358       359      2180      2179      1869      1873      4930      4929
 -1      2438    1    0    1
 -2       359        22       485      2180      1873       209      2278      4930
 -1      2439    1    0    1
 -2       524      2143      2181       525      2266      4893      4931      2267
 -1      2440    1    0    1
 -2      2143      2144      2182      2181      4893      4894      4932      4931
 -1      2441    1    0    1
 -2      2144      2145      2183      2182      4894      4895      4933      4932
 -1      2442    1    0    1
 -2      2145      2146      2184      2183      4895      4896      4934      4933
 -1      2443    1    0    1
 -2      2146      2147      2185      2184      4896      4897      4935      4934
 -1      2444    1    0    1
 -2      2147      2148      2186      2185      4897      4898      4936      4935
 -1      2445    1    0    1
 -2      2148      2149      2187      2186      4898      4899      4937      4936
 -1      2446    1    0    1
 -2      2149      2150      2188      2187      4899      4900      4938      4937
 -1      2447    1    0    1
 -2      2150      2151      2189      2188      4900      4901      4939      4938
 -1      2448    1    0    1
 -2      2151      2152      2190      2189      4901      4902      4940      4939
 -1      2449    1    0    1
 -2      2152      2153      2191      2190      4902      4903      4941      4940
 -1      2450    1    0    1
 -2      2153      2154      2192      2191      4903      4904      4942      4941
 -1      2451    1    0    1
 -2      2154      2155      2193      2192      4904      4905      4943      4942
 -1      2452    1    0    1
 -2      2155      2156      2194      2193      4905      4906      4944      4943
 -1      2453    1    0    1
 -2      2156      2157      2195      2194      4906      4907      4945      4944
 -1      2454    1    0    1
 -2      2157      2158      2196      2195      4907      4908      4946      4945
 -1      2455    1    0    1
 -2      2158      2159      2197      2196      4908      4909      4947      4946
 -1      2456    1    0    1
 -2      2159      2160      2198      2197      4909      4910      4948      4947
 -1      2457    1    0    1
 -2      2160      2161      2199      2198      4910      4911      4949      4948
 -1      2458    1    0    1
 -2      2161      2162      2200      2199      4911      4912      4950      4949
 -1      2459    1    0    1
 -2      2162      2163      2201      2200      4912      4913      4951      4950
 -1      2460    1    0    1
 -2      2163      2164      2202      2201      4913      4914      4952      4951
 -1      2461    1    0    1
 -2      2164      2165      2203      2202      4914      4915      4953      4952
 -1      2462    1    0    1
 -2      2165      2166      2204      2203      4915      4916      4954      4953
 -1      2463    1    0    1
 -2      2166      2167      2205      2204      4916      4917      4955      4954
 -1      2464    1    0    1
 -2      2167      2168      2206      2205      4917      4918      4956      4955
 -1      2465    1    0    1
 -2      2168      2169      2207      2206      4918      4919      4957      4956
 -1      2466    1    0    1
 -2      2169      2170      2208      2207      4919      4920      4958      4957
 -1      2467    1    0    1
 -2      2170      2171      2209      2208      4920      4921      4959      4958
 -1      2468    1    0    1
 -2      2171      2172      2210      2209      4921      4922      4960      4959
 -1      2469    1    0    1
 -2      2172      2173      2211      2210      4922      4923      4961      4960
 -1      2470    1    0    1
 -2      2173      2174      2212      2211      4923      4924      4962      4961
 -1      2471    1    0    1
 -2      2174      2175      2213      2212      4924      4925      4963      4962
 -1      2472    1    0    1
 -2      2175      2176      2214      2213      4925      4926      4964      4963
 -1      2473    1    0    1
 -2      2176      2177      2215      2214      4926      4927      4965      4964
 -1      2474    1    0    1
 -2      2177      2178      2216      2215      4927      4928      4966      4965
 -1      2475    1    0    1
 -2      2178      2179      2217      2216      4928      4929      4967      4966
 -1      2476    1    0    1
 -2      2179      2180      2218      2217      4929      4930      4968      4967
 -1      2477    1    0    1
 -2      2180       485       484      2218      4930      2278      2279      4968
 -1      2478    1    0    1
 -2       525      2181      2219       526      2267      4931      4969      2268
 -1      2479    1    0    1
 -2      2181      2182      2220      2219      4931      4932      4970      4969
 -1      2480    1    0    1
 -2      2182      2183      2221      2220      4932      4933      4971      4970
 -1      2481    1    0    1
 -2      2183      2184      2222      2221      4933      4934      4972      4971
 -1      2482    1    0    1
 -2      2184      2185      2223      2222      4934      4935      4973      4972
 -1      2483    1    0    1
 -2      2185      2186      2224      2223      4935      4936      4974      4973
 -1      2484    1    0    1
 -2      2186      2187      2225      2224      4936      4937      4975      4974
 -1      2485    1    0    1
 -2      2187      2188      2226      2225      4937      4938      4976      4975
 -1      2486    1    0    1
 -2      2188      2189      2227      2226      4938      4939      4977      4976
 -1      2487    1    0    1
 -2      2189      2190      2228      2227      4939      4940      4978      4977
 -1      2488    1    0    1
 -2      2190      2191      2229      2228      4940      4941      4979      4978
 -1      2489    1    0    1
 -2      2191      2192      2230      2229      4941      4942      4980      4979
 -1      2490    1    0    1
 -2      2192      2193      2231      2230      4942      4943      4981      4980
 -1      2491    1    0    1
 -2      2193      2194      2232      2231      4943      4944      4982      4981
 -1      2492    1    0    1
 -2      2194      2195      2233      2232      4944      4945      4983      4982
 -1      2493    1    0    1
 -2      2195      2196      2234      2233      4945      4946      4984      4983
 -1      2494    1    0    1
 -2      2196      2197      2235      2234      4946      4947      4985      4984
 -1      2495    1    0    1
 -2      2197      2198      2236      2235      4947      4948      4986      4985
 -1      2496    1    0    1
 -2      2198      2199      2237      2236      4948      4949      4987      4986
 -1      2497    1    0    1
 -2      2199      2200      2238      2237      4949      4950      4988      4987
 -1      2498    1    0    1
 -2      2200      2201      2239      2238      4950      4951      4989      4988
 -1      2499    1    0    1
 -2      2201      2202      2240      2239      4951      4952      4990      4989
 -1      2500    1    0    1
 -2      2202      2203      2241      2240      4952      4953      4991      4990
 -1      2501    1    0    1
 -2      2203      2204      2242      2241      4953      4954      4992      4991
 -1      2502    1    0    1
 -2      2204      2205      2243      2242      4954      4955      4993      4992
 -1      2503    1    0    1
 -2      2205      2206      2244      2243      4955      4956      4994      4993
 -1      2504    1    0    1
 -2      2206      2207      2245      2244      4956      4957      4995      4994
 -1      2505    1    0    1
 -2      2207      2208      2246      2245      4957      4958      4996      4995
 -1      2506    1    0    1
 -2      2208      2209      2247      2246      4958      4959      4997      4996
 -1      2507    1    0    1
 -2      2209      2210      2248      2247      4959      4960      4998      4997
 -1      2508    1    0    1
 -2      2210      2211      2249      2248      4960      4961      4999      4998
 -1      2509    1    0    1
 -2      2211      2212      2250      2249      4961      4962      5000      4999
 -1      2510    1    0    1
 -2      2212      2213      2251      2250      4962      4963      5001      5000
 -1      2511    1    0    1
 -2      2213      2214      2252      2251      4963      4964      5002      5001
 -1      2512    1    0    1
 -2      2214      2215      2253      2252      4964      4965      5003      5002
 -1      2513    1    0    1
 -2      2215      2216      2254      2253      4965      4966      5004      5003
 -1      2514    1    0    1
 -2      2216      2217      2255      2254      4966      4967      5005      5004
 -1      2515    1    0    1
 -2      2217      2218      2256      2255      4967      4968      5006      5005
 -1      2516    1    0    1
 -2      2218       484       483      2256      4968      2279      2280      5006
 -1      2517    1    0    1
 -2       526      2219       486        34      2268      4969      2395       527
 -1      2518    1    0    1
 -2      2219      2220       487       486      4969      4970      2396      2395
 -1      2519    1    0    1
 -2      2220      2221       488       487      4970      4971      2397      2396
 -1      2520    1    0    1
 -2      2221      2222       489       488      4971      4972      2398      2397
 -1      2521    1    0    1
 -2      2222      2223       490       489      4972      4973      2399      2398
 -1      2522    1    0    1
 -2      2223      2224       491       490      4973      4974      2400      2399
 -1      2523    1    0    1
 -2      2224      2225       492       491      4974      4975      2401      2400
 -1      2524    1    0    1
 -2      2225      2226       493       492      4975      4976      2402      2401
 -1      2525    1    0    1
 -2      2226      2227       494       493      4976      4977      2403      2402
 -1      2526    1    0    1
 -2      2227      2228       495       494      4977      4978      2404      2403
 -1      2527    1    0    1
 -2      2228      2229       496       495      4978      4979      2405      2404
 -1      2528    1    0    1
 -2      2229      2230       497       496      4979      4980      2406      2405
 -1      2529    1    0    1
 -2      2230      2231       498       497      4980      4981      2407      2406
 -1      2530    1    0    1
 -2      2231      2232       499       498      4981      4982      2408      2407
 -1      2531    1    0    1
 -2      2232      2233       500       499      4982      4983      2409      2408
 -1      2532    1    0    1
 -2      2233      2234       501       500      4983      4984      2410      2409
 -1      2533    1    0    1
 -2      2234      2235       502       501      4984      4985      2411      2410
 -1      2534    1    0    1
 -2      2235      2236       503       502      4985      4986      2412      2411
 -1      2535    1    0    1
 -2      2236      2237       504       503      4986      4987      2413      2412
 -1      2536    1    0    1
 -2      2237      2238       505       504      4987      4988      2414      2413
 -1      2537    1    0    1
 -2      2238      2239       506       505      4988      4989      2415      2414
 -1      2538    1    0    1
 -2      2239      2240       507       506      4989      4990      2416      2415
 -1      2539    1    0    1
 -2      2240      2241       508       507      4990      4991      2417      2416
 -1      2540    1    0    1
 -2      2241      2242       509       508      4991      4992      2418      2417
 -1      2541    1    0    1
 -2      2242      2243       510       509      4992      4993      2419      2418
 -1      2542    1    0    1
 -2      2243      2244       511       510      4993      4994      2420      2419
 -1      2543    1    0    1
 -2      2244      2245       512       511      4994      4995      2421      2420
 -1      2544    1    0    1
 -2      2245      2246       513       512      4995      4996      2422      2421
 -1      2545    1    0    1
 -2      2246      2247       514       513      4996      4997      2423      2422
 -1      2546    1    0    1
 -2      2247      2248       515       514      4997      4998      2424      2423
 -1      2547    1    0    1
 -2      2248      2249       516       515      4998      4999      2425      2424
 -1      2548    1    0    1
 -2      2249      2250       517       516      4999      5000      2426      2425
 -1      2549    1    0    1
 -2      2250      2251       518       517      5000      5001      2427      2426
 -1      2550    1    0    1
 -2      2251      2252       519       518      5001      5002      2428      2427
 -1      2551    1    0    1
 -2      2252      2253       520       519      5002      5003      2429      2428
 -1      2552    1    0    1
 -2      2253      2254       521       520      5003      5004      2430      2429
 -1      2553    1    0    1
 -2      2254      2255       522       521      5004      5005      2431      2430
 -1      2554    1    0    1
 -2      2255      2256       523       522      5005      5006      2432      2431
 -1      2555    1    0    1
 -2      2256       483        33       523      5006      2280       534      2432
 -1      2556    1    0    1
 -2       480      2259      5007      2493        32       530      2433       568
 -1      2557    1    0    1
 -2      2259      2262      5008      5007       530       529      2434      2433
 -1      2558    1    0    1
 -2      2262      2265      5009      5008       529       528      2435      2434
 -1      2559    1    0    1
 -2      2265      2268      5010      5009       528       527      2436      2435
 -1      2560    1    0    1
 -2      2268       526      2538      5010       527        34       535      2436
 -1      2561    1    0    1
 -2      2493      5007      5011      2494       568      2433      2437       567
 -1      2562    1    0    1
 -2      5007      5008      5012      5011      2433      2434      2438      2437
 -1      2563    1    0    1
 -2      5008      5009      5013      5012      2434      2435      2439      2438
 -1      2564    1    0    1
 -2      5009      5010      5014      5013      2435      2436      2440      2439
 -1      2565    1    0    1
 -2      5010      2538      2539      5014      2436       535       536      2440
 -1      2566    1    0    1
 -2      2494      5011      5015      2495       567      2437      2441       566
 -1      2567    1    0    1
 -2      5011      5012      5016      5015      2437      2438      2442      2441
 -1      2568    1    0    1
 -2      5012      5013      5017      5016      2438      2439      2443      2442
 -1      2569    1    0    1
 -2      5013      5014      5018      5017      2439      2440      2444      2443
 -1      2570    1    0    1
 -2      5014      2539      2540      5018      2440       536       537      2444
 -1      2571    1    0    1
 -2      2495      5015      5019      2496       566      2441      2445       565
 -1      2572    1    0    1
 -2      5015      5016      5020      5019      2441      2442      2446      2445
 -1      2573    1    0    1
 -2      5016      5017      5021      5020      2442      2443      2447      2446
 -1      2574    1    0    1
 -2      5017      5018      5022      5021      2443      2444      2448      2447
 -1      2575    1    0    1
 -2      5018      2540      2541      5022      2444       537       538      2448
 -1      2576    1    0    1
 -2      2496      5019      5023      2497       565      2445      2449       564
 -1      2577    1    0    1
 -2      5019      5020      5024      5023      2445      2446      2450      2449
 -1      2578    1    0    1
 -2      5020      5021      5025      5024      2446      2447      2451      2450
 -1      2579    1    0    1
 -2      5021      5022      5026      5025      2447      2448      2452      2451
 -1      2580    1    0    1
 -2      5022      2541      2542      5026      2448       538       539      2452
 -1      2581    1    0    1
 -2      2497      5023      5027      2498       564      2449      2453       563
 -1      2582    1    0    1
 -2      5023      5024      5028      5027      2449      2450      2454      2453
 -1      2583    1    0    1
 -2      5024      5025      5029      5028      2450      2451      2455      2454
 -1      2584    1    0    1
 -2      5025      5026      5030      5029      2451      2452      2456      2455
 -1      2585    1    0    1
 -2      5026      2542      2543      5030      2452       539       540      2456
 -1      2586    1    0    1
 -2      2498      5027      5031      2499       563      2453      2457       562
 -1      2587    1    0    1
 -2      5027      5028      5032      5031      2453      2454      2458      2457
 -1      2588    1    0    1
 -2      5028      5029      5033      5032      2454      2455      2459      2458
 -1      2589    1    0    1
 -2      5029      5030      5034      5033      2455      2456      2460      2459
 -1      2590    1    0    1
 -2      5030      2543      2544      5034      2456       540       541      2460
 -1      2591    1    0    1
 -2      2499      5031      5035      2500       562      2457      2461       561
 -1      2592    1    0    1
 -2      5031      5032      5036      5035      2457      2458      2462      2461
 -1      2593    1    0    1
 -2      5032      5033      5037      5036      2458      2459      2463      2462
 -1      2594    1    0    1
 -2      5033      5034      5038      5037      2459      2460      2464      2463
 -1      2595    1    0    1
 -2      5034      2544      2545      5038      2460       541       542      2464
 -1      2596    1    0    1
 -2      2500      5035      5039      2501       561      2461      2465       560
 -1      2597    1    0    1
 -2      5035      5036      5040      5039      2461      2462      2466      2465
 -1      2598    1    0    1
 -2      5036      5037      5041      5040      2462      2463      2467      2466
 -1      2599    1    0    1
 -2      5037      5038      5042      5041      2463      2464      2468      2467
 -1      2600    1    0    1
 -2      5038      2545      2546      5042      2464       542       543      2468
 -1      2601    1    0    1
 -2      2501      5039      5043      2502       560      2465      2469       559
 -1      2602    1    0    1
 -2      5039      5040      5044      5043      2465      2466      2470      2469
 -1      2603    1    0    1
 -2      5040      5041      5045      5044      2466      2467      2471      2470
 -1      2604    1    0    1
 -2      5041      5042      5046      5045      2467      2468      2472      2471
 -1      2605    1    0    1
 -2      5042      2546      2547      5046      2468       543       544      2472
 -1      2606    1    0    1
 -2      2502      5043      5047      2503       559      2469      2473       558
 -1      2607    1    0    1
 -2      5043      5044      5048      5047      2469      2470      2474      2473
 -1      2608    1    0    1
 -2      5044      5045      5049      5048      2470      2471      2475      2474
 -1      2609    1    0    1
 -2      5045      5046      5050      5049      2471      2472      2476      2475
 -1      2610    1    0    1
 -2      5046      2547      2548      5050      2472       544       545      2476
 -1      2611    1    0    1
 -2      2503      5047      5051      2504       558      2473      2477       557
 -1      2612    1    0    1
 -2      5047      5048      5052      5051      2473      2474      2478      2477
 -1      2613    1    0    1
 -2      5048      5049      5053      5052      2474      2475      2479      2478
 -1      2614    1    0    1
 -2      5049      5050      5054      5053      2475      2476      2480      2479
 -1      2615    1    0    1
 -2      5050      2548      2549      5054      2476       545       546      2480
 -1      2616    1    0    1
 -2      2504      5051      5055      2505       557      2477      2481       556
 -1      2617    1    0    1
 -2      5051      5052      5056      5055      2477      2478      2482      2481
 -1      2618    1    0    1
 -2      5052      5053      5057      5056      2478      2479      2483      2482
 -1      2619    1    0    1
 -2      5053      5054      5058      5057      2479      2480      2484      2483
 -1      2620    1    0    1
 -2      5054      2549      2550      5058      2480       546       547      2484
 -1      2621    1    0    1
 -2      2505      5055      5059      2506       556      2481      2485       555
 -1      2622    1    0    1
 -2      5055      5056      5060      5059      2481      2482      2486      2485
 -1      2623    1    0    1
 -2      5056      5057      5061      5060      2482      2483      2487      2486
 -1      2624    1    0    1
 -2      5057      5058      5062      5061      2483      2484      2488      2487
 -1      2625    1    0    1
 -2      5058      2550      2551      5062      2484       547       548      2488
 -1      2626    1    0    1
 -2      2506      5059      5063      2507       555      2485      2489       554
 -1      2627    1    0    1
 -2      5059      5060      5064      5063      2485      2486      2490      2489
 -1      2628    1    0    1
 -2      5060      5061      5065      5064      2486      2487      2491      2490
 -1      2629    1    0    1
 -2      5061      5062      5066      5065      2487      2488      2492      2491
 -1      2630    1    0    1
 -2      5062      2551      2552      5066      2488       548       549      2492
 -1      2631    1    0    1
 -2      2507      5063      2583       569       554      2489       553        36
 -1      2632    1    0    1
 -2      5063      5064      2584      2583      2489      2490       552       553
 -1      2633    1    0    1
 -2      5064      5065      2585      2584      2490      2491       551       552
 -1      2634    1    0    1
 -2      5065      5066      2586      2585      2491      2492       550       551
 -1      2635    1    0    1
 -2      5066      2552       574      2586      2492       549        35       550
 -1      2636    1    0    1
 -2       481      2258      5067      2508       480      2259      5007      2493
 -1      2637    1    0    1
 -2      2258      2261      5068      5067      2259      2262      5008      5007
 -1      2638    1    0    1
 -2      2261      2264      5069      5068      2262      2265      5009      5008
 -1      2639    1    0    1
 -2      2264      2267      5070      5069      2265      2268      5010      5009
 -1      2640    1    0    1
 -2      2267       525      2553      5070      2268       526      2538      5010
 -1      2641    1    0    1
 -2      2508      5067      5071      2509      2493      5007      5011      2494
 -1      2642    1    0    1
 -2      5067      5068      5072      5071      5007      5008      5012      5011
 -1      2643    1    0    1
 -2      5068      5069      5073      5072      5008      5009      5013      5012
 -1      2644    1    0    1
 -2      5069      5070      5074      5073      5009      5010      5014      5013
 -1      2645    1    0    1
 -2      5070      2553      2554      5074      5010      2538      2539      5014
 -1      2646    1    0    1
 -2      2509      5071      5075      2510      2494      5011      5015      2495
 -1      2647    1    0    1
 -2      5071      5072      5076      5075      5011      5012      5016      5015
 -1      2648    1    0    1
 -2      5072      5073      5077      5076      5012      5013      5017      5016
 -1      2649    1    0    1
 -2      5073      5074      5078      5077      5013      5014      5018      5017
 -1      2650    1    0    1
 -2      5074      2554      2555      5078      5014      2539      2540      5018
 -1      2651    1    0    1
 -2      2510      5075      5079      2511      2495      5015      5019      2496
 -1      2652    1    0    1
 -2      5075      5076      5080      5079      5015      5016      5020      5019
 -1      2653    1    0    1
 -2      5076      5077      5081      5080      5016      5017      5021      5020
 -1      2654    1    0    1
 -2      5077      5078      5082      5081      5017      5018      5022      5021
 -1      2655    1    0    1
 -2      5078      2555      2556      5082      5018      2540      2541      5022
 -1      2656    1    0    1
 -2      2511      5079      5083      2512      2496      5019      5023      2497
 -1      2657    1    0    1
 -2      5079      5080      5084      5083      5019      5020      5024      5023
 -1      2658    1    0    1
 -2      5080      5081      5085      5084      5020      5021      5025      5024
 -1      2659    1    0    1
 -2      5081      5082      5086      5085      5021      5022      5026      5025
 -1      2660    1    0    1
 -2      5082      2556      2557      5086      5022      2541      2542      5026
 -1      2661    1    0    1
 -2      2512      5083      5087      2513      2497      5023      5027      2498
 -1      2662    1    0    1
 -2      5083      5084      5088      5087      5023      5024      5028      5027
 -1      2663    1    0    1
 -2      5084      5085      5089      5088      5024      5025      5029      5028
 -1      2664    1    0    1
 -2      5085      5086      5090      5089      5025      5026      5030      5029
 -1      2665    1    0    1
 -2      5086      2557      2558      5090      5026      2542      2543      5030
 -1      2666    1    0    1
 -2      2513      5087      5091      2514      2498      5027      5031      2499
 -1      2667    1    0    1
 -2      5087      5088      5092      5091      5027      5028      5032      5031
 -1      2668    1    0    1
 -2      5088      5089      5093      5092      5028      5029      5033      5032
 -1      2669    1    0    1
 -2      5089      5090      5094      5093      5029      5030      5034      5033
 -1      2670    1    0    1
 -2      5090      2558      2559      5094      5030      2543      2544      5034
 -1      2671    1    0    1
 -2      2514      5091      5095      2515      2499      5031      5035      2500
 -1      2672    1    0    1
 -2      5091      5092      5096      5095      5031      5032      5036      5035
 -1      2673    1    0    1
 -2      5092      5093      5097      5096      5032      5033      5037      5036
 -1      2674    1    0    1
 -2      5093      5094      5098      5097      5033      5034      5038      5037
 -1      2675    1    0    1
 -2      5094      2559      2560      5098      5034      2544      2545      5038
 -1      2676    1    0    1
 -2      2515      5095      5099      2516      2500      5035      5039      2501
 -1      2677    1    0    1
 -2      5095      5096      5100      5099      5035      5036      5040      5039
 -1      2678    1    0    1
 -2      5096      5097      5101      5100      5036      5037      5041      5040
 -1      2679    1    0    1
 -2      5097      5098      5102      5101      5037      5038      5042      5041
 -1      2680    1    0    1
 -2      5098      2560      2561      5102      5038      2545      2546      5042
 -1      2681    1    0    1
 -2      2516      5099      5103      2517      2501      5039      5043      2502
 -1      2682    1    0    1
 -2      5099      5100      5104      5103      5039      5040      5044      5043
 -1      2683    1    0    1
 -2      5100      5101      5105      5104      5040      5041      5045      5044
 -1      2684    1    0    1
 -2      5101      5102      5106      5105      5041      5042      5046      5045
 -1      2685    1    0    1
 -2      5102      2561      2562      5106      5042      2546      2547      5046
 -1      2686    1    0    1
 -2      2517      5103      5107      2518      2502      5043      5047      2503
 -1      2687    1    0    1
 -2      5103      5104      5108      5107      5043      5044      5048      5047
 -1      2688    1    0    1
 -2      5104      5105      5109      5108      5044      5045      5049      5048
 -1      2689    1    0    1
 -2      5105      5106      5110      5109      5045      5046      5050      5049
 -1      2690    1    0    1
 -2      5106      2562      2563      5110      5046      2547      2548      5050
 -1      2691    1    0    1
 -2      2518      5107      5111      2519      2503      5047      5051      2504
 -1      2692    1    0    1
 -2      5107      5108      5112      5111      5047      5048      5052      5051
 -1      2693    1    0    1
 -2      5108      5109      5113      5112      5048      5049      5053      5052
 -1      2694    1    0    1
 -2      5109      5110      5114      5113      5049      5050      5054      5053
 -1      2695    1    0    1
 -2      5110      2563      2564      5114      5050      2548      2549      5054
 -1      2696    1    0    1
 -2      2519      5111      5115      2520      2504      5051      5055      2505
 -1      2697    1    0    1
 -2      5111      5112      5116      5115      5051      5052      5056      5055
 -1      2698    1    0    1
 -2      5112      5113      5117      5116      5052      5053      5057      5056
 -1      2699    1    0    1
 -2      5113      5114      5118      5117      5053      5054      5058      5057
 -1      2700    1    0    1
 -2      5114      2564      2565      5118      5054      2549      2550      5058
 -1      2701    1    0    1
 -2      2520      5115      5119      2521      2505      5055      5059      2506
 -1      2702    1    0    1
 -2      5115      5116      5120      5119      5055      5056      5060      5059
 -1      2703    1    0    1
 -2      5116      5117      5121      5120      5056      5057      5061      5060
 -1      2704    1    0    1
 -2      5117      5118      5122      5121      5057      5058      5062      5061
 -1      2705    1    0    1
 -2      5118      2565      2566      5122      5058      2550      2551      5062
 -1      2706    1    0    1
 -2      2521      5119      5123      2522      2506      5059      5063      2507
 -1      2707    1    0    1
 -2      5119      5120      5124      5123      5059      5060      5064      5063
 -1      2708    1    0    1
 -2      5120      5121      5125      5124      5060      5061      5065      5064
 -1      2709    1    0    1
 -2      5121      5122      5126      5125      5061      5062      5066      5065
 -1      2710    1    0    1
 -2      5122      2566      2567      5126      5062      2551      2552      5066
 -1      2711    1    0    1
 -2      2522      5123      2587       570      2507      5063      2583       569
 -1      2712    1    0    1
 -2      5123      5124      2588      2587      5063      5064      2584      2583
 -1      2713    1    0    1
 -2      5124      5125      2589      2588      5064      5065      2585      2584
 -1      2714    1    0    1
 -2      5125      5126      2590      2589      5065      5066      2586      2585
 -1      2715    1    0    1
 -2      5126      2567       573      2590      5066      2552       574      2586
 -1      2716    1    0    1
 -2       482      2257      5127      2523       481      2258      5067      2508
 -1      2717    1    0    1
 -2      2257      2260      5128      5127      2258      2261      5068      5067
 -1      2718    1    0    1
 -2      2260      2263      5129      5128      2261      2264      5069      5068
 -1      2719    1    0    1
 -2      2263      2266      5130      5129      2264      2267      5070      5069
 -1      2720    1    0    1
 -2      2266       524      2568      5130      2267       525      2553      5070
 -1      2721    1    0    1
 -2      2523      5127      5131      2524      2508      5067      5071      2509
 -1      2722    1    0    1
 -2      5127      5128      5132      5131      5067      5068      5072      5071
 -1      2723    1    0    1
 -2      5128      5129      5133      5132      5068      5069      5073      5072
 -1      2724    1    0    1
 -2      5129      5130      5134      5133      5069      5070      5074      5073
 -1      2725    1    0    1
 -2      5130      2568      2569      5134      5070      2553      2554      5074
 -1      2726    1    0    1
 -2      2524      5131      5135      2525      2509      5071      5075      2510
 -1      2727    1    0    1
 -2      5131      5132      5136      5135      5071      5072      5076      5075
 -1      2728    1    0    1
 -2      5132      5133      5137      5136      5072      5073      5077      5076
 -1      2729    1    0    1
 -2      5133      5134      5138      5137      5073      5074      5078      5077
 -1      2730    1    0    1
 -2      5134      2569      2570      5138      5074      2554      2555      5078
 -1      2731    1    0    1
 -2      2525      5135      5139      2526      2510      5075      5079      2511
 -1      2732    1    0    1
 -2      5135      5136      5140      5139      5075      5076      5080      5079
 -1      2733    1    0    1
 -2      5136      5137      5141      5140      5076      5077      5081      5080
 -1      2734    1    0    1
 -2      5137      5138      5142      5141      5077      5078      5082      5081
 -1      2735    1    0    1
 -2      5138      2570      2571      5142      5078      2555      2556      5082
 -1      2736    1    0    1
 -2      2526      5139      5143      2527      2511      5079      5083      2512
 -1      2737    1    0    1
 -2      5139      5140      5144      5143      5079      5080      5084      5083
 -1      2738    1    0    1
 -2      5140      5141      5145      5144      5080      5081      5085      5084
 -1      2739    1    0    1
 -2      5141      5142      5146      5145      5081      5082      5086      5085
 -1      2740    1    0    1
 -2      5142      2571      2572      5146      5082      2556      2557      5086
 -1      2741    1    0    1
 -2      2527      5143      5147      2528      2512      5083      5087      2513
 -1      2742    1    0    1
 -2      5143      5144      5148      5147      5083      5084      5088      5087
 -1      2743    1    0    1
 -2      5144      5145      5149      5148      5084      5085      5089      5088
 -1      2744    1    0    1
 -2      5145      5146      5150      5149      5085      5086      5090      5089
 -1      2745    1    0    1
 -2      5146      2572      2573      5150      5086      2557      2558      5090
 -1      2746    1    0    1
 -2      2528      5147      5151      2529      2513      5087      5091      2514
 -1      2747    1    0    1
 -2      5147      5148      5152      5151      5087      5088      5092      5091
 -1      2748    1    0    1
 -2      5148      5149      5153      5152      5088      5089      5093      5092
 -1      2749    1    0    1
 -2      5149      5150      5154      5153      5089      5090      5094      5093
 -1      2750    1    0    1
 -2      5150      2573      2574      5154      5090      2558      2559      5094
 -1      2751    1    0    1
 -2      2529      5151      5155      2530      2514      5091      5095      2515
 -1      2752    1    0    1
 -2      5151      5152      5156      5155      5091      5092      5096      5095
 -1      2753    1    0    1
 -2      5152      5153      5157      5156      5092      5093      5097      5096
 -1      2754    1    0    1
 -2      5153      5154      5158      5157      5093      5094      5098      5097
 -1      2755    1    0    1
 -2      5154      2574      2575      5158      5094      2559      2560      5098
 -1      2756    1    0    1
 -2      2530      5155      5159      2531      2515      5095      5099      2516
 -1      2757    1    0    1
 -2      5155      5156      5160      5159      5095      5096      5100      5099
 -1      2758    1    0    1
 -2      5156      5157      5161      5160      5096      5097      5101      5100
 -1      2759    1    0    1
 -2      5157      5158      5162      5161      5097      5098      5102      5101
 -1      2760    1    0    1
 -2      5158      2575      2576      5162      5098      2560      2561      5102
 -1      2761    1    0    1
 -2      2531      5159      5163      2532      2516      5099      5103      2517
 -1      2762    1    0    1
 -2      5159      5160      5164      5163      5099      5100      5104      5103
 -1      2763    1    0    1
 -2      5160      5161      5165      5164      5100      5101      5105      5104
 -1      2764    1    0    1
 -2      5161      5162      5166      5165      5101      5102      5106      5105
 -1      2765    1    0    1
 -2      5162      2576      2577      5166      5102      2561      2562      5106
 -1      2766    1    0    1
 -2      2532      5163      5167      2533      2517      5103      5107      2518
 -1      2767    1    0    1
 -2      5163      5164      5168      5167      5103      5104      5108      5107
 -1      2768    1    0    1
 -2      5164      5165      5169      5168      5104      5105      5109      5108
 -1      2769    1    0    1
 -2      5165      5166      5170      5169      5105      5106      5110      5109
 -1      2770    1    0    1
 -2      5166      2577      2578      5170      5106      2562      2563      5110
 -1      2771    1    0    1
 -2      2533      5167      5171      2534      2518      5107      5111      2519
 -1      2772    1    0    1
 -2      5167      5168      5172      5171      5107      5108      5112      5111
 -1      2773    1    0    1
 -2      5168      5169      5173      5172      5108      5109      5113      5112
 -1      2774    1    0    1
 -2      5169      5170      5174      5173      5109      5110      5114      5113
 -1      2775    1    0    1
 -2      5170      2578      2579      5174      5110      2563      2564      5114
 -1      2776    1    0    1
 -2      2534      5171      5175      2535      2519      5111      5115      2520
 -1      2777    1    0    1
 -2      5171      5172      5176      5175      5111      5112      5116      5115
 -1      2778    1    0    1
 -2      5172      5173      5177      5176      5112      5113      5117      5116
 -1      2779    1    0    1
 -2      5173      5174      5178      5177      5113      5114      5118      5117
 -1      2780    1    0    1
 -2      5174      2579      2580      5178      5114      2564      2565      5118
 -1      2781    1    0    1
 -2      2535      5175      5179      2536      2520      5115      5119      2521
 -1      2782    1    0    1
 -2      5175      5176      5180      5179      5115      5116      5120      5119
 -1      2783    1    0    1
 -2      5176      5177      5181      5180      5116      5117      5121      5120
 -1      2784    1    0    1
 -2      5177      5178      5182      5181      5117      5118      5122      5121
 -1      2785    1    0    1
 -2      5178      2580      2581      5182      5118      2565      2566      5122
 -1      2786    1    0    1
 -2      2536      5179      5183      2537      2521      5119      5123      2522
 -1      2787    1    0    1
 -2      5179      5180      5184      5183      5119      5120      5124      5123
 -1      2788    1    0    1
 -2      5180      5181      5185      5184      5120      5121      5125      5124
 -1      2789    1    0    1
 -2      5181      5182      5186      5185      5121      5122      5126      5125
 -1      2790    1    0    1
 -2      5182      2581      2582      5186      5122      2566      2567      5126
 -1      2791    1    0    1
 -2      2537      5183      2591       571      2522      5123      2587       570
 -1      2792    1    0    1
 -2      5183      5184      2592      2591      5123      5124      2588      2587
 -1      2793    1    0    1
 -2      5184      5185      2593      2592      5124      5125      2589      2588
 -1      2794    1    0    1
 -2      5185      5186      2594      2593      5125      5126      2590      2589
 -1      2795    1    0    1
 -2      5186      2582       572      2594      5126      2567       573      2590
 -1      2796    1    0    1
 -2         9       122       957       121       482      2257      5127      2523
 -1      2797    1    0    1
 -2       122       123       956       957      2257      2260      5128      5127
 -1      2798    1    0    1
 -2       123       124       955       956      2260      2263      5129      5128
 -1      2799    1    0    1
 -2       124       125       954       955      2263      2266      5130      5129
 -1      2800    1    0    1
 -2       125        10       126       954      2266       524      2568      5130
 -1      2801    1    0    1
 -2       121       957       953       120      2523      5127      5131      2524
 -1      2802    1    0    1
 -2       957       956       952       953      5127      5128      5132      5131
 -1      2803    1    0    1
 -2       956       955       951       952      5128      5129      5133      5132
 -1      2804    1    0    1
 -2       955       954       950       951      5129      5130      5134      5133
 -1      2805    1    0    1
 -2       954       126       127       950      5130      2568      2569      5134
 -1      2806    1    0    1
 -2       120       953       119         8      2524      5131      5135      2525
 -1      2807    1    0    1
 -2       953       952         6       119      5131      5132      5136      5135
 -1      2808    1    0    1
 -2       952       951        99         6      5132      5133      5137      5136
 -1      2809    1    0    1
 -2       951       950       100        99      5133      5134      5138      5137
 -1      2810    1    0    1
 -2       950       127         7       100      5134      2569      2570      5138
 -1      2811    1    0    1
 -2         8       119       941       118      2525      5135      5139      2526
 -1      2812    1    0    1
 -2       119         6        98       941      5135      5136      5140      5139
 -1      2813    1    0    1
 -2         6        99       931        98      5136      5137      5141      5140
 -1      2814    1    0    1
 -2        99       100       940       931      5137      5138      5142      5141
 -1      2815    1    0    1
 -2       100         7       101       940      5138      2570      2571      5142
 -1      2816    1    0    1
 -2       118       941       942       117      2526      5139      5143      2527
 -1      2817    1    0    1
 -2       941        98        97       942      5139      5140      5144      5143
 -1      2818    1    0    1
 -2        98       931       930        97      5140      5141      5145      5144
 -1      2819    1    0    1
 -2       931       940       939       930      5141      5142      5146      5145
 -1      2820    1    0    1
 -2       940       101       102       939      5142      2571      2572      5146
 -1      2821    1    0    1
 -2       117       942       943       116      2527      5143      5147      2528
 -1      2822    1    0    1
 -2       942        97        96       943      5143      5144      5148      5147
 -1      2823    1    0    1
 -2        97       930       929        96      5144      5145      5149      5148
 -1      2824    1    0    1
 -2       930       939       938       929      5145      5146      5150      5149
 -1      2825    1    0    1
 -2       939       102       103       938      5146      2572      2573      5150
 -1      2826    1    0    1
 -2       116       943       944       115      2528      5147      5151      2529
 -1      2827    1    0    1
 -2       943        96        95       944      5147      5148      5152      5151
 -1      2828    1    0    1
 -2        96       929       928        95      5148      5149      5153      5152
 -1      2829    1    0    1
 -2       929       938       937       928      5149      5150      5154      5153
 -1      2830    1    0    1
 -2       938       103       104       937      5150      2573      2574      5154
 -1      2831    1    0    1
 -2       115       944       945       114      2529      5151      5155      2530
 -1      2832    1    0    1
 -2       944        95        94       945      5151      5152      5156      5155
 -1      2833    1    0    1
 -2        95       928       927        94      5152      5153      5157      5156
 -1      2834    1    0    1
 -2       928       937       936       927      5153      5154      5158      5157
 -1      2835    1    0    1
 -2       937       104       105       936      5154      2574      2575      5158
 -1      2836    1    0    1
 -2       114       945       946       113      2530      5155      5159      2531
 -1      2837    1    0    1
 -2       945        94        93       946      5155      5156      5160      5159
 -1      2838    1    0    1
 -2        94       927       926        93      5156      5157      5161      5160
 -1      2839    1    0    1
 -2       927       936       935       926      5157      5158      5162      5161
 -1      2840    1    0    1
 -2       936       105       106       935      5158      2575      2576      5162
 -1      2841    1    0    1
 -2       113       946       947       112      2531      5159      5163      2532
 -1      2842    1    0    1
 -2       946        93        92       947      5159      5160      5164      5163
 -1      2843    1    0    1
 -2        93       926       925        92      5160      5161      5165      5164
 -1      2844    1    0    1
 -2       926       935       934       925      5161      5162      5166      5165
 -1      2845    1    0    1
 -2       935       106       107       934      5162      2576      2577      5166
 -1      2846    1    0    1
 -2       112       947       948       111      2532      5163      5167      2533
 -1      2847    1    0    1
 -2       947        92        91       948      5163      5164      5168      5167
 -1      2848    1    0    1
 -2        92       925       924        91      5164      5165      5169      5168
 -1      2849    1    0    1
 -2       925       934       933       924      5165      5166      5170      5169
 -1      2850    1    0    1
 -2       934       107       108       933      5166      2577      2578      5170
 -1      2851    1    0    1
 -2       111       948       949       110      2533      5167      5171      2534
 -1      2852    1    0    1
 -2       948        91        90       949      5167      5168      5172      5171
 -1      2853    1    0    1
 -2        91       924       923        90      5168      5169      5173      5172
 -1      2854    1    0    1
 -2       924       933       932       923      5169      5170      5174      5173
 -1      2855    1    0    1
 -2       933       108       109       932      5170      2578      2579      5174
 -1      2856    1    0    1
 -2       110       949        87         4      2534      5171      5175      2535
 -1      2857    1    0    1
 -2       949        90         3        87      5171      5172      5176      5175
 -1      2858    1    0    1
 -2        90       923        85         3      5172      5173      5177      5176
 -1      2859    1    0    1
 -2       923       932        86        85      5173      5174      5178      5177
 -1      2860    1    0    1
 -2       932       109         5        86      5174      2579      2580      5178
 -1      2861    1    0    1
 -2         4        87       922        84      2535      5175      5179      2536
 -1      2862    1    0    1
 -2        87         3       921       922      5175      5176      5180      5179
 -1      2863    1    0    1
 -2         3        85       920       921      5176      5177      5181      5180
 -1      2864    1    0    1
 -2        85        86       919       920      5177      5178      5182      5181
 -1      2865    1    0    1
 -2        86         5        88       919      5178      2580      2581      5182
 -1      2866    1    0    1
 -2        84       922       918        83      2536      5179      5183      2537
 -1      2867    1    0    1
 -2       922       921       917       918      5179      5180      5184      5183
 -1      2868    1    0    1
 -2       921       920       916       917      5180      5181      5185      5184
 -1      2869    1    0    1
 -2       920       919       915       916      5181      5182      5186      5185
 -1      2870    1    0    1
 -2       919        88        89       915      5182      2581      2582      5186
 -1      2871    1    0    1
 -2        83       918        82         2      2537      5183      2591       571
 -1      2872    1    0    1
 -2       918       917        81        82      5183      5184      2592      2591
 -1      2873    1    0    1
 -2       917       916        80        81      5184      5185      2593      2592
 -1      2874    1    0    1
 -2       916       915        79        80      5185      5186      2594      2593
 -1      2875    1    0    1
 -2       915        89         1        79      5186      2582       572      2594
 -1      2876    1    0    1
 -2        37       575      2595       588       591      2619      5187      2607
 -1      2877    1    0    1
 -2       575       576      2596      2595      2619      2620      5188      5187
 -1      2878    1    0    1
 -2       576       577      2597      2596      2620      2621      5189      5188
 -1      2879    1    0    1
 -2       577       578      2598      2597      2621      2622      5190      5189
 -1      2880    1    0    1
 -2       578        38       579      2598      2622       596      2613      5190
 -1      2881    1    0    1
 -2       588      2595      2599       587      2607      5187      5191      2608
 -1      2882    1    0    1
 -2      2595      2596      2600      2599      5187      5188      5192      5191
 -1      2883    1    0    1
 -2      2596      2597      2601      2600      5188      5189      5193      5192
 -1      2884    1    0    1
 -2      2597      2598      2602      2601      5189      5190      5194      5193
 -1      2885    1    0    1
 -2      2598       579       580      2602      5190      2613      2614      5194
 -1      2886    1    0    1
 -2       587      2599      2603       586      2608      5191      5195      2609
 -1      2887    1    0    1
 -2      2599      2600      2604      2603      5191      5192      5196      5195
 -1      2888    1    0    1
 -2      2600      2601      2605      2604      5192      5193      5197      5196
 -1      2889    1    0    1
 -2      2601      2602      2606      2605      5193      5194      5198      5197
 -1      2890    1    0    1
 -2      2602       580       581      2606      5194      2614      2615      5198
 -1      2891    1    0    1
 -2       586      2603       585        40      2609      5195      2627       590
 -1      2892    1    0    1
 -2      2603      2604       584       585      5195      5196      2628      2627
 -1      2893    1    0    1
 -2      2604      2605       583       584      5196      5197      2629      2628
 -1      2894    1    0    1
 -2      2605      2606       582       583      5197      5198      2630      2629
 -1      2895    1    0    1
 -2      2606       581        39       582      5198      2615       593      2630
 -1      2896    1    0    1
 -2       591      2619      5187      2607       592      2623      5199      2610
 -1      2897    1    0    1
 -2      2619      2620      5188      5187      2623      2624      5200      5199
 -1      2898    1    0    1
 -2      2620      2621      5189      5188      2624      2625      5201      5200
 -1      2899    1    0    1
 -2      2621      2622      5190      5189      2625      2626      5202      5201
 -1      2900    1    0    1
 -2      2622       596      2613      5190      2626       595      2616      5202
 -1      2901    1    0    1
 -2      2607      5187      5191      2608      2610      5199      5203      2611
 -1      2902    1    0    1
 -2      5187      5188      5192      5191      5199      5200      5204      5203
 -1      2903    1    0    1
 -2      5188      5189      5193      5192      5200      5201      5205      5204
 -1      2904    1    0    1
 -2      5189      5190      5194      5193      5201      5202      5206      5205
 -1      2905    1    0    1
 -2      5190      2613      2614      5194      5202      2616      2617      5206
 -1      2906    1    0    1
 -2      2608      5191      5195      2609      2611      5203      5207      2612
 -1      2907    1    0    1
 -2      5191      5192      5196      5195      5203      5204      5208      5207
 -1      2908    1    0    1
 -2      5192      5193      5197      5196      5204      5205      5209      5208
 -1      2909    1    0    1
 -2      5193      5194      5198      5197      5205      5206      5210      5209
 -1      2910    1    0    1
 -2      5194      2614      2615      5198      5206      2617      2618      5210
 -1      2911    1    0    1
 -2      2609      5195      2627       590      2612      5207      2631       589
 -1      2912    1    0    1
 -2      5195      5196      2628      2627      5207      5208      2632      2631
 -1      2913    1    0    1
 -2      5196      5197      2629      2628      5208      5209      2633      2632
 -1      2914    1    0    1
 -2      5197      5198      2630      2629      5209      5210      2634      2633
 -1      2915    1    0    1
 -2      5198      2615       593      2630      5210      2618       594      2634
 -1      2916    1    0    1
 -2       592      2623      5199      2610        35       550      2586       574
 -1      2917    1    0    1
 -2      2623      2624      5200      5199       550       551      2585      2586
 -1      2918    1    0    1
 -2      2624      2625      5201      5200       551       552      2584      2585
 -1      2919    1    0    1
 -2      2625      2626      5202      5201       552       553      2583      2584
 -1      2920    1    0    1
 -2      2626       595      2616      5202       553        36       569      2583
 -1      2921    1    0    1
 -2      2610      5199      5203      2611       574      2586      2590       573
 -1      2922    1    0    1
 -2      5199      5200      5204      5203      2586      2585      2589      2590
 -1      2923    1    0    1
 -2      5200      5201      5205      5204      2585      2584      2588      2589
 -1      2924    1    0    1
 -2      5201      5202      5206      5205      2584      2583      2587      2588
 -1      2925    1    0    1
 -2      5202      2616      2617      5206      2583       569       570      2587
 -1      2926    1    0    1
 -2      2611      5203      5207      2612       573      2590      2594       572
 -1      2927    1    0    1
 -2      5203      5204      5208      5207      2590      2589      2593      2594
 -1      2928    1    0    1
 -2      5204      5205      5209      5208      2589      2588      2592      2593
 -1      2929    1    0    1
 -2      5205      5206      5210      5209      2588      2587      2591      2592
 -1      2930    1    0    1
 -2      5206      2617      2618      5210      2587       570       571      2591
 -1      2931    1    0    1
 -2      2612      5207      2631       589       572      2594        79         1
 -1      2932    1    0    1
 -2      5207      5208      2632      2631      2594      2593        80        79
 -1      2933    1    0    1
 -2      5208      5209      2633      2632      2593      2592        81        80
 -1      2934    1    0    1
 -2      5209      5210      2634      2633      2592      2591        82        81
 -1      2935    1    0    1
 -2      5210      2618       594      2634      2591       571         2        82
 -1      2936    1    0    1
 -2        17       190      1385       242       631      2785      5211      2695
 -1      2937    1    0    1
 -2       190       191      1384      1385      2785      2786      5212      5211
 -1      2938    1    0    1
 -2       191       192      1383      1384      2786      2787      5213      5212
 -1      2939    1    0    1
 -2       192       193      1382      1383      2787      2788      5214      5213
 -1      2940    1    0    1
 -2       193        18       215      1382      2788       636      2740      5214
 -1      2941    1    0    1
 -2       242      1385      1389       243      2695      5211      5215      2696
 -1      2942    1    0    1
 -2      1385      1384      1388      1389      5211      5212      5216      5215
 -1      2943    1    0    1
 -2      1384      1383      1387      1388      5212      5213      5217      5216
 -1      2944    1    0    1
 -2      1383      1382      1386      1387      5213      5214      5218      5217
 -1      2945    1    0    1
 -2      1382       215       214      1386      5214      2740      2741      5218
 -1      2946    1    0    1
 -2       243      1389       272        25      2696      5215      5219      2697
 -1      2947    1    0    1
 -2      1389      1388        27       272      5215      5216      5220      5219
 -1      2948    1    0    1
 -2      1388      1387       271        27      5216      5217      5221      5220
 -1      2949    1    0    1
 -2      1387      1386       270       271      5217      5218      5222      5221
 -1      2950    1    0    1
 -2      1386       214        23       270      5218      2741      2742      5222
 -1      2951    1    0    1
 -2        25       272      1408       244      2697      5219      5223      2698
 -1      2952    1    0    1
 -2       272        27       281      1408      5219      5220      5224      5223
 -1      2953    1    0    1
 -2        27       271      1398       281      5220      5221      5225      5224
 -1      2954    1    0    1
 -2       271       270      1407      1398      5221      5222      5226      5225
 -1      2955    1    0    1
 -2       270        23       224      1407      5222      2742      2743      5226
 -1      2956    1    0    1
 -2       244      1408      1409       245      2698      5223      5227      2699
 -1      2957    1    0    1
 -2      1408       281       280      1409      5223      5224      5228      5227
 -1      2958    1    0    1
 -2       281      1398      1397       280      5224      5225      5229      5228
 -1      2959    1    0    1
 -2      1398      1407      1406      1397      5225      5226      5230      5229
 -1      2960    1    0    1
 -2      1407       224       223      1406      5226      2743      2744      5230
 -1      2961    1    0    1
 -2       245      1409      1410       246      2699      5227      5231      2700
 -1      2962    1    0    1
 -2      1409       280       279      1410      5227      5228      5232      5231
 -1      2963    1    0    1
 -2       280      1397      1396       279      5228      5229      5233      5232
 -1      2964    1    0    1
 -2      1397      1406      1405      1396      5229      5230      5234      5233
 -1      2965    1    0    1
 -2      1406       223       222      1405      5230      2744      2745      5234
 -1      2966    1    0    1
 -2       246      1410      1411       247      2700      5231      5235      2701
 -1      2967    1    0    1
 -2      1410       279       278      1411      5231      5232      5236      5235
 -1      2968    1    0    1
 -2       279      1396      1395       278      5232      5233      5237      5236
 -1      2969    1    0    1
 -2      1396      1405      1404      1395      5233      5234      5238      5237
 -1      2970    1    0    1
 -2      1405       222       221      1404      5234      2745      2746      5238
 -1      2971    1    0    1
 -2       247      1411      1412       248      2701      5235      5239      2702
 -1      2972    1    0    1
 -2      1411       278       277      1412      5235      5236      5240      5239
 -1      2973    1    0    1
 -2       278      1395      1394       277      5236      5237      5241      5240
 -1      2974    1    0    1
 -2      1395      1404      1403      1394      5237      5238      5242      5241
 -1      2975    1    0    1
 -2      1404       221       220      1403      5238      2746      2747      5242
 -1      2976    1    0    1
 -2       248      1412      1413       249      2702      5239      5243      2703
 -1      2977    1    0    1
 -2      1412       277       276      1413      5239      5240      5244      5243
 -1      2978    1    0    1
 -2       277      1394      1393       276      5240      5241      5245      5244
 -1      2979    1    0    1
 -2      1394      1403      1402      1393      5241      5242      5246      5245
 -1      2980    1    0    1
 -2      1403       220       219      1402      5242      2747      2748      5246
 -1      2981    1    0    1
 -2       249      1413      1414       250      2703      5243      5247      2704
 -1      2982    1    0    1
 -2      1413       276       275      1414      5243      5244      5248      5247
 -1      2983    1    0    1
 -2       276      1393      1392       275      5244      5245      5249      5248
 -1      2984    1    0    1
 -2      1393      1402      1401      1392      5245      5246      5250      5249
 -1      2985    1    0    1
 -2      1402       219       218      1401      5246      2748      2749      5250
 -1      2986    1    0    1
 -2       250      1414      1415       251      2704      5247      5251      2705
 -1      2987    1    0    1
 -2      1414       275       274      1415      5247      5248      5252      5251
 -1      2988    1    0    1
 -2       275      1392      1391       274      5248      5249      5253      5252
 -1      2989    1    0    1
 -2      1392      1401      1400      1391      5249      5250      5254      5253
 -1      2990    1    0    1
 -2      1401       218       217      1400      5250      2749      2750      5254
 -1      2991    1    0    1
 -2       251      1415      1416       252      2705      5251      5255      2706
 -1      2992    1    0    1
 -2      1415       274       273      1416      5251      5252      5256      5255
 -1      2993    1    0    1
 -2       274      1391      1390       273      5252      5253      5257      5256
 -1      2994    1    0    1
 -2      1391      1400      1399      1390      5253      5254      5258      5257
 -1      2995    1    0    1
 -2      1400       217       216      1399      5254      2750      2751      5258
 -1      2996    1    0    1
 -2       252      1416       284        26      2706      5255      5259      2707
 -1      2997    1    0    1
 -2      1416       273        28       284      5255      5256      5260      5259
 -1      2998    1    0    1
 -2       273      1390       283        28      5256      5257      5261      5260
 -1      2999    1    0    1
 -2      1390      1399       282       283      5257      5258      5262      5261
 -1      3000    1    0    1
 -2      1399       216        24       282      5258      2751      2752      5262
 -1      3001    1    0    1
 -2        26       284      1417       253      2707      5259      5263      2708
 -1      3002    1    0    1
 -2       284        28      1418      1417      5259      5260      5264      5263
 -1      3003    1    0    1
 -2        28       283      1419      1418      5260      5261      5265      5264
 -1      3004    1    0    1
 -2       283       282      1420      1419      5261      5262      5266      5265
 -1      3005    1    0    1
 -2       282        24       226      1420      5262      2752      2753      5266
 -1      3006    1    0    1
 -2       253      1417      1421       254      2708      5263      5267      2709
 -1      3007    1    0    1
 -2      1417      1418      1422      1421      5263      5264      5268      5267
 -1      3008    1    0    1
 -2      1418      1419      1423      1422      5264      5265      5269      5268
 -1      3009    1    0    1
 -2      1419      1420      1424      1423      5265      5266      5270      5269
 -1      3010    1    0    1
 -2      1420       226       225      1424      5266      2753      2754      5270
 -1      3011    1    0    1
 -2       254      1421       206        21      2709      5267      2269       439
 -1      3012    1    0    1
 -2      1421      1422       207       206      5267      5268      2272      2269
 -1      3013    1    0    1
 -2      1422      1423       208       207      5268      5269      2275      2272
 -1      3014    1    0    1
 -2      1423      1424       209       208      5269      5270      2278      2275
 -1      3015    1    0    1
 -2      1424       225        22       209      5270      2754       485      2278
 -1      3016    1    0    1
 -2       631      2785      5211      2695       632      2789      5271      2710
 -1      3017    1    0    1
 -2      2785      2786      5212      5211      2789      2790      5272      5271
 -1      3018    1    0    1
 -2      2786      2787      5213      5212      2790      2791      5273      5272
 -1      3019    1    0    1
 -2      2787      2788      5214      5213      2791      2792      5274      5273
 -1      3020    1    0    1
 -2      2788       636      2740      5214      2792       635      2755      5274
 -1      3021    1    0    1
 -2      2695      5211      5215      2696      2710      5271      5275      2711
 -1      3022    1    0    1
 -2      5211      5212      5216      5215      5271      5272      5276      5275
 -1      3023    1    0    1
 -2      5212      5213      5217      5216      5272      5273      5277      5276
 -1      3024    1    0    1
 -2      5213      5214      5218      5217      5273      5274      5278      5277
 -1      3025    1    0    1
 -2      5214      2740      2741      5218      5274      2755      2756      5278
 -1      3026    1    0    1
 -2      2696      5215      5219      2697      2711      5275      5279      2712
 -1      3027    1    0    1
 -2      5215      5216      5220      5219      5275      5276      5280      5279
 -1      3028    1    0    1
 -2      5216      5217      5221      5220      5276      5277      5281      5280
 -1      3029    1    0    1
 -2      5217      5218      5222      5221      5277      5278      5282      5281
 -1      3030    1    0    1
 -2      5218      2741      2742      5222      5278      2756      2757      5282
 -1      3031    1    0    1
 -2      2697      5219      5223      2698      2712      5279      5283      2713
 -1      3032    1    0    1
 -2      5219      5220      5224      5223      5279      5280      5284      5283
 -1      3033    1    0    1
 -2      5220      5221      5225      5224      5280      5281      5285      5284
 -1      3034    1    0    1
 -2      5221      5222      5226      5225      5281      5282      5286      5285
 -1      3035    1    0    1
 -2      5222      2742      2743      5226      5282      2757      2758      5286
 -1      3036    1    0    1
 -2      2698      5223      5227      2699      2713      5283      5287      2714
 -1      3037    1    0    1
 -2      5223      5224      5228      5227      5283      5284      5288      5287
 -1      3038    1    0    1
 -2      5224      5225      5229      5228      5284      5285      5289      5288
 -1      3039    1    0    1
 -2      5225      5226      5230      5229      5285      5286      5290      5289
 -1      3040    1    0    1
 -2      5226      2743      2744      5230      5286      2758      2759      5290
 -1      3041    1    0    1
 -2      2699      5227      5231      2700      2714      5287      5291      2715
 -1      3042    1    0    1
 -2      5227      5228      5232      5231      5287      5288      5292      5291
 -1      3043    1    0    1
 -2      5228      5229      5233      5232      5288      5289      5293      5292
 -1      3044    1    0    1
 -2      5229      5230      5234      5233      5289      5290      5294      5293
 -1      3045    1    0    1
 -2      5230      2744      2745      5234      5290      2759      2760      5294
 -1      3046    1    0    1
 -2      2700      5231      5235      2701      2715      5291      5295      2716
 -1      3047    1    0    1
 -2      5231      5232      5236      5235      5291      5292      5296      5295
 -1      3048    1    0    1
 -2      5232      5233      5237      5236      5292      5293      5297      5296
 -1      3049    1    0    1
 -2      5233      5234      5238      5237      5293      5294      5298      5297
 -1      3050    1    0    1
 -2      5234      2745      2746      5238      5294      2760      2761      5298
 -1      3051    1    0    1
 -2      2701      5235      5239      2702      2716      5295      5299      2717
 -1      3052    1    0    1
 -2      5235      5236      5240      5239      5295      5296      5300      5299
 -1      3053    1    0    1
 -2      5236      5237      5241      5240      5296      5297      5301      5300
 -1      3054    1    0    1
 -2      5237      5238      5242      5241      5297      5298      5302      5301
 -1      3055    1    0    1
 -2      5238      2746      2747      5242      5298      2761      2762      5302
 -1      3056    1    0    1
 -2      2702      5239      5243      2703      2717      5299      5303      2718
 -1      3057    1    0    1
 -2      5239      5240      5244      5243      5299      5300      5304      5303
 -1      3058    1    0    1
 -2      5240      5241      5245      5244      5300      5301      5305      5304
 -1      3059    1    0    1
 -2      5241      5242      5246      5245      5301      5302      5306      5305
 -1      3060    1    0    1
 -2      5242      2747      2748      5246      5302      2762      2763      5306
 -1      3061    1    0    1
 -2      2703      5243      5247      2704      2718      5303      5307      2719
 -1      3062    1    0    1
 -2      5243      5244      5248      5247      5303      5304      5308      5307
 -1      3063    1    0    1
 -2      5244      5245      5249      5248      5304      5305      5309      5308
 -1      3064    1    0    1
 -2      5245      5246      5250      5249      5305      5306      5310      5309
 -1      3065    1    0    1
 -2      5246      2748      2749      5250      5306      2763      2764      5310
 -1      3066    1    0    1
 -2      2704      5247      5251      2705      2719      5307      5311      2720
 -1      3067    1    0    1
 -2      5247      5248      5252      5251      5307      5308      5312      5311
 -1      3068    1    0    1
 -2      5248      5249      5253      5252      5308      5309      5313      5312
 -1      3069    1    0    1
 -2      5249      5250      5254      5253      5309      5310      5314      5313
 -1      3070    1    0    1
 -2      5250      2749      2750      5254      5310      2764      2765      5314
 -1      3071    1    0    1
 -2      2705      5251      5255      2706      2720      5311      5315      2721
 -1      3072    1    0    1
 -2      5251      5252      5256      5255      5311      5312      5316      5315
 -1      3073    1    0    1
 -2      5252      5253      5257      5256      5312      5313      5317      5316
 -1      3074    1    0    1
 -2      5253      5254      5258      5257      5313      5314      5318      5317
 -1      3075    1    0    1
 -2      5254      2750      2751      5258      5314      2765      2766      5318
 -1      3076    1    0    1
 -2      2706      5255      5259      2707      2721      5315      5319      2722
 -1      3077    1    0    1
 -2      5255      5256      5260      5259      5315      5316      5320      5319
 -1      3078    1    0    1
 -2      5256      5257      5261      5260      5316      5317      5321      5320
 -1      3079    1    0    1
 -2      5257      5258      5262      5261      5317      5318      5322      5321
 -1      3080    1    0    1
 -2      5258      2751      2752      5262      5318      2766      2767      5322
 -1      3081    1    0    1
 -2      2707      5259      5263      2708      2722      5319      5323      2723
 -1      3082    1    0    1
 -2      5259      5260      5264      5263      5319      5320      5324      5323
 -1      3083    1    0    1
 -2      5260      5261      5265      5264      5320      5321      5325      5324
 -1      3084    1    0    1
 -2      5261      5262      5266      5265      5321      5322      5326      5325
 -1      3085    1    0    1
 -2      5262      2752      2753      5266      5322      2767      2768      5326
 -1      3086    1    0    1
 -2      2708      5263      5267      2709      2723      5323      5327      2724
 -1      3087    1    0    1
 -2      5263      5264      5268      5267      5323      5324      5328      5327
 -1      3088    1    0    1
 -2      5264      5265      5269      5268      5324      5325      5329      5328
 -1      3089    1    0    1
 -2      5265      5266      5270      5269      5325      5326      5330      5329
 -1      3090    1    0    1
 -2      5266      2753      2754      5270      5326      2768      2769      5330
 -1      3091    1    0    1
 -2      2709      5267      2269       439      2724      5327      2270       440
 -1      3092    1    0    1
 -2      5267      5268      2272      2269      5327      5328      2273      2270
 -1      3093    1    0    1
 -2      5268      5269      2275      2272      5328      5329      2276      2273
 -1      3094    1    0    1
 -2      5269      5270      2278      2275      5329      5330      2279      2276
 -1      3095    1    0    1
 -2      5270      2754       485      2278      5330      2769       484      2279
 -1      3096    1    0    1
 -2       632      2789      5271      2710       633      2793      5331      2725
 -1      3097    1    0    1
 -2      2789      2790      5272      5271      2793      2794      5332      5331
 -1      3098    1    0    1
 -2      2790      2791      5273      5272      2794      2795      5333      5332
 -1      3099    1    0    1
 -2      2791      2792      5274      5273      2795      2796      5334      5333
 -1      3100    1    0    1
 -2      2792       635      2755      5274      2796       634      2770      5334
 -1      3101    1    0    1
 -2      2710      5271      5275      2711      2725      5331      5335      2726
 -1      3102    1    0    1
 -2      5271      5272      5276      5275      5331      5332      5336      5335
 -1      3103    1    0    1
 -2      5272      5273      5277      5276      5332      5333      5337      5336
 -1      3104    1    0    1
 -2      5273      5274      5278      5277      5333      5334      5338      5337
 -1      3105    1    0    1
 -2      5274      2755      2756      5278      5334      2770      2771      5338
 -1      3106    1    0    1
 -2      2711      5275      5279      2712      2726      5335      5339      2727
 -1      3107    1    0    1
 -2      5275      5276      5280      5279      5335      5336      5340      5339
 -1      3108    1    0    1
 -2      5276      5277      5281      5280      5336      5337      5341      5340
 -1      3109    1    0    1
 -2      5277      5278      5282      5281      5337      5338      5342      5341
 -1      3110    1    0    1
 -2      5278      2756      2757      5282      5338      2771      2772      5342
 -1      3111    1    0    1
 -2      2712      5279      5283      2713      2727      5339      5343      2728
 -1      3112    1    0    1
 -2      5279      5280      5284      5283      5339      5340      5344      5343
 -1      3113    1    0    1
 -2      5280      5281      5285      5284      5340      5341      5345      5344
 -1      3114    1    0    1
 -2      5281      5282      5286      5285      5341      5342      5346      5345
 -1      3115    1    0    1
 -2      5282      2757      2758      5286      5342      2772      2773      5346
 -1      3116    1    0    1
 -2      2713      5283      5287      2714      2728      5343      5347      2729
 -1      3117    1    0    1
 -2      5283      5284      5288      5287      5343      5344      5348      5347
 -1      3118    1    0    1
 -2      5284      5285      5289      5288      5344      5345      5349      5348
 -1      3119    1    0    1
 -2      5285      5286      5290      5289      5345      5346      5350      5349
 -1      3120    1    0    1
 -2      5286      2758      2759      5290      5346      2773      2774      5350
 -1      3121    1    0    1
 -2      2714      5287      5291      2715      2729      5347      5351      2730
 -1      3122    1    0    1
 -2      5287      5288      5292      5291      5347      5348      5352      5351
 -1      3123    1    0    1
 -2      5288      5289      5293      5292      5348      5349      5353      5352
 -1      3124    1    0    1
 -2      5289      5290      5294      5293      5349      5350      5354      5353
 -1      3125    1    0    1
 -2      5290      2759      2760      5294      5350      2774      2775      5354
 -1      3126    1    0    1
 -2      2715      5291      5295      2716      2730      5351      5355      2731
 -1      3127    1    0    1
 -2      5291      5292      5296      5295      5351      5352      5356      5355
 -1      3128    1    0    1
 -2      5292      5293      5297      5296      5352      5353      5357      5356
 -1      3129    1    0    1
 -2      5293      5294      5298      5297      5353      5354      5358      5357
 -1      3130    1    0    1
 -2      5294      2760      2761      5298      5354      2775      2776      5358
 -1      3131    1    0    1
 -2      2716      5295      5299      2717      2731      5355      5359      2732
 -1      3132    1    0    1
 -2      5295      5296      5300      5299      5355      5356      5360      5359
 -1      3133    1    0    1
 -2      5296      5297      5301      5300      5356      5357      5361      5360
 -1      3134    1    0    1
 -2      5297      5298      5302      5301      5357      5358      5362      5361
 -1      3135    1    0    1
 -2      5298      2761      2762      5302      5358      2776      2777      5362
 -1      3136    1    0    1
 -2      2717      5299      5303      2718      2732      5359      5363      2733
 -1      3137    1    0    1
 -2      5299      5300      5304      5303      5359      5360      5364      5363
 -1      3138    1    0    1
 -2      5300      5301      5305      5304      5360      5361      5365      5364
 -1      3139    1    0    1
 -2      5301      5302      5306      5305      5361      5362      5366      5365
 -1      3140    1    0    1
 -2      5302      2762      2763      5306      5362      2777      2778      5366
 -1      3141    1    0    1
 -2      2718      5303      5307      2719      2733      5363      5367      2734
 -1      3142    1    0    1
 -2      5303      5304      5308      5307      5363      5364      5368      5367
 -1      3143    1    0    1
 -2      5304      5305      5309      5308      5364      5365      5369      5368
 -1      3144    1    0    1
 -2      5305      5306      5310      5309      5365      5366      5370      5369
 -1      3145    1    0    1
 -2      5306      2763      2764      5310      5366      2778      2779      5370
 -1      3146    1    0    1
 -2      2719      5307      5311      2720      2734      5367      5371      2735
 -1      3147    1    0    1
 -2      5307      5308      5312      5311      5367      5368      5372      5371
 -1      3148    1    0    1
 -2      5308      5309      5313      5312      5368      5369      5373      5372
 -1      3149    1    0    1
 -2      5309      5310      5314      5313      5369      5370      5374      5373
 -1      3150    1    0    1
 -2      5310      2764      2765      5314      5370      2779      2780      5374
 -1      3151    1    0    1
 -2      2720      5311      5315      2721      2735      5371      5375      2736
 -1      3152    1    0    1
 -2      5311      5312      5316      5315      5371      5372      5376      5375
 -1      3153    1    0    1
 -2      5312      5313      5317      5316      5372      5373      5377      5376
 -1      3154    1    0    1
 -2      5313      5314      5318      5317      5373      5374      5378      5377
 -1      3155    1    0    1
 -2      5314      2765      2766      5318      5374      2780      2781      5378
 -1      3156    1    0    1
 -2      2721      5315      5319      2722      2736      5375      5379      2737
 -1      3157    1    0    1
 -2      5315      5316      5320      5319      5375      5376      5380      5379
 -1      3158    1    0    1
 -2      5316      5317      5321      5320      5376      5377      5381      5380
 -1      3159    1    0    1
 -2      5317      5318      5322      5321      5377      5378      5382      5381
 -1      3160    1    0    1
 -2      5318      2766      2767      5322      5378      2781      2782      5382
 -1      3161    1    0    1
 -2      2722      5319      5323      2723      2737      5379      5383      2738
 -1      3162    1    0    1
 -2      5319      5320      5324      5323      5379      5380      5384      5383
 -1      3163    1    0    1
 -2      5320      5321      5325      5324      5380      5381      5385      5384
 -1      3164    1    0    1
 -2      5321      5322      5326      5325      5381      5382      5386      5385
 -1      3165    1    0    1
 -2      5322      2767      2768      5326      5382      2782      2783      5386
 -1      3166    1    0    1
 -2      2723      5323      5327      2724      2738      5383      5387      2739
 -1      3167    1    0    1
 -2      5323      5324      5328      5327      5383      5384      5388      5387
 -1      3168    1    0    1
 -2      5324      5325      5329      5328      5384      5385      5389      5388
 -1      3169    1    0    1
 -2      5325      5326      5330      5329      5385      5386      5390      5389
 -1      3170    1    0    1
 -2      5326      2768      2769      5330      5386      2783      2784      5390
 -1      3171    1    0    1
 -2      2724      5327      2270       440      2739      5387      2271       441
 -1      3172    1    0    1
 -2      5327      5328      2273      2270      5387      5388      2274      2271
 -1      3173    1    0    1
 -2      5328      5329      2276      2273      5388      5389      2277      2274
 -1      3174    1    0    1
 -2      5329      5330      2279      2276      5389      5390      2280      2277
 -1      3175    1    0    1
 -2      5330      2769       484      2279      5390      2784       483      2280
 -1      3176    1    0    1
 -2       633      2793      5331      2725        41       597      2635       630
 -1      3177    1    0    1
 -2      2793      2794      5332      5331       597       598      2636      2635
 -1      3178    1    0    1
 -2      2794      2795      5333      5332       598       599      2637      2636
 -1      3179    1    0    1
 -2      2795      2796      5334      5333       599       600      2638      2637
 -1      3180    1    0    1
 -2      2796       634      2770      5334       600        42       601      2638
 -1      3181    1    0    1
 -2      2725      5331      5335      2726       630      2635      2639       629
 -1      3182    1    0    1
 -2      5331      5332      5336      5335      2635      2636      2640      2639
 -1      3183    1    0    1
 -2      5332      5333      5337      5336      2636      2637      2641      2640
 -1      3184    1    0    1
 -2      5333      5334      5338      5337      2637      2638      2642      2641
 -1      3185    1    0    1
 -2      5334      2770      2771      5338      2638       601       602      2642
 -1      3186    1    0    1
 -2      2726      5335      5339      2727       629      2639      2643       628
 -1      3187    1    0    1
 -2      5335      5336      5340      5339      2639      2640      2644      2643
 -1      3188    1    0    1
 -2      5336      5337      5341      5340      2640      2641      2645      2644
 -1      3189    1    0    1
 -2      5337      5338      5342      5341      2641      2642      2646      2645
 -1      3190    1    0    1
 -2      5338      2771      2772      5342      2642       602       603      2646
 -1      3191    1    0    1
 -2      2727      5339      5343      2728       628      2643      2647       627
 -1      3192    1    0    1
 -2      5339      5340      5344      5343      2643      2644      2648      2647
 -1      3193    1    0    1
 -2      5340      5341      5345      5344      2644      2645      2649      2648
 -1      3194    1    0    1
 -2      5341      5342      5346      5345      2645      2646      2650      2649
 -1      3195    1    0    1
 -2      5342      2772      2773      5346      2646       603       604      2650
 -1      3196    1    0    1
 -2      2728      5343      5347      2729       627      2647      2651       626
 -1      3197    1    0    1
 -2      5343      5344      5348      5347      2647      2648      2652      2651
 -1      3198    1    0    1
 -2      5344      5345      5349      5348      2648      2649      2653      2652
 -1      3199    1    0    1
 -2      5345      5346      5350      5349      2649      2650      2654      2653
 -1      3200    1    0    1
 -2      5346      2773      2774      5350      2650       604       605      2654
 -1      3201    1    0    1
 -2      2729      5347      5351      2730       626      2651      2655       625
 -1      3202    1    0    1
 -2      5347      5348      5352      5351      2651      2652      2656      2655
 -1      3203    1    0    1
 -2      5348      5349      5353      5352      2652      2653      2657      2656
 -1      3204    1    0    1
 -2      5349      5350      5354      5353      2653      2654      2658      2657
 -1      3205    1    0    1
 -2      5350      2774      2775      5354      2654       605       606      2658
 -1      3206    1    0    1
 -2      2730      5351      5355      2731       625      2655      2659       624
 -1      3207    1    0    1
 -2      5351      5352      5356      5355      2655      2656      2660      2659
 -1      3208    1    0    1
 -2      5352      5353      5357      5356      2656      2657      2661      2660
 -1      3209    1    0    1
 -2      5353      5354      5358      5357      2657      2658      2662      2661
 -1      3210    1    0    1
 -2      5354      2775      2776      5358      2658       606       607      2662
 -1      3211    1    0    1
 -2      2731      5355      5359      2732       624      2659      2663       623
 -1      3212    1    0    1
 -2      5355      5356      5360      5359      2659      2660      2664      2663
 -1      3213    1    0    1
 -2      5356      5357      5361      5360      2660      2661      2665      2664
 -1      3214    1    0    1
 -2      5357      5358      5362      5361      2661      2662      2666      2665
 -1      3215    1    0    1
 -2      5358      2776      2777      5362      2662       607       608      2666
 -1      3216    1    0    1
 -2      2732      5359      5363      2733       623      2663      2667       622
 -1      3217    1    0    1
 -2      5359      5360      5364      5363      2663      2664      2668      2667
 -1      3218    1    0    1
 -2      5360      5361      5365      5364      2664      2665      2669      2668
 -1      3219    1    0    1
 -2      5361      5362      5366      5365      2665      2666      2670      2669
 -1      3220    1    0    1
 -2      5362      2777      2778      5366      2666       608       609      2670
 -1      3221    1    0    1
 -2      2733      5363      5367      2734       622      2667      2671       621
 -1      3222    1    0    1
 -2      5363      5364      5368      5367      2667      2668      2672      2671
 -1      3223    1    0    1
 -2      5364      5365      5369      5368      2668      2669      2673      2672
 -1      3224    1    0    1
 -2      5365      5366      5370      5369      2669      2670      2674      2673
 -1      3225    1    0    1
 -2      5366      2778      2779      5370      2670       609       610      2674
 -1      3226    1    0    1
 -2      2734      5367      5371      2735       621      2671      2675       620
 -1      3227    1    0    1
 -2      5367      5368      5372      5371      2671      2672      2676      2675
 -1      3228    1    0    1
 -2      5368      5369      5373      5372      2672      2673      2677      2676
 -1      3229    1    0    1
 -2      5369      5370      5374      5373      2673      2674      2678      2677
 -1      3230    1    0    1
 -2      5370      2779      2780      5374      2674       610       611      2678
 -1      3231    1    0    1
 -2      2735      5371      5375      2736       620      2675      2679       619
 -1      3232    1    0    1
 -2      5371      5372      5376      5375      2675      2676      2680      2679
 -1      3233    1    0    1
 -2      5372      5373      5377      5376      2676      2677      2681      2680
 -1      3234    1    0    1
 -2      5373      5374      5378      5377      2677      2678      2682      2681
 -1      3235    1    0    1
 -2      5374      2780      2781      5378      2678       611       612      2682
 -1      3236    1    0    1
 -2      2736      5375      5379      2737       619      2679      2683       618
 -1      3237    1    0    1
 -2      5375      5376      5380      5379      2679      2680      2684      2683
 -1      3238    1    0    1
 -2      5376      5377      5381      5380      2680      2681      2685      2684
 -1      3239    1    0    1
 -2      5377      5378      5382      5381      2681      2682      2686      2685
 -1      3240    1    0    1
 -2      5378      2781      2782      5382      2682       612       613      2686
 -1      3241    1    0    1
 -2      2737      5379      5383      2738       618      2683      2687       617
 -1      3242    1    0    1
 -2      5379      5380      5384      5383      2683      2684      2688      2687
 -1      3243    1    0    1
 -2      5380      5381      5385      5384      2684      2685      2689      2688
 -1      3244    1    0    1
 -2      5381      5382      5386      5385      2685      2686      2690      2689
 -1      3245    1    0    1
 -2      5382      2782      2783      5386      2686       613       614      2690
 -1      3246    1    0    1
 -2      2738      5383      5387      2739       617      2687      2691       616
 -1      3247    1    0    1
 -2      5383      5384      5388      5387      2687      2688      2692      2691
 -1      3248    1    0    1
 -2      5384      5385      5389      5388      2688      2689      2693      2692
 -1      3249    1    0    1
 -2      5385      5386      5390      5389      2689      2690      2694      2693
 -1      3250    1    0    1
 -2      5386      2783      2784      5390      2690       614       615      2694
 -1      3251    1    0    1
 -2      2739      5387      2271       441       616      2691       531        31
 -1      3252    1    0    1
 -2      5387      5388      2274      2271      2691      2692       532       531
 -1      3253    1    0    1
 -2      5388      5389      2277      2274      2692      2693       533       532
 -1      3254    1    0    1
 -2      5389      5390      2280      2277      2693      2694       534       533
 -1      3255    1    0    1
 -2      5390      2784       483      2280      2694       615        33       534
 -1      3256    1    0    1
 -2        43       637      2797       650       654      2827      5391      2809
 -1      3257    1    0    1
 -2       637       638      2798      2797      2827      2828      5392      5391
 -1      3258    1    0    1
 -2       638       639      2799      2798      2828      2829      5393      5392
 -1      3259    1    0    1
 -2       639       640      2800      2799      2829      2830      5394      5393
 -1      3260    1    0    1
 -2       640        44       641      2800      2830       662      2818      5394
 -1      3261    1    0    1
 -2       650      2797      2801       649      2809      5391      5395      2810
 -1      3262    1    0    1
 -2      2797      2798      2802      2801      5391      5392      5396      5395
 -1      3263    1    0    1
 -2      2798      2799      2803      2802      5392      5393      5397      5396
 -1      3264    1    0    1
 -2      2799      2800      2804      2803      5393      5394      5398      5397
 -1      3265    1    0    1
 -2      2800       641       642      2804      5394      2818      2819      5398
 -1      3266    1    0    1
 -2       649      2801      2805       648      2810      5395      5399      2811
 -1      3267    1    0    1
 -2      2801      2802      2806      2805      5395      5396      5400      5399
 -1      3268    1    0    1
 -2      2802      2803      2807      2806      5396      5397      5401      5400
 -1      3269    1    0    1
 -2      2803      2804      2808      2807      5397      5398      5402      5401
 -1      3270    1    0    1
 -2      2804       642       643      2808      5398      2819      2820      5402
 -1      3271    1    0    1
 -2       648      2805       647        46      2811      5399      2839       653
 -1      3272    1    0    1
 -2      2805      2806       646       647      5399      5400      2840      2839
 -1      3273    1    0    1
 -2      2806      2807       645       646      5400      5401      2841      2840
 -1      3274    1    0    1
 -2      2807      2808       644       645      5401      5402      2842      2841
 -1      3275    1    0    1
 -2      2808       643        45       644      5402      2820       657      2842
 -1      3276    1    0    1
 -2       654      2827      5391      2809       655      2831      5403      2812
 -1      3277    1    0    1
 -2      2827      2828      5392      5391      2831      2832      5404      5403
 -1      3278    1    0    1
 -2      2828      2829      5393      5392      2832      2833      5405      5404
 -1      3279    1    0    1
 -2      2829      2830      5394      5393      2833      2834      5406      5405
 -1      3280    1    0    1
 -2      2830       662      2818      5394      2834       661      2821      5406
 -1      3281    1    0    1
 -2      2809      5391      5395      2810      2812      5403      5407      2813
 -1      3282    1    0    1
 -2      5391      5392      5396      5395      5403      5404      5408      5407
 -1      3283    1    0    1
 -2      5392      5393      5397      5396      5404      5405      5409      5408
 -1      3284    1    0    1
 -2      5393      5394      5398      5397      5405      5406      5410      5409
 -1      3285    1    0    1
 -2      5394      2818      2819      5398      5406      2821      2822      5410
 -1      3286    1    0    1
 -2      2810      5395      5399      2811      2813      5407      5411      2814
 -1      3287    1    0    1
 -2      5395      5396      5400      5399      5407      5408      5412      5411
 -1      3288    1    0    1
 -2      5396      5397      5401      5400      5408      5409      5413      5412
 -1      3289    1    0    1
 -2      5397      5398      5402      5401      5409      5410      5414      5413
 -1      3290    1    0    1
 -2      5398      2819      2820      5402      5410      2822      2823      5414
 -1      3291    1    0    1
 -2      2811      5399      2839       653      2814      5411      2843       652
 -1      3292    1    0    1
 -2      5399      5400      2840      2839      5411      5412      2844      2843
 -1      3293    1    0    1
 -2      5400      5401      2841      2840      5412      5413      2845      2844
 -1      3294    1    0    1
 -2      5401      5402      2842      2841      5413      5414      2846      2845
 -1      3295    1    0    1
 -2      5402      2820       657      2842      5414      2823       658      2846
 -1      3296    1    0    1
 -2       655      2831      5403      2812       656      2835      5415      2815
 -1      3297    1    0    1
 -2      2831      2832      5404      5403      2835      2836      5416      5415
 -1      3298    1    0    1
 -2      2832      2833      5405      5404      2836      2837      5417      5416
 -1      3299    1    0    1
 -2      2833      2834      5406      5405      2837      2838      5418      5417
 -1      3300    1    0    1
 -2      2834       661      2821      5406      2838       660      2824      5418
 -1      3301    1    0    1
 -2      2812      5403      5407      2813      2815      5415      5419      2816
 -1      3302    1    0    1
 -2      5403      5404      5408      5407      5415      5416      5420      5419
 -1      3303    1    0    1
 -2      5404      5405      5409      5408      5416      5417      5421      5420
 -1      3304    1    0    1
 -2      5405      5406      5410      5409      5417      5418      5422      5421
 -1      3305    1    0    1
 -2      5406      2821      2822      5410      5418      2824      2825      5422
 -1      3306    1    0    1
 -2      2813      5407      5411      2814      2816      5419      5423      2817
 -1      3307    1    0    1
 -2      5407      5408      5412      5411      5419      5420      5424      5423
 -1      3308    1    0    1
 -2      5408      5409      5413      5412      5420      5421      5425      5424
 -1      3309    1    0    1
 -2      5409      5410      5414      5413      5421      5422      5426      5425
 -1      3310    1    0    1
 -2      5410      2822      2823      5414      5422      2825      2826      5426
 -1      3311    1    0    1
 -2      2814      5411      2843       652      2817      5423      2847       651
 -1      3312    1    0    1
 -2      5411      5412      2844      2843      5423      5424      2848      2847
 -1      3313    1    0    1
 -2      5412      5413      2845      2844      5424      5425      2849      2848
 -1      3314    1    0    1
 -2      5413      5414      2846      2845      5425      5426      2850      2849
 -1      3315    1    0    1
 -2      5414      2823       658      2846      5426      2826       659      2850
 -1      3316    1    0    1
 -2       656      2835      5415      2815        18       193      2788       636
 -1      3317    1    0    1
 -2      2835      2836      5416      5415       193       192      2787      2788
 -1      3318    1    0    1
 -2      2836      2837      5417      5416       192       191      2786      2787
 -1      3319    1    0    1
 -2      2837      2838      5418      5417       191       190      2785      2786
 -1      3320    1    0    1
 -2      2838       660      2824      5418       190        17       631      2785
 -1      3321    1    0    1
 -2      2815      5415      5419      2816       636      2788      2792       635
 -1      3322    1    0    1
 -2      5415      5416      5420      5419      2788      2787      2791      2792
 -1      3323    1    0    1
 -2      5416      5417      5421      5420      2787      2786      2790      2791
 -1      3324    1    0    1
 -2      5417      5418      5422      5421      2786      2785      2789      2790
 -1      3325    1    0    1
 -2      5418      2824      2825      5422      2785       631       632      2789
 -1      3326    1    0    1
 -2      2816      5419      5423      2817       635      2792      2796       634
 -1      3327    1    0    1
 -2      5419      5420      5424      5423      2792      2791      2795      2796
 -1      3328    1    0    1
 -2      5420      5421      5425      5424      2791      2790      2794      2795
 -1      3329    1    0    1
 -2      5421      5422      5426      5425      2790      2789      2793      2794
 -1      3330    1    0    1
 -2      5422      2825      2826      5426      2789       632       633      2793
 -1      3331    1    0    1
 -2      2817      5423      2847       651       634      2796       600        42
 -1      3332    1    0    1
 -2      5423      5424      2848      2847      2796      2795       599       600
 -1      3333    1    0    1
 -2      5424      5425      2849      2848      2795      2794       598       599
 -1      3334    1    0    1
 -2      5425      5426      2850      2849      2794      2793       597       598
 -1      3335    1    0    1
 -2      5426      2826       659      2850      2793       633        41       597
 -1      3336    1    0    1
 -2       128      1153      5427      2875        11       181      2851       672
 -1      3337    1    0    1
 -2      1153      1149      5428      5427       181       180      2852      2851
 -1      3338    1    0    1
 -2      1149      1145      5429      5428       180       179      2853      2852
 -1      3339    1    0    1
 -2      1145      1141      5430      5429       179       178      2854      2853
 -1      3340    1    0    1
 -2      1141        82      2887      5430       178         2       663      2854
 -1      3341    1    0    1
 -2      2875      5427      5431      2876       672      2851      2855       671
 -1      3342    1    0    1
 -2      5427      5428      5432      5431      2851      2852      2856      2855
 -1      3343    1    0    1
 -2      5428      5429      5433      5432      2852      2853      2857      2856
 -1      3344    1    0    1
 -2      5429      5430      5434      5433      2853      2854      2858      2857
 -1      3345    1    0    1
 -2      5430      2887      2888      5434      2854       663       664      2858
 -1      3346    1    0    1
 -2      2876      5431      5435      2877       671      2855      2859       670
 -1      3347    1    0    1
 -2      5431      5432      5436      5435      2855      2856      2860      2859
 -1      3348    1    0    1
 -2      5432      5433      5437      5436      2856      2857      2861      2860
 -1      3349    1    0    1
 -2      5433      5434      5438      5437      2857      2858      2862      2861
 -1      3350    1    0    1
 -2      5434      2888      2889      5438      2858       664       665      2862
 -1      3351    1    0    1
 -2      2877      5435      2899       683       670      2859       669        48
 -1      3352    1    0    1
 -2      5435      5436      2900      2899      2859      2860       668       669
 -1      3353    1    0    1
 -2      5436      5437      2901      2900      2860      2861       667       668
 -1      3354    1    0    1
 -2      5437      5438      2902      2901      2861      2862       666       667
 -1      3355    1    0    1
 -2      5438      2889       690      2902      2862       665        47       666
 -1      3356    1    0    1
 -2       129      1152      5439      2878       128      1153      5427      2875
 -1      3357    1    0    1
 -2      1152      1148      5440      5439      1153      1149      5428      5427
 -1      3358    1    0    1
 -2      1148      1144      5441      5440      1149      1145      5429      5428
 -1      3359    1    0    1
 -2      1144      1140      5442      5441      1145      1141      5430      5429
 -1      3360    1    0    1
 -2      1140        81      2890      5442      1141        82      2887      5430
 -1      3361    1    0    1
 -2      2878      5439      5443      2879      2875      5427      5431      2876
 -1      3362    1    0    1
 -2      5439      5440      5444      5443      5427      5428      5432      5431
 -1      3363    1    0    1
 -2      5440      5441      5445      5444      5428      5429      5433      5432
 -1      3364    1    0    1
 -2      5441      5442      5446      5445      5429      5430      5434      5433
 -1      3365    1    0    1
 -2      5442      2890      2891      5446      5430      2887      2888      5434
 -1      3366    1    0    1
 -2      2879      5443      5447      2880      2876      5431      5435      2877
 -1      3367    1    0    1
 -2      5443      5444      5448      5447      5431      5432      5436      5435
 -1      3368    1    0    1
 -2      5444      5445      5449      5448      5432      5433      5437      5436
 -1      3369    1    0    1
 -2      5445      5446      5450      5449      5433      5434      5438      5437
 -1      3370    1    0    1
 -2      5446      2891      2892      5450      5434      2888      2889      5438
 -1      3371    1    0    1
 -2      2880      5447      2903       684      2877      5435      2899       683
 -1      3372    1    0    1
 -2      5447      5448      2904      2903      5435      5436      2900      2899
 -1      3373    1    0    1
 -2      5448      5449      2905      2904      5436      5437      2901      2900
 -1      3374    1    0    1
 -2      5449      5450      2906      2905      5437      5438      2902      2901
 -1      3375    1    0    1
 -2      5450      2892       689      2906      5438      2889       690      2902
 -1      3376    1    0    1
 -2       130      1151      5451      2881       129      1152      5439      2878
 -1      3377    1    0    1
 -2      1151      1147      5452      5451      1152      1148      5440      5439
 -1      3378    1    0    1
 -2      1147      1143      5453      5452      1148      1144      5441      5440
 -1      3379    1    0    1
 -2      1143      1139      5454      5453      1144      1140      5442      5441
 -1      3380    1    0    1
 -2      1139        80      2893      5454      1140        81      2890      5442
 -1      3381    1    0    1
 -2      2881      5451      5455      2882      2878      5439      5443      2879
 -1      3382    1    0    1
 -2      5451      5452      5456      5455      5439      5440      5444      5443
 -1      3383    1    0    1
 -2      5452      5453      5457      5456      5440      5441      5445      5444
 -1      3384    1    0    1
 -2      5453      5454      5458      5457      5441      5442      5446      5445
 -1      3385    1    0    1
 -2      5454      2893      2894      5458      5442      2890      2891      5446
 -1      3386    1    0    1
 -2      2882      5455      5459      2883      2879      5443      5447      2880
 -1      3387    1    0    1
 -2      5455      5456      5460      5459      5443      5444      5448      5447
 -1      3388    1    0    1
 -2      5456      5457      5461      5460      5444      5445      5449      5448
 -1      3389    1    0    1
 -2      5457      5458      5462      5461      5445      5446      5450      5449
 -1      3390    1    0    1
 -2      5458      2894      2895      5462      5446      2891      2892      5450
 -1      3391    1    0    1
 -2      2883      5459      2907       685      2880      5447      2903       684
 -1      3392    1    0    1
 -2      5459      5460      2908      2907      5447      5448      2904      2903
 -1      3393    1    0    1
 -2      5460      5461      2909      2908      5448      5449      2905      2904
 -1      3394    1    0    1
 -2      5461      5462      2910      2909      5449      5450      2906      2905
 -1      3395    1    0    1
 -2      5462      2895       688      2910      5450      2892       689      2906
 -1      3396    1    0    1
 -2       131      1150      5463      2884       130      1151      5451      2881
 -1      3397    1    0    1
 -2      1150      1146      5464      5463      1151      1147      5452      5451
 -1      3398    1    0    1
 -2      1146      1142      5465      5464      1147      1143      5453      5452
 -1      3399    1    0    1
 -2      1142      1138      5466      5465      1143      1139      5454      5453
 -1      3400    1    0    1
 -2      1138        79      2896      5466      1139        80      2893      5454
 -1      3401    1    0    1
 -2      2884      5463      5467      2885      2881      5451      5455      2882
 -1      3402    1    0    1
 -2      5463      5464      5468      5467      5451      5452      5456      5455
 -1      3403    1    0    1
 -2      5464      5465      5469      5468      5452      5453      5457      5456
 -1      3404    1    0    1
 -2      5465      5466      5470      5469      5453      5454      5458      5457
 -1      3405    1    0    1
 -2      5466      2896      2897      5470      5454      2893      2894      5458
 -1      3406    1    0    1
 -2      2885      5467      5471      2886      2882      5455      5459      2883
 -1      3407    1    0    1
 -2      5467      5468      5472      5471      5455      5456      5460      5459
 -1      3408    1    0    1
 -2      5468      5469      5473      5472      5456      5457      5461      5460
 -1      3409    1    0    1
 -2      5469      5470      5474      5473      5457      5458      5462      5461
 -1      3410    1    0    1
 -2      5470      2897      2898      5474      5458      2894      2895      5462
 -1      3411    1    0    1
 -2      2886      5471      2911       686      2883      5459      2907       685
 -1      3412    1    0    1
 -2      5471      5472      2912      2911      5459      5460      2908      2907
 -1      3413    1    0    1
 -2      5472      5473      2913      2912      5460      5461      2909      2908
 -1      3414    1    0    1
 -2      5473      5474      2914      2913      5461      5462      2910      2909
 -1      3415    1    0    1
 -2      5474      2898       687      2914      5462      2895       688      2910
 -1      3416    1    0    1
 -2        14       170      2863       680       131      1150      5463      2884
 -1      3417    1    0    1
 -2       170       171      2864      2863      1150      1146      5464      5463
 -1      3418    1    0    1
 -2       171       172      2865      2864      1146      1142      5465      5464
 -1      3419    1    0    1
 -2       172       173      2866      2865      1142      1138      5466      5465
 -1      3420    1    0    1
 -2       173         1       675      2866      1138        79      2896      5466
 -1      3421    1    0    1
 -2       680      2863      2867       681      2884      5463      5467      2885
 -1      3422    1    0    1
 -2      2863      2864      2868      2867      5463      5464      5468      5467
 -1      3423    1    0    1
 -2      2864      2865      2869      2868      5464      5465      5469      5468
 -1      3424    1    0    1
 -2      2865      2866      2870      2869      5465      5466      5470      5469
 -1      3425    1    0    1
 -2      2866       675       674      2870      5466      2896      2897      5470
 -1      3426    1    0    1
 -2       681      2867      2871       682      2885      5467      5471      2886
 -1      3427    1    0    1
 -2      2867      2868      2872      2871      5467      5468      5472      5471
 -1      3428    1    0    1
 -2      2868      2869      2873      2872      5468      5469      5473      5472
 -1      3429    1    0    1
 -2      2869      2870      2874      2873      5469      5470      5474      5473
 -1      3430    1    0    1
 -2      2870       674       673      2874      5470      2897      2898      5474
 -1      3431    1    0    1
 -2       682      2871       676        50      2886      5471      2911       686
 -1      3432    1    0    1
 -2      2871      2872       677       676      5471      5472      2912      2911
 -1      3433    1    0    1
 -2      2872      2873       678       677      5472      5473      2913      2912
 -1      3434    1    0    1
 -2      2873      2874       679       678      5473      5474      2914      2913
 -1      3435    1    0    1
 -2      2874       673        49       679      5474      2898       687      2914
 -1      3436    1    0    1
 -2       710      2947      5475      2931        51       691      2915       698
 -1      3437    1    0    1
 -2      2947      2948      5476      5475       691       692      2916      2915
 -1      3438    1    0    1
 -2      2948      2949      5477      5476       692       693      2917      2916
 -1      3439    1    0    1
 -2      2949      2950      5478      5477       693       694      2918      2917
 -1      3440    1    0    1
 -2      2950       711      2939      5478       694        52       695      2918
 -1      3441    1    0    1
 -2      2931      5475      5479      2932       698      2915      2919       697
 -1      3442    1    0    1
 -2      5475      5476      5480      5479      2915      2916      2920      2919
 -1      3443    1    0    1
 -2      5476      5477      5481      5480      2916      2917      2921      2920
 -1      3444    1    0    1
 -2      5477      5478      5482      5481      2917      2918      2922      2921
 -1      3445    1    0    1
 -2      5478      2939      2940      5482      2918       695       696      2922
 -1      3446    1    0    1
 -2      2932      5479      2914       679       697      2919       687        49
 -1      3447    1    0    1
 -2      5479      5480      2910      2914      2919      2920       688       687
 -1      3448    1    0    1
 -2      5480      5481      2906      2910      2920      2921       689       688
 -1      3449    1    0    1
 -2      5481      5482      2902      2906      2921      2922       690       689
 -1      3450    1    0    1
 -2      5482      2940       666      2902      2922       696        47       690
 -1      3451    1    0    1
 -2       709      2951      5483      2933       710      2947      5475      2931
 -1      3452    1    0    1
 -2      2951      2952      5484      5483      2947      2948      5476      5475
 -1      3453    1    0    1
 -2      2952      2953      5485      5484      2948      2949      5477      5476
 -1      3454    1    0    1
 -2      2953      2954      5486      5485      2949      2950      5478      5477
 -1      3455    1    0    1
 -2      2954       712      2941      5486      2950       711      2939      5478
 -1      3456    1    0    1
 -2      2933      5483      5487      2934      2931      5475      5479      2932
 -1      3457    1    0    1
 -2      5483      5484      5488      5487      5475      5476      5480      5479
 -1      3458    1    0    1
 -2      5484      5485      5489      5488      5476      5477      5481      5480
 -1      3459    1    0    1
 -2      5485      5486      5490      5489      5477      5478      5482      5481
 -1      3460    1    0    1
 -2      5486      2941      2942      5490      5478      2939      2940      5482
 -1      3461    1    0    1
 -2      2934      5487      2913       678      2932      5479      2914       679
 -1      3462    1    0    1
 -2      5487      5488      2909      2913      5479      5480      2910      2914
 -1      3463    1    0    1
 -2      5488      5489      2905      2909      5480      5481      2906      2910
 -1      3464    1    0    1
 -2      5489      5490      2901      2905      5481      5482      2902      2906
 -1      3465    1    0    1
 -2      5490      2942       667      2901      5482      2940       666      2902
 -1      3466    1    0    1
 -2       708      2955      5491      2935       709      2951      5483      2933
 -1      3467    1    0    1
 -2      2955      2956      5492      5491      2951      2952      5484      5483
 -1      3468    1    0    1
 -2      2956      2957      5493      5492      2952      2953      5485      5484
 -1      3469    1    0    1
 -2      2957      2958      5494      5493      2953      2954      5486      5485
 -1      3470    1    0    1
 -2      2958       713      2943      5494      2954       712      2941      5486
 -1      3471    1    0    1
 -2      2935      5491      5495      2936      2933      5483      5487      2934
 -1      3472    1    0    1
 -2      5491      5492      5496      5495      5483      5484      5488      5487
 -1      3473    1    0    1
 -2      5492      5493      5497      5496      5484      5485      5489      5488
 -1      3474    1    0    1
 -2      5493      5494      5498      5497      5485      5486      5490      5489
 -1      3475    1    0    1
 -2      5494      2943      2944      5498      5486      2941      2942      5490
 -1      3476    1    0    1
 -2      2936      5495      2912       677      2934      5487      2913       678
 -1      3477    1    0    1
 -2      5495      5496      2908      2912      5487      5488      2909      2913
 -1      3478    1    0    1
 -2      5496      5497      2904      2908      5488      5489      2905      2909
 -1      3479    1    0    1
 -2      5497      5498      2900      2904      5489      5490      2901      2905
 -1      3480    1    0    1
 -2      5498      2944       668      2900      5490      2942       667      2901
 -1      3481    1    0    1
 -2       707      2959      5499      2937       708      2955      5491      2935
 -1      3482    1    0    1
 -2      2959      2960      5500      5499      2955      2956      5492      5491
 -1      3483    1    0    1
 -2      2960      2961      5501      5500      2956      2957      5493      5492
 -1      3484    1    0    1
 -2      2961      2962      5502      5501      2957      2958      5494      5493
 -1      3485    1    0    1
 -2      2962       714      2945      5502      2958       713      2943      5494
 -1      3486    1    0    1
 -2      2937      5499      5503      2938      2935      5491      5495      2936
 -1      3487    1    0    1
 -2      5499      5500      5504      5503      5491      5492      5496      5495
 -1      3488    1    0    1
 -2      5500      5501      5505      5504      5492      5493      5497      5496
 -1      3489    1    0    1
 -2      5501      5502      5506      5505      5493      5494      5498      5497
 -1      3490    1    0    1
 -2      5502      2945      2946      5506      5494      2943      2944      5498
 -1      3491    1    0    1
 -2      2938      5503      2911       676      2936      5495      2912       677
 -1      3492    1    0    1
 -2      5503      5504      2907      2911      5495      5496      2908      2912
 -1      3493    1    0    1
 -2      5504      5505      2903      2907      5496      5497      2904      2908
 -1      3494    1    0    1
 -2      5505      5506      2899      2903      5497      5498      2900      2904
 -1      3495    1    0    1
 -2      5506      2946       669      2899      5498      2944       668      2900
 -1      3496    1    0    1
 -2        54       702      2923       705       707      2959      5499      2937
 -1      3497    1    0    1
 -2       702       701      2924      2923      2959      2960      5500      5499
 -1      3498    1    0    1
 -2       701       700      2925      2924      2960      2961      5501      5500
 -1      3499    1    0    1
 -2       700       699      2926      2925      2961      2962      5502      5501
 -1      3500    1    0    1
 -2       699        53       704      2926      2962       714      2945      5502
 -1      3501    1    0    1
 -2       705      2923      2927       706      2937      5499      5503      2938
 -1      3502    1    0    1
 -2      2923      2924      2928      2927      5499      5500      5504      5503
 -1      3503    1    0    1
 -2      2924      2925      2929      2928      5500      5501      5505      5504
 -1      3504    1    0    1
 -2      2925      2926      2930      2929      5501      5502      5506      5505
 -1      3505    1    0    1
 -2      2926       704       703      2930      5502      2945      2946      5506
 -1      3506    1    0    1
 -2       706      2927       686        50      2938      5503      2911       676
 -1      3507    1    0    1
 -2      2927      2928       685       686      5503      5504      2907      2911
 -1      3508    1    0    1
 -2      2928      2929       684       685      5504      5505      2903      2907
 -1      3509    1    0    1
 -2      2929      2930       683       684      5505      5506      2899      2903
 -1      3510    1    0    1
 -2      2930       703        48       683      5506      2946       669      2899
 -1      3511    1    0    1
 -2       186      1173      5507      2987        16       185      2963       724
 -1      3512    1    0    1
 -2      1173      1172      5508      5507       185       184      2964      2963
 -1      3513    1    0    1
 -2      1172      1171      5509      5508       184       183      2965      2964
 -1      3514    1    0    1
 -2      1171      1170      5510      5509       183       182      2966      2965
 -1      3515    1    0    1
 -2      1170       197      2999      5510       182        15       715      2966
 -1      3516    1    0    1
 -2      2987      5507      5511      2988       724      2963      2967       723
 -1      3517    1    0    1
 -2      5507      5508      5512      5511      2963      2964      2968      2967
 -1      3518    1    0    1
 -2      5508      5509      5513      5512      2964      2965      2969      2968
 -1      3519    1    0    1
 -2      5509      5510      5514      5513      2965      2966      2970      2969
 -1      3520    1    0    1
 -2      5510      2999      3000      5514      2966       715       716      2970
 -1      3521    1    0    1
 -2      2988      5511      5515      2989       723      2967      2971       722
 -1      3522    1    0    1
 -2      5511      5512      5516      5515      2967      2968      2972      2971
 -1      3523    1    0    1
 -2      5512      5513      5517      5516      2968      2969      2973      2972
 -1      3524    1    0    1
 -2      5513      5514      5518      5517      2969      2970      2974      2973
 -1      3525    1    0    1
 -2      5514      3000      3001      5518      2970       716       717      2974
 -1      3526    1    0    1
 -2      2989      5515      3011       735       722      2971       721        56
 -1      3527    1    0    1
 -2      5515      5516      3012      3011      2971      2972       720       721
 -1      3528    1    0    1
 -2      5516      5517      3013      3012      2972      2973       719       720
 -1      3529    1    0    1
 -2      5517      5518      3014      3013      2973      2974       718       719
 -1      3530    1    0    1
 -2      5518      3001       742      3014      2974       717        55       718
 -1      3531    1    0    1
 -2       187      1177      5519      2990       186      1173      5507      2987
 -1      3532    1    0    1
 -2      1177      1176      5520      5519      1173      1172      5508      5507
 -1      3533    1    0    1
 -2      1176      1175      5521      5520      1172      1171      5509      5508
 -1      3534    1    0    1
 -2      1175      1174      5522      5521      1171      1170      5510      5509
 -1      3535    1    0    1
 -2      1174       196      3002      5522      1170       197      2999      5510
 -1      3536    1    0    1
 -2      2990      5519      5523      2991      2987      5507      5511      2988
 -1      3537    1    0    1
 -2      5519      5520      5524      5523      5507      5508      5512      5511
 -1      3538    1    0    1
 -2      5520      5521      5525      5524      5508      5509      5513      5512
 -1      3539    1    0    1
 -2      5521      5522      5526      5525      5509      5510      5514      5513
 -1      3540    1    0    1
 -2      5522      3002      3003      5526      5510      2999      3000      5514
 -1      3541    1    0    1
 -2      2991      5523      5527      2992      2988      5511      5515      2989
 -1      3542    1    0    1
 -2      5523      5524      5528      5527      5511      5512      5516      5515
 -1      3543    1    0    1
 -2      5524      5525      5529      5528      5512      5513      5517      5516
 -1      3544    1    0    1
 -2      5525      5526      5530      5529      5513      5514      5518      5517
 -1      3545    1    0    1
 -2      5526      3003      3004      5530      5514      3000      3001      5518
 -1      3546    1    0    1
 -2      2992      5527      3015       736      2989      5515      3011       735
 -1      3547    1    0    1
 -2      5527      5528      3016      3015      5515      5516      3012      3011
 -1      3548    1    0    1
 -2      5528      5529      3017      3016      5516      5517      3013      3012
 -1      3549    1    0    1
 -2      5529      5530      3018      3017      5517      5518      3014      3013
 -1      3550    1    0    1
 -2      5530      3004       741      3018      5518      3001       742      3014
 -1      3551    1    0    1
 -2       188      1181      5531      2993       187      1177      5519      2990
 -1      3552    1    0    1
 -2      1181      1180      5532      5531      1177      1176      5520      5519
 -1      3553    1    0    1
 -2      1180      1179      5533      5532      1176      1175      5521      5520
 -1      3554    1    0    1
 -2      1179      1178      5534      5533      1175      1174      5522      5521
 -1      3555    1    0    1
 -2      1178       195      3005      5534      1174       196      3002      5522
 -1      3556    1    0    1
 -2      2993      5531      5535      2994      2990      5519      5523      2991
 -1      3557    1    0    1
 -2      5531      5532      5536      5535      5519      5520      5524      5523
 -1      3558    1    0    1
 -2      5532      5533      5537      5536      5520      5521      5525      5524
 -1      3559    1    0    1
 -2      5533      5534      5538      5537      5521      5522      5526      5525
 -1      3560    1    0    1
 -2      5534      3005      3006      5538      5522      3002      3003      5526
 -1      3561    1    0    1
 -2      2994      5535      5539      2995      2991      5523      5527      2992
 -1      3562    1    0    1
 -2      5535      5536      5540      5539      5523      5524      5528      5527
 -1      3563    1    0    1
 -2      5536      5537      5541      5540      5524      5525      5529      5528
 -1      3564    1    0    1
 -2      5537      5538      5542      5541      5525      5526      5530      5529
 -1      3565    1    0    1
 -2      5538      3006      3007      5542      5526      3003      3004      5530
 -1      3566    1    0    1
 -2      2995      5539      3019       737      2992      5527      3015       736
 -1      3567    1    0    1
 -2      5539      5540      3020      3019      5527      5528      3016      3015
 -1      3568    1    0    1
 -2      5540      5541      3021      3020      5528      5529      3017      3016
 -1      3569    1    0    1
 -2      5541      5542      3022      3021      5529      5530      3018      3017
 -1      3570    1    0    1
 -2      5542      3007       740      3022      5530      3004       741      3018
 -1      3571    1    0    1
 -2       189      1185      5543      2996       188      1181      5531      2993
 -1      3572    1    0    1
 -2      1185      1184      5544      5543      1181      1180      5532      5531
 -1      3573    1    0    1
 -2      1184      1183      5545      5544      1180      1179      5533      5532
 -1      3574    1    0    1
 -2      1183      1182      5546      5545      1179      1178      5534      5533
 -1      3575    1    0    1
 -2      1182       194      3008      5546      1178       195      3005      5534
 -1      3576    1    0    1
 -2      2996      5543      5547      2997      2993      5531      5535      2994
 -1      3577    1    0    1
 -2      5543      5544      5548      5547      5531      5532      5536      5535
 -1      3578    1    0    1
 -2      5544      5545      5549      5548      5532      5533      5537      5536
 -1      3579    1    0    1
 -2      5545      5546      5550      5549      5533      5534      5538      5537
 -1      3580    1    0    1
 -2      5546      3008      3009      5550      5534      3005      3006      5538
 -1      3581    1    0    1
 -2      2997      5547      5551      2998      2994      5535      5539      2995
 -1      3582    1    0    1
 -2      5547      5548      5552      5551      5535      5536      5540      5539
 -1      3583    1    0    1
 -2      5548      5549      5553      5552      5536      5537      5541      5540
 -1      3584    1    0    1
 -2      5549      5550      5554      5553      5537      5538      5542      5541
 -1      3585    1    0    1
 -2      5550      3009      3010      5554      5538      3006      3007      5542
 -1      3586    1    0    1
 -2      2998      5551      3023       738      2995      5539      3019       737
 -1      3587    1    0    1
 -2      5551      5552      3024      3023      5539      5540      3020      3019
 -1      3588    1    0    1
 -2      5552      5553      3025      3024      5540      5541      3021      3020
 -1      3589    1    0    1
 -2      5553      5554      3026      3025      5541      5542      3022      3021
 -1      3590    1    0    1
 -2      5554      3010       739      3026      5542      3007       740      3022
 -1      3591    1    0    1
 -2        17       190      2975       732       189      1185      5543      2996
 -1      3592    1    0    1
 -2       190       191      2976      2975      1185      1184      5544      5543
 -1      3593    1    0    1
 -2       191       192      2977      2976      1184      1183      5545      5544
 -1      3594    1    0    1
 -2       192       193      2978      2977      1183      1182      5546      5545
 -1      3595    1    0    1
 -2       193        18       727      2978      1182       194      3008      5546
 -1      3596    1    0    1
 -2       732      2975      2979       733      2996      5543      5547      2997
 -1      3597    1    0    1
 -2      2975      2976      2980      2979      5543      5544      5548      5547
 -1      3598    1    0    1
 -2      2976      2977      2981      2980      5544      5545      5549      5548
 -1      3599    1    0    1
 -2      2977      2978      2982      2981      5545      5546      5550      5549
 -1      3600    1    0    1
 -2      2978       727       726      2982      5546      3008      3009      5550
 -1      3601    1    0    1
 -2       733      2979      2983       734      2997      5547      5551      2998
 -1      3602    1    0    1
 -2      2979      2980      2984      2983      5547      5548      5552      5551
 -1      3603    1    0    1
 -2      2980      2981      2985      2984      5548      5549      5553      5552
 -1      3604    1    0    1
 -2      2981      2982      2986      2985      5549      5550      5554      5553
 -1      3605    1    0    1
 -2      2982       726       725      2986      5550      3009      3010      5554
 -1      3606    1    0    1
 -2       734      2983       728        58      2998      5551      3023       738
 -1      3607    1    0    1
 -2      2983      2984       729       728      5551      5552      3024      3023
 -1      3608    1    0    1
 -2      2984      2985       730       729      5552      5553      3025      3024
 -1      3609    1    0    1
 -2      2985      2986       731       730      5553      5554      3026      3025
 -1      3610    1    0    1
 -2      2986       725        57       731      5554      3010       739      3026
 -1      3611    1    0    1
 -2       764      3069      5555      3045        59       743      3027       751
 -1      3612    1    0    1
 -2      3069      3070      5556      5555       743       744      3028      3027
 -1      3613    1    0    1
 -2      3070      3071      5557      5556       744       745      3029      3028
 -1      3614    1    0    1
 -2      3071       765      3057      5557       745        60       746      3029
 -1      3615    1    0    1
 -2      3045      5555      5558      3046       751      3027      3030       750
 -1      3616    1    0    1
 -2      5555      5556      5559      5558      3027      3028      3031      3030
 -1      3617    1    0    1
 -2      5556      5557      5560      5559      3028      3029      3032      3031
 -1      3618    1    0    1
 -2      5557      3057      3058      5560      3029       746       747      3032
 -1      3619    1    0    1
 -2      3046      5558      5561      3047       750      3030      3033       749
 -1      3620    1    0    1
 -2      5558      5559      5562      5561      3030      3031      3034      3033
 -1      3621    1    0    1
 -2      5559      5560      5563      5562      3031      3032      3035      3034
 -1      3622    1    0    1
 -2      5560      3058      3059      5563      3032       747       748      3035
 -1      3623    1    0    1
 -2      3047      5561      2805       647       749      3033       648        46
 -1      3624    1    0    1
 -2      5561      5562      2801      2805      3033      3034       649       648
 -1      3625    1    0    1
 -2      5562      5563      2797      2801      3034      3035       650       649
 -1      3626    1    0    1
 -2      5563      3059       637      2797      3035       748        43       650
 -1      3627    1    0    1
 -2       763      3072      5564      3048       764      3069      5555      3045
 -1      3628    1    0    1
 -2      3072      3073      5565      5564      3069      3070      5556      5555
 -1      3629    1    0    1
 -2      3073      3074      5566      5565      3070      3071      5557      5556
 -1      3630    1    0    1
 -2      3074       766      3060      5566      3071       765      3057      5557
 -1      3631    1    0    1
 -2      3048      5564      5567      3049      3045      5555      5558      3046
 -1      3632    1    0    1
 -2      5564      5565      5568      5567      5555      5556      5559      5558
 -1      3633    1    0    1
 -2      5565      5566      5569      5568      5556      5557      5560      5559
 -1      3634    1    0    1
 -2      5566      3060      3061      5569      5557      3057      3058      5560
 -1      3635    1    0    1
 -2      3049      5567      5570      3050      3046      5558      5561      3047
 -1      3636    1    0    1
 -2      5567      5568      5571      5570      5558      5559      5562      5561
 -1      3637    1    0    1
 -2      5568      5569      5572      5571      5559      5560      5563      5562
 -1      3638    1    0    1
 -2      5569      3061      3062      5572      5560      3058      3059      5563
 -1      3639    1    0    1
 -2      3050      5570      2806       646      3047      5561      2805       647
 -1      3640    1    0    1
 -2      5570      5571      2802      2806      5561      5562      2801      2805
 -1      3641    1    0    1
 -2      5571      5572      2798      2802      5562      5563      2797      2801
 -1      3642    1    0    1
 -2      5572      3062       638      2798      5563      3059       637      2797
 -1      3643    1    0    1
 -2       762      3075      5573      3051       763      3072      5564      3048
 -1      3644    1    0    1
 -2      3075      3076      5574      5573      3072      3073      5565      5564
 -1      3645    1    0    1
 -2      3076      3077      5575      5574      3073      3074      5566      5565
 -1      3646    1    0    1
 -2      3077       767      3063      5575      3074       766      3060      5566
 -1      3647    1    0    1
 -2      3051      5573      5576      3052      3048      5564      5567      3049
 -1      3648    1    0    1
 -2      5573      5574      5577      5576      5564      5565      5568      5567
 -1      3649    1    0    1
 -2      5574      5575      5578      5577      5565      5566      5569      5568
 -1      3650    1    0    1
 -2      5575      3063      3064      5578      5566      3060      3061      5569
 -1      3651    1    0    1
 -2      3052      5576      5579      3053      3049      5567      5570      3050
 -1      3652    1    0    1
 -2      5576      5577      5580      5579      5567      5568      5571      5570
 -1      3653    1    0    1
 -2      5577      5578      5581      5580      5568      5569      5572      5571
 -1      3654    1    0    1
 -2      5578      3064      3065      5581      5569      3061      3062      5572
 -1      3655    1    0    1
 -2      3053      5579      2807       645      3050      5570      2806       646
 -1      3656    1    0    1
 -2      5579      5580      2803      2807      5570      5571      2802      2806
 -1      3657    1    0    1
 -2      5580      5581      2799      2803      5571      5572      2798      2802
 -1      3658    1    0    1
 -2      5581      3065       639      2799      5572      3062       638      2798
 -1      3659    1    0    1
 -2       761      3078      5582      3054       762      3075      5573      3051
 -1      3660    1    0    1
 -2      3078      3079      5583      5582      3075      3076      5574      5573
 -1      3661    1    0    1
 -2      3079      3080      5584      5583      3076      3077      5575      5574
 -1      3662    1    0    1
 -2      3080       768      3066      5584      3077       767      3063      5575
 -1      3663    1    0    1
 -2      3054      5582      5585      3055      3051      5573      5576      3052
 -1      3664    1    0    1
 -2      5582      5583      5586      5585      5573      5574      5577      5576
 -1      3665    1    0    1
 -2      5583      5584      5587      5586      5574      5575      5578      5577
 -1      3666    1    0    1
 -2      5584      3066      3067      5587      5575      3063      3064      5578
 -1      3667    1    0    1
 -2      3055      5585      5588      3056      3052      5576      5579      3053
 -1      3668    1    0    1
 -2      5585      5586      5589      5588      5576      5577      5580      5579
 -1      3669    1    0    1
 -2      5586      5587      5590      5589      5577      5578      5581      5580
 -1      3670    1    0    1
 -2      5587      3067      3068      5590      5578      3064      3065      5581
 -1      3671    1    0    1
 -2      3056      5588      2808       644      3053      5579      2807       645
 -1      3672    1    0    1
 -2      5588      5589      2804      2808      5579      5580      2803      2807
 -1      3673    1    0    1
 -2      5589      5590      2800      2804      5580      5581      2799      2803
 -1      3674    1    0    1
 -2      5590      3068       640      2800      5581      3065       639      2799
 -1      3675    1    0    1
 -2        62       754      3036       758       761      3078      5582      3054
 -1      3676    1    0    1
 -2       754       753      3037      3036      3078      3079      5583      5582
 -1      3677    1    0    1
 -2       753       752      3038      3037      3079      3080      5584      5583
 -1      3678    1    0    1
 -2       752        61       757      3038      3080       768      3066      5584
 -1      3679    1    0    1
 -2       758      3036      3039       759      3054      5582      5585      3055
 -1      3680    1    0    1
 -2      3036      3037      3040      3039      5582      5583      5586      5585
 -1      3681    1    0    1
 -2      3037      3038      3041      3040      5583      5584      5587      5586
 -1      3682    1    0    1
 -2      3038       757       756      3041      5584      3066      3067      5587
 -1      3683    1    0    1
 -2       759      3039      3042       760      3055      5585      5588      3056
 -1      3684    1    0    1
 -2      3039      3040      3043      3042      5585      5586      5589      5588
 -1      3685    1    0    1
 -2      3040      3041      3044      3043      5586      5587      5590      5589
 -1      3686    1    0    1
 -2      3041       756       755      3044      5587      3067      3068      5590
 -1      3687    1    0    1
 -2       760      3042       643        45      3056      5588      2808       644
 -1      3688    1    0    1
 -2      3042      3043       642       643      5588      5589      2804      2808
 -1      3689    1    0    1
 -2      3043      3044       641       642      5589      5590      2800      2804
 -1      3690    1    0    1
 -2      3044       755        44       641      5590      3068       640      2800
 -1      3691    1    0    1
 -2       790      3117      5591      3093        60       765      3071       745
 -1      3692    1    0    1
 -2      3117      3118      5592      5591       765       766      3074      3071
 -1      3693    1    0    1
 -2      3118      3119      5593      5592       766       767      3077      3074
 -1      3694    1    0    1
 -2      3119      3120      5594      5593       767       768      3080      3077
 -1      3695    1    0    1
 -2      3120       795      3105      5594       768        61       752      3080
 -1      3696    1    0    1
 -2      3093      5591      5595      3094       745      3071      3070       744
 -1      3697    1    0    1
 -2      5591      5592      5596      5595      3071      3074      3073      3070
 -1      3698    1    0    1
 -2      5592      5593      5597      5596      3074      3077      3076      3073
 -1      3699    1    0    1
 -2      5593      5594      5598      5597      3077      3080      3079      3076
 -1      3700    1    0    1
 -2      5594      3105      3106      5598      3080       752       753      3079
 -1      3701    1    0    1
 -2      3094      5595      5599      3095       744      3070      3069       743
 -1      3702    1    0    1
 -2      5595      5596      5600      5599      3070      3073      3072      3069
 -1      3703    1    0    1
 -2      5596      5597      5601      5600      3073      3076      3075      3072
 -1      3704    1    0    1
 -2      5597      5598      5602      5601      3076      3079      3078      3075
 -1      3705    1    0    1
 -2      5598      3106      3107      5602      3079       753       754      3078
 -1      3706    1    0    1
 -2      3095      5599      3133       783       743      3069       764        59
 -1      3707    1    0    1
 -2      5599      5600      3134      3133      3069      3072       763       764
 -1      3708    1    0    1
 -2      5600      5601      3135      3134      3072      3075       762       763
 -1      3709    1    0    1
 -2      5601      5602      3136      3135      3075      3078       761       762
 -1      3710    1    0    1
 -2      5602      3107       794      3136      3078       754        62       761
 -1      3711    1    0    1
 -2       789      3121      5603      3096       790      3117      5591      3093
 -1      3712    1    0    1
 -2      3121      3122      5604      5603      3117      3118      5592      5591
 -1      3713    1    0    1
 -2      3122      3123      5605      5604      3118      3119      5593      5592
 -1      3714    1    0    1
 -2      3123      3124      5606      5605      3119      3120      5594      5593
 -1      3715    1    0    1
 -2      3124       796      3108      5606      3120       795      3105      5594
 -1      3716    1    0    1
 -2      3096      5603      5607      3097      3093      5591      5595      3094
 -1      3717    1    0    1
 -2      5603      5604      5608      5607      5591      5592      5596      5595
 -1      3718    1    0    1
 -2      5604      5605      5609      5608      5592      5593      5597      5596
 -1      3719    1    0    1
 -2      5605      5606      5610      5609      5593      5594      5598      5597
 -1      3720    1    0    1
 -2      5606      3108      3109      5610      5594      3105      3106      5598
 -1      3721    1    0    1
 -2      3097      5607      5611      3098      3094      5595      5599      3095
 -1      3722    1    0    1
 -2      5607      5608      5612      5611      5595      5596      5600      5599
 -1      3723    1    0    1
 -2      5608      5609      5613      5612      5596      5597      5601      5600
 -1      3724    1    0    1
 -2      5609      5610      5614      5613      5597      5598      5602      5601
 -1      3725    1    0    1
 -2      5610      3109      3110      5614      5598      3106      3107      5602
 -1      3726    1    0    1
 -2      3098      5611      3137       784      3095      5599      3133       783
 -1      3727    1    0    1
 -2      5611      5612      3138      3137      5599      5600      3134      3133
 -1      3728    1    0    1
 -2      5612      5613      3139      3138      5600      5601      3135      3134
 -1      3729    1    0    1
 -2      5613      5614      3140      3139      5601      5602      3136      3135
 -1      3730    1    0    1
 -2      5614      3110       793      3140      5602      3107       794      3136
 -1      3731    1    0    1
 -2       788      3125      5615      3099       789      3121      5603      3096
 -1      3732    1    0    1
 -2      3125      3126      5616      5615      3121      3122      5604      5603
 -1      3733    1    0    1
 -2      3126      3127      5617      5616      3122      3123      5605      5604
 -1      3734    1    0    1
 -2      3127      3128      5618      5617      3123      3124      5606      5605
 -1      3735    1    0    1
 -2      3128       797      3111      5618      3124       796      3108      5606
 -1      3736    1    0    1
 -2      3099      5615      5619      3100      3096      5603      5607      3097
 -1      3737    1    0    1
 -2      5615      5616      5620      5619      5603      5604      5608      5607
 -1      3738    1    0    1
 -2      5616      5617      5621      5620      5604      5605      5609      5608
 -1      3739    1    0    1
 -2      5617      5618      5622      5621      5605      5606      5610      5609
 -1      3740    1    0    1
 -2      5618      3111      3112      5622      5606      3108      3109      5610
 -1      3741    1    0    1
 -2      3100      5619      5623      3101      3097      5607      5611      3098
 -1      3742    1    0    1
 -2      5619      5620      5624      5623      5607      5608      5612      5611
 -1      3743    1    0    1
 -2      5620      5621      5625      5624      5608      5609      5613      5612
 -1      3744    1    0    1
 -2      5621      5622      5626      5625      5609      5610      5614      5613
 -1      3745    1    0    1
 -2      5622      3112      3113      5626      5610      3109      3110      5614
 -1      3746    1    0    1
 -2      3101      5623      3141       785      3098      5611      3137       784
 -1      3747    1    0    1
 -2      5623      5624      3142      3141      5611      5612      3138      3137
 -1      3748    1    0    1
 -2      5624      5625      3143      3142      5612      5613      3139      3138
 -1      3749    1    0    1
 -2      5625      5626      3144      3143      5613      5614      3140      3139
 -1      3750    1    0    1
 -2      5626      3113       792      3144      5614      3110       793      3140
 -1      3751    1    0    1
 -2       787      3129      5627      3102       788      3125      5615      3099
 -1      3752    1    0    1
 -2      3129      3130      5628      5627      3125      3126      5616      5615
 -1      3753    1    0    1
 -2      3130      3131      5629      5628      3126      3127      5617      5616
 -1      3754    1    0    1
 -2      3131      3132      5630      5629      3127      3128      5618      5617
 -1      3755    1    0    1
 -2      3132       798      3114      5630      3128       797      3111      5618
 -1      3756    1    0    1
 -2      3102      5627      5631      3103      3099      5615      5619      3100
 -1      3757    1    0    1
 -2      5627      5628      5632      5631      5615      5616      5620      5619
 -1      3758    1    0    1
 -2      5628      5629      5633      5632      5616      5617      5621      5620
 -1      3759    1    0    1
 -2      5629      5630      5634      5633      5617      5618      5622      5621
 -1      3760    1    0    1
 -2      5630      3114      3115      5634      5618      3111      3112      5622
 -1      3761    1    0    1
 -2      3103      5631      5635      3104      3100      5619      5623      3101
 -1      3762    1    0    1
 -2      5631      5632      5636      5635      5619      5620      5624      5623
 -1      3763    1    0    1
 -2      5632      5633      5637      5636      5620      5621      5625      5624
 -1      3764    1    0    1
 -2      5633      5634      5638      5637      5621      5622      5626      5625
 -1      3765    1    0    1
 -2      5634      3115      3116      5638      5622      3112      3113      5626
 -1      3766    1    0    1
 -2      3104      5635      3145       786      3101      5623      3141       785
 -1      3767    1    0    1
 -2      5635      5636      3146      3145      5623      5624      3142      3141
 -1      3768    1    0    1
 -2      5636      5637      3147      3146      5624      5625      3143      3142
 -1      3769    1    0    1
 -2      5637      5638      3148      3147      5625      5626      3144      3143
 -1      3770    1    0    1
 -2      5638      3116       791      3148      5626      3113       792      3144
 -1      3771    1    0    1
 -2        66       772      3081       780       787      3129      5627      3102
 -1      3772    1    0    1
 -2       772       771      3082      3081      3129      3130      5628      5627
 -1      3773    1    0    1
 -2       771       770      3083      3082      3130      3131      5629      5628
 -1      3774    1    0    1
 -2       770       769      3084      3083      3131      3132      5630      5629
 -1      3775    1    0    1
 -2       769        63       775      3084      3132       798      3114      5630
 -1      3776    1    0    1
 -2       780      3081      3085       781      3102      5627      5631      3103
 -1      3777    1    0    1
 -2      3081      3082      3086      3085      5627      5628      5632      5631
 -1      3778    1    0    1
 -2      3082      3083      3087      3086      5628      5629      5633      5632
 -1      3779    1    0    1
 -2      3083      3084      3088      3087      5629      5630      5634      5633
 -1      3780    1    0    1
 -2      3084       775       774      3088      5630      3114      3115      5634
 -1      3781    1    0    1
 -2       781      3085      3089       782      3103      5631      5635      3104
 -1      3782    1    0    1
 -2      3085      3086      3090      3089      5631      5632      5636      5635
 -1      3783    1    0    1
 -2      3086      3087      3091      3090      5632      5633      5637      5636
 -1      3784    1    0    1
 -2      3087      3088      3092      3091      5633      5634      5638      5637
 -1      3785    1    0    1
 -2      3088       774       773      3092      5634      3115      3116      5638
 -1      3786    1    0    1
 -2       782      3089       776        65      3104      5635      3145       786
 -1      3787    1    0    1
 -2      3089      3090       777       776      5635      5636      3146      3145
 -1      3788    1    0    1
 -2      3090      3091       778       777      5636      5637      3147      3146
 -1      3789    1    0    1
 -2      3091      3092       779       778      5637      5638      3148      3147
 -1      3790    1    0    1
 -2      3092       773        64       779      5638      3116       791      3148
 -1      3791    1    0    1
 -2       830      3197      5639      3173        52       694      3149       808
 -1      3792    1    0    1
 -2      3197      3198      5640      5639       694       693      3150      3149
 -1      3793    1    0    1
 -2      3198      3199      5641      5640       693       692      3151      3150
 -1      3794    1    0    1
 -2      3199      3200      5642      5641       692       691      3152      3151
 -1      3795    1    0    1
 -2      3200       835      3185      5642       691        51       799      3152
 -1      3796    1    0    1
 -2      3173      5639      5643      3174       808      3149      3153       807
 -1      3797    1    0    1
 -2      5639      5640      5644      5643      3149      3150      3154      3153
 -1      3798    1    0    1
 -2      5640      5641      5645      5644      3150      3151      3155      3154
 -1      3799    1    0    1
 -2      5641      5642      5646      5645      3151      3152      3156      3155
 -1      3800    1    0    1
 -2      5642      3185      3186      5646      3152       799       800      3156
 -1      3801    1    0    1
 -2      3174      5643      5647      3175       807      3153      3157       806
 -1      3802    1    0    1
 -2      5643      5644      5648      5647      3153      3154      3158      3157
 -1      3803    1    0    1
 -2      5644      5645      5649      5648      3154      3155      3159      3158
 -1      3804    1    0    1
 -2      5645      5646      5650      5649      3155      3156      3160      3159
 -1      3805    1    0    1
 -2      5646      3186      3187      5650      3156       800       801      3160
 -1      3806    1    0    1
 -2      3175      5647      3213       823       806      3157       805        68
 -1      3807    1    0    1
 -2      5647      5648      3214      3213      3157      3158       804       805
 -1      3808    1    0    1
 -2      5648      5649      3215      3214      3158      3159       803       804
 -1      3809    1    0    1
 -2      5649      5650      3216      3215      3159      3160       802       803
 -1      3810    1    0    1
 -2      5650      3187       834      3216      3160       801        67       802
 -1      3811    1    0    1
 -2       829      3201      5651      3176       830      3197      5639      3173
 -1      3812    1    0    1
 -2      3201      3202      5652      5651      3197      3198      5640      5639
 -1      3813    1    0    1
 -2      3202      3203      5653      5652      3198      3199      5641      5640
 -1      3814    1    0    1
 -2      3203      3204      5654      5653      3199      3200      5642      5641
 -1      3815    1    0    1
 -2      3204       836      3188      5654      3200       835      3185      5642
 -1      3816    1    0    1
 -2      3176      5651      5655      3177      3173      5639      5643      3174
 -1      3817    1    0    1
 -2      5651      5652      5656      5655      5639      5640      5644      5643
 -1      3818    1    0    1
 -2      5652      5653      5657      5656      5640      5641      5645      5644
 -1      3819    1    0    1
 -2      5653      5654      5658      5657      5641      5642      5646      5645
 -1      3820    1    0    1
 -2      5654      3188      3189      5658      5642      3185      3186      5646
 -1      3821    1    0    1
 -2      3177      5655      5659      3178      3174      5643      5647      3175
 -1      3822    1    0    1
 -2      5655      5656      5660      5659      5643      5644      5648      5647
 -1      3823    1    0    1
 -2      5656      5657      5661      5660      5644      5645      5649      5648
 -1      3824    1    0    1
 -2      5657      5658      5662      5661      5645      5646      5650      5649
 -1      3825    1    0    1
 -2      5658      3189      3190      5662      5646      3186      3187      5650
 -1      3826    1    0    1
 -2      3178      5659      3217       824      3175      5647      3213       823
 -1      3827    1    0    1
 -2      5659      5660      3218      3217      5647      5648      3214      3213
 -1      3828    1    0    1
 -2      5660      5661      3219      3218      5648      5649      3215      3214
 -1      3829    1    0    1
 -2      5661      5662      3220      3219      5649      5650      3216      3215
 -1      3830    1    0    1
 -2      5662      3190       833      3220      5650      3187       834      3216
 -1      3831    1    0    1
 -2       828      3205      5663      3179       829      3201      5651      3176
 -1      3832    1    0    1
 -2      3205      3206      5664      5663      3201      3202      5652      5651
 -1      3833    1    0    1
 -2      3206      3207      5665      5664      3202      3203      5653      5652
 -1      3834    1    0    1
 -2      3207      3208      5666      5665      3203      3204      5654      5653
 -1      3835    1    0    1
 -2      3208       837      3191      5666      3204       836      3188      5654
 -1      3836    1    0    1
 -2      3179      5663      5667      3180      3176      5651      5655      3177
 -1      3837    1    0    1
 -2      5663      5664      5668      5667      5651      5652      5656      5655
 -1      3838    1    0    1
 -2      5664      5665      5669      5668      5652      5653      5657      5656
 -1      3839    1    0    1
 -2      5665      5666      5670      5669      5653      5654      5658      5657
 -1      3840    1    0    1
 -2      5666      3191      3192      5670      5654      3188      3189      5658
 -1      3841    1    0    1
 -2      3180      5667      5671      3181      3177      5655      5659      3178
 -1      3842    1    0    1
 -2      5667      5668      5672      5671      5655      5656      5660      5659
 -1      3843    1    0    1
 -2      5668      5669      5673      5672      5656      5657      5661      5660
 -1      3844    1    0    1
 -2      5669      5670      5674      5673      5657      5658      5662      5661
 -1      3845    1    0    1
 -2      5670      3192      3193      5674      5658      3189      3190      5662
 -1      3846    1    0    1
 -2      3181      5671      3221       825      3178      5659      3217       824
 -1      3847    1    0    1
 -2      5671      5672      3222      3221      5659      5660      3218      3217
 -1      3848    1    0    1
 -2      5672      5673      3223      3222      5660      5661      3219      3218
 -1      3849    1    0    1
 -2      5673      5674      3224      3223      5661      5662      3220      3219
 -1      3850    1    0    1
 -2      5674      3193       832      3224      5662      3190       833      3220
 -1      3851    1    0    1
 -2       827      3209      5675      3182       828      3205      5663      3179
 -1      3852    1    0    1
 -2      3209      3210      5676      5675      3205      3206      5664      5663
 -1      3853    1    0    1
 -2      3210      3211      5677      5676      3206      3207      5665      5664
 -1      3854    1    0    1
 -2      3211      3212      5678      5677      3207      3208      5666      5665
 -1      3855    1    0    1
 -2      3212       838      3194      5678      3208       837      3191      5666
 -1      3856    1    0    1
 -2      3182      5675      5679      3183      3179      5663      5667      3180
 -1      3857    1    0    1
 -2      5675      5676      5680      5679      5663      5664      5668      5667
 -1      3858    1    0    1
 -2      5676      5677      5681      5680      5664      5665      5669      5668
 -1      3859    1    0    1
 -2      5677      5678      5682      5681      5665      5666      5670      5669
 -1      3860    1    0    1
 -2      5678      3194      3195      5682      5666      3191      3192      5670
 -1      3861    1    0    1
 -2      3183      5679      5683      3184      3180      5667      5671      3181
 -1      3862    1    0    1
 -2      5679      5680      5684      5683      5667      5668      5672      5671
 -1      3863    1    0    1
 -2      5680      5681      5685      5684      5668      5669      5673      5672
 -1      3864    1    0    1
 -2      5681      5682      5686      5685      5669      5670      5674      5673
 -1      3865    1    0    1
 -2      5682      3195      3196      5686      5670      3192      3193      5674
 -1      3866    1    0    1
 -2      3184      5683      3225       826      3181      5671      3221       825
 -1      3867    1    0    1
 -2      5683      5684      3226      3225      5671      5672      3222      3221
 -1      3868    1    0    1
 -2      5684      5685      3227      3226      5672      5673      3223      3222
 -1      3869    1    0    1
 -2      5685      5686      3228      3227      5673      5674      3224      3223
 -1      3870    1    0    1
 -2      5686      3196       831      3228      5674      3193       832      3224
 -1      3871    1    0    1
 -2        72       812      3161       820       827      3209      5675      3182
 -1      3872    1    0    1
 -2       812       811      3162      3161      3209      3210      5676      5675
 -1      3873    1    0    1
 -2       811       810      3163      3162      3210      3211      5677      5676
 -1      3874    1    0    1
 -2       810       809      3164      3163      3211      3212      5678      5677
 -1      3875    1    0    1
 -2       809        69       815      3164      3212       838      3194      5678
 -1      3876    1    0    1
 -2       820      3161      3165       821      3182      5675      5679      3183
 -1      3877    1    0    1
 -2      3161      3162      3166      3165      5675      5676      5680      5679
 -1      3878    1    0    1
 -2      3162      3163      3167      3166      5676      5677      5681      5680
 -1      3879    1    0    1
 -2      3163      3164      3168      3167      5677      5678      5682      5681
 -1      3880    1    0    1
 -2      3164       815       814      3168      5678      3194      3195      5682
 -1      3881    1    0    1
 -2       821      3165      3169       822      3183      5679      5683      3184
 -1      3882    1    0    1
 -2      3165      3166      3170      3169      5679      5680      5684      5683
 -1      3883    1    0    1
 -2      3166      3167      3171      3170      5680      5681      5685      5684
 -1      3884    1    0    1
 -2      3167      3168      3172      3171      5681      5682      5686      5685
 -1      3885    1    0    1
 -2      3168       814       813      3172      5682      3195      3196      5686
 -1      3886    1    0    1
 -2       822      3169       816        71      3184      5683      3225       826
 -1      3887    1    0    1
 -2      3169      3170       817       816      5683      5684      3226      3225
 -1      3888    1    0    1
 -2      3170      3171       818       817      5684      5685      3227      3226
 -1      3889    1    0    1
 -2      3171      3172       819       818      5685      5686      3228      3227
 -1      3890    1    0    1
 -2      3172       813        70       819      5686      3196       831      3228
 -1      3891    1    0    1
 -2       575      2595      5687      3247        37       588      3229       844
 -1      3892    1    0    1
 -2      2595      2599      5688      5687       588       587      3230      3229
 -1      3893    1    0    1
 -2      2599      2603      5689      5688       587       586      3231      3230
 -1      3894    1    0    1
 -2      2603       585      3259      5689       586        40       839      3231
 -1      3895    1    0    1
 -2      3247      5687      5690      3248       844      3229      3232       843
 -1      3896    1    0    1
 -2      5687      5688      5691      5690      3229      3230      3233      3232
 -1      3897    1    0    1
 -2      5688      5689      5692      5691      3230      3231      3234      3233
 -1      3898    1    0    1
 -2      5689      3259      3260      5692      3231       839       840      3234
 -1      3899    1    0    1
 -2      3248      5690      5693      3249       843      3232      3235       842
 -1      3900    1    0    1
 -2      5690      5691      5694      5693      3232      3233      3236      3235
 -1      3901    1    0    1
 -2      5691      5692      5695      5694      3233      3234      3237      3236
 -1      3902    1    0    1
 -2      5692      3260      3261      5695      3234       840       841      3237
 -1      3903    1    0    1
 -2      3249      5693      3160       802       842      3235       801        67
 -1      3904    1    0    1
 -2      5693      5694      3156      3160      3235      3236       800       801
 -1      3905    1    0    1
 -2      5694      5695      3152      3156      3236      3237       799       800
 -1      3906    1    0    1
 -2      5695      3261       691      3152      3237       841        51       799
 -1      3907    1    0    1
 -2       576      2596      5696      3250       575      2595      5687      3247
 -1      3908    1    0    1
 -2      2596      2600      5697      5696      2595      2599      5688      5687
 -1      3909    1    0    1
 -2      2600      2604      5698      5697      2599      2603      5689      5688
 -1      3910    1    0    1
 -2      2604       584      3262      5698      2603       585      3259      5689
 -1      3911    1    0    1
 -2      3250      5696      5699      3251      3247      5687      5690      3248
 -1      3912    1    0    1
 -2      5696      5697      5700      5699      5687      5688      5691      5690
 -1      3913    1    0    1
 -2      5697      5698      5701      5700      5688      5689      5692      5691
 -1      3914    1    0    1
 -2      5698      3262      3263      5701      5689      3259      3260      5692
 -1      3915    1    0    1
 -2      3251      5699      5702      3252      3248      5690      5693      3249
 -1      3916    1    0    1
 -2      5699      5700      5703      5702      5690      5691      5694      5693
 -1      3917    1    0    1
 -2      5700      5701      5704      5703      5691      5692      5695      5694
 -1      3918    1    0    1
 -2      5701      3263      3264      5704      5692      3260      3261      5695
 -1      3919    1    0    1
 -2      3252      5702      3159       803      3249      5693      3160       802
 -1      3920    1    0    1
 -2      5702      5703      3155      3159      5693      5694      3156      3160
 -1      3921    1    0    1
 -2      5703      5704      3151      3155      5694      5695      3152      3156
 -1      3922    1    0    1
 -2      5704      3264       692      3151      5695      3261       691      3152
 -1      3923    1    0    1
 -2       577      2597      5705      3253       576      2596      5696      3250
 -1      3924    1    0    1
 -2      2597      2601      5706      5705      2596      2600      5697      5696
 -1      3925    1    0    1
 -2      2601      2605      5707      5706      2600      2604      5698      5697
 -1      3926    1    0    1
 -2      2605       583      3265      5707      2604       584      3262      5698
 -1      3927    1    0    1
 -2      3253      5705      5708      3254      3250      5696      5699      3251
 -1      3928    1    0    1
 -2      5705      5706      5709      5708      5696      5697      5700      5699
 -1      3929    1    0    1
 -2      5706      5707      5710      5709      5697      5698      5701      5700
 -1      3930    1    0    1
 -2      5707      3265      3266      5710      5698      3262      3263      5701
 -1      3931    1    0    1
 -2      3254      5708      5711      3255      3251      5699      5702      3252
 -1      3932    1    0    1
 -2      5708      5709      5712      5711      5699      5700      5703      5702
 -1      3933    1    0    1
 -2      5709      5710      5713      5712      5700      5701      5704      5703
 -1      3934    1    0    1
 -2      5710      3266      3267      5713      5701      3263      3264      5704
 -1      3935    1    0    1
 -2      3255      5711      3158       804      3252      5702      3159       803
 -1      3936    1    0    1
 -2      5711      5712      3154      3158      5702      5703      3155      3159
 -1      3937    1    0    1
 -2      5712      5713      3150      3154      5703      5704      3151      3155
 -1      3938    1    0    1
 -2      5713      3267       693      3150      5704      3264       692      3151
 -1      3939    1    0    1
 -2       578      2598      5714      3256       577      2597      5705      3253
 -1      3940    1    0    1
 -2      2598      2602      5715      5714      2597      2601      5706      5705
 -1      3941    1    0    1
 -2      2602      2606      5716      5715      2601      2605      5707      5706
 -1      3942    1    0    1
 -2      2606       582      3268      5716      2605       583      3265      5707
 -1      3943    1    0    1
 -2      3256      5714      5717      3257      3253      5705      5708      3254
 -1      3944    1    0    1
 -2      5714      5715      5718      5717      5705      5706      5709      5708
 -1      3945    1    0    1
 -2      5715      5716      5719      5718      5706      5707      5710      5709
 -1      3946    1    0    1
 -2      5716      3268      3269      5719      5707      3265      3266      5710
 -1      3947    1    0    1
 -2      3257      5717      5720      3258      3254      5708      5711      3255
 -1      3948    1    0    1
 -2      5717      5718      5721      5720      5708      5709      5712      5711
 -1      3949    1    0    1
 -2      5718      5719      5722      5721      5709      5710      5713      5712
 -1      3950    1    0    1
 -2      5719      3269      3270      5722      5710      3266      3267      5713
 -1      3951    1    0    1
 -2      3258      5720      3157       805      3255      5711      3158       804
 -1      3952    1    0    1
 -2      5720      5721      3153      3157      5711      5712      3154      3158
 -1      3953    1    0    1
 -2      5721      5722      3149      3153      5712      5713      3150      3154
 -1      3954    1    0    1
 -2      5722      3270       694      3149      5713      3267       693      3150
 -1      3955    1    0    1
 -2        38       579      3238       848       578      2598      5714      3256
 -1      3956    1    0    1
 -2       579       580      3239      3238      2598      2602      5715      5714
 -1      3957    1    0    1
 -2       580       581      3240      3239      2602      2606      5716      5715
 -1      3958    1    0    1
 -2       581        39       847      3240      2606       582      3268      5716
 -1      3959    1    0    1
 -2       848      3238      3241       849      3256      5714      5717      3257
 -1      3960    1    0    1
 -2      3238      3239      3242      3241      5714      5715      5718      5717
 -1      3961    1    0    1
 -2      3239      3240      3243      3242      5715      5716      5719      5718
 -1      3962    1    0    1
 -2      3240       847       846      3243      5716      3268      3269      5719
 -1      3963    1    0    1
 -2       849      3241      3244       850      3257      5717      5720      3258
 -1      3964    1    0    1
 -2      3241      3242      3245      3244      5717      5718      5721      5720
 -1      3965    1    0    1
 -2      3242      3243      3246      3245      5718      5719      5722      5721
 -1      3966    1    0    1
 -2      3243       846       845      3246      5719      3269      3270      5722
 -1      3967    1    0    1
 -2       850      3244       806        68      3258      5720      3157       805
 -1      3968    1    0    1
 -2      3244      3245       807       806      5720      5721      3153      3157
 -1      3969    1    0    1
 -2      3245      3246       808       807      5721      5722      3149      3153
 -1      3970    1    0    1
 -2      3246       845        52       808      5722      3270       694      3149
 -1      3971    1    0    1
 -2       707      2959      5723      3287        54       702      3271       862
 -1      3972    1    0    1
 -2      2959      2960      5724      5723       702       701      3272      3271
 -1      3973    1    0    1
 -2      2960      2961      5725      5724       701       700      3273      3272
 -1      3974    1    0    1
 -2      2961      2962      5726      5725       700       699      3274      3273
 -1      3975    1    0    1
 -2      2962       714      3303      5726       699        53       851      3274
 -1      3976    1    0    1
 -2      3287      5723      5727      3288       862      3271      3275       861
 -1      3977    1    0    1
 -2      5723      5724      5728      5727      3271      3272      3276      3275
 -1      3978    1    0    1
 -2      5724      5725      5729      5728      3272      3273      3277      3276
 -1      3979    1    0    1
 -2      5725      5726      5730      5729      3273      3274      3278      3277
 -1      3980    1    0    1
 -2      5726      3303      3304      5730      3274       851       852      3278
 -1      3981    1    0    1
 -2      3288      5727      5731      3289       861      3275      3279       860
 -1      3982    1    0    1
 -2      5727      5728      5732      5731      3275      3276      3280      3279
 -1      3983    1    0    1
 -2      5728      5729      5733      5732      3276      3277      3281      3280
 -1      3984    1    0    1
 -2      5729      5730      5734      5733      3277      3278      3282      3281
 -1      3985    1    0    1
 -2      5730      3304      3305      5734      3278       852       853      3282
 -1      3986    1    0    1
 -2      3289      5731      5735      3290       860      3279      3283       859
 -1      3987    1    0    1
 -2      5731      5732      5736      5735      3279      3280      3284      3283
 -1      3988    1    0    1
 -2      5732      5733      5737      5736      3280      3281      3285      3284
 -1      3989    1    0    1
 -2      5733      5734      5738      5737      3281      3282      3286      3285
 -1      3990    1    0    1
 -2      5734      3305      3306      5738      3282       853       854      3286
 -1      3991    1    0    1
 -2      3290      5735      3319       863       859      3283       858        74
 -1      3992    1    0    1
 -2      5735      5736      3320      3319      3283      3284       857       858
 -1      3993    1    0    1
 -2      5736      5737      3321      3320      3284      3285       856       857
 -1      3994    1    0    1
 -2      5737      5738      3322      3321      3285      3286       855       856
 -1      3995    1    0    1
 -2      5738      3306       870      3322      3286       854        73       855
 -1      3996    1    0    1
 -2       708      2955      5739      3291       707      2959      5723      3287
 -1      3997    1    0    1
 -2      2955      2956      5740      5739      2959      2960      5724      5723
 -1      3998    1    0    1
 -2      2956      2957      5741      5740      2960      2961      5725      5724
 -1      3999    1    0    1
 -2      2957      2958      5742      5741      2961      2962      5726      5725
 -1      4000    1    0    1
 -2      2958       713      3307      5742      2962       714      3303      5726
 -1      4001    1    0    1
 -2      3291      5739      5743      3292      3287      5723      5727      3288
 -1      4002    1    0    1
 -2      5739      5740      5744      5743      5723      5724      5728      5727
 -1      4003    1    0    1
 -2      5740      5741      5745      5744      5724      5725      5729      5728
 -1      4004    1    0    1
 -2      5741      5742      5746      5745      5725      5726      5730      5729
 -1      4005    1    0    1
 -2      5742      3307      3308      5746      5726      3303      3304      5730
 -1      4006    1    0    1
 -2      3292      5743      5747      3293      3288      5727      5731      3289
 -1      4007    1    0    1
 -2      5743      5744      5748      5747      5727      5728      5732      5731
 -1      4008    1    0    1
 -2      5744      5745      5749      5748      5728      5729      5733      5732
 -1      4009    1    0    1
 -2      5745      5746      5750      5749      5729      5730      5734      5733
 -1      4010    1    0    1
 -2      5746      3308      3309      5750      5730      3304      3305      5734
 -1      4011    1    0    1
 -2      3293      5747      5751      3294      3289      5731      5735      3290
 -1      4012    1    0    1
 -2      5747      5748      5752      5751      5731      5732      5736      5735
 -1      4013    1    0    1
 -2      5748      5749      5753      5752      5732      5733      5737      5736
 -1      4014    1    0    1
 -2      5749      5750      5754      5753      5733      5734      5738      5737
 -1      4015    1    0    1
 -2      5750      3309      3310      5754      5734      3305      3306      5738
 -1      4016    1    0    1
 -2      3294      5751      3323       864      3290      5735      3319       863
 -1      4017    1    0    1
 -2      5751      5752      3324      3323      5735      5736      3320      3319
 -1      4018    1    0    1
 -2      5752      5753      3325      3324      5736      5737      3321      3320
 -1      4019    1    0    1
 -2      5753      5754      3326      3325      5737      5738      3322      3321
 -1      4020    1    0    1
 -2      5754      3310       869      3326      5738      3306       870      3322
 -1      4021    1    0    1
 -2       709      2951      5755      3295       708      2955      5739      3291
 -1      4022    1    0    1
 -2      2951      2952      5756      5755      2955      2956      5740      5739
 -1      4023    1    0    1
 -2      2952      2953      5757      5756      2956      2957      5741      5740
 -1      4024    1    0    1
 -2      2953      2954      5758      5757      2957      2958      5742      5741
 -1      4025    1    0    1
 -2      2954       712      3311      5758      2958       713      3307      5742
 -1      4026    1    0    1
 -2      3295      5755      5759      3296      3291      5739      5743      3292
 -1      4027    1    0    1
 -2      5755      5756      5760      5759      5739      5740      5744      5743
 -1      4028    1    0    1
 -2      5756      5757      5761      5760      5740      5741      5745      5744
 -1      4029    1    0    1
 -2      5757      5758      5762      5761      5741      5742      5746      5745
 -1      4030    1    0    1
 -2      5758      3311      3312      5762      5742      3307      3308      5746
 -1      4031    1    0    1
 -2      3296      5759      5763      3297      3292      5743      5747      3293
 -1      4032    1    0    1
 -2      5759      5760      5764      5763      5743      5744      5748      5747
 -1      4033    1    0    1
 -2      5760      5761      5765      5764      5744      5745      5749      5748
 -1      4034    1    0    1
 -2      5761      5762      5766      5765      5745      5746      5750      5749
 -1      4035    1    0    1
 -2      5762      3312      3313      5766      5746      3308      3309      5750
 -1      4036    1    0    1
 -2      3297      5763      5767      3298      3293      5747      5751      3294
 -1      4037    1    0    1
 -2      5763      5764      5768      5767      5747      5748      5752      5751
 -1      4038    1    0    1
 -2      5764      5765      5769      5768      5748      5749      5753      5752
 -1      4039    1    0    1
 -2      5765      5766      5770      5769      5749      5750      5754      5753
 -1      4040    1    0    1
 -2      5766      3313      3314      5770      5750      3309      3310      5754
 -1      4041    1    0    1
 -2      3298      5767      3327       865      3294      5751      3323       864
 -1      4042    1    0    1
 -2      5767      5768      3328      3327      5751      5752      3324      3323
 -1      4043    1    0    1
 -2      5768      5769      3329      3328      5752      5753      3325      3324
 -1      4044    1    0    1
 -2      5769      5770      3330      3329      5753      5754      3326      3325
 -1      4045    1    0    1
 -2      5770      3314       868      3330      5754      3310       869      3326
 -1      4046    1    0    1
 -2       710      2947      5771      3299       709      2951      5755      3295
 -1      4047    1    0    1
 -2      2947      2948      5772      5771      2951      2952      5756      5755
 -1      4048    1    0    1
 -2      2948      2949      5773      5772      2952      2953      5757      5756
 -1      4049    1    0    1
 -2      2949      2950      5774      5773      2953      2954      5758      5757
 -1      4050    1    0    1
 -2      2950       711      3315      5774      2954       712      3311      5758
 -1      4051    1    0    1
 -2      3299      5771      5775      3300      3295      5755      5759      3296
 -1      4052    1    0    1
 -2      5771      5772      5776      5775      5755      5756      5760      5759
 -1      4053    1    0    1
 -2      5772      5773      5777      5776      5756      5757      5761      5760
 -1      4054    1    0    1
 -2      5773      5774      5778      5777      5757      5758      5762      5761
 -1      4055    1    0    1
 -2      5774      3315      3316      5778      5758      3311      3312      5762
 -1      4056    1    0    1
 -2      3300      5775      5779      3301      3296      5759      5763      3297
 -1      4057    1    0    1
 -2      5775      5776      5780      5779      5759      5760      5764      5763
 -1      4058    1    0    1
 -2      5776      5777      5781      5780      5760      5761      5765      5764
 -1      4059    1    0    1
 -2      5777      5778      5782      5781      5761      5762      5766      5765
 -1      4060    1    0    1
 -2      5778      3316      3317      5782      5762      3312      3313      5766
 -1      4061    1    0    1
 -2      3301      5779      5783      3302      3297      5763      5767      3298
 -1      4062    1    0    1
 -2      5779      5780      5784      5783      5763      5764      5768      5767
 -1      4063    1    0    1
 -2      5780      5781      5785      5784      5764      5765      5769      5768
 -1      4064    1    0    1
 -2      5781      5782      5786      5785      5765      5766      5770      5769
 -1      4065    1    0    1
 -2      5782      3317      3318      5786      5766      3313      3314      5770
 -1      4066    1    0    1
 -2      3302      5783      3331       866      3298      5767      3327       865
 -1      4067    1    0    1
 -2      5783      5784      3332      3331      5767      5768      3328      3327
 -1      4068    1    0    1
 -2      5784      5785      3333      3332      5768      5769      3329      3328
 -1      4069    1    0    1
 -2      5785      5786      3334      3333      5769      5770      3330      3329
 -1      4070    1    0    1
 -2      5786      3318       867      3334      5770      3314       868      3330
 -1      4071    1    0    1
 -2        51       691      3200       835       710      2947      5771      3299
 -1      4072    1    0    1
 -2       691       692      3199      3200      2947      2948      5772      5771
 -1      4073    1    0    1
 -2       692       693      3198      3199      2948      2949      5773      5772
 -1      4074    1    0    1
 -2       693       694      3197      3198      2949      2950      5774      5773
 -1      4075    1    0    1
 -2       694        52       830      3197      2950       711      3315      5774
 -1      4076    1    0    1
 -2       835      3200      3204       836      3299      5771      5775      3300
 -1      4077    1    0    1
 -2      3200      3199      3203      3204      5771      5772      5776      5775
 -1      4078    1    0    1
 -2      3199      3198      3202      3203      5772      5773      5777      5776
 -1      4079    1    0    1
 -2      3198      3197      3201      3202      5773      5774      5778      5777
 -1      4080    1    0    1
 -2      3197       830       829      3201      5774      3315      3316      5778
 -1      4081    1    0    1
 -2       836      3204      3208       837      3300      5775      5779      3301
 -1      4082    1    0    1
 -2      3204      3203      3207      3208      5775      5776      5780      5779
 -1      4083    1    0    1
 -2      3203      3202      3206      3207      5776      5777      5781      5780
 -1      4084    1    0    1
 -2      3202      3201      3205      3206      5777      5778      5782      5781
 -1      4085    1    0    1
 -2      3201       829       828      3205      5778      3316      3317      5782
 -1      4086    1    0    1
 -2       837      3208      3212       838      3301      5779      5783      3302
 -1      4087    1    0    1
 -2      3208      3207      3211      3212      5779      5780      5784      5783
 -1      4088    1    0    1
 -2      3207      3206      3210      3211      5780      5781      5785      5784
 -1      4089    1    0    1
 -2      3206      3205      3209      3210      5781      5782      5786      5785
 -1      4090    1    0    1
 -2      3205       828       827      3209      5782      3317      3318      5786
 -1      4091    1    0    1
 -2       838      3212       809        69      3302      5783      3331       866
 -1      4092    1    0    1
 -2      3212      3211       810       809      5783      5784      3332      3331
 -1      4093    1    0    1
 -2      3211      3210       811       810      5784      5785      3333      3332
 -1      4094    1    0    1
 -2      3210      3209       812       811      5785      5786      3334      3333
 -1      4095    1    0    1
 -2      3209       827        72       812      5786      3318       867      3334
 -1      4096    1    0    1
 -2       894      3383      5787      3351        63       769      3132       798
 -1      4097    1    0    1
 -2      3383      3384      5788      5787       769       770      3131      3132
 -1      4098    1    0    1
 -2      3384      3385      5789      5788       770       771      3130      3131
 -1      4099    1    0    1
 -2      3385      3386      5790      5789       771       772      3129      3130
 -1      4100    1    0    1
 -2      3386       899      3367      5790       772        66       787      3129
 -1      4101    1    0    1
 -2      3351      5787      5791      3352       798      3132      3128       797
 -1      4102    1    0    1
 -2      5787      5788      5792      5791      3132      3131      3127      3128
 -1      4103    1    0    1
 -2      5788      5789      5793      5792      3131      3130      3126      3127
 -1      4104    1    0    1
 -2      5789      5790      5794      5793      3130      3129      3125      3126
 -1      4105    1    0    1
 -2      5790      3367      3368      5794      3129       787       788      3125
 -1      4106    1    0    1
 -2      3352      5791      5795      3353       797      3128      3124       796
 -1      4107    1    0    1
 -2      5791      5792      5796      5795      3128      3127      3123      3124
 -1      4108    1    0    1
 -2      5792      5793      5797      5796      3127      3126      3122      3123
 -1      4109    1    0    1
 -2      5793      5794      5798      5797      3126      3125      3121      3122
 -1      4110    1    0    1
 -2      5794      3368      3369      5798      3125       788       789      3121
 -1      4111    1    0    1
 -2      3353      5795      5799      3354       796      3124      3120       795
 -1      4112    1    0    1
 -2      5795      5796      5800      5799      3124      3123      3119      3120
 -1      4113    1    0    1
 -2      5796      5797      5801      5800      3123      3122      3118      3119
 -1      4114    1    0    1
 -2      5797      5798      5802      5801      3122      3121      3117      3118
 -1      4115    1    0    1
 -2      5798      3369      3370      5802      3121       789       790      3117
 -1      4116    1    0    1
 -2      3354      5799      3399       887       795      3120       768        61
 -1      4117    1    0    1
 -2      5799      5800      3400      3399      3120      3119       767       768
 -1      4118    1    0    1
 -2      5800      5801      3401      3400      3119      3118       766       767
 -1      4119    1    0    1
 -2      5801      5802      3402      3401      3118      3117       765       766
 -1      4120    1    0    1
 -2      5802      3370       898      3402      3117       790        60       765
 -1      4121    1    0    1
 -2       893      3387      5803      3355       894      3383      5787      3351
 -1      4122    1    0    1
 -2      3387      3388      5804      5803      3383      3384      5788      5787
 -1      4123    1    0    1
 -2      3388      3389      5805      5804      3384      3385      5789      5788
 -1      4124    1    0    1
 -2      3389      3390      5806      5805      3385      3386      5790      5789
 -1      4125    1    0    1
 -2      3390       900      3371      5806      3386       899      3367      5790
 -1      4126    1    0    1
 -2      3355      5803      5807      3356      3351      5787      5791      3352
 -1      4127    1    0    1
 -2      5803      5804      5808      5807      5787      5788      5792      5791
 -1      4128    1    0    1
 -2      5804      5805      5809      5808      5788      5789      5793      5792
 -1      4129    1    0    1
 -2      5805      5806      5810      5809      5789      5790      5794      5793
 -1      4130    1    0    1
 -2      5806      3371      3372      5810      5790      3367      3368      5794
 -1      4131    1    0    1
 -2      3356      5807      5811      3357      3352      5791      5795      3353
 -1      4132    1    0    1
 -2      5807      5808      5812      5811      5791      5792      5796      5795
 -1      4133    1    0    1
 -2      5808      5809      5813      5812      5792      5793      5797      5796
 -1      4134    1    0    1
 -2      5809      5810      5814      5813      5793      5794      5798      5797
 -1      4135    1    0    1
 -2      5810      3372      3373      5814      5794      3368      3369      5798
 -1      4136    1    0    1
 -2      3357      5811      5815      3358      3353      5795      5799      3354
 -1      4137    1    0    1
 -2      5811      5812      5816      5815      5795      5796      5800      5799
 -1      4138    1    0    1
 -2      5812      5813      5817      5816      5796      5797      5801      5800
 -1      4139    1    0    1
 -2      5813      5814      5818      5817      5797      5798      5802      5801
 -1      4140    1    0    1
 -2      5814      3373      3374      5818      5798      3369      3370      5802
 -1      4141    1    0    1
 -2      3358      5815      3403       888      3354      5799      3399       887
 -1      4142    1    0    1
 -2      5815      5816      3404      3403      5799      5800      3400      3399
 -1      4143    1    0    1
 -2      5816      5817      3405      3404      5800      5801      3401      3400
 -1      4144    1    0    1
 -2      5817      5818      3406      3405      5801      5802      3402      3401
 -1      4145    1    0    1
 -2      5818      3374       897      3406      5802      3370       898      3402
 -1      4146    1    0    1
 -2       892      3391      5819      3359       893      3387      5803      3355
 -1      4147    1    0    1
 -2      3391      3392      5820      5819      3387      3388      5804      5803
 -1      4148    1    0    1
 -2      3392      3393      5821      5820      3388      3389      5805      5804
 -1      4149    1    0    1
 -2      3393      3394      5822      5821      3389      3390      5806      5805
 -1      4150    1    0    1
 -2      3394       901      3375      5822      3390       900      3371      5806
 -1      4151    1    0    1
 -2      3359      5819      5823      3360      3355      5803      5807      3356
 -1      4152    1    0    1
 -2      5819      5820      5824      5823      5803      5804      5808      5807
 -1      4153    1    0    1
 -2      5820      5821      5825      5824      5804      5805      5809      5808
 -1      4154    1    0    1
 -2      5821      5822      5826      5825      5805      5806      5810      5809
 -1      4155    1    0    1
 -2      5822      3375      3376      5826      5806      3371      3372      5810
 -1      4156    1    0    1
 -2      3360      5823      5827      3361      3356      5807      5811      3357
 -1      4157    1    0    1
 -2      5823      5824      5828      5827      5807      5808      5812      5811
 -1      4158    1    0    1
 -2      5824      5825      5829      5828      5808      5809      5813      5812
 -1      4159    1    0    1
 -2      5825      5826      5830      5829      5809      5810      5814      5813
 -1      4160    1    0    1
 -2      5826      3376      3377      5830      5810      3372      3373      5814
 -1      4161    1    0    1
 -2      3361      5827      5831      3362      3357      5811      5815      3358
 -1      4162    1    0    1
 -2      5827      5828      5832      5831      5811      5812      5816      5815
 -1      4163    1    0    1
 -2      5828      5829      5833      5832      5812      5813      5817      5816
 -1      4164    1    0    1
 -2      5829      5830      5834      5833      5813      5814      5818      5817
 -1      4165    1    0    1
 -2      5830      3377      3378      5834      5814      3373      3374      5818
 -1      4166    1    0    1
 -2      3362      5831      3407       889      3358      5815      3403       888
 -1      4167    1    0    1
 -2      5831      5832      3408      3407      5815      5816      3404      3403
 -1      4168    1    0    1
 -2      5832      5833      3409      3408      5816      5817      3405      3404
 -1      4169    1    0    1
 -2      5833      5834      3410      3409      5817      5818      3406      3405
 -1      4170    1    0    1
 -2      5834      3378       896      3410      5818      3374       897      3406
 -1      4171    1    0    1
 -2       891      3395      5835      3363       892      3391      5819      3359
 -1      4172    1    0    1
 -2      3395      3396      5836      5835      3391      3392      5820      5819
 -1      4173    1    0    1
 -2      3396      3397      5837      5836      3392      3393      5821      5820
 -1      4174    1    0    1
 -2      3397      3398      5838      5837      3393      3394      5822      5821
 -1      4175    1    0    1
 -2      3398       902      3379      5838      3394       901      3375      5822
 -1      4176    1    0    1
 -2      3363      5835      5839      3364      3359      5819      5823      3360
 -1      4177    1    0    1
 -2      5835      5836      5840      5839      5819      5820      5824      5823
 -1      4178    1    0    1
 -2      5836      5837      5841      5840      5820      5821      5825      5824
 -1      4179    1    0    1
 -2      5837      5838      5842      5841      5821      5822      5826      5825
 -1      4180    1    0    1
 -2      5838      3379      3380      5842      5822      3375      3376      5826
 -1      4181    1    0    1
 -2      3364      5839      5843      3365      3360      5823      5827      3361
 -1      4182    1    0    1
 -2      5839      5840      5844      5843      5823      5824      5828      5827
 -1      4183    1    0    1
 -2      5840      5841      5845      5844      5824      5825      5829      5828
 -1      4184    1    0    1
 -2      5841      5842      5846      5845      5825      5826      5830      5829
 -1      4185    1    0    1
 -2      5842      3380      3381      5846      5826      3376      3377      5830
 -1      4186    1    0    1
 -2      3365      5843      5847      3366      3361      5827      5831      3362
 -1      4187    1    0    1
 -2      5843      5844      5848      5847      5827      5828      5832      5831
 -1      4188    1    0    1
 -2      5844      5845      5849      5848      5828      5829      5833      5832
 -1      4189    1    0    1
 -2      5845      5846      5850      5849      5829      5830      5834      5833
 -1      4190    1    0    1
 -2      5846      3381      3382      5850      5830      3377      3378      5834
 -1      4191    1    0    1
 -2      3366      5847      3411       890      3362      5831      3407       889
 -1      4192    1    0    1
 -2      5847      5848      3412      3411      5831      5832      3408      3407
 -1      4193    1    0    1
 -2      5848      5849      3413      3412      5832      5833      3409      3408
 -1      4194    1    0    1
 -2      5849      5850      3414      3413      5833      5834      3410      3409
 -1      4195    1    0    1
 -2      5850      3382       895      3414      5834      3378       896      3410
 -1      4196    1    0    1
 -2        78       874      3335       883       891      3395      5835      3363
 -1      4197    1    0    1
 -2       874       873      3336      3335      3395      3396      5836      5835
 -1      4198    1    0    1
 -2       873       872      3337      3336      3396      3397      5837      5836
 -1      4199    1    0    1
 -2       872       871      3338      3337      3397      3398      5838      5837
 -1      4200    1    0    1
 -2       871        75       878      3338      3398       902      3379      5838
 -1      4201    1    0    1
 -2       883      3335      3339       884      3363      5835      5839      3364
 -1      4202    1    0    1
 -2      3335      3336      3340      3339      5835      5836      5840      5839
 -1      4203    1    0    1
 -2      3336      3337      3341      3340      5836      5837      5841      5840
 -1      4204    1    0    1
 -2      3337      3338      3342      3341      5837      5838      5842      5841
 -1      4205    1    0    1
 -2      3338       878       877      3342      5838      3379      3380      5842
 -1      4206    1    0    1
 -2       884      3339      3343       885      3364      5839      5843      3365
 -1      4207    1    0    1
 -2      3339      3340      3344      3343      5839      5840      5844      5843
 -1      4208    1    0    1
 -2      3340      3341      3345      3344      5840      5841      5845      5844
 -1      4209    1    0    1
 -2      3341      3342      3346      3345      5841      5842      5846      5845
 -1      4210    1    0    1
 -2      3342       877       876      3346      5842      3380      3381      5846
 -1      4211    1    0    1
 -2       885      3343      3347       886      3365      5843      5847      3366
 -1      4212    1    0    1
 -2      3343      3344      3348      3347      5843      5844      5848      5847
 -1      4213    1    0    1
 -2      3344      3345      3349      3348      5844      5845      5849      5848
 -1      4214    1    0    1
 -2      3345      3346      3350      3349      5845      5846      5850      5849
 -1      4215    1    0    1
 -2      3346       876       875      3350      5846      3381      3382      5850
 -1      4216    1    0    1
 -2       886      3347       879        77      3366      5847      3411       890
 -1      4217    1    0    1
 -2      3347      3348       880       879      5847      5848      3412      3411
 -1      4218    1    0    1
 -2      3348      3349       881       880      5848      5849      3413      3412
 -1      4219    1    0    1
 -2      3349      3350       882       881      5849      5850      3414      3413
 -1      4220    1    0    1
 -2      3350       875        76       882      5850      3382       895      3414
 -1      4221    1    0    1
 -2       735      3011      5851      3439        56       721      3415       908
 -1      4222    1    0    1
 -2      3011      3012      5852      5851       721       720      3416      3415
 -1      4223    1    0    1
 -2      3012      3013      5853      5852       720       719      3417      3416
 -1      4224    1    0    1
 -2      3013      3014      5854      5853       719       718      3418      3417
 -1      4225    1    0    1
 -2      3014       742      3451      5854       718        55       903      3418
 -1      4226    1    0    1
 -2      3439      5851      5855      3440       908      3415      3419       907
 -1      4227    1    0    1
 -2      5851      5852      5856      5855      3415      3416      3420      3419
 -1      4228    1    0    1
 -2      5852      5853      5857      5856      3416      3417      3421      3420
 -1      4229    1    0    1
 -2      5853      5854      5858      5857      3417      3418      3422      3421
 -1      4230    1    0    1
 -2      5854      3451      3452      5858      3418       903       904      3422
 -1      4231    1    0    1
 -2      3440      5855      5859      3441       907      3419      3423       906
 -1      4232    1    0    1
 -2      5855      5856      5860      5859      3419      3420      3424      3423
 -1      4233    1    0    1
 -2      5856      5857      5861      5860      3420      3421      3425      3424
 -1      4234    1    0    1
 -2      5857      5858      5862      5861      3421      3422      3426      3425
 -1      4235    1    0    1
 -2      5858      3452      3453      5862      3422       904       905      3426
 -1      4236    1    0    1
 -2      3441      5859      3411       890       906      3423       879        77
 -1      4237    1    0    1
 -2      5859      5860      3412      3411      3423      3424       880       879
 -1      4238    1    0    1
 -2      5860      5861      3413      3412      3424      3425       881       880
 -1      4239    1    0    1
 -2      5861      5862      3414      3413      3425      3426       882       881
 -1      4240    1    0    1
 -2      5862      3453       895      3414      3426       905        76       882
 -1      4241    1    0    1
 -2       736      3015      5863      3442       735      3011      5851      3439
 -1      4242    1    0    1
 -2      3015      3016      5864      5863      3011      3012      5852      5851
 -1      4243    1    0    1
 -2      3016      3017      5865      5864      3012      3013      5853      5852
 -1      4244    1    0    1
 -2      3017      3018      5866      5865      3013      3014      5854      5853
 -1      4245    1    0    1
 -2      3018       741      3454      5866      3014       742      3451      5854
 -1      4246    1    0    1
 -2      3442      5863      5867      3443      3439      5851      5855      3440
 -1      4247    1    0    1
 -2      5863      5864      5868      5867      5851      5852      5856      5855
 -1      4248    1    0    1
 -2      5864      5865      5869      5868      5852      5853      5857      5856
 -1      4249    1    0    1
 -2      5865      5866      5870      5869      5853      5854      5858      5857
 -1      4250    1    0    1
 -2      5866      3454      3455      5870      5854      3451      3452      5858
 -1      4251    1    0    1
 -2      3443      5867      5871      3444      3440      5855      5859      3441
 -1      4252    1    0    1
 -2      5867      5868      5872      5871      5855      5856      5860      5859
 -1      4253    1    0    1
 -2      5868      5869      5873      5872      5856      5857      5861      5860
 -1      4254    1    0    1
 -2      5869      5870      5874      5873      5857      5858      5862      5861
 -1      4255    1    0    1
 -2      5870      3455      3456      5874      5858      3452      3453      5862
 -1      4256    1    0    1
 -2      3444      5871      3407       889      3441      5859      3411       890
 -1      4257    1    0    1
 -2      5871      5872      3408      3407      5859      5860      3412      3411
 -1      4258    1    0    1
 -2      5872      5873      3409      3408      5860      5861      3413      3412
 -1      4259    1    0    1
 -2      5873      5874      3410      3409      5861      5862      3414      3413
 -1      4260    1    0    1
 -2      5874      3456       896      3410      5862      3453       895      3414
 -1      4261    1    0    1
 -2       737      3019      5875      3445       736      3015      5863      3442
 -1      4262    1    0    1
 -2      3019      3020      5876      5875      3015      3016      5864      5863
 -1      4263    1    0    1
 -2      3020      3021      5877      5876      3016      3017      5865      5864
 -1      4264    1    0    1
 -2      3021      3022      5878      5877      3017      3018      5866      5865
 -1      4265    1    0    1
 -2      3022       740      3457      5878      3018       741      3454      5866
 -1      4266    1    0    1
 -2      3445      5875      5879      3446      3442      5863      5867      3443
 -1      4267    1    0    1
 -2      5875      5876      5880      5879      5863      5864      5868      5867
 -1      4268    1    0    1
 -2      5876      5877      5881      5880      5864      5865      5869      5868
 -1      4269    1    0    1
 -2      5877      5878      5882      5881      5865      5866      5870      5869
 -1      4270    1    0    1
 -2      5878      3457      3458      5882      5866      3454      3455      5870
 -1      4271    1    0    1
 -2      3446      5879      5883      3447      3443      5867      5871      3444
 -1      4272    1    0    1
 -2      5879      5880      5884      5883      5867      5868      5872      5871
 -1      4273    1    0    1
 -2      5880      5881      5885      5884      5868      5869      5873      5872
 -1      4274    1    0    1
 -2      5881      5882      5886      5885      5869      5870      5874      5873
 -1      4275    1    0    1
 -2      5882      3458      3459      5886      5870      3455      3456      5874
 -1      4276    1    0    1
 -2      3447      5883      3403       888      3444      5871      3407       889
 -1      4277    1    0    1
 -2      5883      5884      3404      3403      5871      5872      3408      3407
 -1      4278    1    0    1
 -2      5884      5885      3405      3404      5872      5873      3409      3408
 -1      4279    1    0    1
 -2      5885      5886      3406      3405      5873      5874      3410      3409
 -1      4280    1    0    1
 -2      5886      3459       897      3406      5874      3456       896      3410
 -1      4281    1    0    1
 -2       738      3023      5887      3448       737      3019      5875      3445
 -1      4282    1    0    1
 -2      3023      3024      5888      5887      3019      3020      5876      5875
 -1      4283    1    0    1
 -2      3024      3025      5889      5888      3020      3021      5877      5876
 -1      4284    1    0    1
 -2      3025      3026      5890      5889      3021      3022      5878      5877
 -1      4285    1    0    1
 -2      3026       739      3460      5890      3022       740      3457      5878
 -1      4286    1    0    1
 -2      3448      5887      5891      3449      3445      5875      5879      3446
 -1      4287    1    0    1
 -2      5887      5888      5892      5891      5875      5876      5880      5879
 -1      4288    1    0    1
 -2      5888      5889      5893      5892      5876      5877      5881      5880
 -1      4289    1    0    1
 -2      5889      5890      5894      5893      5877      5878      5882      5881
 -1      4290    1    0    1
 -2      5890      3460      3461      5894      5878      3457      3458      5882
 -1      4291    1    0    1
 -2      3449      5891      5895      3450      3446      5879      5883      3447
 -1      4292    1    0    1
 -2      5891      5892      5896      5895      5879      5880      5884      5883
 -1      4293    1    0    1
 -2      5892      5893      5897      5896      5880      5881      5885      5884
 -1      4294    1    0    1
 -2      5893      5894      5898      5897      5881      5882      5886      5885
 -1      4295    1    0    1
 -2      5894      3461      3462      5898      5882      3458      3459      5886
 -1      4296    1    0    1
 -2      3450      5895      3399       887      3447      5883      3403       888
 -1      4297    1    0    1
 -2      5895      5896      3400      3399      5883      5884      3404      3403
 -1      4298    1    0    1
 -2      5896      5897      3401      3400      5884      5885      3405      3404
 -1      4299    1    0    1
 -2      5897      5898      3402      3401      5885      5886      3406      3405
 -1      4300    1    0    1
 -2      5898      3462       898      3402      5886      3459       897      3406
 -1      4301    1    0    1
 -2        58       728      3427       912       738      3023      5887      3448
 -1      4302    1    0    1
 -2       728       729      3428      3427      3023      3024      5888      5887
 -1      4303    1    0    1
 -2       729       730      3429      3428      3024      3025      5889      5888
 -1      4304    1    0    1
 -2       730       731      3430      3429      3025      3026      5890      5889
 -1      4305    1    0    1
 -2       731        57       911      3430      3026       739      3460      5890
 -1      4306    1    0    1
 -2       912      3427      3431       913      3448      5887      5891      3449
 -1      4307    1    0    1
 -2      3427      3428      3432      3431      5887      5888      5892      5891
 -1      4308    1    0    1
 -2      3428      3429      3433      3432      5888      5889      5893      5892
 -1      4309    1    0    1
 -2      3429      3430      3434      3433      5889      5890      5894      5893
 -1      4310    1    0    1
 -2      3430       911       910      3434      5890      3460      3461      5894
 -1      4311    1    0    1
 -2       913      3431      3435       914      3449      5891      5895      3450
 -1      4312    1    0    1
 -2      3431      3432      3436      3435      5891      5892      5896      5895
 -1      4313    1    0    1
 -2      3432      3433      3437      3436      5892      5893      5897      5896
 -1      4314    1    0    1
 -2      3433      3434      3438      3437      5893      5894      5898      5897
 -1      4315    1    0    1
 -2      3434       910       909      3438      5894      3461      3462      5898
 -1      4316    1    0    1
 -2       914      3435       768        61      3450      5895      3399       887
 -1      4317    1    0    1
 -2      3435      3436       767       768      5895      5896      3400      3399
 -1      4318    1    0    1
 -2      3436      3437       766       767      5896      5897      3401      3400
 -1      4319    1    0    1
 -2      3437      3438       765       766      5897      5898      3402      3401
 -1      4320    1    0    1
 -2      3438       909        60       765      5898      3462       898      3402
 -3
    1PSTEP                         1           1           1          
  100CL  101 1.000000000        5898                     0    1           1
 -4  DISP        4    1
 -5  D1          1    2    1    0
 -5  D2          1    2    2    0
 -5  D3          1    2    3    0
 -5  ALL         1    2    0    0    1ALL
 -1         1-5.31684E-01 1.04393E-01 6.89187E-06
 -1         2-5.31669E-01-2.47413E-02 3.75090E-05
 -1         3-4.66755E-01 2.70240E-02 1.91163E-05
 -1         4-4.66929E-01-2.43404E-02 2.73542E-05
 -1         5-4.66933E-01 1.03976E-01 6.29781E-06
 -1         6-2.24471E-01 2.89730E-02 3.45387E-06
 -1         7-2.24999E-01 9.40197E-02 9.82052E-07
 -1         8-2.25031E-01-1.44292E-02 3.66838E-06
 -1         9-1.72507E-01-1.04561E-02 0.00000E+00
 -1        10-1.72234E-01 8.97405E-02 0.00000E+00
 -1        11-5.32179E-01-2.57869E-02 3.42401E-04
 -1        12-1.70035E-01-1.02517E-02 2.45175E-03
 -1        13-1.69539E-01 8.99895E-02-2.82689E-03
 -1        14-5.32183E-01 1.05328E-01-2.65504E-04
 -1        15 5.32102E-01 1.05391E-01-2.78156E-04
 -1        16 5.32095E-01-2.57823E-02 3.11479E-04
 -1        17 5.31562E-01-2.47332E-02 2.83728E-06
 -1        18 5.31574E-01 1.04428E-01-1.39895E-06
 -1        19 1.69295E-01 9.00384E-02-2.82939E-03
 -1        20 1.69791E-01-1.02493E-02 2.45135E-03
 -1        21 1.72269E-01-1.04558E-02 0.00000E+00
 -1        22 1.71993E-01 8.97873E-02 0.00000E+00
 -1        23 4.66802E-01 1.04019E-01-6.08789E-07
 -1        24 2.24779E-01 9.40652E-02 1.79270E-06
 -1        25 4.66799E-01-2.43376E-02 2.04591E-06
 -1        26 2.24811E-01-1.44283E-02-9.75520E-07
 -1        27 4.66625E-01 2.70430E-02 1.12778E-06
 -1        28 2.24252E-01 2.89915E-02 8.93712E-07
 -1        29-1.61422E-04 1.43296E-01 0.00000E+00
 -1        30-1.36724E-04 1.42661E-01 0.00000E+00
 -1        31 1.69812E-01-1.02502E-02-2.42842E-03
 -1        32-1.70062E-01-1.02492E-02-2.42418E-03
 -1        33 1.69319E-01 9.00455E-02 2.80272E-03
 -1        34-1.69570E-01 9.00027E-02 2.79921E-03
 -1        35-5.32225E-01 1.05352E-01 2.89956E-04
 -1        36-5.32214E-01-2.57686E-02-2.79431E-04
 -1        37-5.98969E-01 7.95648E-02 1.22609E-04
 -1        38-6.00000E-01 0.00000E+00 2.09627E-04
 -1        39-6.00000E-01 0.00000E+00-1.73675E-04
 -1        40-5.98930E-01 7.95212E-02-5.64641E-06
 -1        41 5.32103E-01-2.57868E-02-3.02336E-04
 -1        42 5.32109E-01 1.05396E-01 2.72946E-04
 -1        43 5.98882E-01 7.95718E-02-2.67864E-05
 -1        44 6.00000E-01 0.00000E+00-2.25511E-04
 -1        45 6.00000E-01 0.00000E+00 1.92472E-04
 -1        46 5.98912E-01 7.95993E-02 8.75993E-05
 -1        47-6.00000E-01 0.00000E+00 2.54138E-04
 -1        48-6.00000E-01 0.00000E+00-1.56747E-04
 -1        49-5.98956E-01 7.95263E-02 4.73782E-05
 -1        50-5.98965E-01 7.95392E-02-5.69938E-05
 -1        51-6.65597E-01 1.06080E-01 4.22178E-05
 -1        52-6.65583E-01-2.66171E-02 3.87166E-05
 -1        53-6.65579E-01-2.65731E-02 6.76625E-05
 -1        54-6.65589E-01 1.06103E-01 4.62269E-05
 -1        55 5.98909E-01 7.95973E-02-8.88023E-05
 -1        56 6.00000E-01 0.00000E+00-1.96300E-04
 -1        57 5.98886E-01 7.95733E-02 2.43626E-05
 -1        58 6.00000E-01 0.00000E+00 2.33946E-04
 -1        59 6.65570E-01 1.06173E-01-4.00955E-06
 -1        60 6.65581E-01 1.06138E-01 7.66487E-07
 -1        61 6.65569E-01-2.66247E-02 1.04629E-06
 -1        62 6.65565E-01-2.65716E-02-2.23460E-05
 -1        63 7.98334E-01-2.66161E-02 9.63337E-07
 -1        64 7.98329E-01-2.66093E-02 1.47114E-06
 -1        65 7.98330E-01 1.06148E-01 4.08713E-06
 -1        66 7.98333E-01 1.06145E-01 6.20570E-07
 -1        67-6.65582E-01 1.06128E-01 3.66456E-05
 -1        68-6.65577E-01-2.65479E-02 1.61748E-05
 -1        69-7.98282E-01 1.06087E-01 5.59061E-05
 -1        70-7.98274E-01 1.06104E-01 5.96867E-05
 -1        71-7.98273E-01-2.65854E-02 5.31078E-05
 -1        72-7.98283E-01-2.66073E-02 5.23729E-05
 -1        73-7.98281E-01-2.66132E-02 5.15127E-05
 -1        74-7.98282E-01 1.06077E-01 5.18065E-05
 -1        75 7.98329E-01 1.06148E-01-3.00845E-06
 -1        76 6.65570E-01 1.06173E-01 5.17537E-06
 -1        77 6.65563E-01-2.65705E-02 2.59325E-05
 -1        78 7.98328E-01-2.66087E-02 3.78351E-07
 -1        79-5.31644E-01 7.85163E-02 1.86259E-05
 -1        80-5.31603E-01 5.27074E-02 2.11561E-05
 -1        81-5.31599E-01 2.69290E-02 2.37736E-05
 -1        82-5.31635E-01 1.12457E-03 2.57856E-05
 -1        83-5.10110E-01-2.47604E-02 3.63836E-05
 -1        84-4.88494E-01-2.46239E-02 3.11225E-05
 -1        85-4.66756E-01 5.26125E-02 1.47851E-05
 -1        86-4.66815E-01 7.82384E-02 1.04197E-05
 -1        87-4.66812E-01 1.39683E-03 2.34527E-05
 -1        88-4.88499E-01 1.04260E-01 6.21997E-06
 -1        89-5.10118E-01 1.04400E-01 4.92309E-06
 -1        90-4.40981E-01 2.71205E-02 1.69645E-05
 -1        91-4.15432E-01 2.72437E-02 1.49505E-05
 -1        92-3.90157E-01 2.73906E-02 1.30729E-05
 -1        93-3.65201E-01 2.75599E-02 1.13248E-05
 -1        94-3.40605E-01 2.77501E-02 9.70205E-06
 -1        95-3.16411E-01 2.79602E-02 8.20319E-06
 -1        96-2.92660E-01 2.81888E-02 6.82913E-06
 -1        97-2.69392E-01 2.84344E-02 5.58199E-06
 -1        98-2.46648E-01 2.86958E-02 4.46056E-06
 -1        99-2.24462E-01 5.05831E-02 1.26928E-06
 -1       100-2.24638E-01 7.22362E-02-6.38900E-07
 -1       101-2.47153E-01 9.54906E-02 1.09262E-06
 -1       102-2.69864E-01 9.68577E-02 1.29654E-06
 -1       103-2.93096E-01 9.81214E-02 1.62674E-06
 -1       104-3.16811E-01 9.92819E-02 2.08559E-06
 -1       105-3.40969E-01 1.00339E-01 2.66963E-06
 -1       106-3.65529E-01 1.01292E-01 3.36891E-06
 -1       107-3.90449E-01 1.02138E-01 4.16359E-06
 -1       108-4.15687E-01 1.02874E-01 5.00957E-06
 -1       109-4.41198E-01 1.03492E-01 5.81286E-06
 -1       110-4.41197E-01-2.38563E-02 2.37474E-05
 -1       111-4.15687E-01-2.32389E-02 2.07631E-05
 -1       112-3.90450E-01-2.25028E-02 1.80836E-05
 -1       113-3.65530E-01-2.16562E-02 1.56006E-05
 -1       114-3.40971E-01-2.07035E-02 1.32681E-05
 -1       115-3.16814E-01-1.96476E-02 1.10707E-05
 -1       116-2.93099E-01-1.84903E-02 9.00736E-06
 -1       117-2.69869E-01-1.72330E-02 7.08492E-06
 -1       118-2.47165E-01-1.58777E-02 5.30788E-06
 -1       119-2.24661E-01 7.32792E-03 5.35015E-06
 -1       120-2.07058E-01-1.31456E-02 2.36305E-06
 -1       121-1.89543E-01-1.18133E-02 8.37166E-07
 -1       122-1.72084E-01 9.71394E-03 0.00000E+00
 -1       123-1.71801E-01 2.97984E-02 0.00000E+00
 -1       124-1.71692E-01 4.97737E-02 0.00000E+00
 -1       125-1.71811E-01 6.96997E-02 0.00000E+00
 -1       126-1.89393E-01 9.12862E-02 1.02921E-06
 -1       127-2.06986E-01 9.26990E-02 8.96543E-07
 -1       128-5.32086E-01 5.30063E-04 2.29770E-04
 -1       129-5.32034E-01 2.67528E-02 8.66414E-05
 -1       130-5.32041E-01 5.28996E-02-5.16665E-05
 -1       131-5.32100E-01 7.90610E-02-1.75178E-04
 -1       132-1.89297E-01-1.18537E-02 2.37745E-03
 -1       133-2.09192E-01-1.33999E-02 2.28674E-03
 -1       134-2.29682E-01-1.48578E-02 2.17874E-03
 -1       135-2.50717E-01-1.62184E-02 2.05947E-03
 -1       136-2.72250E-01-1.74826E-02 1.93144E-03
 -1       137-2.94243E-01-1.86536E-02 1.79731E-03
 -1       138-3.16661E-01-1.97339E-02 1.65835E-03
 -1       139-3.39469E-01-2.07250E-02 1.51508E-03
 -1       140-3.62635E-01-2.16285E-02 1.36744E-03
 -1       141-3.86125E-01-2.24462E-02 1.21502E-03
 -1       142-4.09908E-01-2.31813E-02 1.05741E-03
 -1       143-4.33952E-01-2.38385E-02 8.95030E-04
 -1       144-4.58229E-01-2.44250E-02 7.30401E-04
 -1       145-4.82711E-01-2.49495E-02 5.69321E-04
 -1       146-5.07376E-01-2.54126E-02 4.25257E-04
 -1       147-1.69177E-01 6.98725E-02-1.69556E-03
 -1       148-1.69108E-01 4.99655E-02-6.12047E-04
 -1       149-1.69263E-01 3.00219E-02 4.37913E-04
 -1       150-1.69584E-01 9.95192E-03 1.45634E-03
 -1       151-5.07392E-01 1.04986E-01-3.63950E-04
 -1       152-4.82723E-01 1.04542E-01-5.20694E-04
 -1       153-4.58235E-01 1.04026E-01-6.91512E-04
 -1       154-4.33955E-01 1.03443E-01-8.63160E-04
 -1       155-4.09909E-01 1.02787E-01-1.03098E-03
 -1       156-3.86126E-01 1.02052E-01-1.19350E-03
 -1       157-3.62636E-01 1.01233E-01-1.35127E-03
 -1       158-3.39471E-01 1.00328E-01-1.50563E-03
 -1       159-3.16663E-01 9.93364E-02-1.65805E-03
 -1       160-2.94246E-01 9.82574E-02-1.80992E-03
 -1       161-2.72249E-01 9.70924E-02-1.96262E-03
 -1       162-2.50705E-01 9.58436E-02-2.11779E-03
 -1       163-2.29640E-01 9.45133E-02-2.27752E-03
 -1       164-2.09078E-01 9.31020E-02-2.44652E-03
 -1       165-1.89038E-01 9.16046E-02-2.63036E-03
 -1       166-1.72129E-01 8.97646E-02-5.62476E-04
 -1       167-1.71818E-01 8.98334E-02-1.12562E-03
 -1       168-1.71293E-01 8.99308E-02-1.69101E-03
 -1       169-1.70543E-01 9.00217E-02-2.25896E-03
 -1       170-5.32251E-01 1.05335E-01-1.51810E-04
 -1       171-5.32240E-01 1.05228E-01-2.44378E-05
 -1       172-5.32117E-01 1.05001E-01 7.19609E-05
 -1       173-5.31909E-01 1.04696E-01 7.97359E-05
 -1       174-1.70928E-01-1.03300E-02 1.94265E-03
 -1       175-1.71622E-01-1.03870E-02 1.44251E-03
 -1       176-1.72114E-01-1.04258E-02 9.53588E-04
 -1       177-1.72408E-01-1.04487E-02 4.74258E-04
 -1       178-5.31903E-01-2.50735E-02-3.85468E-05
 -1       179-5.32120E-01-2.54115E-02-3.23346E-05
 -1       180-5.32253E-01-2.56692E-02 7.06232E-05
 -1       181-5.32264E-01-2.57880E-02 2.13516E-04
 -1       182 5.32018E-01 7.91141E-02-1.92392E-04
 -1       183 5.31959E-01 5.29421E-02-7.30706E-05
 -1       184 5.31950E-01 2.67835E-02 6.16573E-05
 -1       185 5.32003E-01 5.47322E-04 2.01882E-04
 -1       186 5.32177E-01-2.57852E-02 1.81915E-04
 -1       187 5.32162E-01-2.56680E-02 3.81828E-05
 -1       188 5.32025E-01-2.54101E-02-6.53626E-05
 -1       189 5.31801E-01-2.50696E-02-7.18021E-05
 -1       190 5.31527E-01 1.14104E-03-6.38519E-07
 -1       191 5.31492E-01 2.69501E-02 1.74682E-07
 -1       192 5.31495E-01 5.27314E-02 7.49858E-07
 -1       193 5.31535E-01 7.85460E-02 1.70891E-06
 -1       194 5.31806E-01 1.04741E-01 6.96215E-05
 -1       195 5.32021E-01 1.05053E-01 6.10792E-05
 -1       196 5.32150E-01 1.05285E-01-3.61058E-05
 -1       197 5.32166E-01 1.05395E-01-1.64065E-04
 -1       198 1.68932E-01 6.99112E-02-1.69755E-03
 -1       199 1.68864E-01 4.99954E-02-6.13736E-04
 -1       200 1.69019E-01 3.00433E-02 4.36513E-04
 -1       201 1.69340E-01 9.96443E-03 1.45535E-03
 -1       202 1.70686E-01-1.03283E-02 1.94215E-03
 -1       203 1.71381E-01-1.03858E-02 1.44191E-03
 -1       204 1.71874E-01-1.04249E-02 9.52909E-04
 -1       205 1.72169E-01-1.04480E-02 4.73659E-04
 -1       206 1.71845E-01 9.72409E-03 0.00000E+00
 -1       207 1.71561E-01 2.98169E-02 0.00000E+00
 -1       208 1.71452E-01 4.98007E-02 0.00000E+00
 -1       209 1.71571E-01 6.97353E-02 0.00000E+00
 -1       210 1.71888E-01 8.98119E-02-5.62662E-04
 -1       211 1.71576E-01 8.98815E-02-1.12638E-03
 -1       212 1.71051E-01 8.99795E-02-1.69241E-03
 -1       213 1.70300E-01 9.00709E-02-2.26094E-03
 -1       214 4.88376E-01 1.04301E-01-1.33659E-06
 -1       215 5.10000E-01 1.04439E-01-2.92580E-06
 -1       216 2.46943E-01 9.55362E-02 1.59850E-06
 -1       217 2.69662E-01 9.69034E-02 1.37350E-06
 -1       218 2.92903E-01 9.81672E-02 1.16015E-06
 -1       219 3.16627E-01 9.93277E-02 9.64116E-07
 -1       220 3.40794E-01 1.00385E-01 7.83121E-07
 -1       221 3.65363E-01 1.01337E-01 6.09508E-07
 -1       222 3.90293E-01 1.02184E-01 4.30545E-07
 -1       223 4.15540E-01 1.02919E-01 2.21345E-07
 -1       224 4.41059E-01 1.03536E-01-6.71985E-08
 -1       225 1.89159E-01 9.13318E-02 1.95487E-06
 -1       226 2.06760E-01 9.27444E-02 1.83576E-06
 -1       227 5.07300E-01 1.05049E-01-3.74026E-04
 -1       228 4.82621E-01 1.04603E-01-5.28840E-04
 -1       229 4.58122E-01 1.04085E-01-6.98174E-04
 -1       230 4.33832E-01 1.03501E-01-8.68652E-04
 -1       231 4.09776E-01 1.02844E-01-1.03550E-03
 -1       232 3.85982E-01 1.02108E-01-1.19719E-03
 -1       233 3.62483E-01 1.01288E-01-1.35422E-03
 -1       234 3.39308E-01 1.00383E-01-1.50794E-03
 -1       235 3.16491E-01 9.93903E-02-1.65982E-03
 -1       236 2.94063E-01 9.83106E-02-1.81128E-03
 -1       237 2.72057E-01 9.71449E-02-1.96371E-03
 -1       238 2.50502E-01 9.58955E-02-2.11877E-03
 -1       239 2.29427E-01 9.45645E-02-2.27856E-03
 -1       240 2.08855E-01 9.31526E-02-2.44782E-03
 -1       241 1.88805E-01 9.16545E-02-2.63215E-03
 -1       242 5.09993E-01-2.47539E-02 4.63546E-06
 -1       243 4.88370E-01-2.46195E-02 2.89458E-06
 -1       244 4.41058E-01-2.38547E-02 1.39698E-06
 -1       245 4.15540E-01-2.32379E-02 1.02344E-06
 -1       246 3.90293E-01-2.25022E-02 7.37240E-07
 -1       247 3.65365E-01-2.16557E-02 4.83607E-07
 -1       248 3.40797E-01-2.07031E-02 2.36933E-07
 -1       249 3.16630E-01-1.96472E-02-1.22616E-08
 -1       250 2.92907E-01-1.84898E-02-2.64945E-07
 -1       251 2.69667E-01-1.72325E-02-5.14789E-07
 -1       252 2.46954E-01-1.58770E-02-7.54138E-07
 -1       253 2.06832E-01-1.31445E-02-1.14299E-06
 -1       254 1.89310E-01-1.18122E-02-1.51518E-06
 -1       255 1.89063E-01-1.18512E-02 2.37601E-03
 -1       256 2.08968E-01-1.33971E-02 2.28389E-03
 -1       257 2.29469E-01-1.48545E-02 2.17434E-03
 -1       258 2.50513E-01-1.62146E-02 2.05343E-03
 -1       259 2.72056E-01-1.74783E-02 1.92367E-03
 -1       260 2.94059E-01-1.86488E-02 1.78774E-03
 -1       261 3.16487E-01-1.97285E-02 1.64688E-03
 -1       262 3.39305E-01-2.07191E-02 1.50161E-03
 -1       263 3.62481E-01-2.16221E-02 1.35186E-03
 -1       264 3.85981E-01-2.24394E-02 1.19720E-03
 -1       265 4.09774E-01-2.31741E-02 1.03723E-03
 -1       266 4.33828E-01-2.38311E-02 8.72424E-04
 -1       267 4.58114E-01-2.44177E-02 7.05361E-04
 -1       268 4.82607E-01-2.49425E-02 5.41977E-04
 -1       269 5.07282E-01-2.54066E-02 3.95885E-04
 -1       270 4.66685E-01 7.82732E-02-5.24581E-07
 -1       271 4.66626E-01 5.26394E-02 2.43500E-07
 -1       272 4.66682E-01 1.40790E-03 1.92741E-06
 -1       273 2.46437E-01 2.87143E-02 9.16164E-07
 -1       274 2.69190E-01 2.84529E-02 9.39306E-07
 -1       275 2.92467E-01 2.82073E-02 9.64631E-07
 -1       276 3.16227E-01 2.79787E-02 9.91074E-07
 -1       277 3.40430E-01 2.77687E-02 1.01662E-06
 -1       278 3.65035E-01 2.75784E-02 1.04048E-06
 -1       279 3.90001E-01 2.74092E-02 1.06302E-06
 -1       280 4.15284E-01 2.72623E-02 1.08461E-06
 -1       281 4.40842E-01 2.71393E-02 1.10597E-06
 -1       282 2.24418E-01 7.22728E-02-9.82473E-07
 -1       283 2.24243E-01 5.06106E-02-1.99393E-07
 -1       284 2.24442E-01 7.33751E-03 1.73148E-06
 -1       285 1.53020E-01 8.91605E-02-3.01312E-03
 -1       286 1.37335E-01 8.94073E-02-3.19846E-03
 -1       287 1.22352E-01 9.06965E-02-3.37644E-03
 -1       288 1.08158E-01 9.29186E-02-3.54710E-03
 -1       289 9.48266E-02 9.59483E-02-3.71088E-03
 -1       290 8.24179E-02 9.96514E-02-3.86777E-03
 -1       291 7.09756E-02 1.03888E-01-4.01733E-03
 -1       292 6.05265E-02 1.08514E-01-4.15890E-03
 -1       293 5.10794E-02 1.13386E-01-4.29178E-03
 -1       294 4.26243E-02 1.18360E-01-4.41525E-03
 -1       295 3.51332E-02 1.23298E-01-4.52863E-03
 -1       296 2.85598E-02 1.28065E-01-4.63124E-03
 -1       297 2.28411E-02 1.32538E-01-4.72246E-03
 -1       298 1.78983E-02 1.36601E-01-4.80171E-03
 -1       299 1.36378E-02 1.40151E-01-4.86848E-03
 -1       300 9.95383E-03 1.43101E-01-4.92230E-03
 -1       301 6.72963E-03 1.45377E-01-4.96280E-03
 -1       302 3.84003E-03 1.46924E-01-4.98967E-03
 -1       303 1.15373E-03 1.47705E-01-5.00265E-03
 -1       304-1.46409E-03 1.47699E-01-5.00155E-03
 -1       305-4.14949E-03 1.46909E-01-4.98676E-03
 -1       306-7.03803E-03 1.45353E-01-4.95863E-03
 -1       307-1.02613E-02 1.43071E-01-4.91721E-03
 -1       308-1.39446E-02 1.40116E-01-4.86274E-03
 -1       309-1.82043E-02 1.36562E-01-4.79551E-03
 -1       310-2.31464E-02 1.32496E-01-4.71596E-03
 -1       311-2.88640E-02 1.28021E-01-4.62456E-03
 -1       312-3.54359E-02 1.23252E-01-4.52186E-03
 -1       313-4.29252E-02 1.18313E-01-4.40847E-03
 -1       314-5.13779E-02 1.13339E-01-4.28505E-03
 -1       315-6.08221E-02 1.08467E-01-4.15230E-03
 -1       316-7.12675E-02 1.03841E-01-4.01091E-03
 -1       317-8.27054E-02 9.96048E-02-3.86162E-03
 -1       318-9.51090E-02 9.59020E-02-3.70507E-03
 -1       319-1.08434E-01 9.28724E-02-3.54171E-03
 -1       320-1.22622E-01 9.06502E-02-3.37157E-03
 -1       321-1.37597E-01 8.93605E-02-3.19420E-03
 -1       322-1.53273E-01 8.91129E-02-3.00960E-03
 -1       323-1.55688E-01 8.87122E-02 0.00000E+00
 -1       324-1.39746E-01 8.88127E-02 0.00000E+00
 -1       325-1.24517E-01 8.99634E-02 0.00000E+00
 -1       326-1.10093E-01 9.20544E-02 0.00000E+00
 -1       327-9.65513E-02 9.49583E-02 0.00000E+00
 -1       328-8.39522E-02 9.85370E-02 0.00000E+00
 -1       329-7.23398E-02 1.02646E-01 0.00000E+00
 -1       330-6.17388E-02 1.07135E-01 0.00000E+00
 -1       331-5.21545E-02 1.11856E-01 0.00000E+00
 -1       332-4.35720E-02 1.16660E-01 0.00000E+00
 -1       333-3.59570E-02 1.21404E-01 0.00000E+00
 -1       334-2.92562E-02 1.25951E-01 0.00000E+00
 -1       335-2.33987E-02 1.30173E-01 0.00000E+00
 -1       336-1.82971E-02 1.33956E-01 0.00000E+00
 -1       337-1.38494E-02 1.37197E-01 0.00000E+00
 -1       338-9.94063E-03 1.39810E-01 0.00000E+00
 -1       339-6.44588E-03 1.41728E-01 0.00000E+00
 -1       340-3.23213E-03 1.42899E-01 0.00000E+00
 -1       341 2.76087E-03 1.42944E-01 0.00000E+00
 -1       342 5.80289E-03 1.41890E-01 0.00000E+00
 -1       343 9.08496E-03 1.40159E-01 0.00000E+00
 -1       344 1.27225E-02 1.37791E-01 0.00000E+00
 -1       345 1.68245E-02 1.34843E-01 0.00000E+00
 -1       346 2.14918E-02 1.31384E-01 0.00000E+00
 -1       347 2.68151E-02 1.27500E-01 0.00000E+00
 -1       348 3.28737E-02 1.23284E-01 0.00000E+00
 -1       349 3.97341E-02 1.18843E-01 0.00000E+00
 -1       350 4.74485E-02 1.14291E-01 0.00000E+00
 -1       351 5.60542E-02 1.09747E-01 0.00000E+00
 -1       352 6.55727E-02 1.05339E-01 0.00000E+00
 -1       353 7.60096E-02 1.01193E-01 0.00000E+00
 -1       354 8.73540E-02 9.74388E-02 0.00000E+00
 -1       355 9.95794E-02 9.42021E-02 0.00000E+00
 -1       356 1.12644E-01 9.16063E-02 0.00000E+00
 -1       357 1.26492E-01 8.97684E-02 0.00000E+00
 -1       358 1.41055E-01 8.87956E-02 0.00000E+00
 -1       359 1.56253E-01 8.87801E-02 0.00000E+00
 -1       360-1.46169E-01-7.20750E-03 2.53559E-03
 -1       361-1.23515E-01-2.29068E-03 2.62005E-03
 -1       362-1.02263E-01 4.34695E-03 2.71211E-03
 -1       363-8.25950E-02 1.25009E-02 2.80901E-03
 -1       364-6.46632E-02 2.19381E-02 2.90820E-03
 -1       365-4.85843E-02 3.24077E-02 3.00756E-03
 -1       366-3.44401E-02 4.36468E-02 3.10536E-03
 -1       367-2.22772E-02 5.53856E-02 3.20012E-03
 -1       368-1.21067E-02 6.73514E-02 3.29057E-03
 -1       369-3.90397E-03 7.92733E-02 3.37563E-03
 -1       370 2.39058E-03 9.08862E-02 3.45441E-03
 -1       371 6.87082E-03 1.01936E-01 3.52613E-03
 -1       372 9.66345E-03 1.12183E-01 3.59019E-03
 -1       373 1.09256E-02 1.21409E-01 3.64609E-03
 -1       374 1.08422E-02 1.29415E-01 3.69343E-03
 -1       375 9.62259E-03 1.36034E-01 3.73192E-03
 -1       376 7.49684E-03 1.41125E-01 3.76131E-03
 -1       377 4.71168E-03 1.44582E-01 3.78150E-03
 -1       378 1.52555E-03 1.46333E-01 3.79193E-03
 -1       379-1.79675E-03 1.46341E-01 3.79210E-03
 -1       380-4.98610E-03 1.44601E-01 3.78284E-03
 -1       381-7.77536E-03 1.41153E-01 3.76388E-03
 -1       382-9.90557E-03 1.36069E-01 3.73536E-03
 -1       383-1.11298E-02 1.29455E-01 3.69748E-03
 -1       384-1.12177E-02 1.21452E-01 3.65053E-03
 -1       385-9.95956E-03 1.12228E-01 3.59486E-03
 -1       386-7.17034E-03 1.01981E-01 3.53092E-03
 -1       387-2.69267E-03 9.09299E-02 3.45924E-03
 -1       388 3.60030E-03 7.93146E-02 3.38045E-03
 -1       389 1.18026E-02 6.73894E-02 3.29534E-03
 -1       390 2.19739E-02 5.54195E-02 3.20480E-03
 -1       391 3.41390E-02 4.36761E-02 3.10992E-03
 -1       392 4.82868E-02 3.24322E-02 3.01195E-03
 -1       393 6.43707E-02 2.19577E-02 2.91233E-03
 -1       394 8.23091E-02 1.25157E-02 2.81276E-03
 -1       395 1.01985E-01 4.35744E-03 2.71528E-03
 -1       396 1.23247E-01-2.28385E-03 2.62234E-03
 -1       397 1.45911E-01-7.20350E-03 2.53656E-03
 -1       398 2.91485E-03 1.41757E-01 0.00000E+00
 -1       399 5.68285E-03 1.39067E-01 0.00000E+00
 -1       400 7.88646E-03 1.34651E-01 0.00000E+00
 -1       401 9.25698E-03 1.28608E-01 0.00000E+00
 -1       402 9.54209E-03 1.21072E-01 0.00000E+00
 -1       403 8.51025E-03 1.12213E-01 0.00000E+00
 -1       404 5.95501E-03 1.02229E-01 0.00000E+00
 -1       405 1.69902E-03 9.13453E-02 0.00000E+00
 -1       406-4.40272E-03 7.98117E-02 0.00000E+00
 -1       407-1.24602E-02 6.78940E-02 0.00000E+00
 -1       408-2.25466E-02 5.58718E-02 0.00000E+00
 -1       409-3.46970E-02 4.40318E-02 0.00000E+00
 -1       410-4.89077E-02 3.26636E-02 0.00000E+00
 -1       411-6.51369E-02 2.20541E-02 0.00000E+00
 -1       412-8.33046E-02 1.24825E-02 0.00000E+00
 -1       413-1.03294E-01 4.21528E-03 0.00000E+00
 -1       414-1.24951E-01-2.50025E-03 0.00000E+00
 -1       415-1.48089E-01-7.44619E-03 0.00000E+00
 -1       416 1.49036E-01-7.64188E-03 0.00000E+00
 -1       417 1.26948E-01-3.07446E-03 0.00000E+00
 -1       418 1.06179E-01 3.10859E-03 0.00000E+00
 -1       419 8.68931E-02 1.07242E-02 0.00000E+00
 -1       420 6.92270E-02 1.95637E-02 0.00000E+00
 -1       421 5.32885E-02 2.94015E-02 0.00000E+00
 -1       422 3.91548E-02 4.00006E-02 0.00000E+00
 -1       423 2.68726E-02 5.11164E-02 0.00000E+00
 -1       424 1.64573E-02 6.25009E-02 0.00000E+00
 -1       425 7.89284E-03 7.39063E-02 0.00000E+00
 -1       426 1.13180E-03 8.50893E-02 0.00000E+00
 -1       427-3.90378E-03 9.58150E-02 0.00000E+00
 -1       428-7.32142E-03 1.05861E-01 0.00000E+00
 -1       429-9.25625E-03 1.15020E-01 0.00000E+00
 -1       430-9.86903E-03 1.23107E-01 0.00000E+00
 -1       431-9.34327E-03 1.29956E-01 0.00000E+00
 -1       432-7.88219E-03 1.35430E-01 0.00000E+00
 -1       433-5.70525E-03 1.39420E-01 0.00000E+00
 -1       434-3.04414E-03 1.41845E-01 0.00000E+00
 -1       435-1.42415E-04 1.43350E-01 0.00000E+00
 -1       436-1.45824E-04 1.43888E-01 0.00000E+00
 -1       437-1.49391E-04 1.44173E-01 0.00000E+00
 -1       438-1.53108E-04 1.44055E-01 0.00000E+00
 -1       439 1.72116E-01-1.04438E-02-5.88751E-04
 -1       440 1.71658E-01-1.04077E-02-1.18750E-03
 -1       441 1.70888E-01-1.03454E-02-1.80215E-03
 -1       442 1.45932E-01-7.20561E-03-2.51441E-03
 -1       443 1.23268E-01-2.28814E-03-2.59975E-03
 -1       444 1.02007E-01 4.35083E-03-2.69157E-03
 -1       445 8.23315E-02 1.25068E-02-2.78782E-03
 -1       446 6.43933E-02 2.19466E-02-2.88620E-03
 -1       447 4.83093E-02 3.24188E-02-2.98473E-03
 -1       448 3.41612E-02 4.36606E-02-3.08169E-03
 -1       449 2.19955E-02 5.54018E-02-3.17565E-03
 -1       450 1.18233E-02 6.73696E-02-3.26532E-03
 -1       451 3.61998E-03 7.92928E-02-3.34966E-03
 -1       452-2.67427E-03 9.09061E-02-3.42773E-03
 -1       453-7.15344E-03 1.01955E-01-3.49878E-03
 -1       454-9.94434E-03 1.12201E-01-3.56218E-03
 -1       455-1.12043E-02 1.21423E-01-3.61739E-03
 -1       456-1.11185E-02 1.29425E-01-3.66397E-03
 -1       457-9.89639E-03 1.36038E-01-3.70155E-03
 -1       458-7.76845E-03 1.41122E-01-3.72985E-03
 -1       459-4.98156E-03 1.44569E-01-3.74865E-03
 -1       460-1.79466E-03 1.46307E-01-3.75775E-03
 -1       461 1.52508E-03 1.46300E-01-3.75739E-03
 -1       462 4.70867E-03 1.44549E-01-3.74672E-03
 -1       463 7.49119E-03 1.41092E-01-3.72643E-03
 -1       464 9.61433E-03 1.36001E-01-3.69711E-03
 -1       465 1.08314E-02 1.29383E-01-3.65885E-03
 -1       466 1.09125E-02 1.21378E-01-3.61187E-03
 -1       467 9.64812E-03 1.12154E-01-3.55645E-03
 -1       468 6.85352E-03 1.01908E-01-3.49297E-03
 -1       469 2.37154E-03 9.08606E-02-3.42192E-03
 -1       470-3.92448E-03 7.92500E-02-3.34391E-03
 -1       471-1.21284E-02 6.73305E-02-3.25969E-03
 -1       472-2.22998E-02 5.53671E-02-3.17015E-03
 -1       473-3.44635E-02 4.36309E-02-3.07635E-03
 -1       474-4.86081E-02 3.23943E-02-2.97956E-03
 -1       475-6.46872E-02 2.19274E-02-2.88123E-03
 -1       476-8.26191E-02 1.24928E-02-2.78305E-03
 -1       477-1.02287E-01 4.34160E-03-2.68704E-03
 -1       478-1.23539E-01-2.29315E-03-2.59546E-03
 -1       479-1.46194E-01-7.20705E-03-2.51039E-03
 -1       480-1.71135E-01-1.03447E-02-1.79840E-03
 -1       481-1.71901E-01-1.04073E-02-1.18442E-03
 -1       482-1.72356E-01-1.04437E-02-5.86756E-04
 -1       483 1.70521E-01 9.00568E-02 2.10283E-03
 -1       484 1.71347E-01 8.99296E-02 1.39936E-03
 -1       485 1.71832E-01 8.98262E-02 6.98861E-04
 -1       486-1.53306E-01 8.91233E-02 2.97843E-03
 -1       487-1.37631E-01 8.93670E-02 3.16062E-03
 -1       488-1.22656E-01 9.06525E-02 3.33628E-03
 -1       489-1.08469E-01 9.28705E-02 3.50499E-03
 -1       490-9.51433E-02 9.58960E-02 3.66697E-03
 -1       491-8.27395E-02 9.95949E-02 3.82213E-03
 -1       492-7.13011E-02 1.03827E-01 3.97003E-03
 -1       493-6.08549E-02 1.08449E-01 4.11004E-03
 -1       494-5.14097E-02 1.13317E-01 4.24148E-03
 -1       495-4.29555E-02 1.18288E-01 4.36366E-03
 -1       496-3.54643E-02 1.23223E-01 4.47591E-03
 -1       497-2.88901E-02 1.27989E-01 4.57759E-03
 -1       498-2.31698E-02 1.32461E-01 4.66810E-03
 -1       499-1.82248E-02 1.36525E-01 4.74691E-03
 -1       500-1.39618E-02 1.40077E-01 4.81352E-03
 -1       501-1.02751E-02 1.43030E-01 4.86755E-03
 -1       502-7.04809E-03 1.45311E-01 4.90867E-03
 -1       503-4.15577E-03 1.46866E-01 4.93667E-03
 -1       504-1.46652E-03 1.47656E-01 4.95141E-03
 -1       505 1.15528E-03 1.47662E-01 4.95254E-03
 -1       506 3.84552E-03 1.46883E-01 4.93972E-03
 -1       507 6.73894E-03 1.45336E-01 4.91312E-03
 -1       508 9.96678E-03 1.43062E-01 4.87298E-03
 -1       509 1.36542E-02 1.40114E-01 4.81965E-03
 -1       510 1.79178E-02 1.36566E-01 4.75349E-03
 -1       511 2.28635E-02 1.32505E-01 4.67496E-03
 -1       512 2.85847E-02 1.28036E-01 4.58458E-03
 -1       513 3.51602E-02 1.23271E-01 4.48294E-03
 -1       514 4.26531E-02 1.18336E-01 4.37064E-03
 -1       515 5.11095E-02 1.13365E-01 4.24834E-03
 -1       516 6.05575E-02 1.08497E-01 4.11674E-03
 -1       517 7.10071E-02 1.03874E-01 3.97652E-03
 -1       518 8.24496E-02 9.96414E-02 3.82838E-03
 -1       519 9.48582E-02 9.59415E-02 3.67293E-03
 -1       520 1.08189E-01 9.29150E-02 3.51062E-03
 -1       521 1.22382E-01 9.06962E-02 3.34154E-03
 -1       522 1.37364E-01 8.94101E-02 3.16546E-03
 -1       523 1.53047E-01 8.91662E-02 2.98274E-03
 -1       524-1.72075E-01 8.97805E-02 6.97135E-04
 -1       525-1.71592E-01 8.98850E-02 1.39656E-03
 -1       526-1.70769E-01 9.00129E-02 2.09947E-03
 -1       527-1.69203E-01 6.98817E-02 1.68763E-03
 -1       528-1.69132E-01 4.99719E-02 6.10971E-04
 -1       529-1.69287E-01 3.00272E-02-4.33104E-04
 -1       530-1.69608E-01 9.95612E-03-1.44480E-03
 -1       531 1.69358E-01 9.96427E-03-1.44744E-03
 -1       532 1.69036E-01 3.00439E-02-4.34277E-04
 -1       533 1.68882E-01 4.99969E-02 6.11172E-04
 -1       534 1.68952E-01 6.99151E-02 1.68930E-03
 -1       535-1.89067E-01 9.16194E-02 2.60638E-03
 -1       536-2.09108E-01 9.31176E-02 2.42498E-03
 -1       537-2.29671E-01 9.45298E-02 2.25757E-03
 -1       538-2.50738E-01 9.58612E-02 2.09914E-03
 -1       539-2.72285E-01 9.71109E-02 1.94549E-03
 -1       540-2.94282E-01 9.82770E-02 1.79468E-03
 -1       541-3.16702E-01 9.93571E-02 1.64505E-03
 -1       542-3.39511E-01 1.00350E-01 1.49518E-03
 -1       543-3.62677E-01 1.01256E-01 1.34365E-03
 -1       544-3.86168E-01 1.02076E-01 1.18895E-03
 -1       545-4.09952E-01 1.02812E-01 1.02974E-03
 -1       546-4.33999E-01 1.03470E-01 8.65539E-04
 -1       547-4.58280E-01 1.04054E-01 6.98105E-04
 -1       548-4.82769E-01 1.04570E-01 5.32359E-04
 -1       549-5.07437E-01 1.05013E-01 3.82020E-04
 -1       550-5.32145E-01 7.90839E-02 2.07858E-04
 -1       551-5.32089E-01 5.29250E-02 9.38735E-05
 -1       552-5.32079E-01 2.67809E-02-3.49402E-05
 -1       553-5.32127E-01 5.54971E-04-1.72067E-04
 -1       554-5.07415E-01-2.53961E-02-3.63362E-04
 -1       555-4.82753E-01-2.49353E-02-5.08165E-04
 -1       556-4.58271E-01-2.44127E-02-6.71362E-04
 -1       557-4.33994E-01-2.38272E-02-8.38802E-04
 -1       558-4.09949E-01-2.31709E-02-1.00434E-03
 -1       559-3.86165E-01-2.24368E-02-1.16509E-03
 -1       560-3.62674E-01-2.16200E-02-1.32051E-03
 -1       561-3.39507E-01-2.07175E-02-1.47098E-03
 -1       562-3.16698E-01-1.97274E-02-1.61689E-03
 -1       563-2.94279E-01-1.86482E-02-1.75829E-03
 -1       564-2.72284E-01-1.74780E-02-1.89465E-03
 -1       565-2.50749E-01-1.62146E-02-2.02472E-03
 -1       566-2.29713E-01-1.48544E-02-2.14575E-03
 -1       567-2.09221E-01-1.33966E-02-2.25516E-03
 -1       568-1.89325E-01-1.18504E-02-2.34752E-03
 -1       569-5.32302E-01-2.57606E-02-1.14615E-04
 -1       570-5.32226E-01-2.55590E-02 5.31930E-05
 -1       571-5.31985E-01-2.51749E-02 1.17042E-04
 -1       572-5.31989E-01 1.04796E-01-6.61574E-05
 -1       573-5.32220E-01 1.05147E-01-4.13577E-06
 -1       574-5.32290E-01 1.05337E-01 1.45315E-04
 -1       575-5.98982E-01 6.36063E-02 1.14948E-04
 -1       576-5.99052E-01 4.77270E-02 1.13997E-04
 -1       577-5.99197E-01 3.18639E-02 1.26100E-04
 -1       578-5.99476E-01 1.59854E-02 1.79265E-04
 -1       579-6.00000E-01 0.00000E+00 6.70558E-05
 -1       580-6.00000E-01 0.00000E+00 4.61200E-08
 -1       581-6.00000E-01 0.00000E+00-6.55810E-05
 -1       582-5.99436E-01 1.59922E-02-1.24210E-04
 -1       583-5.99157E-01 3.18590E-02-5.52978E-05
 -1       584-5.99005E-01 4.77110E-02-1.65797E-05
 -1       585-5.98931E-01 6.35753E-02 1.24970E-06
 -1       586-5.98948E-01 7.95607E-02 4.27334E-05
 -1       587-5.98967E-01 7.95758E-02 6.77336E-05
 -1       588-5.98974E-01 7.95822E-02 9.39853E-05
 -1       589-5.41297E-01 1.01134E-01-9.87586E-06
 -1       590-5.66129E-01 9.19217E-02-3.35324E-05
 -1       591-5.76581E-01 8.82647E-02 1.93752E-04
 -1       592-5.54325E-01 9.68286E-02 2.41009E-04
 -1       593-5.66147E-01-1.23629E-02 9.87388E-05
 -1       594-5.41305E-01-2.15167E-02 5.96255E-05
 -1       595-5.54360E-01-1.72721E-02-2.31937E-04
 -1       596-5.76755E-01-8.72052E-03-1.32132E-04
 -1       597 5.32012E-01 5.44527E-04-1.96216E-04
 -1       598 5.31959E-01 2.67824E-02-5.89258E-05
 -1       599 5.31968E-01 5.29431E-02 7.32995E-05
 -1       600 5.32026E-01 7.91172E-02 1.89883E-04
 -1       601 5.07308E-01 1.05054E-01 3.65782E-04
 -1       602 4.82630E-01 1.04608E-01 5.18882E-04
 -1       603 4.58133E-01 1.04090E-01 6.87250E-04
 -1       604 4.33844E-01 1.03506E-01 8.56977E-04
 -1       605 4.09789E-01 1.02848E-01 1.02310E-03
 -1       606 3.85997E-01 1.02112E-01 1.18389E-03
 -1       607 3.62498E-01 1.01293E-01 1.33992E-03
 -1       608 3.39325E-01 1.00388E-01 1.49257E-03
 -1       609 3.16508E-01 9.93952E-02 1.64341E-03
 -1       610 2.94081E-01 9.83157E-02 1.79390E-03
 -1       611 2.72075E-01 9.71503E-02 1.94549E-03
 -1       612 2.50522E-01 9.59012E-02 2.09987E-03
 -1       613 2.29446E-01 9.45705E-02 2.25899E-03
 -1       614 2.08875E-01 9.31592E-02 2.42709E-03
 -1       615 1.88826E-01 9.16617E-02 2.60919E-03
 -1       616 1.89085E-01-1.18524E-02-2.35239E-03
 -1       617 2.08989E-01-1.33991E-02-2.26069E-03
 -1       618 2.29489E-01-1.48574E-02-2.15216E-03
 -1       619 2.50533E-01-1.62180E-02-2.03221E-03
 -1       620 2.72076E-01-1.74819E-02-1.90340E-03
 -1       621 2.94078E-01-1.86526E-02-1.76844E-03
 -1       622 3.16505E-01-1.97323E-02-1.62856E-03
 -1       623 3.39322E-01-2.07229E-02-1.48428E-03
 -1       624 3.62496E-01-2.16259E-02-1.33549E-03
 -1       625 3.85995E-01-2.24433E-02-1.18174E-03
 -1       626 4.09787E-01-2.31780E-02-1.02257E-03
 -1       627 4.33840E-01-2.38352E-02-8.58393E-04
 -1       628 4.58125E-01-2.44221E-02-6.91946E-04
 -1       629 4.82616E-01-2.49472E-02-5.29231E-04
 -1       630 5.07290E-01-2.54112E-02-3.84278E-04
 -1       631 5.31863E-01-2.51608E-02 8.37183E-05
 -1       632 5.32109E-01-2.55556E-02 3.04029E-05
 -1       633 5.32189E-01-2.57721E-02-1.35371E-04
 -1       634 5.32175E-01 1.05382E-01 1.25273E-04
 -1       635 5.32100E-01 1.05184E-01-2.50500E-05
 -1       636 5.31865E-01 1.04824E-01-7.76251E-05
 -1       637 5.98887E-01 6.36092E-02-2.35304E-05
 -1       638 5.98961E-01 4.77329E-02-4.42889E-05
 -1       639 5.99114E-01 3.18703E-02-8.57712E-05
 -1       640 5.99405E-01 1.59938E-02-1.64246E-04
 -1       641 6.00000E-01 0.00000E+00-9.56648E-05
 -1       642 6.00000E-01 0.00000E+00-2.80060E-05
 -1       643 6.00000E-01 0.00000E+00 3.82632E-05
 -1       644 5.99423E-01 1.59818E-02 1.49421E-04
 -1       645 5.99137E-01 3.18679E-02 9.12168E-05
 -1       646 5.98993E-01 4.77391E-02 8.02488E-05
 -1       647 5.98925E-01 6.36270E-02 8.11267E-05
 -1       648 5.98916E-01 7.96201E-02 6.14288E-05
 -1       649 5.98910E-01 7.96159E-02 3.62187E-05
 -1       650 5.98892E-01 7.96036E-02 1.31080E-05
 -1       651 5.48679E-01 9.90058E-02 2.34767E-04
 -1       652 5.65342E-01 9.26048E-02 2.01826E-04
 -1       653 5.82092E-01 8.61470E-02 1.56571E-04
 -1       654 5.73809E-01 8.90683E-02-6.76844E-05
 -1       655 5.52115E-01 9.71304E-02-3.69679E-05
 -1       656 5.37111E-01 1.02637E-01-2.60003E-05
 -1       657 5.82371E-01-6.58397E-03-1.07997E-04
 -1       658 5.65436E-01-1.30409E-02-2.28793E-04
 -1       659 5.48699E-01-1.94165E-02-2.69601E-04
 -1       660 5.37107E-01-2.29665E-02 2.83529E-05
 -1       661 5.52143E-01-1.74946E-02 4.58579E-05
 -1       662 5.73904E-01-9.48965E-03 7.44395E-05
 -1       663-5.37206E-01-2.29672E-02 5.64536E-06
 -1       664-5.52231E-01-1.74950E-02-9.47021E-06
 -1       665-5.73982E-01-9.49358E-03-3.49851E-05
 -1       666-6.00000E-01 0.00000E+00 1.50841E-04
 -1       667-6.00000E-01 0.00000E+00 8.81970E-05
 -1       668-6.00000E-01 0.00000E+00 4.02732E-05
 -1       669-6.00000E-01 0.00000E+00-2.53513E-05
 -1       670-5.82422E-01-6.58660E-03 1.44238E-04
 -1       671-5.65495E-01-1.30465E-02 2.67910E-04
 -1       672-5.48767E-01-1.94209E-02 3.08756E-04
 -1       673-5.73890E-01 8.90219E-02 8.46500E-05
 -1       674-5.52205E-01 9.70801E-02 5.18557E-05
 -1       675-5.37211E-01 1.02589E-01 3.94960E-05
 -1       676-5.98971E-01 7.95623E-02-3.77721E-05
 -1       677-5.98971E-01 7.95638E-02-1.78952E-05
 -1       678-5.98965E-01 7.95592E-02 9.94305E-07
 -1       679-5.98955E-01 7.95485E-02 1.84283E-05
 -1       680-5.48747E-01 9.89414E-02-2.22769E-04
 -1       681-5.65403E-01 9.25432E-02-1.86064E-04
 -1       682-5.82149E-01 8.60864E-02-1.35101E-04
 -1       683-5.99475E-01 1.59551E-02-1.18885E-04
 -1       684-5.99194E-01 3.18326E-02-6.26724E-05
 -1       685-5.99047E-01 4.76959E-02-5.02397E-05
 -1       686-5.98979E-01 6.35764E-02-5.06503E-05
 -1       687-5.98966E-01 6.35746E-02 5.07869E-05
 -1       688-5.99039E-01 4.77009E-02 7.64302E-05
 -1       689-5.99189E-01 3.18406E-02 1.22163E-04
 -1       690-5.99460E-01 1.59691E-02 1.98095E-04
 -1       691-6.65596E-01 7.95449E-02 4.11774E-05
 -1       692-6.65593E-01 5.30073E-02 4.01754E-05
 -1       693-6.65589E-01 2.64697E-02 3.93002E-05
 -1       694-6.65587E-01-7.20973E-05 3.91289E-05
 -1       695-6.56157E-01-2.28251E-02 3.86584E-05
 -1       696-6.31495E-01-1.29485E-02 3.78370E-05
 -1       697-6.31480E-01 9.24980E-02 1.84722E-05
 -1       698-6.56149E-01 1.02319E-01 3.52741E-05
 -1       699-6.65575E-01-6.52437E-05 5.10425E-05
 -1       700-6.65580E-01 2.64351E-02 3.46459E-05
 -1       701-6.65591E-01 5.29730E-02 3.11753E-05
 -1       702-6.65592E-01 7.95404E-02 3.76570E-05
 -1       703-6.21441E-01-8.85452E-03 5.01180E-05
 -1       704-6.43485E-01-1.77072E-02 7.54054E-05
 -1       705-6.43452E-01 9.72671E-02 4.24301E-05
 -1       706-6.21270E-01 8.84287E-02 1.88844E-05
 -1       707-6.65583E-01 1.06108E-01 4.00286E-05
 -1       708-6.65584E-01 1.06109E-01 3.47256E-05
 -1       709-6.65590E-01 1.06102E-01 3.35699E-05
 -1       710-6.65594E-01 1.06090E-01 3.67917E-05
 -1       711-6.65588E-01-2.66072E-02 3.79299E-05
 -1       712-6.65591E-01-2.65937E-02 3.87416E-05
 -1       713-6.65595E-01-2.65785E-02 4.58411E-05
 -1       714-6.65592E-01-2.65748E-02 5.71531E-05
 -1       715 5.48673E-01 9.90031E-02-2.38714E-04
 -1       716 5.65336E-01 9.26033E-02-2.05880E-04
 -1       717 5.82088E-01 8.61453E-02-1.59649E-04
 -1       718 5.98922E-01 6.36255E-02-8.09259E-05
 -1       719 5.98991E-01 4.77386E-02-7.90156E-05
 -1       720 5.99136E-01 3.18682E-02-8.90956E-05
 -1       721 5.99423E-01 1.59835E-02-1.48547E-04
 -1       722 5.82365E-01-6.57905E-03 1.14890E-04
 -1       723 5.65428E-01-1.30395E-02 2.37836E-04
 -1       724 5.48691E-01-1.94147E-02 2.78090E-04
 -1       725 5.73813E-01 8.90692E-02 6.46000E-05
 -1       726 5.52117E-01 9.71283E-02 3.59285E-05
 -1       727 5.37111E-01 1.02634E-01 2.75051E-05
 -1       728 5.99407E-01 1.59925E-02 1.69976E-04
 -1       729 5.99120E-01 3.18696E-02 8.92362E-05
 -1       730 5.98967E-01 4.77338E-02 4.55255E-05
 -1       731 5.98893E-01 6.36112E-02 2.28183E-05
 -1       732 5.37106E-01-2.29622E-02-2.68944E-05
 -1       733 5.52144E-01-1.74906E-02-4.19589E-05
 -1       734 5.73906E-01-9.48767E-03-6.95896E-05
 -1       735 6.00000E-01 0.00000E+00-5.67845E-05
 -1       736 6.00000E-01 0.00000E+00 8.75036E-06
 -1       737 6.00000E-01 0.00000E+00 5.56301E-05
 -1       738 6.00000E-01 0.00000E+00 1.20840E-04
 -1       739 5.98892E-01 7.95998E-02-8.73293E-06
 -1       740 5.98905E-01 7.96120E-02-2.75569E-05
 -1       741 5.98914E-01 7.96181E-02-4.70411E-05
 -1       742 5.98915E-01 7.96184E-02-6.76919E-05
 -1       743 6.65564E-01 1.06175E-01 3.29695E-06
 -1       744 6.65569E-01 1.06169E-01 8.31863E-06
 -1       745 6.65575E-01 1.06154E-01 6.36720E-06
 -1       746 6.60173E-01 1.03989E-01 4.30980E-06
 -1       747 6.45243E-01 9.80386E-02 1.10832E-05
 -1       748 6.23753E-01 8.94956E-02 2.10819E-05
 -1       749 6.15668E-01 8.62788E-02 2.43070E-05
 -1       750 6.32336E-01 9.29153E-02 2.40253E-07
 -1       751 6.48962E-01 9.95433E-02-4.52007E-06
 -1       752 6.65573E-01-2.66088E-02 1.14779E-06
 -1       753 6.65578E-01-2.65890E-02-7.60234E-07
 -1       754 6.65578E-01-2.65757E-02-1.03938E-05
 -1       755 6.23846E-01-9.87083E-03-1.27751E-05
 -1       756 6.45272E-01-1.84666E-02 4.70911E-07
 -1       757 6.60170E-01-2.44513E-02-5.43636E-07
 -1       758 6.48982E-01-1.99204E-02-2.83343E-05
 -1       759 6.32430E-01-1.32645E-02-2.74096E-05
 -1       760 6.15943E-01-6.62604E-03 2.05450E-05
 -1       761 6.65560E-01-4.86962E-05-7.25777E-06
 -1       762 6.65564E-01 2.64674E-02 6.91918E-06
 -1       763 6.65573E-01 5.30190E-02 1.00416E-05
 -1       764 6.65574E-01 7.95989E-02 3.64073E-06
 -1       765 6.65580E-01 7.95895E-02 5.89168E-07
 -1       766 6.65577E-01 5.30391E-02 6.02216E-07
 -1       767 6.65575E-01 2.64876E-02 7.15462E-07
 -1       768 6.65572E-01-6.77771E-05 8.78268E-07
 -1       769 7.98334E-01-6.34224E-05 9.00823E-07
 -1       770 7.98334E-01 2.64890E-02 8.30089E-07
 -1       771 7.98334E-01 5.30413E-02 7.62011E-07
 -1       772 7.98334E-01 7.95933E-02 6.94032E-07
 -1       773 7.98331E-01-2.66115E-02 1.47177E-06
 -1       774 7.98333E-01-2.66137E-02 1.43318E-06
 -1       775 7.98334E-01-2.66154E-02 1.27990E-06
 -1       776 7.98330E-01 7.95971E-02 3.57154E-06
 -1       777 7.98330E-01 5.30458E-02 3.25862E-06
 -1       778 7.98330E-01 2.64946E-02 2.97031E-06
 -1       779 7.98329E-01-5.69571E-05 2.42054E-06
 -1       780 7.98333E-01 1.06145E-01 2.35023E-06
 -1       781 7.98332E-01 1.06146E-01 3.52795E-06
 -1       782 7.98331E-01 1.06147E-01 4.00695E-06
 -1       783 6.92129E-01 1.06159E-01-2.08451E-06
 -1       784 7.18680E-01 1.06151E-01-9.36725E-08
 -1       785 7.45229E-01 1.06149E-01 1.72702E-06
 -1       786 7.71779E-01 1.06148E-01 3.04658E-06
 -1       787 7.71782E-01 1.06145E-01 6.15828E-07
 -1       788 7.45231E-01 1.06144E-01 6.58958E-07
 -1       789 7.18681E-01 1.06144E-01 7.23340E-07
 -1       790 6.92130E-01 1.06143E-01 8.19590E-07
 -1       791 7.71777E-01-2.66091E-02-4.09664E-07
 -1       792 7.45223E-01-2.66079E-02-2.82032E-06
 -1       793 7.18667E-01-2.66036E-02-6.70809E-06
 -1       794 6.92112E-01-2.65928E-02-1.28508E-05
 -1       795 6.92124E-01-2.66186E-02 1.16311E-06
 -1       796 7.18676E-01-2.66168E-02 1.07384E-06
 -1       797 7.45229E-01-2.66163E-02 1.01845E-06
 -1       798 7.71782E-01-2.66162E-02 9.78988E-07
 -1       799-6.65589E-01 1.06098E-01 4.74844E-05
 -1       800-6.65582E-01 1.06117E-01 4.88830E-05
 -1       801-6.65577E-01 1.06126E-01 4.36870E-05
 -1       802-6.65585E-01 7.95679E-02 4.35178E-05
 -1       803-6.65584E-01 5.30031E-02 4.90548E-05
 -1       804-6.65576E-01 2.64658E-02 4.53495E-05
 -1       805-6.65572E-01-3.76569E-05 3.11504E-05
 -1       806-6.65591E-01-2.65558E-02 2.78068E-05
 -1       807-6.65590E-01-2.65731E-02 3.70046E-05
 -1       808-6.65587E-01-2.65966E-02 3.87426E-05
 -1       809-7.98282E-01 7.95488E-02 5.51124E-05
 -1       810-7.98282E-01 5.30102E-02 5.44313E-05
 -1       811-7.98282E-01 2.64712E-02 5.37988E-05
 -1       812-7.98283E-01-6.79008E-05 5.31526E-05
 -1       813-7.98276E-01 1.06100E-01 5.95984E-05
 -1       814-7.98278E-01 1.06095E-01 5.90786E-05
 -1       815-7.98280E-01 1.06091E-01 5.77998E-05
 -1       816-7.98273E-01-4.66912E-05 5.48653E-05
 -1       817-7.98273E-01 2.64913E-02 5.61905E-05
 -1       818-7.98274E-01 5.30290E-02 5.72469E-05
 -1       819-7.98274E-01 7.95668E-02 5.83517E-05
 -1       820-7.98281E-01-2.66029E-02 5.27951E-05
 -1       821-7.98278E-01-2.65973E-02 5.30286E-05
 -1       822-7.98276E-01-2.65914E-02 5.31032E-05
 -1       823-6.92110E-01-2.65688E-02 2.79956E-05
 -1       824-7.18652E-01-2.65797E-02 3.66180E-05
 -1       825-7.45193E-01-2.65840E-02 4.31571E-05
 -1       826-7.71734E-01-2.65853E-02 4.83496E-05
 -1       827-7.71743E-01-2.66074E-02 4.95578E-05
 -1       828-7.45204E-01-2.66076E-02 4.68856E-05
 -1       829-7.18665E-01-2.66081E-02 4.42436E-05
 -1       830-6.92125E-01-2.66101E-02 4.15201E-05
 -1       831-7.71737E-01 1.06104E-01 5.57722E-05
 -1       832-7.45200E-01 1.06105E-01 5.15710E-05
 -1       833-7.18664E-01 1.06107E-01 4.68201E-05
 -1       834-6.92127E-01 1.06114E-01 4.17615E-05
 -1       835-6.92132E-01 1.06085E-01 4.47722E-05
 -1       836-7.18669E-01 1.06086E-01 4.75711E-05
 -1       837-7.45206E-01 1.06086E-01 5.03829E-05
 -1       838-7.71744E-01 1.06087E-01 5.31629E-05
 -1       839-6.23787E-01 8.94502E-02 5.47185E-05
 -1       840-6.45267E-01 9.79886E-02 4.89363E-05
 -1       841-6.60191E-01 1.03934E-01 4.47702E-05
 -1       842-6.48983E-01 9.95007E-02 3.40252E-05
 -1       843-6.32367E-01 9.28751E-02 3.67375E-05
 -1       844-6.15710E-01 8.62406E-02 5.88860E-05
 -1       845-6.60186E-01-2.44412E-02 3.64619E-05
 -1       846-6.45295E-01-1.84570E-02 3.61023E-05
 -1       847-6.23880E-01-9.86527E-03 1.96104E-05
 -1       848-6.15979E-01-6.61351E-03 5.37707E-05
 -1       849-6.32459E-01-1.32482E-02 8.21148E-06
 -1       850-6.49003E-01-1.99002E-02 8.83411E-06
 -1       851-6.92115E-01-2.65953E-02 5.82514E-05
 -1       852-7.18657E-01-2.66069E-02 5.30586E-05
 -1       853-7.45200E-01-2.66117E-02 5.10611E-05
 -1       854-7.71741E-01-2.66130E-02 5.09845E-05
 -1       855-7.98281E-01-7.41883E-05 5.11153E-05
 -1       856-7.98281E-01 2.64639E-02 5.11594E-05
 -1       857-7.98281E-01 5.30018E-02 5.14891E-05
 -1       858-7.98282E-01 7.95396E-02 5.17711E-05
 -1       859-7.71744E-01 1.06077E-01 5.02411E-05
 -1       860-7.45207E-01 1.06078E-01 4.89179E-05
 -1       861-7.18671E-01 1.06080E-01 4.81172E-05
 -1       862-6.92134E-01 1.06088E-01 4.73769E-05
 -1       863-7.98282E-01 1.06079E-01 5.18639E-05
 -1       864-7.98282E-01 1.06081E-01 5.21729E-05
 -1       865-7.98282E-01 1.06083E-01 5.29688E-05
 -1       866-7.98282E-01 1.06085E-01 5.42807E-05
 -1       867-7.98283E-01-2.66097E-02 5.20080E-05
 -1       868-7.98283E-01-2.66112E-02 5.17491E-05
 -1       869-7.98282E-01-2.66120E-02 5.16155E-05
 -1       870-7.98281E-01-2.66126E-02 5.15417E-05
 -1       871 7.98329E-01 7.95972E-02-2.31333E-06
 -1       872 7.98329E-01 5.30460E-02-1.84439E-06
 -1       873 7.98329E-01 2.64949E-02-1.42165E-06
 -1       874 7.98328E-01-5.64686E-05-7.30362E-07
 -1       875 6.92128E-01 1.06158E-01 3.30352E-06
 -1       876 7.18679E-01 1.06151E-01 1.27013E-06
 -1       877 7.45228E-01 1.06149E-01-5.96873E-07
 -1       878 7.71779E-01 1.06148E-01-1.93915E-06
 -1       879 6.65559E-01-4.79921E-05 9.98521E-06
 -1       880 6.65563E-01 2.64676E-02-4.79838E-06
 -1       881 6.65572E-01 5.30189E-02-8.43358E-06
 -1       882 6.65574E-01 7.95986E-02-2.41535E-06
 -1       883 7.71776E-01-2.66085E-02 2.37465E-06
 -1       884 7.45222E-01-2.66072E-02 4.91186E-06
 -1       885 7.18666E-01-2.66028E-02 9.05789E-06
 -1       886 6.92111E-01-2.65917E-02 1.57627E-05
 -1       887 6.65572E-01-2.66128E-02 1.19346E-06
 -1       888 6.65576E-01-2.65976E-02 1.67979E-06
 -1       889 6.65579E-01-2.65813E-02 6.34465E-06
 -1       890 6.65576E-01-2.65742E-02 1.63183E-05
 -1       891 7.98330E-01-2.66106E-02 3.92609E-07
 -1       892 7.98331E-01-2.66125E-02 4.28385E-07
 -1       893 7.98333E-01-2.66143E-02 5.02361E-07
 -1       894 7.98334E-01-2.66156E-02 6.85327E-07
 -1       895 6.65565E-01 1.06174E-01-7.69258E-07
 -1       896 6.65567E-01 1.06172E-01-6.10484E-06
 -1       897 6.65572E-01 1.06162E-01-7.13668E-06
 -1       898 6.65577E-01 1.06150E-01-3.94629E-06
 -1       899 7.98333E-01 1.06145E-01-8.45426E-07
 -1       900 7.98332E-01 1.06146E-01-2.01066E-06
 -1       901 7.98331E-01 1.06146E-01-2.70308E-06
 -1       902 7.98330E-01 1.06147E-01-2.96387E-06
 -1       903 6.15667E-01 8.62775E-02-2.42437E-05
 -1       904 6.32336E-01 9.29148E-02 6.50401E-07
 -1       905 6.48962E-01 9.95430E-02 5.67760E-06
 -1       906 6.48981E-01-1.99191E-02 3.25027E-05
 -1       907 6.32427E-01-1.32637E-02 3.22844E-05
 -1       908 6.15942E-01-6.62788E-03-1.61390E-05
 -1       909 6.60174E-01 1.03989E-01-2.98101E-06
 -1       910 6.45245E-01 9.80378E-02-1.00651E-05
 -1       911 6.23755E-01 8.94953E-02-2.15329E-05
 -1       912 6.23846E-01-9.87237E-03 1.52345E-05
 -1       913 6.45272E-01-1.84674E-02 2.07862E-06
 -1       914 6.60170E-01-2.44518E-02 2.87632E-06
 -1       915-5.10066E-01 7.85083E-02 1.30742E-05
 -1       916-5.10038E-01 5.27036E-02 1.80369E-05
 -1       917-5.10036E-01 2.69367E-02 2.27866E-05
 -1       918-5.10060E-01 1.13016E-03 2.82736E-05
 -1       919-4.88411E-01 7.84127E-02 1.18460E-05
 -1       920-4.88366E-01 5.26717E-02 1.64280E-05
 -1       921-4.88364E-01 2.69671E-02 2.09786E-05
 -1       922-4.88406E-01 1.22386E-03 2.56846E-05
 -1       923-4.40982E-01 5.25142E-02 1.28829E-05
 -1       924-4.15432E-01 5.23904E-02 1.10851E-05
 -1       925-3.90157E-01 5.22435E-02 9.41249E-06
 -1       926-3.65201E-01 5.20744E-02 7.86703E-06
 -1       927-3.40605E-01 5.18837E-02 6.44716E-06
 -1       928-3.16411E-01 5.16711E-02 5.15265E-06
 -1       929-2.92660E-01 5.14359E-02 3.98509E-06
 -1       930-2.69392E-01 5.11768E-02 2.94746E-06
 -1       931-2.46646E-01 5.08923E-02 2.04240E-06
 -1       932-4.41055E-01 7.79457E-02 8.82918E-06
 -1       933-4.15517E-01 7.75755E-02 7.29546E-06
 -1       934-3.90254E-01 7.71345E-02 5.86691E-06
 -1       935-3.65310E-01 7.66270E-02 4.55377E-06
 -1       936-3.40726E-01 7.60554E-02 3.36230E-06
 -1       937-3.16544E-01 7.54205E-02 2.29657E-06
 -1       938-2.92805E-01 7.47226E-02 1.36066E-06
 -1       939-2.69549E-01 7.39608E-02 5.58534E-07
 -1       940-2.46815E-01 7.31330E-02-1.06597E-07
 -1       941-2.46821E-01 6.46488E-03 6.59049E-06
 -1       942-2.69550E-01 5.65685E-03 7.93266E-06
 -1       943-2.92806E-01 4.90538E-03 9.40096E-06
 -1       944-3.16545E-01 4.21227E-03 1.09973E-05
 -1       945-3.40727E-01 3.57918E-03 1.27185E-05
 -1       946-3.65311E-01 3.00777E-03 1.45636E-05
 -1       947-3.90255E-01 2.50003E-03 1.65366E-05
 -1       948-4.15517E-01 2.05885E-03 1.86506E-05
 -1       949-4.41053E-01 1.68880E-03 2.09323E-05
 -1       950-2.06603E-01 7.14354E-02-9.92182E-07
 -1       951-2.06428E-01 5.03101E-02 6.92746E-07
 -1       952-2.06455E-01 2.92201E-02 2.65502E-06
 -1       953-2.06666E-01 8.08608E-03 4.30494E-06
 -1       954-1.88988E-01 7.05851E-02-1.33865E-06
 -1       955-1.88830E-01 5.00345E-02 2.43398E-07
 -1       956-1.88890E-01 2.94904E-02 1.76393E-06
 -1       957-1.89131E-01 8.88110E-03 3.25938E-06
 -1       958-5.07277E-01 7.87999E-02-2.25102E-04
 -1       959-5.07203E-01 5.27986E-02-6.50682E-05
 -1       960-5.07194E-01 2.68268E-02 1.06416E-04
 -1       961-5.07259E-01 7.96241E-04 2.75201E-04
 -1       962-4.82595E-01 7.85145E-02-3.08124E-04
 -1       963-4.82524E-01 5.26926E-02-9.13438E-05
 -1       964-4.82518E-01 2.69190E-02 1.31058E-04
 -1       965-4.82583E-01 1.08469E-03 3.51523E-04
 -1       966-4.58093E-01 7.82002E-02-4.07236E-04
 -1       967-4.58020E-01 5.25833E-02-1.24336E-04
 -1       968-4.58017E-01 2.70229E-02 1.59899E-04
 -1       969-4.58087E-01 1.40152E-03 4.44267E-04
 -1       970-4.33797E-01 7.78494E-02-5.09584E-04
 -1       971-4.33717E-01 5.24649E-02-1.59557E-04
 -1       972-4.33716E-01 2.71399E-02 1.90368E-04
 -1       973-4.33794E-01 1.75427E-03 5.40924E-04
 -1       974-4.09732E-01 7.74559E-02-6.10761E-04
 -1       975-4.09643E-01 5.23335E-02-1.94777E-04
 -1       976-4.09642E-01 2.72713E-02 2.20765E-04
 -1       977-4.09731E-01 2.14888E-03 6.36964E-04
 -1       978-3.85928E-01 7.70154E-02-7.09149E-04
 -1       979-3.85829E-01 5.21865E-02-2.29288E-04
 -1       980-3.85829E-01 2.74182E-02 2.50181E-04
 -1       981-3.85927E-01 2.58961E-03 7.30259E-04
 -1       982-3.62417E-01 7.65248E-02-8.04901E-04
 -1       983-3.62307E-01 5.20226E-02-2.63227E-04
 -1       984-3.62307E-01 2.75811E-02 2.78212E-04
 -1       985-3.62416E-01 3.07951E-03 8.20257E-04
 -1       986-3.39230E-01 7.59823E-02-8.98902E-04
 -1       987-3.39109E-01 5.18412E-02-2.97131E-04
 -1       988-3.39108E-01 2.77606E-02 3.04581E-04
 -1       989-3.39228E-01 3.62052E-03 9.06979E-04
 -1       990-3.16400E-01 7.53872E-02-9.92257E-04
 -1       991-3.16268E-01 5.16417E-02-3.31733E-04
 -1       992-3.16267E-01 2.79572E-02 3.28929E-04
 -1       993-3.16398E-01 4.21379E-03 9.90443E-04
 -1       994-2.93960E-01 7.47393E-02-1.08612E-03
 -1       995-2.93816E-01 5.14243E-02-3.67898E-04
 -1       996-2.93815E-01 2.81710E-02 3.50701E-04
 -1       997-2.93957E-01 4.86017E-03 1.07040E-03
 -1       998-2.71942E-01 7.40393E-02-1.18169E-03
 -1       999-2.71788E-01 5.11893E-02-4.06577E-04
 -1      1000-2.71787E-01 2.84027E-02 3.69149E-04
 -1      1001-2.71941E-01 5.56054E-03 1.14622E-03
 -1      1002-2.50377E-01 7.32881E-02-1.28021E-03
 -1      1003-2.50214E-01 5.09382E-02-4.48646E-04
 -1      1004-2.50216E-01 2.86538E-02 3.83500E-04
 -1      1005-2.50384E-01 6.31623E-03 1.21689E-03
 -1      1006-2.29293E-01 7.24878E-02-1.38285E-03
 -1      1007-2.29126E-01 5.06751E-02-4.94449E-04
 -1      1008-2.29137E-01 2.89282E-02 3.93488E-04
 -1      1009-2.29322E-01 7.12923E-03 1.28128E-03
 -1      1010-2.08716E-01 7.16426E-02-1.49086E-03
 -1      1011-2.08555E-01 5.04097E-02-5.42329E-04
 -1      1012-2.08590E-01 2.92348E-02 4.01226E-04
 -1      1013-2.08803E-01 8.00211E-03 1.33997E-03
 -1      1014-1.88668E-01 7.07621E-02-1.59958E-03
 -1      1015-1.88536E-01 5.01624E-02-5.85690E-04
 -1      1016-1.88618E-01 2.95909E-02 4.12144E-04
 -1      1017-1.88875E-01 8.93962E-03 1.39451E-03
 -1      1018-5.09630E-01 1.04546E-01 6.72215E-05
 -1      1019-4.87422E-01 1.04316E-01-1.18956E-05
 -1      1020-4.65301E-01 1.03986E-01-7.59915E-05
 -1      1021-4.39886E-01 1.03484E-01-1.33394E-04
 -1      1022-4.14695E-01 1.02862E-01-1.80933E-04
 -1      1023-3.89774E-01 1.02128E-01-2.22315E-04
 -1      1024-3.65165E-01 1.01289E-01-2.59983E-04
 -1      1025-3.40908E-01 1.00346E-01-2.95544E-04
 -1      1026-3.17044E-01 9.93028E-02-3.30133E-04
 -1      1027-2.93611E-01 9.81590E-02-3.64630E-04
 -1      1028-2.70647E-01 9.69152E-02-3.99728E-04
 -1      1029-2.48192E-01 9.55714E-02-4.35826E-04
 -1      1030-2.26276E-01 9.41270E-02-4.72358E-04
 -1      1031-2.07780E-01 9.27825E-02-5.04387E-04
 -1      1032-1.89725E-01 9.13420E-02-5.34738E-04
 -1      1033-5.09169E-01 1.04764E-01 1.63725E-05
 -1      1034-4.86333E-01 1.04441E-01-8.64092E-05
 -1      1035-4.63629E-01 1.04044E-01-1.89442E-04
 -1      1036-4.38512E-01 1.03510E-01-2.88758E-04
 -1      1037-4.13625E-01 1.02875E-01-3.75733E-04
 -1      1038-3.89007E-01 1.02138E-01-4.53697E-04
 -1      1039-3.64696E-01 1.01302E-01-5.25763E-04
 -1      1040-3.40729E-01 1.00369E-01-5.94345E-04
 -1      1041-3.17146E-01 9.93386E-02-6.61309E-04
 -1      1042-2.93983E-01 9.82117E-02-7.28173E-04
 -1      1043-2.71277E-01 9.69888E-02-7.96206E-04
 -1      1044-2.49065E-01 9.56704E-02-8.66258E-04
 -1      1045-2.27378E-01 9.42562E-02-9.37940E-04
 -1      1046-2.08388E-01 9.28935E-02-1.00374E-03
 -1      1047-1.89862E-01 9.14333E-02-1.06745E-03
 -1      1048-5.08651E-01 1.04934E-01-9.73105E-05
 -1      1049-4.85196E-01 1.04555E-01-2.12149E-04
 -1      1050-4.61901E-01 1.04106E-01-3.36592E-04
 -1      1051-4.37070E-01 1.03544E-01-4.64486E-04
 -1      1052-4.12474E-01 1.02894E-01-5.82882E-04
 -1      1053-3.88146E-01 1.02153E-01-6.92579E-04
 -1      1054-3.64119E-01 1.01321E-01-7.95862E-04
 -1      1055-3.40431E-01 1.00396E-01-8.95091E-04
 -1      1056-3.17117E-01 9.93778E-02-9.92339E-04
 -1      1057-2.94213E-01 9.82675E-02-1.08941E-03
 -1      1058-2.71754E-01 9.70655E-02-1.18793E-03
 -1      1059-2.49774E-01 9.57731E-02-1.28928E-03
 -1      1060-2.28305E-01 9.43909E-02-1.39392E-03
 -1      1061-2.08808E-01 9.30152E-02-1.49536E-03
 -1      1062-1.89798E-01 9.15429E-02-1.59667E-03
 -1      1063-5.08054E-01 1.05023E-01-2.32770E-04
 -1      1064-4.83993E-01 1.04613E-01-3.61408E-04
 -1      1065-4.60106E-01 1.04126E-01-5.07392E-04
 -1      1066-4.35554E-01 1.03546E-01-6.57885E-04
 -1      1067-4.11237E-01 1.02888E-01-8.02336E-04
 -1      1068-3.87187E-01 1.02147E-01-9.39686E-04
 -1      1069-3.63434E-01 1.01319E-01-1.07119E-03
 -1      1070-3.40013E-01 1.00402E-01-1.19874E-03
 -1      1071-3.16957E-01 9.93970E-02-1.32423E-03
 -1      1072-2.94302E-01 9.83026E-02-1.44938E-03
 -1      1073-2.72079E-01 9.71201E-02-1.57584E-03
 -1      1074-2.50321E-01 9.58518E-02-1.70531E-03
 -1      1075-2.29059E-01 9.44998E-02-1.83925E-03
 -1      1076-2.09038E-01 9.31124E-02-1.97591E-03
 -1      1077-1.89526E-01 9.16342E-02-2.11862E-03
 -1      1078-5.09623E-01-2.49193E-02-3.05878E-05
 -1      1079-4.87416E-01-2.46872E-02 4.75805E-05
 -1      1080-4.65297E-01-2.43560E-02 1.09152E-04
 -1      1081-4.39884E-01-2.38536E-02 1.62923E-04
 -1      1082-4.14695E-01-2.32311E-02 2.06652E-04
 -1      1083-3.89775E-01-2.24970E-02 2.44142E-04
 -1      1084-3.65167E-01-2.16569E-02 2.77641E-04
 -1      1085-3.40911E-01-2.07142E-02 3.08364E-04
 -1      1086-3.17047E-01-1.96712E-02 3.36866E-04
 -1      1087-2.93614E-01-1.85292E-02 3.63262E-04
 -1      1088-2.70653E-01-1.72893E-02 3.87373E-04
 -1      1089-2.48204E-01-1.59532E-02 4.08893E-04
 -1      1090-2.26308E-01-1.45248E-02 4.27429E-04
 -1      1091-2.07853E-01-1.32107E-02 4.42288E-04
 -1      1092-1.89878E-01-1.18431E-02 4.57251E-04
 -1      1093-5.09163E-01-2.51565E-02 2.13787E-05
 -1      1094-4.86327E-01-2.48232E-02 1.22670E-04
 -1      1095-4.63625E-01-2.44221E-02 2.23072E-04
 -1      1096-4.38510E-01-2.38861E-02 3.18616E-04
 -1      1097-4.13625E-01-2.32494E-02 4.01577E-04
 -1      1098-3.89008E-01-2.25123E-02 4.75308E-04
 -1      1099-3.64697E-01-2.16760E-02 5.42525E-04
 -1      1100-3.40731E-01-2.07417E-02 6.04931E-04
 -1      1101-3.17149E-01-1.97102E-02 6.63363E-04
 -1      1102-2.93987E-01-1.85821E-02 7.17968E-04
 -1      1103-2.71284E-01-1.73577E-02 7.68360E-04
 -1      1104-2.49079E-01-1.60375E-02 8.13811E-04
 -1      1105-2.27413E-01-1.46241E-02 8.53495E-04
 -1      1106-2.08466E-01-1.32739E-02 8.85994E-04
 -1      1107-1.90025E-01-1.18647E-02 9.18055E-04
 -1      1108-5.08647E-01-2.53435E-02 1.40648E-04
 -1      1109-4.85190E-01-2.49480E-02 2.51646E-04
 -1      1110-4.61897E-01-2.44910E-02 3.71779E-04
 -1      1111-4.37069E-01-2.39261E-02 4.95057E-04
 -1      1112-4.12474E-01-2.32753E-02 6.09013E-04
 -1      1113-3.88146E-01-2.25343E-02 7.14199E-04
 -1      1114-3.64120E-01-2.17011E-02 8.12277E-04
 -1      1115-3.40433E-01-2.07748E-02 9.04693E-04
 -1      1116-3.17119E-01-1.97548E-02 9.92261E-04
 -1      1117-2.94216E-01-1.86405E-02 1.07509E-03
 -1      1118-2.71761E-01-1.74311E-02 1.15260E-03
 -1      1119-2.49791E-01-1.61257E-02 1.22366E-03
 -1      1120-2.28346E-01-1.47251E-02 1.28670E-03
 -1      1121-2.08897E-01-1.33347E-02 1.33957E-03
 -1      1122-1.89980E-01-1.18777E-02 1.38939E-03
 -1      1123-5.08047E-01-2.54424E-02 2.84950E-04
 -1      1124-4.83985E-01-2.50132E-02 4.05474E-04
 -1      1125-4.60101E-01-2.45178E-02 5.44548E-04
 -1      1126-4.35551E-01-2.39356E-02 6.89204E-04
 -1      1127-4.11237E-01-2.32765E-02 8.28710E-04
 -1      1128-3.87187E-01-2.25348E-02 9.61351E-04
 -1      1129-3.63434E-01-2.17068E-02 1.08756E-03
 -1      1130-3.40013E-01-2.07900E-02 1.20827E-03
 -1      1131-3.16958E-01-1.97829E-02 1.32410E-03
 -1      1132-2.94303E-01-1.86840E-02 1.43514E-03
 -1      1133-2.72084E-01-1.74915E-02 1.54076E-03
 -1      1134-2.50338E-01-1.62033E-02 1.63958E-03
 -1      1135-2.29104E-01-1.48178E-02 1.72930E-03
 -1      1136-2.09142E-01-1.33873E-02 1.80711E-03
 -1      1137-1.89740E-01-1.18789E-02 1.87573E-03
 -1      1138-5.31849E-01 7.86903E-02 1.65572E-05
 -1      1139-5.31814E-01 5.27699E-02 2.34413E-05
 -1      1140-5.31810E-01 2.68765E-02 3.12746E-05
 -1      1141-5.31842E-01 9.40049E-04 3.20017E-05
 -1      1142-5.32047E-01 7.88764E-02 1.48524E-05
 -1      1143-5.32006E-01 5.28359E-02 2.07881E-05
 -1      1144-5.32002E-01 2.68165E-02 3.69516E-05
 -1      1145-5.32043E-01 7.39845E-04 3.44951E-05
 -1      1146-5.32169E-01 7.90169E-02-2.75609E-05
 -1      1147-5.32122E-01 5.28838E-02 4.58450E-06
 -1      1148-5.32120E-01 2.67645E-02 4.77757E-05
 -1      1149-5.32170E-01 5.82518E-04 7.71866E-05
 -1      1150-5.32179E-01 7.90744E-02-9.73927E-05
 -1      1151-5.32131E-01 5.29017E-02-2.23214E-05
 -1      1152-5.32129E-01 2.67423E-02 6.63691E-05
 -1      1153-5.32181E-01 5.16296E-04 1.49872E-04
 -1      1154-1.71710E-01 6.97186E-02-3.50933E-04
 -1      1155-1.71591E-01 4.97890E-02-1.37684E-04
 -1      1156-1.71701E-01 2.98110E-02 7.20837E-05
 -1      1157-1.71985E-01 9.72431E-03 2.76147E-04
 -1      1158-1.71405E-01 6.97721E-02-6.99558E-04
 -1      1159-1.71290E-01 4.98326E-02-2.71302E-04
 -1      1160-1.71403E-01 2.98485E-02 1.48395E-04
 -1      1161-1.71689E-01 9.75612E-03 5.56545E-04
 -1      1162-1.70891E-01 6.98443E-02-1.04283E-03
 -1      1163-1.70783E-01 4.98925E-02-3.96422E-04
 -1      1164-1.70901E-01 2.99042E-02 2.33547E-04
 -1      1165-1.71192E-01 9.80712E-03 8.45317E-04
 -1      1166-1.70156E-01 6.98989E-02-1.37620E-03
 -1      1167-1.70059E-01 4.99467E-02-5.09525E-04
 -1      1168-1.70189E-01 2.99675E-02 3.30288E-04
 -1      1169-1.70490E-01 9.87449E-03 1.14526E-03
 -1      1170 5.32093E-01 7.91242E-02-1.14166E-04
 -1      1171 5.32045E-01 5.29412E-02-4.33146E-05
 -1      1172 5.32042E-01 2.67705E-02 4.16593E-05
 -1      1173 5.32094E-01 5.31572E-04 1.21800E-04
 -1      1174 5.32079E-01 7.90634E-02-4.39088E-05
 -1      1175 5.32031E-01 5.29204E-02-1.59603E-05
 -1      1176 5.32029E-01 2.67904E-02 2.34281E-05
 -1      1177 5.32079E-01 5.96086E-04 4.89811E-05
 -1      1178 5.31952E-01 7.89187E-02-1.16725E-06
 -1      1179 5.31910E-01 5.28692E-02 5.41494E-07
 -1      1180 5.31906E-01 2.68403E-02 1.28761E-05
 -1      1181 5.31947E-01 7.52579E-04 6.23025E-06
 -1      1182 5.31747E-01 7.87269E-02 4.30052E-07
 -1      1183 5.31712E-01 5.27990E-02 3.11827E-06
 -1      1184 5.31708E-01 2.68985E-02 7.46092E-06
 -1      1185 5.31740E-01 9.53730E-04 4.16166E-06
 -1      1186 1.69913E-01 6.99376E-02-1.37781E-03
 -1      1187 1.69816E-01 4.99763E-02-5.10960E-04
 -1      1188 1.69946E-01 2.99883E-02 3.29015E-04
 -1      1189 1.70247E-01 9.88628E-03 1.14428E-03
 -1      1190 1.70649E-01 6.98824E-02-1.04406E-03
 -1      1191 1.70541E-01 4.99216E-02-3.97599E-04
 -1      1192 1.70659E-01 2.99244E-02 2.32426E-04
 -1      1193 1.70950E-01 9.81840E-03 8.44374E-04
 -1      1194 1.71164E-01 6.98093E-02-7.00355E-04
 -1      1195 1.71049E-01 4.98609E-02-2.72181E-04
 -1      1196 1.71162E-01 2.98681E-02 1.47471E-04
 -1      1197 1.71449E-01 9.76703E-03 5.55675E-04
 -1      1198 1.71469E-01 6.97549E-02-3.51308E-04
 -1      1199 1.71351E-01 4.98166E-02-1.38190E-04
 -1      1200 1.71461E-01 2.98301E-02 7.14823E-05
 -1      1201 1.71746E-01 9.73489E-03 2.75541E-04
 -1      1202 5.07958E-01 1.05083E-01-2.42439E-04
 -1      1203 5.08551E-01 1.04990E-01-1.06373E-04
 -1      1204 5.09063E-01 1.04815E-01 8.19155E-06
 -1      1205 5.09520E-01 1.04592E-01 5.99260E-05
 -1      1206 4.83887E-01 1.04671E-01-3.69149E-04
 -1      1207 4.85086E-01 1.04610E-01-2.19419E-04
 -1      1208 4.86219E-01 1.04492E-01-9.31326E-05
 -1      1209 4.87303E-01 1.04362E-01-1.84450E-05
 -1      1210 4.59989E-01 1.04183E-01-5.13724E-04
 -1      1211 4.61782E-01 1.04160E-01-3.42620E-04
 -1      1212 4.63506E-01 1.04095E-01-1.95257E-04
 -1      1213 4.65174E-01 1.04033E-01-8.19703E-05
 -1      1214 4.35427E-01 1.03603E-01-6.63096E-04
 -1      1215 4.36941E-01 1.03597E-01-4.69497E-04
 -1      1216 4.38380E-01 1.03561E-01-2.93716E-04
 -1      1217 4.39750E-01 1.03532E-01-1.38595E-04
 -1      1218 4.11101E-01 1.02944E-01-8.06621E-04
 -1      1219 4.12335E-01 1.02947E-01-5.87021E-04
 -1      1220 4.13484E-01 1.02925E-01-3.79868E-04
 -1      1221 4.14551E-01 1.02910E-01-1.85270E-04
 -1      1222 3.87041E-01 1.02201E-01-9.43161E-04
 -1      1223 3.87997E-01 1.02206E-01-6.95925E-04
 -1      1224 3.88856E-01 1.02188E-01-4.57029E-04
 -1      1225 3.89620E-01 1.02176E-01-2.25772E-04
 -1      1226 3.63278E-01 1.01373E-01-1.07394E-03
 -1      1227 3.63961E-01 1.01373E-01-7.98481E-04
 -1      1228 3.64535E-01 1.01352E-01-5.28334E-04
 -1      1229 3.65002E-01 1.01336E-01-2.62601E-04
 -1      1230 3.39848E-01 1.00456E-01-1.20086E-03
 -1      1231 3.40264E-01 1.00447E-01-8.97059E-04
 -1      1232 3.40559E-01 1.00419E-01-5.96225E-04
 -1      1233 3.40736E-01 1.00394E-01-2.97396E-04
 -1      1234 3.16782E-01 9.94499E-02-1.32581E-03
 -1      1235 3.16940E-01 9.94291E-02-9.93752E-04
 -1      1236 3.16967E-01 9.93881E-02-6.62591E-04
 -1      1237 3.16862E-01 9.93505E-02-3.31317E-04
 -1      1238 2.94117E-01 9.83549E-02-1.45053E-03
 -1      1239 2.94026E-01 9.83184E-02-1.09039E-03
 -1      1240 2.93794E-01 9.82609E-02-7.28973E-04
 -1      1241 2.93420E-01 9.82065E-02-3.65256E-04
 -1      1242 2.71884E-01 9.71719E-02-1.57673E-03
 -1      1243 2.71558E-01 9.71160E-02-1.18862E-03
 -1      1244 2.71079E-01 9.70377E-02-7.96661E-04
 -1      1245 2.70448E-01 9.69625E-02-3.99922E-04
 -1      1246 2.50117E-01 9.59031E-02-1.70608E-03
 -1      1247 2.49569E-01 9.58231E-02-1.28984E-03
 -1      1248 2.48858E-01 9.57190E-02-8.66528E-04
 -1      1249 2.47983E-01 9.56185E-02-4.35730E-04
 -1      1250 2.28845E-01 9.45505E-02-1.84010E-03
 -1      1251 2.28090E-01 9.44405E-02-1.39454E-03
 -1      1252 2.27161E-01 9.43044E-02-9.38205E-04
 -1      1253 2.26058E-01 9.41738E-02-4.72131E-04
 -1      1254 2.08815E-01 9.31627E-02-1.97703E-03
 -1      1255 2.08584E-01 9.30645E-02-1.49621E-03
 -1      1256 2.08163E-01 9.29414E-02-1.00416E-03
 -1      1257 2.07554E-01 9.28291E-02-5.04187E-04
 -1      1258 1.89293E-01 9.16840E-02-2.12015E-03
 -1      1259 1.89565E-01 9.15918E-02-1.59784E-03
 -1      1260 1.89629E-01 9.14811E-02-1.06812E-03
 -1      1261 1.89493E-01 9.13886E-02-5.34744E-04
 -1      1262 5.07950E-01-2.54383E-02 2.55079E-04
 -1      1263 5.08546E-01-2.53408E-02 1.10111E-04
 -1      1264 5.09057E-01-2.51541E-02-9.95201E-06
 -1      1265 5.09513E-01-2.49155E-02-6.25985E-05
 -1      1266 4.83878E-01-2.50083E-02 3.77762E-04
 -1      1267 4.85079E-01-2.49445E-02 2.23443E-04
 -1      1268 4.86212E-01-2.48201E-02 9.38961E-05
 -1      1269 4.87297E-01-2.46837E-02 1.85321E-05
 -1      1270 4.59983E-01-2.45125E-02 5.19241E-04
 -1      1271 4.61777E-01-2.44871E-02 3.46135E-04
 -1      1272 4.63502E-01-2.44189E-02 1.97106E-04
 -1      1273 4.65170E-01-2.43530E-02 8.31733E-05
 -1      1274 4.35424E-01-2.39302E-02 6.66477E-04
 -1      1275 4.36939E-01-2.39221E-02 4.72190E-04
 -1      1276 4.38378E-01-2.38830E-02 2.95660E-04
 -1      1277 4.39748E-01-2.38512E-02 1.40089E-04
 -1      1278 4.11100E-01-2.32713E-02 8.08523E-04
 -1      1279 4.12334E-01-2.32714E-02 5.88806E-04
 -1      1280 4.13483E-01-2.32466E-02 3.81392E-04
 -1      1281 4.14550E-01-2.32291E-02 1.86606E-04
 -1      1282 3.87040E-01-2.25299E-02 9.43591E-04
 -1      1283 3.87997E-01-2.25306E-02 6.96487E-04
 -1      1284 3.88856E-01-2.25097E-02 4.57663E-04
 -1      1285 3.89621E-01-2.24953E-02 2.26613E-04
 -1      1286 3.63278E-01-2.17022E-02 1.07209E-03
 -1      1287 3.63961E-01-2.16977E-02 7.96893E-04
 -1      1288 3.64536E-01-2.16736E-02 5.27222E-04
 -1      1289 3.65003E-01-2.16554E-02 2.62425E-04
 -1      1290 3.39847E-01-2.07858E-02 1.19494E-03
 -1      1291 3.40264E-01-2.07718E-02 8.91482E-04
 -1      1292 3.40561E-01-2.07395E-02 5.91802E-04
 -1      1293 3.40738E-01-2.07129E-02 2.95293E-04
 -1      1294 3.16782E-01-1.97791E-02 1.31280E-03
 -1      1295 3.16941E-01-1.97521E-02 9.81087E-04
 -1      1296 3.16969E-01-1.97083E-02 6.52263E-04
 -1      1297 3.16865E-01-1.96700E-02 3.25793E-04
 -1      1298 2.94117E-01-1.86806E-02 1.42575E-03
 -1      1299 2.94029E-01-1.86381E-02 1.06583E-03
 -1      1300 2.93798E-01-1.85804E-02 7.08771E-04
 -1      1301 2.93423E-01-1.85281E-02 3.54053E-04
 -1      1302 2.71889E-01-1.74885E-02 1.53319E-03
 -1      1303 2.71564E-01-1.74289E-02 1.14516E-03
 -1      1304 2.71085E-01-1.73560E-02 7.60952E-04
 -1      1305 2.70453E-01-1.72882E-02 3.79904E-04
 -1      1306 2.50133E-01-1.62007E-02 1.63375E-03
 -1      1307 2.49584E-01-1.61237E-02 1.21795E-03
 -1      1308 2.48872E-01-1.60360E-02 8.08096E-04
 -1      1309 2.47995E-01-1.59521E-02 4.03049E-04
 -1      1310 2.28889E-01-1.48156E-02 1.72512E-03
 -1      1311 2.28130E-01-1.47233E-02 1.28264E-03
 -1      1312 2.27196E-01-1.46226E-02 8.49393E-04
 -1      1313 2.26090E-01-1.45236E-02 4.23120E-04
 -1      1314 2.08918E-01-1.33853E-02 1.80442E-03
 -1      1315 2.08673E-01-1.33330E-02 1.33695E-03
 -1      1316 2.08242E-01-1.32724E-02 8.83288E-04
 -1      1317 2.07627E-01-1.32093E-02 4.39262E-04
 -1      1318 1.89506E-01-1.18772E-02 1.87438E-03
 -1      1319 1.89747E-01-1.18762E-02 1.38805E-03
 -1      1320 1.89792E-01-1.18632E-02 9.16633E-04
 -1      1321 1.89645E-01-1.18417E-02 4.55595E-04
 -1      1322 5.07185E-01 7.88514E-02-2.39547E-04
 -1      1323 5.07110E-01 5.28395E-02-8.36587E-05
 -1      1324 5.07100E-01 2.68565E-02 8.40249E-05
 -1      1325 5.07164E-01 8.13936E-04 2.49313E-04
 -1      1326 4.82492E-01 7.85646E-02-3.20377E-04
 -1      1327 4.82420E-01 5.27321E-02-1.07599E-04
 -1      1328 4.82414E-01 2.69479E-02 1.10976E-04
 -1      1329 4.82478E-01 1.10258E-03 3.27774E-04
 -1      1330 4.57980E-01 7.82490E-02-4.17720E-04
 -1      1331 4.57906E-01 5.26218E-02-1.38597E-04
 -1      1332 4.57903E-01 2.70512E-02 1.41951E-04
 -1      1333 4.57973E-01 1.41941E-03 4.22736E-04
 -1      1334 4.33673E-01 7.78971E-02-5.18594E-04
 -1      1335 4.33593E-01 5.25026E-02-1.72060E-04
 -1      1336 4.33591E-01 2.71676E-02 1.74424E-04
 -1      1337 4.33670E-01 1.77197E-03 5.21616E-04
 -1      1338 4.09598E-01 7.75027E-02-6.18491E-04
 -1      1339 4.09509E-01 5.23704E-02-2.05691E-04
 -1      1340 4.09508E-01 2.72985E-02 2.06706E-04
 -1      1341 4.09597E-01 2.16625E-03 6.19818E-04
 -1      1342 3.85784E-01 7.70613E-02-7.15734E-04
 -1      1343 3.85685E-01 5.22227E-02-2.38746E-04
 -1      1344 3.85685E-01 2.74448E-02 2.37885E-04
 -1      1345 3.85783E-01 2.60655E-03 7.15174E-04
 -1      1346 3.62263E-01 7.65700E-02-8.10449E-04
 -1      1347 3.62153E-01 5.20582E-02-2.71345E-04
 -1      1348 3.62153E-01 2.76072E-02 2.67559E-04
 -1      1349 3.62262E-01 3.09596E-03 8.07114E-04
 -1      1350 3.39066E-01 7.60268E-02-9.03516E-04
 -1      1351 3.38945E-01 5.18761E-02-3.04019E-04
 -1      1352 3.38945E-01 2.77861E-02 2.95454E-04
 -1      1353 3.39064E-01 3.63644E-03 8.95657E-04
 -1      1354 3.16227E-01 7.54310E-02-9.96044E-04
 -1      1355 3.16094E-01 5.16760E-02-3.37502E-04
 -1      1356 3.16093E-01 2.79821E-02 3.21212E-04
 -1      1357 3.16224E-01 4.22918E-03 9.80824E-04
 -1      1358 2.93777E-01 7.47825E-02-1.08920E-03
 -1      1359 2.93633E-01 5.14580E-02-3.72664E-04
 -1      1360 2.93632E-01 2.81953E-02 3.44281E-04
 -1      1361 2.93774E-01 4.87502E-03 1.06237E-03
 -1      1362 2.71749E-01 7.40818E-02-1.18419E-03
 -1      1363 2.71595E-01 5.12224E-02-4.10462E-04
 -1      1364 2.71594E-01 2.84265E-02 3.63909E-04
 -1      1365 2.71747E-01 5.57486E-03 1.13968E-03
 -1      1366 2.50174E-01 7.33300E-02-1.28227E-03
 -1      1367 2.50011E-01 5.09706E-02-4.51784E-04
 -1      1368 2.50013E-01 2.86770E-02 3.79320E-04
 -1      1369 2.50180E-01 6.33002E-03 1.21173E-03
 -1      1370 2.29080E-01 7.25290E-02-1.38464E-03
 -1      1371 2.28913E-01 5.07069E-02-4.96986E-04
 -1      1372 2.28924E-01 2.89508E-02 3.90236E-04
 -1      1373 2.29109E-01 7.14253E-03 1.27740E-03
 -1      1374 2.08493E-01 7.16830E-02-1.49255E-03
 -1      1375 2.08332E-01 5.04408E-02-5.44423E-04
 -1      1376 2.08367E-01 2.92569E-02 3.98753E-04
 -1      1377 2.08580E-01 8.01496E-03 1.33723E-03
 -1      1378 1.88435E-01 7.08017E-02-1.60134E-03
 -1      1379 1.88302E-01 5.01929E-02-5.87501E-04
 -1      1380 1.88385E-01 2.96125E-02 4.10290E-04
 -1      1381 1.88642E-01 8.95217E-03 1.39274E-03
 -1      1382 5.09949E-01 7.85399E-02-4.95106E-07
 -1      1383 5.09922E-01 5.27291E-02 1.58563E-07
 -1      1384 5.09920E-01 2.69568E-02 1.09175E-06
 -1      1385 5.09944E-01 1.14430E-03 1.94327E-06
 -1      1386 4.88288E-01 7.84462E-02-4.43344E-07
 -1      1387 4.88243E-01 5.26981E-02 2.64959E-07
 -1      1388 4.88241E-01 2.69866E-02 1.12607E-06
 -1      1389 4.88283E-01 1.23610E-03 1.90983E-06
 -1      1390 2.46435E-01 5.09200E-02-1.78984E-07
 -1      1391 2.69190E-01 5.12045E-02-1.49153E-07
 -1      1392 2.92467E-01 5.14636E-02-1.09071E-07
 -1      1393 3.16227E-01 5.16987E-02-6.13622E-08
 -1      1394 3.40430E-01 5.19113E-02-9.42721E-09
 -1      1395 3.65035E-01 5.21021E-02 4.40167E-08
 -1      1396 3.90000E-01 5.22711E-02 9.72537E-08
 -1      1397 4.15285E-01 5.24179E-02 1.50103E-07
 -1      1398 4.40843E-01 5.25414E-02 2.02091E-07
 -1      1399 2.46605E-01 7.31697E-02-9.74557E-07
 -1      1400 2.69348E-01 7.39975E-02-9.61397E-07
 -1      1401 2.92612E-01 7.47594E-02-9.31166E-07
 -1      1402 3.16360E-01 7.54573E-02-8.85057E-07
 -1      1403 3.40551E-01 7.60921E-02-8.27259E-07
 -1      1404 3.65144E-01 7.66637E-02-7.62792E-07
 -1      1405 3.90098E-01 7.71710E-02-6.96137E-07
 -1      1406 4.15370E-01 7.76117E-02-6.30545E-07
 -1      1407 4.40916E-01 7.79814E-02-5.66374E-07
 -1      1408 4.40914E-01 1.69907E-03 1.88452E-06
 -1      1409 4.15369E-01 2.06868E-03 1.86953E-06
 -1      1410 3.90098E-01 2.50965E-03 1.85976E-06
 -1      1411 3.65145E-01 3.01729E-03 1.85184E-06
 -1      1412 3.40552E-01 3.58866E-03 1.84179E-06
 -1      1413 3.16362E-01 4.22175E-03 1.82710E-06
 -1      1414 2.92613E-01 4.91488E-03 1.80752E-06
 -1      1415 2.69349E-01 5.66637E-03 1.78558E-06
 -1      1416 2.46610E-01 6.47444E-03 1.76288E-06
 -1      1417 2.06440E-01 8.09568E-03 1.64931E-06
 -1      1418 2.06229E-01 2.92386E-02 8.50435E-07
 -1      1419 2.06202E-01 5.03375E-02-2.42851E-07
 -1      1420 2.06377E-01 7.14719E-02-1.01518E-06
 -1      1421 1.88898E-01 8.89075E-03 1.60406E-06
 -1      1422 1.88657E-01 2.95089E-02 6.85983E-07
 -1      1423 1.88596E-01 5.00616E-02-2.43050E-07
 -1      1424 1.88755E-01 7.06213E-02-1.19504E-06
 -1      1425-1.55664E-01 8.87434E-02-5.89699E-04
 -1      1426-1.55426E-01 8.88296E-02-1.18195E-03
 -1      1427-1.54966E-01 8.89554E-02-1.78011E-03
 -1      1428-1.54265E-01 8.90868E-02-2.38882E-03
 -1      1429-1.39796E-01 8.88415E-02-6.22309E-04
 -1      1430-1.39627E-01 8.89381E-02-1.24824E-03
 -1      1431-1.39227E-01 8.90885E-02-1.88273E-03
 -1      1432-1.38572E-01 8.92607E-02-2.53183E-03
 -1      1433-1.24634E-01 8.99813E-02-6.56678E-04
 -1      1434-1.24527E-01 9.00824E-02-1.31754E-03
 -1      1435-1.24183E-01 9.02543E-02-1.98821E-03
 -1      1436-1.23572E-01 9.04696E-02-2.67410E-03
 -1      1437-1.10268E-01 9.20546E-02-6.90914E-04
 -1      1438-1.10216E-01 9.21559E-02-1.38618E-03
 -1      1439-1.09923E-01 9.23477E-02-2.09152E-03
 -1      1440-1.09356E-01 9.26079E-02-2.81164E-03
 -1      1441-9.67744E-02 9.49362E-02-7.23967E-04
 -1      1442-9.67708E-02 9.50347E-02-1.45225E-03
 -1      1443-9.65236E-02 9.52457E-02-2.19059E-03
 -1      1444-9.59987E-02 9.55521E-02-2.94333E-03
 -1      1445-8.42138E-02 9.84900E-02-7.55352E-04
 -1      1446-8.42507E-02 9.85842E-02-1.51499E-03
 -1      1447-8.40448E-02 9.88143E-02-2.28471E-03
 -1      1448-8.35603E-02 9.91679E-02-3.06881E-03
 -1      1449-7.26299E-02 1.02573E-01-7.84894E-04
 -1      1450-7.26998E-02 1.02663E-01-1.57411E-03
 -1      1451-7.25305E-02 1.02913E-01-2.37362E-03
 -1      1452-7.20848E-02 1.03315E-01-3.18786E-03
 -1      1453-6.20478E-02 1.07039E-01-8.12538E-04
 -1      1454-6.21435E-02 1.07127E-01-1.62953E-03
 -1      1455-6.20063E-02 1.07398E-01-2.45719E-03
 -1      1456-6.15982E-02 1.07850E-01-3.30015E-03
 -1      1457-5.24734E-02 1.11739E-01-8.38247E-04
 -1      1458-5.25882E-02 1.11828E-01-1.68115E-03
 -1      1459-5.24794E-02 1.12124E-01-2.53522E-03
 -1      1460-5.21085E-02 1.12629E-01-3.40530E-03
 -1      1461-4.38927E-02 1.16528E-01-8.61968E-04
 -1      1462-4.40214E-02 1.16623E-01-1.72886E-03
 -1      1463-4.39380E-02 1.16947E-01-2.60746E-03
 -1      1464-4.36048E-02 1.17508E-01-3.50286E-03
 -1      1465-3.62732E-02 1.21265E-01-8.83622E-04
 -1      1466-3.64113E-02 1.21371E-01-1.77246E-03
 -1      1467-3.63518E-02 1.21729E-01-2.67361E-03
 -1      1468-3.60578E-02 1.22349E-01-3.59234E-03
 -1      1469-2.95630E-02 1.25812E-01-9.03115E-04
 -1      1470-2.97081E-02 1.25938E-01-1.81178E-03
 -1      1471-2.96724E-02 1.26334E-01-2.73334E-03
 -1      1472-2.94206E-02 1.27018E-01-3.67327E-03
 -1      1473-2.36934E-02 1.30046E-01-9.20344E-04
 -1      1474-2.38446E-02 1.30198E-01-1.84660E-03
 -1      1475-2.38342E-02 1.30640E-01-2.78633E-03
 -1      1476-2.36288E-02 1.31392E-01-3.74518E-03
 -1      1477-1.85791E-02 1.33850E-01-9.35211E-04
 -1      1478-1.87377E-02 1.34038E-01-1.87671E-03
 -1      1479-1.87558E-02 1.34532E-01-2.83225E-03
 -1      1480-1.86027E-02 1.35356E-01-3.80764E-03
 -1      1481-1.41204E-02 1.37123E-01-9.47624E-04
 -1      1482-1.42897E-02 1.37356E-01-1.90193E-03
 -1      1483-1.43414E-02 1.37909E-01-2.87084E-03
 -1      1484-1.42480E-02 1.38808E-01-3.86027E-03
 -1      1485-1.02052E-02 1.39781E-01-9.57499E-04
 -1      1486-1.03906E-02 1.40067E-01-1.92209E-03
 -1      1487-1.04827E-02 1.40684E-01-2.90185E-03
 -1      1488-1.04578E-02 1.41662E-01-3.90275E-03
 -1      1489-6.71062E-03 1.41753E-01-9.64761E-04
 -1      1490-6.91986E-03 1.42101E-01-1.93706E-03
 -1      1491-7.06113E-03 1.42788E-01-2.92505E-03
 -1      1492-7.11480E-03 1.43847E-01-3.93481E-03
 -1      1493-3.50626E-03 1.42989E-01-9.69334E-04
 -1      1494-3.74894E-03 1.43406E-01-1.94666E-03
 -1      1495-3.94966E-03 1.44167E-01-2.94025E-03
 -1      1496-4.09332E-03 1.45308E-01-3.95622E-03
 -1      1497-4.56308E-04 1.43459E-01-9.71104E-04
 -1      1498-7.43784E-04 1.43950E-01-1.95072E-03
 -1      1499-1.01568E-03 1.44788E-01-2.94723E-03
 -1      1500-1.26160E-03 1.46010E-01-3.96682E-03
 -1      1501 2.46254E-03 1.43177E-01-9.70252E-04
 -1      1502 2.14769E-03 1.43737E-01-1.94944E-03
 -1      1503 1.82165E-03 1.44646E-01-2.94612E-03
 -1      1504 1.48924E-03 1.45940E-01-3.96654E-03
 -1      1505 5.49121E-03 1.42182E-01-9.66879E-04
 -1      1506 5.13886E-03 1.42799E-01-1.94309E-03
 -1      1507 4.74844E-03 1.43762E-01-2.93719E-03
 -1      1508 4.31918E-03 1.45109E-01-3.95542E-03
 -1      1509 8.75175E-03 1.40498E-01-9.61069E-04
 -1      1510 8.35421E-03 1.41159E-01-1.93173E-03
 -1      1511 7.89202E-03 1.42160E-01-2.92048E-03
 -1      1512 7.35887E-03 1.43539E-01-3.93353E-03
 -1      1513 1.23620E-02 1.38166E-01-9.52789E-04
 -1      1514 1.19141E-02 1.38855E-01-1.91533E-03
 -1      1515 1.13757E-02 1.39877E-01-2.89603E-03
 -1      1516 1.07352E-02 1.41266E-01-3.90101E-03
 -1      1517 1.64333E-02 1.35241E-01-9.42077E-04
 -1      1518 1.59327E-02 1.35944E-01-1.89399E-03
 -1      1519 1.53168E-02 1.36968E-01-2.86397E-03
 -1      1520 1.45689E-02 1.38347E-01-3.85808E-03
 -1      1521 2.10688E-02 1.31794E-01-9.28998E-04
 -1      1522 2.05157E-02 1.32496E-01-1.86782E-03
 -1      1523 1.98241E-02 1.33505E-01-2.82453E-03
 -1      1524 1.89724E-02 1.34853E-01-3.80506E-03
 -1      1525 2.63617E-02 1.27909E-01-9.13638E-04
 -1      1526 2.57591E-02 1.28595E-01-1.83701E-03
 -1      1527 2.49962E-02 1.29573E-01-2.77796E-03
 -1      1528 2.40477E-02 1.30870E-01-3.74228E-03
 -1      1529 3.23935E-02 1.23682E-01-8.96093E-04
 -1      1530 3.17465E-02 1.24340E-01-1.80175E-03
 -1      1531 3.09199E-02 1.25272E-01-2.72457E-03
 -1      1532 2.98845E-02 1.26500E-01-3.67016E-03
 -1      1533 3.92325E-02 1.19219E-01-8.76461E-04
 -1      1534 3.85487E-02 1.19837E-01-1.76224E-03
 -1      1535 3.76680E-02 1.20709E-01-2.66466E-03
 -1      1536 3.65586E-02 1.21853E-01-3.58915E-03
 -1      1537 4.69329E-02 1.14636E-01-8.54837E-04
 -1      1538 4.62215E-02 1.15205E-01-1.71869E-03
 -1      1539 4.52987E-02 1.16006E-01-2.59857E-03
 -1      1540 4.41302E-02 1.17052E-01-3.49971E-03
 -1      1541 5.55331E-02 1.10057E-01-8.31302E-04
 -1      1542 5.48053E-02 1.10569E-01-1.67127E-03
 -1      1543 5.38539E-02 1.11289E-01-2.52662E-03
 -1      1544 5.26435E-02 1.12227E-01-3.40233E-03
 -1      1545 6.50561E-02 1.05607E-01-8.05923E-04
 -1      1546 6.43240E-02 1.06056E-01-1.62015E-03
 -1      1547 6.33591E-02 1.06691E-01-2.44909E-03
 -1      1548 6.21250E-02 1.07513E-01-3.29748E-03
 -1      1549 7.55081E-02 1.01417E-01-7.78740E-04
 -1      1550 7.47847E-02 1.01801E-01-1.56542E-03
 -1      1551 7.38221E-02 1.02346E-01-2.36621E-03
 -1      1552 7.25838E-02 1.03049E-01-3.18558E-03
 -1      1553 8.68788E-02 9.76177E-02-7.49781E-04
 -1      1554 8.61777E-02 9.79358E-02-1.50716E-03
 -1      1555 8.52336E-02 9.83907E-02-2.27813E-03
 -1      1556 8.40110E-02 9.89743E-02-3.06701E-03
 -1      1557 9.91416E-02 9.43382E-02-7.19107E-04
 -1      1558 9.84764E-02 9.45931E-02-1.44547E-03
 -1      1559 9.75672E-02 9.49614E-02-2.18499E-03
 -1      1560 9.63799E-02 9.54292E-02-2.94205E-03
 -1      1561 1.12255E-01 9.17038E-02-6.86913E-04
 -1      1562 1.11638E-01 9.19009E-02-1.38063E-03
 -1      1563 1.10780E-01 9.21894E-02-2.08705E-03
 -1      1564 1.09647E-01 9.25491E-02-2.81094E-03
 -1      1565 1.26161E-01 8.98334E-02-6.53704E-04
 -1      1566 1.25606E-01 8.99811E-02-1.31346E-03
 -1      1567 1.24813E-01 9.01999E-02-1.98506E-03
 -1      1568 1.23754E-01 9.04638E-02-2.67403E-03
 -1      1569 1.40792E-01 8.88367E-02-6.20523E-04
 -1      1570 1.40310E-01 8.89452E-02-1.24587E-03
 -1      1571 1.39595E-01 8.91077E-02-1.88111E-03
 -1      1572 1.38626E-01 8.92930E-02-2.53246E-03
 -1      1573 1.56067E-01 8.88071E-02-5.89179E-04
 -1      1574 1.55666E-01 8.88891E-02-1.18141E-03
 -1      1575 1.55042E-01 8.90107E-02-1.78020E-03
 -1      1576 1.54176E-01 8.91384E-02-2.39024E-03
 -1      1577-1.48110E-01-7.45294E-03 4.96996E-04
 -1      1578-1.47930E-01-7.43288E-03 9.98508E-04
 -1      1579-1.47545E-01-7.38631E-03 1.50702E-03
 -1      1580-1.46953E-01-7.31257E-03 2.02068E-03
 -1      1581-1.25078E-01-2.54049E-03 5.13716E-04
 -1      1582-1.24999E-01-2.54122E-03 1.03185E-03
 -1      1583-1.24709E-01-2.50276E-03 1.55670E-03
 -1      1584-1.24209E-01-2.42388E-03 2.08665E-03
 -1      1585-1.03510E-01 4.12637E-03 5.28524E-04
 -1      1586-1.03516E-01 4.09154E-03 1.06229E-03
 -1      1587-1.03307E-01 4.11142E-03 1.60454E-03
 -1      1588-1.02883E-01 4.18992E-03 2.15501E-03
 -1      1589-8.35909E-02 1.23337E-02 5.43584E-04
 -1      1590-8.36638E-02 1.22558E-02 1.09366E-03
 -1      1591-8.35190E-02 1.22509E-02 1.65476E-03
 -1      1592-8.31561E-02 1.23253E-02 2.22731E-03
 -1      1593-6.54724E-02 2.18384E-02 5.59584E-04
 -1      1594-6.55936E-02 2.17125E-02 1.12691E-03
 -1      1595-6.54957E-02 2.16795E-02 1.70758E-03
 -1      1596-6.51784E-02 2.17476E-02 2.30242E-03
 -1      1597-4.92711E-02 3.23782E-02 5.76397E-04
 -1      1598-4.94212E-02 3.22028E-02 1.16156E-03
 -1      1599-4.93531E-02 3.21416E-02 1.76200E-03
 -1      1600-4.90665E-02 3.22033E-02 2.37866E-03
 -1      1601-3.50667E-02 4.36781E-02 5.93592E-04
 -1      1602-3.52268E-02 4.34554E-02 1.19676E-03
 -1      1603-3.51719E-02 4.33687E-02 1.81669E-03
 -1      1604-3.49017E-02 4.34268E-02 2.45444E-03
 -1      1605-2.29022E-02 5.54555E-02 6.10694E-04
 -1      1606-2.30539E-02 5.51915E-02 1.23160E-03
 -1      1607-2.29965E-02 5.50852E-02 1.87042E-03
 -1      1608-2.27296E-02 5.51453E-02 2.52831E-03
 -1      1609-1.27823E-02 6.74250E-02 6.27283E-04
 -1      1610-1.29091E-02 6.71293E-02 1.26529E-03
 -1      1611-1.28351E-02 6.70125E-02 1.92216E-03
 -1      1612-1.25597E-02 6.70832E-02 2.59908E-03
 -1      1613-4.67437E-03 7.93037E-02 6.43017E-04
 -1      1614-4.76177E-03 7.89893E-02 1.29719E-03
 -1      1615-4.65911E-03 7.88743E-02 1.97103E-03
 -1      1616-4.36550E-03 7.89668E-02 2.66577E-03
 -1      1617 1.49188E-03 9.08158E-02 6.57632E-04
 -1      1618 1.45560E-03 9.04988E-02 1.32682E-03
 -1      1619 1.59622E-03 9.04005E-02 2.01636E-03
 -1      1620 1.91507E-03 9.05287E-02 2.72757E-03
 -1      1621 5.82297E-03 1.01698E-01 6.70926E-04
 -1      1622 5.84615E-03 1.01397E-01 1.35379E-03
 -1      1623 6.03084E-03 1.01333E-01 2.05763E-03
 -1      1624 6.37891E-03 1.01513E-01 2.78381E-03
 -1      1625 8.45977E-03 1.11704E-01 6.82749E-04
 -1      1626 8.54686E-03 1.11441E-01 1.37779E-03
 -1      1627 8.77808E-03 1.11430E-01 2.09440E-03
 -1      1628 9.15595E-03 1.11678E-01 2.83398E-03
 -1      1629 9.57510E-03 1.20610E-01 6.92990E-04
 -1      1630 9.72632E-03 1.20406E-01 1.39863E-03
 -1      1631 1.00025E-02 1.20469E-01 2.12637E-03
 -1      1632 1.04070E-02 1.20805E-01 2.87767E-03
 -1      1633 9.37048E-03 1.28217E-01 7.01567E-04
 -1      1634 9.58141E-03 1.28097E-01 1.41614E-03
 -1      1635 9.89678E-03 1.28254E-01 2.15330E-03
 -1      1636 1.03206E-02 1.28696E-01 2.91457E-03
 -1      1637 8.07238E-03 1.34358E-01 7.08426E-04
 -1      1638 8.33394E-03 1.34344E-01 1.43020E-03
 -1      1639 8.67827E-03 1.34616E-01 2.17503E-03
 -1      1640 9.11018E-03 1.35183E-01 2.94444E-03
 -1      1641 5.92800E-03 1.38896E-01 7.13523E-04
 -1      1642 6.22629E-03 1.39011E-01 1.44074E-03
 -1      1643 6.58494E-03 1.39418E-01 2.19141E-03
 -1      1644 7.00958E-03 1.40127E-01 2.96713E-03
 -1      1645 3.20088E-03 1.41733E-01 7.16825E-04
 -1      1646 3.51725E-03 1.41996E-01 1.44766E-03
 -1      1647 3.87117E-03 1.42557E-01 2.20235E-03
 -1      1648 4.26910E-03 1.43423E-01 2.98250E-03
 -1      1649 1.66937E-04 1.42803E-01 7.18192E-04
 -1      1650 4.77902E-04 1.43234E-01 1.45060E-03
 -1      1651 8.03527E-04 1.43963E-01 2.20727E-03
 -1      1652 1.15104E-03 1.45000E-01 2.98993E-03
 -1      1653-2.77827E-03 1.42149E-01 7.17047E-04
 -1      1654-2.52744E-03 1.42741E-01 1.44899E-03
 -1      1655-2.28522E-03 1.43634E-01 2.20582E-03
 -1      1656-2.04449E-03 1.44837E-01 2.98912E-03
 -1      1657-5.49923E-03 1.39861E-01 7.14962E-04
 -1      1658-5.33078E-03 1.40591E-01 1.44484E-03
 -1      1659-5.19447E-03 1.41621E-01 2.19976E-03
 -1      1660-5.08348E-03 1.42960E-01 2.98134E-03
 -1      1661-7.75257E-03 1.35987E-01 7.11038E-04
 -1      1662-7.68329E-03 1.36827E-01 1.43709E-03
 -1      1663-7.66974E-03 1.37964E-01 2.18820E-03
 -1      1664-7.70538E-03 1.39409E-01 2.96603E-03
 -1      1665-9.30219E-03 1.30602E-01 7.05349E-04
 -1      1666-9.34368E-03 1.31526E-01 1.42576E-03
 -1      1667-9.46413E-03 1.32740E-01 2.17118E-03
 -1      1668-9.65735E-03 1.34256E-01 2.94326E-03
 -1      1669-9.92384E-03 1.23817E-01 6.97958E-04
 -1      1670-1.00827E-02 1.24796E-01 1.41096E-03
 -1      1671-1.03429E-02 1.26057E-01 2.14883E-03
 -1      1672-1.06987E-02 1.27611E-01 2.91319E-03
 -1      1673-9.40962E-03 1.15770E-01 6.88939E-04
 -1      1674-9.68724E-03 1.16776E-01 1.39283E-03
 -1      1675-1.00875E-02 1.18052E-01 2.12134E-03
 -1      1676-1.06052E-02 1.19611E-01 2.87605E-03
 -1      1677-7.57144E-03 1.06624E-01 6.78371E-04
 -1      1678-7.96445E-03 1.07631E-01 1.37152E-03
 -1      1679-8.49988E-03 1.08893E-01 2.08893E-03
 -1      1680-9.17302E-03 1.10425E-01 2.83214E-03
 -1      1681-4.24427E-03 9.65694E-02 6.66355E-04
 -1      1682-4.74475E-03 9.75509E-02 1.34723E-03
 -1      1683-5.40551E-03 9.87721E-02 2.05187E-03
 -1      1684-6.22264E-03 1.00247E-01 2.78182E-03
 -1      1685 7.10942E-04 8.58136E-02 6.53015E-04
 -1      1686 1.15183E-04 8.67472E-02 1.32019E-03
 -1      1687-6.56798E-04 8.79026E-02 2.01054E-03
 -1      1688-1.60159E-03 8.92939E-02 2.72554E-03
 -1      1689 7.40513E-03 7.45821E-02 6.38510E-04
 -1      1690 6.72982E-03 7.54482E-02 1.29072E-03
 -1      1691 5.86476E-03 7.65165E-02 1.96534E-03
 -1      1692 4.81258E-03 7.78012E-02 2.66382E-03
 -1      1693 1.59192E-02 6.31132E-02 6.23044E-04
 -1      1694 1.51831E-02 6.38956E-02 1.25919E-03
 -1      1695 1.42463E-02 6.48594E-02 1.91681E-03
 -1      1696 1.31105E-02 6.60188E-02 2.59732E-03
 -1      1697 2.63029E-02 5.16537E-02 6.06874E-04
 -1      1698 2.55272E-02 5.23404E-02 1.22611E-03
 -1      1699 2.45422E-02 5.31868E-02 1.86564E-03
 -1      1700 2.33490E-02 5.42069E-02 2.52687E-03
 -1      1701 3.85737E-02 4.04555E-02 5.90326E-04
 -1      1702 3.77813E-02 4.10387E-02 1.19207E-03
 -1      1703 3.67735E-02 4.17595E-02 1.81265E-03
 -1      1704 3.55510E-02 4.26315E-02 2.45342E-03
 -1      1705 5.27172E-02 2.97706E-02 5.73784E-04
 -1      1706 5.19317E-02 3.02474E-02 1.15782E-03
 -1      1707 5.09275E-02 3.08397E-02 1.75884E-03
 -1      1708 4.97046E-02 3.15600E-02 2.37815E-03
 -1      1709 6.86871E-02 1.98478E-02 5.57667E-04
 -1      1710 6.79322E-02 2.02198E-02 1.12418E-03
 -1      1711 6.69578E-02 2.06859E-02 1.70539E-03
 -1      1712 6.57633E-02 2.12568E-02 2.30242E-03
 -1      1713 8.64055E-02 1.09284E-02 5.42314E-04
 -1      1714 8.57043E-02 1.12022E-02 1.09190E-03
 -1      1715 8.47848E-02 1.15496E-02 1.65347E-03
 -1      1716 8.36463E-02 1.19793E-02 2.22777E-03
 -1      1717 1.05764E-01 3.24195E-03 5.27733E-04
 -1      1718 1.05138E-01 3.42856E-03 1.06124E-03
 -1      1719 1.04296E-01 3.67035E-03 1.60394E-03
 -1      1720 1.03239E-01 3.97268E-03 2.15574E-03
 -1      1721 1.26623E-01-2.99929E-03 5.13132E-04
 -1      1722 1.26091E-01-2.88502E-03 1.03112E-03
 -1      1723 1.25349E-01-2.73128E-03 1.55636E-03
 -1      1724 1.24395E-01-2.53594E-03 2.08730E-03
 -1      1725 1.48817E-01-7.60922E-03 4.96354E-04
 -1      1726 1.48397E-01-7.54981E-03 9.97580E-04
 -1      1727 1.47771E-01-7.46374E-03 1.50634E-03
 -1      1728 1.46938E-01-7.34993E-03 2.02068E-03
 -1      1729-1.53637E-01 6.94465E-02 0.00000E+00
 -1      1730-1.51959E-01 5.03028E-02 0.00000E+00
 -1      1731-1.50523E-01 3.11347E-02 0.00000E+00
 -1      1732-1.49255E-01 1.18871E-02 0.00000E+00
 -1      1733-1.36211E-01 7.05526E-02 0.00000E+00
 -1      1734-1.33100E-01 5.23715E-02 0.00000E+00
 -1      1735-1.30248E-01 3.41668E-02 0.00000E+00
 -1      1736-1.27557E-01 1.58852E-02 0.00000E+00
 -1      1737-1.19666E-01 7.28748E-02 0.00000E+00
 -1      1738-1.15270E-01 5.58139E-02 0.00000E+00
 -1      1739-1.11148E-01 3.87106E-02 0.00000E+00
 -1      1740-1.07183E-01 2.15208E-02 0.00000E+00
 -1      1741-1.04109E-01 7.62664E-02 0.00000E+00
 -1      1742-9.85998E-02 6.04536E-02 0.00000E+00
 -1      1743-9.33738E-02 4.45711E-02 0.00000E+00
 -1      1744-8.83040E-02 2.85880E-02 0.00000E+00
 -1      1745-8.96293E-02 8.05718E-02 0.00000E+00
 -1      1746-8.31965E-02 6.61069E-02 0.00000E+00
 -1      1747-7.70512E-02 5.15421E-02 0.00000E+00
 -1      1748-7.10608E-02 3.68617E-02 0.00000E+00
 -1      1749-7.63001E-02 8.56260E-02 0.00000E+00
 -1      1750-6.91438E-02 7.25818E-02 0.00000E+00
 -1      1751-6.22759E-02 5.94065E-02 0.00000E+00
 -1      1752-5.55606E-02 4.61006E-02 0.00000E+00
 -1      1753-6.41721E-02 9.12568E-02 0.00000E+00
 -1      1754-5.65001E-02 7.96786E-02 0.00000E+00
 -1      1755-4.91139E-02 6.79382E-02 0.00000E+00
 -1      1756-4.18764E-02 5.60523E-02 0.00000E+00
 -1      1757-5.32741E-02 9.72870E-02 0.00000E+00
 -1      1758-4.52976E-02 8.71926E-02 0.00000E+00
 -1      1759-3.76006E-02 7.69048E-02 0.00000E+00
 -1      1760-3.00469E-02 6.64572E-02 0.00000E+00
 -1      1761-4.36108E-02 1.03538E-01 0.00000E+00
 -1      1762-3.55408E-02 9.49170E-02 0.00000E+00
 -1      1763-2.77402E-02 8.60721E-02 0.00000E+00
 -1      1764-2.00759E-02 7.70535E-02 0.00000E+00
 -1      1765-3.51634E-02 1.09832E-01 0.00000E+00
 -1      1766-2.72069E-02 1.02647E-01 0.00000E+00
 -1      1767-1.95057E-02 9.52076E-02 0.00000E+00
 -1      1768-1.19324E-02 8.75813E-02 0.00000E+00
 -1      1769-2.78898E-02 1.15999E-01 0.00000E+00
 -1      1770-2.02457E-02 1.10183E-01 0.00000E+00
 -1      1771-1.28394E-02 1.04085E-01 0.00000E+00
 -1      1772-5.55088E-03 9.77880E-02 0.00000E+00
 -1      1773-2.17249E-02 1.21873E-01 0.00000E+00
 -1      1774-1.45807E-02 1.17335E-01 0.00000E+00
 -1      1775-7.65338E-03 1.12490E-01 0.00000E+00
 -1      1776-8.32377E-04 1.07433E-01 0.00000E+00
 -1      1777-1.65824E-02 1.27302E-01 0.00000E+00
 -1      1778-1.01108E-02 1.23927E-01 0.00000E+00
 -1      1779-3.83177E-03 1.20219E-01 0.00000E+00
 -1      1780 2.35359E-03 1.16291E-01 0.00000E+00
 -1      1781-1.23560E-02 1.32148E-01 0.00000E+00
 -1      1782-6.71164E-03 1.29797E-01 0.00000E+00
 -1      1783-1.23253E-03 1.27092E-01 0.00000E+00
 -1      1784 4.16670E-03 1.24157E-01 0.00000E+00
 -1      1785-8.92205E-03 1.36289E-01 0.00000E+00
 -1      1786-4.23835E-03 1.34803E-01 0.00000E+00
 -1      1787 3.09889E-04 1.32947E-01 0.00000E+00
 -1      1788 4.79294E-03 1.30853E-01 0.00000E+00
 -1      1789-6.14126E-03 1.39621E-01 0.00000E+00
 -1      1790-2.52820E-03 1.38827E-01 0.00000E+00
 -1      1791 9.81280E-04 1.37648E-01 0.00000E+00
 -1      1792 4.44102E-03 1.36225E-01 0.00000E+00
 -1      1793-3.86180E-03 1.42061E-01 0.00000E+00
 -1      1794-1.40372E-03 1.41771E-01 0.00000E+00
 -1      1795 9.84188E-04 1.41086E-01 0.00000E+00
 -1      1796 3.33843E-03 1.40152E-01 0.00000E+00
 -1      1797-1.92193E-03 1.43551E-01 0.00000E+00
 -1      1798-6.76101E-04 1.43568E-01 0.00000E+00
 -1      1799 5.33782E-04 1.43182E-01 0.00000E+00
 -1      1800 1.72703E-03 1.42545E-01 0.00000E+00
 -1      1801 1.52512E-03 1.43606E-01 0.00000E+00
 -1      1802 3.49320E-04 1.43631E-01 0.00000E+00
 -1      1803-7.93683E-04 1.43254E-01 0.00000E+00
 -1      1804-1.92059E-03 1.42626E-01 0.00000E+00
 -1      1805 3.35088E-03 1.42265E-01 0.00000E+00
 -1      1806 1.01931E-03 1.42013E-01 0.00000E+00
 -1      1807-1.24596E-03 1.41365E-01 0.00000E+00
 -1      1808-3.47983E-03 1.40469E-01 0.00000E+00
 -1      1809 5.46839E-03 1.40060E-01 0.00000E+00
 -1      1810 2.03007E-03 1.39353E-01 0.00000E+00
 -1      1811-1.30971E-03 1.38259E-01 0.00000E+00
 -1      1812-4.60251E-03 1.36920E-01 0.00000E+00
 -1      1813 8.01695E-03 1.37041E-01 0.00000E+00
 -1      1814 3.54451E-03 1.35708E-01 0.00000E+00
 -1      1815-7.98647E-04 1.34000E-01 0.00000E+00
 -1      1816-5.07983E-03 1.32054E-01 0.00000E+00
 -1      1817 1.11285E-02 1.33276E-01 0.00000E+00
 -1      1818 5.71676E-03 1.31156E-01 0.00000E+00
 -1      1819 4.63239E-04 1.28677E-01 0.00000E+00
 -1      1820-4.71407E-03 1.25967E-01 0.00000E+00
 -1      1821 1.49250E-02 1.28848E-01 0.00000E+00
 -1      1822 8.68957E-03 1.25794E-01 0.00000E+00
 -1      1823 2.63889E-03 1.22402E-01 0.00000E+00
 -1      1824-3.32216E-03 1.18786E-01 0.00000E+00
 -1      1825 1.95168E-02 1.23858E-01 0.00000E+00
 -1      1826 1.25917E-02 1.19741E-01 0.00000E+00
 -1      1827 5.87539E-03 1.15306E-01 0.00000E+00
 -1      1828-7.38831E-04 1.10657E-01 0.00000E+00
 -1      1829 2.50000E-02 1.18421E-01 0.00000E+00
 -1      1830 1.75357E-02 1.13128E-01 0.00000E+00
 -1      1831 1.03015E-02 1.07542E-01 0.00000E+00
 -1      1832 3.18068E-03 1.01751E-01 0.00000E+00
 -1      1833 3.14553E-02 1.12663E-01 0.00000E+00
 -1      1834 2.36163E-02 1.06102E-01 0.00000E+00
 -1      1835 1.60255E-02 9.92745E-02 0.00000E+00
 -1      1836 8.55805E-03 9.22540E-02 0.00000E+00
 -1      1837 3.89464E-02 1.06722E-01 0.00000E+00
 -1      1838 3.09082E-02 9.88229E-02 0.00000E+00
 -1      1839 2.31330E-02 9.06850E-02 0.00000E+00
 -1      1840 1.54900E-02 8.23666E-02 0.00000E+00
 -1      1841 4.75192E-02 1.00741E-01 0.00000E+00
 -1      1842 3.94654E-02 9.14573E-02 0.00000E+00
 -1      1843 3.16860E-02 8.19633E-02 0.00000E+00
 -1      1844 2.40464E-02 7.23017E-02 0.00000E+00
 -1      1845 5.72002E-02 9.48708E-02 0.00000E+00
 -1      1846 4.93198E-02 8.41791E-02 0.00000E+00
 -1      1847 4.17219E-02 7.33064E-02 0.00000E+00
 -1      1848 3.42697E-02 6.22796E-02 0.00000E+00
 -1      1849 6.79972E-02 8.92641E-02 0.00000E+00
 -1      1850 6.04811E-02 7.71651E-02 0.00000E+00
 -1      1851 5.32524E-02 6.49149E-02 0.00000E+00
 -1      1852 4.61739E-02 5.25244E-02 0.00000E+00
 -1      1853 7.98981E-02 8.40740E-02 0.00000E+00
 -1      1854 7.29366E-02 7.05926E-02 0.00000E+00
 -1      1855 6.62637E-02 5.69896E-02 0.00000E+00
 -1      1856 5.97444E-02 4.32605E-02 0.00000E+00
 -1      1857 9.28720E-02 7.94515E-02 0.00000E+00
 -1      1858 8.66512E-02 6.46362E-02 0.00000E+00
 -1      1859 8.07171E-02 4.97285E-02 0.00000E+00
 -1      1860 7.49384E-02 3.47090E-02 0.00000E+00
 -1      1861 1.06870E-01 7.55430E-02 0.00000E+00
 -1      1862 1.01569E-01 5.94654E-02 0.00000E+00
 -1      1863 9.65488E-02 4.33237E-02 0.00000E+00
 -1      1864 9.16853E-02 2.70845E-02 0.00000E+00
 -1      1865 1.21827E-01 7.24881E-02 0.00000E+00
 -1      1866 1.17612E-01 5.52432E-02 0.00000E+00
 -1      1867 1.13671E-01 3.79594E-02 0.00000E+00
 -1      1868 1.09887E-01 2.05910E-02 0.00000E+00
 -1      1869 1.37662E-01 7.04190E-02 0.00000E+00
 -1      1870 1.34687E-01 5.21261E-02 0.00000E+00
 -1      1871 1.31972E-01 3.38108E-02 0.00000E+00
 -1      1872 1.29417E-01 1.54192E-02 0.00000E+00
 -1      1873 1.54282E-01 6.94605E-02 0.00000E+00
 -1      1874 1.52679E-01 5.02647E-02 0.00000E+00
 -1      1875 1.51318E-01 3.10442E-02 0.00000E+00
 -1      1876 1.50125E-01 1.17433E-02 0.00000E+00
 -1      1877-1.51340E-01 6.97518E-02-1.78820E-03
 -1      1878-1.49766E-01 5.06016E-02-6.40014E-04
 -1      1879-1.48430E-01 3.14385E-02 4.62932E-04
 -1      1880-1.47253E-01 1.21782E-02 1.52182E-03
 -1      1881-1.34225E-01 7.09678E-02-1.89603E-03
 -1      1882-1.31264E-01 5.27443E-02-6.84741E-04
 -1      1883-1.28557E-01 3.45097E-02 4.71193E-04
 -1      1884-1.26001E-01 1.61831E-02 1.57236E-03
 -1      1885-1.17963E-01 7.33828E-02-2.00735E-03
 -1      1886-1.13751E-01 5.62349E-02-7.36376E-04
 -1      1887-1.09807E-01 3.90598E-02 4.72620E-04
 -1      1888-1.06009E-01 2.17844E-02 1.62092E-03
 -1      1889-1.02658E-01 7.68537E-02-2.11625E-03
 -1      1890-9.73536E-02 6.09037E-02-7.88317E-04
 -1      1891-9.23260E-02 4.49013E-02 4.73804E-04
 -1      1892-8.74401E-02 2.87858E-02 1.67148E-03
 -1      1893-8.83967E-02 8.12298E-02-2.22078E-03
 -1      1894-8.21752E-02 6.65740E-02-8.37716E-04
 -1      1895-7.62352E-02 5.18372E-02 4.76834E-04
 -1      1896-7.04337E-02 3.69738E-02 1.72398E-03
 -1      1897-7.52509E-02 8.63526E-02-2.32027E-03
 -1      1898-6.82990E-02 7.30623E-02-8.83735E-04
 -1      1899-6.16301E-02 5.96614E-02 4.81918E-04
 -1      1900-5.50957E-02 4.61208E-02 1.77749E-03
 -1      1901-6.32722E-02 9.20572E-02-2.41443E-03
 -1      1902-5.57844E-02 8.01789E-02-9.26329E-04
 -1      1903-4.85778E-02 6.81599E-02 4.88598E-04
 -1      1904-4.15012E-02 5.59889E-02 1.83093E-03
 -1      1905-5.24918E-02 9.81744E-02-2.50302E-03
 -1      1906-4.46666E-02 8.77291E-02-9.65662E-04
 -1      1907-3.71177E-02 7.71133E-02 4.96285E-04
 -1      1908-2.96930E-02 6.63337E-02 1.88325E-03
 -1      1909-4.29192E-02 1.04533E-01-2.58580E-03
 -1      1910-3.49558E-02 9.55168E-02-1.00189E-03
 -1      1911-2.72600E-02 8.62998E-02 5.04450E-04
 -1      1912-1.96816E-02 7.69081E-02 1.93358E-03
 -1      1913-3.45420E-02 1.10965E-01-2.66250E-03
 -1      1914-2.66363E-02 1.03347E-01-1.03511E-03
 -1      1915-1.89861E-02 9.54992E-02 5.12670E-04
 -1      1916-1.14456E-02 8.74667E-02 1.98115E-03
 -1      1917-2.73256E-02 1.17303E-01-2.73280E-03
 -1      1918-1.96673E-02 1.11028E-01-1.06533E-03
 -1      1919-1.22489E-02 1.04496E-01 5.20617E-04
 -1      1920-4.93152E-03 9.77694E-02 2.02536E-03
 -1      1921-2.12140E-02 1.23389E-01-2.79637E-03
 -1      1922-1.39834E-02 1.18378E-01-1.09254E-03
 -1      1923-6.97338E-03 1.13084E-01 5.28056E-04
 -1      1924-5.48657E-05 1.07586E-01 2.06570E-03
 -1      1925-1.61312E-02 1.29075E-01-2.85289E-03
 -1      1926-9.49532E-03 1.25225E-01-1.11663E-03
 -1      1927-3.05791E-03 1.21068E-01 5.34819E-04
 -1      1928 3.29845E-03 1.16699E-01 2.10179E-03
 -1      1929-1.19819E-02 1.34223E-01-2.90205E-03
 -1      1930-6.09238E-03 1.31410E-01-1.13754E-03
 -1      1931-3.76190E-04 1.28270E-01 5.40785E-04
 -1      1932 5.27014E-03 1.24911E-01 2.13331E-03
 -1      1933-8.65373E-03 1.38711E-01-2.94356E-03
 -1      1934-3.64375E-03 1.36794E-01-1.15518E-03
 -1      1935 1.22067E-03 1.34531E-01 5.45881E-04
 -1      1936 6.02701E-03 1.32043E-01 2.16000E-03
 -1      1937-6.01927E-03 1.42434E-01-2.97718E-03
 -1      1938-2.00116E-03 1.41255E-01-1.16945E-03
 -1      1939 1.90130E-03 1.39713E-01 5.50036E-04
 -1      1940 5.75803E-03 1.37942E-01 2.18170E-03
 -1      1941-3.93812E-03 1.45306E-01-3.00274E-03
 -1      1942-1.00148E-03 1.44691E-01-1.18029E-03
 -1      1943 1.85115E-03 1.43702E-01 5.53204E-04
 -1      1944 4.67087E-03 1.42481E-01 2.19824E-03
 -1      1945-2.25970E-03 1.47261E-01-3.02009E-03
 -1      1946-4.69827E-04 1.47028E-01-1.18763E-03
 -1      1947 1.26899E-03 1.46414E-01 5.55368E-04
 -1      1948 2.98811E-03 1.45564E-01 2.20949E-03
 -1      1949-8.25966E-04 1.48253E-01-3.02904E-03
 -1      1950-2.22613E-04 1.48213E-01-1.19134E-03
 -1      1951 3.63469E-04 1.47788E-01 5.56621E-04
 -1      1952 9.43253E-04 1.47126E-01 2.21543E-03
 -1      1953 5.25499E-04 1.48259E-01-3.02961E-03
 -1      1954-7.10957E-05 1.48220E-01-1.19151E-03
 -1      1955-6.50903E-04 1.47795E-01 5.56762E-04
 -1      1956-1.22370E-03 1.47133E-01 2.21577E-03
 -1      1957 1.95878E-03 1.47278E-01-3.02165E-03
 -1      1958 1.75323E-04 1.47046E-01-1.18813E-03
 -1      1959-1.55752E-03 1.46432E-01 5.55748E-04
 -1      1960-3.27023E-03 1.45583E-01 2.21055E-03
 -1      1961 3.63659E-03 1.45332E-01-3.00512E-03
 -1      1962 7.05639E-04 1.44718E-01-1.18113E-03
 -1      1963-2.14162E-03 1.43729E-01 5.53675E-04
 -1      1964-4.95575E-03 1.42508E-01 2.19990E-03
 -1      1965 5.71707E-03 1.42466E-01-2.98017E-03
 -1      1966 1.70366E-03 1.41288E-01-1.17054E-03
 -1      1967-2.19424E-03 1.39746E-01 5.50596E-04
 -1      1968-6.04628E-03 1.37976E-01 2.18386E-03
 -1      1969 8.35087E-03 1.38748E-01-2.94697E-03
 -1      1970 3.34455E-03 1.36832E-01-1.15644E-03
 -1      1971-1.51622E-03 1.34569E-01 5.46526E-04
 -1      1972-6.31880E-03 1.32082E-01 2.16254E-03
 -1      1973 1.16784E-02 1.34263E-01-2.90577E-03
 -1      1974 5.79160E-03 1.31452E-01-1.13893E-03
 -1      1975 7.81285E-05 1.28312E-01 5.41494E-04
 -1      1976-5.56537E-03 1.24954E-01 2.13609E-03
 -1      1977 1.58274E-02 1.29118E-01-2.85682E-03
 -1      1978 9.19325E-03 1.25269E-01-1.11809E-03
 -1      1979 2.75765E-03 1.21112E-01 5.35566E-04
 -1      1980-3.59677E-03 1.16744E-01 2.10472E-03
 -1      1981 2.09103E-02 1.23434E-01-2.80043E-03
 -1      1982 1.36804E-02 1.18423E-01-1.09405E-03
 -1      1983 6.67142E-03 1.13129E-01 5.28817E-04
 -1      1984-2.45991E-04 1.07631E-01 2.06872E-03
 -1      1985 2.70223E-02 1.17349E-01-2.73693E-03
 -1      1986 1.93641E-02 1.11074E-01-1.06688E-03
 -1      1987 1.19459E-02 1.04541E-01 5.21375E-04
 -1      1988 4.62886E-03 9.78140E-02 2.02840E-03
 -1      1989 3.42398E-02 1.11011E-01-2.66664E-03
 -1      1990 2.63335E-02 1.03392E-01-1.03667E-03
 -1      1991 1.86828E-02 9.55433E-02 5.13412E-04
 -1      1992 1.11420E-02 8.75096E-02 1.98417E-03
 -1      1993 4.26188E-02 1.04579E-01-2.58991E-03
 -1      1994 3.46541E-02 9.55609E-02-1.00345E-03
 -1      1995 2.69574E-02 8.63421E-02 5.05166E-04
 -1      1996 1.93781E-02 7.69484E-02 1.93655E-03
 -1      1997 5.21938E-02 9.82193E-02-2.50704E-03
 -1      1998 4.43670E-02 8.77716E-02-9.67200E-04
 -1      1999 3.68167E-02 7.71531E-02 4.96969E-04
 -1      2000 2.93907E-02 6.63707E-02 1.88614E-03
 -1      2001 6.29775E-02 9.21010E-02-2.41833E-03
 -1      2002 5.54878E-02 8.02192E-02-9.27835E-04
 -1      2003 4.82796E-02 6.81968E-02 4.89236E-04
 -1      2004 4.12015E-02 5.60222E-02 1.83370E-03
 -1      2005 7.49605E-02 8.63950E-02-2.32400E-03
 -1      2006 6.80065E-02 7.31005E-02-8.85200E-04
 -1      2007 6.13357E-02 5.96952E-02 4.82494E-04
 -1      2008 5.47997E-02 4.61501E-02 1.78012E-03
 -1      2009 8.81114E-02 8.12709E-02-2.22430E-03
 -1      2010 8.18879E-02 6.66098E-02-8.39137E-04
 -1      2011 7.59460E-02 5.18678E-02 4.77318E-04
 -1      2012 7.01427E-02 3.69991E-02 1.72639E-03
 -1      2013 1.02378E-01 7.68935E-02-2.11952E-03
 -1      2014 9.70725E-02 6.09374E-02-7.89694E-04
 -1      2015 9.20432E-02 4.49289E-02 4.74151E-04
 -1      2016 8.71557E-02 2.88072E-02 1.67359E-03
 -1      2017 1.17691E-01 7.34216E-02-2.01032E-03
 -1      2018 1.13478E-01 5.62668E-02-7.37712E-04
 -1      2019 1.09532E-01 3.90848E-02 4.72767E-04
 -1      2020 1.05732E-01 2.18024E-02 1.62259E-03
 -1      2021 1.33961E-01 7.10060E-02-1.89868E-03
 -1      2022 1.30999E-01 5.27747E-02-6.86048E-04
 -1      2023 1.28291E-01 3.45326E-02 4.71052E-04
 -1      2024 1.25734E-01 1.61983E-02 1.57339E-03
 -1      2025 1.51085E-01 6.97899E-02-1.79047E-03
 -1      2026 1.49511E-01 5.06314E-02-6.41379E-04
 -1      2027 1.48174E-01 3.14601E-02 4.62349E-04
 -1      2028 1.46996E-01 1.21914E-02 1.52200E-03
 -1      2029-1.48087E-01-7.45025E-03-6.16665E-04
 -1      2030-1.25081E-01-2.54437E-03-6.38028E-04
 -1      2031-1.03534E-01 4.11247E-03-6.56802E-04
 -1      2032-8.36317E-02 1.23073E-02-6.75798E-04
 -1      2033-6.55254E-02 2.17979E-02-6.95890E-04
 -1      2034-4.93312E-02 3.23232E-02-7.16920E-04
 -1      2035-3.51290E-02 4.36089E-02-7.38369E-04
 -1      2036-2.29617E-02 5.53737E-02-7.59664E-04
 -1      2037-1.28348E-02 6.73330E-02-7.80299E-04
 -1      2038-4.71581E-03 7.92048E-02-7.99864E-04
 -1      2039 1.46465E-03 9.07142E-02-8.18037E-04
 -1      2040 5.81226E-03 1.01598E-01-8.34574E-04
 -1      2041 8.46692E-03 1.11612E-01-8.49294E-04
 -1      2042 9.60037E-03 1.20532E-01-8.62064E-04
 -1      2043 9.41290E-03 1.28159E-01-8.72783E-04
 -1      2044 8.12981E-03 1.34325E-01-8.81391E-04
 -1      2045 5.99700E-03 1.38895E-01-8.87831E-04
 -1      2046 3.27681E-03 1.41768E-01-8.92055E-04
 -1      2047 2.43902E-04 1.42880E-01-8.93852E-04
 -1      2048-2.71398E-03 1.42267E-01-8.92591E-04
 -1      2049-5.45317E-03 1.40014E-01-8.90039E-04
 -1      2050-7.72894E-03 1.36167E-01-8.85209E-04
 -1      2051-9.30392E-03 1.30804E-01-8.78168E-04
 -1      2052-9.95269E-03 1.24034E-01-8.68999E-04
 -1      2053-9.46604E-03 1.15994E-01-8.57788E-04
 -1      2054-7.65475E-03 1.06850E-01-8.44640E-04
 -1      2055-4.35267E-03 9.67909E-02-8.29678E-04
 -1      2056 5.80292E-04 8.60250E-02-8.13056E-04
 -1      2057 7.25593E-03 7.47786E-02-7.94971E-04
 -1      2058 1.57559E-02 6.32908E-02-7.75672E-04
 -1      2059 2.61305E-02 5.18097E-02-7.55479E-04
 -1      2060 3.83977E-02 4.05878E-02-7.34791E-04
 -1      2061 5.25433E-02 2.98785E-02-7.14083E-04
 -1      2062 6.85209E-02 1.99317E-02-6.93876E-04
 -1      2063 8.62527E-02 1.09897E-02-6.74604E-04
 -1      2064 1.05629E-01 3.28324E-03-6.56316E-04
 -1      2065 1.26512E-01-2.97459E-03-6.38057E-04
 -1      2066 1.48733E-01-7.59693E-03-6.17065E-04
 -1      2067-1.47770E-01-7.41236E-03-1.24146E-03
 -1      2068-1.24887E-01-2.52686E-03-1.28377E-03
 -1      2069-1.03444E-01 4.09406E-03-1.32280E-03
 -1      2070-8.36245E-02 1.22430E-02-1.36317E-03
 -1      2071-6.55778E-02 2.16824E-02-1.40568E-03
 -1      2072-4.94201E-02 3.21553E-02-1.44968E-03
 -1      2073-3.52318E-02 4.33917E-02-1.49411E-03
 -1      2074-2.30568E-02 5.51146E-02-1.53791E-03
 -1      2075-1.29025E-02 6.70438E-02-1.58016E-03
 -1      2076-4.73916E-03 7.89014E-02-1.62013E-03
 -1      2077 1.49920E-03 9.04163E-02-1.65723E-03
 -1      2078 5.91410E-03 1.01329E-01-1.69100E-03
 -1      2079 8.64077E-03 1.11397E-01-1.72110E-03
 -1      2080 9.84564E-03 1.20397E-01-1.74726E-03
 -1      2081 9.72350E-03 1.28133E-01-1.76930E-03
 -1      2082 8.49386E-03 1.34436E-01-1.78708E-03
 -1      2083 6.39681E-03 1.39170E-01-1.80050E-03
 -1      2084 3.68885E-03 1.42231E-01-1.80947E-03
 -1      2085 6.38735E-04 1.43553E-01-1.81347E-03
 -1      2086-2.40483E-03 1.43142E-01-1.81200E-03
 -1      2087-5.25765E-03 1.41061E-01-1.80700E-03
 -1      2088-7.66806E-03 1.37351E-01-1.79745E-03
 -1      2089-9.39205E-03 1.32090E-01-1.78340E-03
 -1      2090-1.01976E-02 1.25384E-01-1.76498E-03
 -1      2091-9.86911E-03 1.17373E-01-1.74235E-03
 -1      2092-8.21100E-03 1.08224E-01-1.71571E-03
 -1      2093-5.05131E-03 9.81254E-02-1.68530E-03
 -1      2094-2.44638E-04 8.72915E-02-1.65141E-03
 -1      2095 6.32549E-03 7.59518E-02-1.61441E-03
 -1      2096 1.47446E-02 6.43500E-02-1.57476E-03
 -1      2097 2.50658E-02 5.27394E-02-1.53305E-03
 -1      2098 3.73094E-02 4.13782E-02-1.49000E-03
 -1      2099 5.14622E-02 3.05259E-02-1.44650E-03
 -1      2100 6.74777E-02 2.04386E-02-1.40355E-03
 -1      2101 8.52770E-02 1.13648E-02-1.36211E-03
 -1      2102 1.04749E-01 3.54130E-03-1.32270E-03
 -1      2103 1.25752E-01-2.81380E-03-1.28442E-03
 -1      2104 1.48114E-01-7.51053E-03-1.24272E-03
 -1      2105-1.47133E-01-7.33321E-03-1.87538E-03
 -1      2106-1.24365E-01-2.44848E-03-1.93794E-03
 -1      2107-1.03020E-01 4.16227E-03-2.00094E-03
 -1      2108-8.32778E-02 1.22954E-02-2.06713E-03
 -1      2109-6.52887E-02 2.17160E-02-2.13597E-03
 -1      2110-4.91688E-02 3.21700E-02-2.20605E-03
 -1      2111-3.49993E-02 4.33911E-02-2.27585E-03
 -1      2112-2.28255E-02 5.51059E-02-2.34403E-03
 -1      2113-1.26565E-02 6.70381E-02-2.40941E-03
 -1      2114-4.46537E-03 7.89133E-02-2.47106E-03
 -1      2115 1.81074E-03 9.04635E-02-2.52821E-03
 -1      2116 6.26941E-03 1.01432E-01-2.58022E-03
 -1      2117 9.04147E-03 1.11578E-01-2.62663E-03
 -1      2118 1.02885E-02 1.20681E-01-2.66706E-03
 -1      2119 1.02002E-02 1.28544E-01-2.70122E-03
 -1      2120 8.99083E-03 1.34999E-01-2.72889E-03
 -1      2121 6.89519E-03 1.39906E-01-2.74995E-03
 -1      2122 4.16453E-03 1.43163E-01-2.76428E-03
 -1      2123 1.06209E-03 1.44698E-01-2.77123E-03
 -1      2124-2.10359E-03 1.44493E-01-2.77045E-03
 -1      2125-5.10698E-03 1.42582E-01-2.76323E-03
 -1      2126-7.68910E-03 1.39005E-01-2.74900E-03
 -1      2127-9.59862E-03 1.33836E-01-2.72784E-03
 -1      2128-1.05963E-02 1.27182E-01-2.69991E-03
 -1      2129-1.04595E-02 1.19182E-01-2.66545E-03
 -1      2130-8.98589E-03 1.10005E-01-2.62474E-03
 -1      2131-5.99711E-03 9.98429E-02-2.57811E-03
 -1      2132-1.34197E-03 8.89131E-02-2.52599E-03
 -1      2133 5.10095E-03 7.74496E-02-2.46887E-03
 -1      2134 1.34213E-02 6.57012E-02-2.40740E-03
 -1      2135 2.36755E-02 5.39270E-02-2.34234E-03
 -1      2136 3.58858E-02 4.23917E-02-2.27464E-03
 -1      2137 5.00401E-02 3.13612E-02-2.20543E-03
 -1      2138 6.60919E-02 2.10985E-02-2.13604E-03
 -1      2139 8.39608E-02 1.18594E-02-2.06792E-03
 -1      2140 1.03533E-01 3.88784E-03-2.00241E-03
 -1      2141 1.24663E-01-2.59110E-03-1.94000E-03
 -1      2142 1.47175E-01-7.38231E-03-1.87788E-03
 -1      2143-1.55629E-01 8.87620E-02 7.31201E-04
 -1      2144-1.39779E-01 8.88610E-02 7.71898E-04
 -1      2145-1.24633E-01 8.99998E-02 8.14745E-04
 -1      2146-1.10281E-01 9.20708E-02 8.57398E-04
 -1      2147-9.67992E-02 9.49493E-02 8.98534E-04
 -1      2148-8.42485E-02 9.84994E-02 9.37568E-04
 -1      2149-7.26724E-02 1.02579E-01 9.74297E-04
 -1      2150-6.20960E-02 1.07041E-01 1.00866E-03
 -1      2151-5.25253E-02 1.11739E-01 1.04062E-03
 -1      2152-4.39469E-02 1.16528E-01 1.07011E-03
 -1      2153-3.63281E-02 1.21264E-01 1.09704E-03
 -1      2154-2.96178E-02 1.25815E-01 1.12130E-03
 -1      2155-2.37477E-02 1.30053E-01 1.14275E-03
 -1      2156-1.86330E-02 1.33864E-01 1.16129E-03
 -1      2157-1.41747E-02 1.37148E-01 1.17679E-03
 -1      2158-1.02609E-02 1.39817E-01 1.18916E-03
 -1      2159-6.76965E-03 1.41804E-01 1.19830E-03
 -1      2160-3.57095E-03 1.43057E-01 1.20411E-03
 -1      2161-5.29511E-04 1.43546E-01 1.20644E-03
 -1      2162 2.38522E-03 1.43281E-01 1.20548E-03
 -1      2163 5.40728E-03 1.42300E-01 1.20138E-03
 -1      2164 8.65925E-03 1.40628E-01 1.19424E-03
 -1      2165 1.22595E-02 1.38304E-01 1.18400E-03
 -1      2166 1.63202E-02 1.35384E-01 1.17073E-03
 -1      2167 2.09450E-02 1.31938E-01 1.15450E-03
 -1      2168 2.62277E-02 1.28050E-01 1.13542E-03
 -1      2169 3.22504E-02 1.23818E-01 1.11361E-03
 -1      2170 3.90820E-02 1.19347E-01 1.08920E-03
 -1      2171 4.67769E-02 1.14755E-01 1.06230E-03
 -1      2172 5.53743E-02 1.10163E-01 1.03303E-03
 -1      2173 6.48971E-02 1.05700E-01 1.00146E-03
 -1      2174 7.53520E-02 1.01496E-01 9.67646E-04
 -1      2175 8.67286E-02 9.76829E-02 9.31629E-04
 -1      2176 9.90005E-02 9.43900E-02 8.93478E-04
 -1      2177 1.12125E-01 9.17433E-02 8.53420E-04
 -1      2178 1.26047E-01 8.98626E-02 8.12072E-04
 -1      2179 1.40695E-01 8.88578E-02 7.70752E-04
 -1      2180 1.55989E-01 8.88232E-02 7.31705E-04
 -1      2181-1.55234E-01 8.88928E-02 1.46798E-03
 -1      2182-1.39466E-01 8.90107E-02 1.55148E-03
 -1      2183-1.24395E-01 9.01622E-02 1.63832E-03
 -1      2184-1.10110E-01 9.22417E-02 1.72390E-03
 -1      2185-9.66880E-02 9.51258E-02 1.80610E-03
 -1      2186-8.41884E-02 9.86806E-02 1.88412E-03
 -1      2187-7.26552E-02 1.02765E-01 1.95768E-03
 -1      2188-6.21139E-02 1.07235E-01 2.02669E-03
 -1      2189-5.25713E-02 1.11944E-01 2.09103E-03
 -1      2190-4.40153E-02 1.16750E-01 2.15053E-03
 -1      2191-3.64149E-02 1.21510E-01 2.20496E-03
 -1      2192-2.97209E-02 1.26093E-01 2.25408E-03
 -1      2193-2.38669E-02 1.30373E-01 2.29763E-03
 -1      2194-1.87707E-02 1.34236E-01 2.33535E-03
 -1      2195-1.43358E-02 1.37581E-01 2.36702E-03
 -1      2196-1.04529E-02 1.40323E-01 2.39245E-03
 -1      2197-7.00250E-03 1.42390E-01 2.41143E-03
 -1      2198-3.85697E-03 1.43731E-01 2.42378E-03
 -1      2199-8.83014E-04 1.44314E-01 2.42928E-03
 -1      2200 1.98592E-03 1.44136E-01 2.42809E-03
 -1      2201 4.94945E-03 1.43225E-01 2.42052E-03
 -1      2202 8.13343E-03 1.41605E-01 2.40661E-03
 -1      2203 1.16596E-02 1.39313E-01 2.38635E-03
 -1      2204 1.56436E-02 1.36405E-01 2.35986E-03
 -1      2205 2.01927E-02 1.32952E-01 2.32731E-03
 -1      2206 2.54041E-02 1.29038E-01 2.28891E-03
 -1      2207 3.13628E-02 1.24763E-01 2.24493E-03
 -1      2208 3.81408E-02 1.20234E-01 2.19561E-03
 -1      2209 4.57949E-02 1.15570E-01 2.14123E-03
 -1      2210 5.43664E-02 1.10897E-01 2.08202E-03
 -1      2211 6.38797E-02 1.06346E-01 2.01819E-03
 -1      2212 7.43426E-02 1.02050E-01 1.94991E-03
 -1      2213 8.57453E-02 9.81438E-02 1.87727E-03
 -1      2214 9.80614E-02 9.47619E-02 1.80039E-03
 -1      2215 1.11248E-01 9.20336E-02 1.71954E-03
 -1      2216 1.25248E-01 9.00824E-02 1.63557E-03
 -1      2217 1.39989E-01 8.90213E-02 1.55062E-03
 -1      2218 1.55389E-01 8.89472E-02 1.46920E-03
 -1      2219-1.54481E-01 8.90648E-02 2.21685E-03
 -1      2220-1.38779E-01 8.92242E-02 2.34839E-03
 -1      2221-1.23770E-01 9.04175E-02 2.48061E-03
 -1      2222-1.09544E-01 9.25394E-02 2.60891E-03
 -1      2223-9.61765E-02 9.54667E-02 2.73177E-03
 -1      2224-8.37281E-02 9.90655E-02 2.84869E-03
 -1      2225-7.22425E-02 1.03195E-01 2.95943E-03
 -1      2226-6.17456E-02 1.07713E-01 3.06376E-03
 -1      2227-5.22452E-02 1.12473E-01 3.16136E-03
 -1      2228-4.37301E-02 1.17333E-01 3.25184E-03
 -1      2229-3.61709E-02 1.22155E-01 3.33481E-03
 -1      2230-2.95201E-02 1.26804E-01 3.40983E-03
 -1      2231-2.37132E-02 1.31157E-01 3.47647E-03
 -1      2232-1.86701E-02 1.35099E-01 3.53435E-03
 -1      2233-1.42960E-02 1.38529E-01 3.58312E-03
 -1      2234-1.04840E-02 1.41361E-01 3.62247E-03
 -1      2235-7.11643E-03 1.43524E-01 3.65217E-03
 -1      2236-4.06731E-03 1.44964E-01 3.67197E-03
 -1      2237-1.20477E-03 1.45645E-01 3.68167E-03
 -1      2238 1.57322E-03 1.45556E-01 3.68126E-03
 -1      2239 4.43289E-03 1.44713E-01 3.67082E-03
 -1      2240 7.50400E-03 1.43136E-01 3.65042E-03
 -1      2241 1.09124E-02 1.40863E-01 3.62016E-03
 -1      2242 1.47780E-02 1.37948E-01 3.58026E-03
 -1      2243 1.92120E-02 1.34465E-01 3.53100E-03
 -1      2244 2.43157E-02 1.30499E-01 3.47272E-03
 -1      2245 3.01780E-02 1.26149E-01 3.40579E-03
 -1      2246 3.68737E-02 1.21528E-01 3.33064E-03
 -1      2247 4.44627E-02 1.16756E-01 3.24769E-03
 -1      2248 5.29885E-02 1.11963E-01 3.15738E-03
 -1      2249 6.24774E-02 1.07282E-01 3.06012E-03
 -1      2250 7.29382E-02 1.02853E-01 2.95627E-03
 -1      2251 8.43617E-02 9.88133E-02 2.84614E-03
 -1      2252 9.67214E-02 9.53020E-02 2.72996E-03
 -1      2253 1.09974E-01 9.24537E-02 2.60797E-03
 -1      2254 1.24061E-01 9.03969E-02 2.48066E-03
 -1      2255 1.38909E-01 8.92499E-02 2.34958E-03
 -1      2256 1.54430E-01 8.91131E-02 2.21929E-03
 -1      2257-1.71932E-01 9.73166E-03-3.41394E-04
 -1      2258-1.71472E-01 9.78129E-03-6.91964E-04
 -1      2259-1.70698E-01 9.85907E-03-1.05894E-03
 -1      2260-1.71647E-01 2.98199E-02-8.86580E-05
 -1      2261-1.71184E-01 2.98775E-02-1.86630E-04
 -1      2262-1.70401E-01 2.99556E-02-3.01338E-04
 -1      2263-1.71537E-01 4.97995E-02 1.70968E-04
 -1      2264-1.71070E-01 4.98655E-02 3.33693E-04
 -1      2265-1.70276E-01 4.99403E-02 4.80794E-04
 -1      2266-1.71655E-01 6.97312E-02 4.35221E-04
 -1      2267-1.71182E-01 6.98123E-02 8.65845E-04
 -1      2268-1.70376E-01 6.98969E-02 1.28552E-03
 -1      2269 1.71691E-01 9.74124E-03-3.42437E-04
 -1      2270 1.71229E-01 9.79039E-03-6.93712E-04
 -1      2271 1.70451E-01 9.86770E-03-1.06115E-03
 -1      2272 1.71406E-01 2.98379E-02-8.90216E-05
 -1      2273 1.70940E-01 2.98950E-02-1.87262E-04
 -1      2274 1.70154E-01 2.99728E-02-3.02219E-04
 -1      2275 1.71295E-01 4.98259E-02 1.71187E-04
 -1      2276 1.70825E-01 4.98914E-02 3.34047E-04
 -1      2277 1.70028E-01 4.99659E-02 4.81133E-04
 -1      2278 1.71413E-01 6.97662E-02 4.36049E-04
 -1      2279 1.70938E-01 6.98469E-02 8.67271E-04
 -1      2280 1.70128E-01 6.99311E-02 1.28719E-03
 -1      2281-1.47276E-01 1.21801E-02-1.51151E-03
 -1      2282-1.26024E-01 1.61823E-02-1.56280E-03
 -1      2283-1.06031E-01 2.17809E-02-1.61162E-03
 -1      2284-8.74623E-02 2.87797E-02-1.66210E-03
 -1      2285-7.04557E-02 3.69652E-02-1.71436E-03
 -1      2286-5.51175E-02 4.61097E-02-1.76757E-03
 -1      2287-4.15226E-02 5.59753E-02-1.82067E-03
 -1      2288-2.97137E-02 6.63177E-02-1.87266E-03
 -1      2289-1.97015E-02 7.68899E-02-1.92267E-03
 -1      2290-1.14645E-02 8.74462E-02-1.96994E-03
 -1      2291-4.94906E-03 9.77468E-02-2.01387E-03
 -1      2292-7.08419E-05 1.07561E-01-2.05397E-03
 -1      2293 3.28426E-03 1.16673E-01-2.08985E-03
 -1      2294 5.25794E-03 1.24883E-01-2.12120E-03
 -1      2295 6.01696E-03 1.32014E-01-2.14777E-03
 -1      2296 5.75024E-03 1.37912E-01-2.16940E-03
 -1      2297 4.66543E-03 1.42451E-01-2.18594E-03
 -1      2298 2.98506E-03 1.45534E-01-2.19728E-03
 -1      2299 9.42558E-04 1.47096E-01-2.20338E-03
 -1      2300-1.22200E-03 1.47104E-01-2.20393E-03
 -1      2301-3.26622E-03 1.45554E-01-2.19885E-03
 -1      2302-4.94953E-03 1.42480E-01-2.18831E-03
 -1      2303-6.03795E-03 1.37949E-01-2.17238E-03
 -1      2304-6.30849E-03 1.32056E-01-2.15119E-03
 -1      2305-5.55321E-03 1.24929E-01-2.12489E-03
 -1      2306-3.58291E-03 1.16720E-01-2.09370E-03
 -1      2307-2.30607E-04 1.07609E-01-2.05789E-03
 -1      2308 4.64558E-03 9.77934E-02-2.01779E-03
 -1      2309 1.11599E-02 8.74908E-02-1.97380E-03
 -1      2310 1.93969E-02 7.69315E-02-1.92644E-03
 -1      2311 2.94103E-02 6.63557E-02-1.87632E-03
 -1      2312 4.12215E-02 5.60091E-02-1.82419E-03
 -1      2313 5.48200E-02 4.61391E-02-1.77093E-03
 -1      2314 7.01631E-02 3.69901E-02-1.71755E-03
 -1      2315 8.71759E-02 2.88002E-02-1.66509E-03
 -1      2316 1.05752E-01 2.17974E-02-1.61442E-03
 -1      2317 1.25754E-01 1.61952E-02-1.56543E-03
 -1      2318 1.47015E-01 1.21902E-02-1.51409E-03
 -1      2319-1.48453E-01 3.14416E-02-4.59215E-04
 -1      2320-1.28579E-01 3.45103E-02-4.68147E-04
 -1      2321-1.09829E-01 3.90577E-02-4.69971E-04
 -1      2322-9.23479E-02 4.48966E-02-4.71317E-04
 -1      2323-7.62570E-02 5.18300E-02-4.74378E-04
 -1      2324-6.16516E-02 5.96517E-02-4.79427E-04
 -1      2325-4.85990E-02 6.81477E-02-4.86043E-04
 -1      2326-3.71382E-02 7.70987E-02-4.93658E-04
 -1      2327-2.72797E-02 8.62828E-02-5.01746E-04
 -1      2328-1.90048E-02 9.54799E-02-5.09893E-04
 -1      2329-1.22663E-02 1.04475E-01-5.17772E-04
 -1      2330-6.98928E-03 1.13060E-01-5.25149E-04
 -1      2331-3.07206E-03 1.21043E-01-5.31858E-04
 -1      2332-3.88402E-04 1.28243E-01-5.37782E-04
 -1      2333 1.21057E-03 1.34503E-01-5.42852E-04
 -1      2334 1.89343E-03 1.39684E-01-5.47000E-04
 -1      2335 1.84559E-03 1.43674E-01-5.50190E-04
 -1      2336 1.26578E-03 1.46385E-01-5.52408E-04
 -1      2337 3.62605E-04 1.47759E-01-5.53790E-04
 -1      2338-6.49383E-04 1.47767E-01-5.54074E-04
 -1      2339-1.55369E-03 1.46404E-01-5.53141E-04
 -1      2340-2.13557E-03 1.43702E-01-5.51128E-04
 -1      2341-2.18609E-03 1.39720E-01-5.48099E-04
 -1      2342-1.50610E-03 1.34544E-01-5.44077E-04
 -1      2343 9.00894E-05 1.28288E-01-5.39092E-04
 -1      2344 2.77129E-03 1.21090E-01-5.33216E-04
 -1      2345 6.68656E-03 1.13108E-01-5.26521E-04
 -1      2346 1.19624E-02 1.04522E-01-5.19135E-04
 -1      2347 1.87004E-02 9.55259E-02-5.11229E-04
 -1      2348 2.69758E-02 8.63265E-02-5.03044E-04
 -1      2349 3.68359E-02 7.71394E-02-4.94909E-04
 -1      2350 4.82992E-02 6.81851E-02-4.87240E-04
 -1      2351 6.13556E-02 5.96855E-02-4.80561E-04
 -1      2352 7.59659E-02 5.18601E-02-4.75447E-04
 -1      2353 9.20629E-02 4.49232E-02-4.72326E-04
 -1      2354 1.09551E-01 3.90810E-02-4.70952E-04
 -1      2355 1.28310E-01 3.45306E-02-4.69172E-04
 -1      2356 1.48192E-01 3.14597E-02-4.60364E-04
 -1      2357-1.49790E-01 5.06059E-02 6.38005E-04
 -1      2358-1.31288E-01 5.27459E-02 6.82048E-04
 -1      2359-1.13775E-01 5.62338E-02 7.33192E-04
 -1      2360-9.73772E-02 6.08997E-02 7.84803E-04
 -1      2361-8.21987E-02 6.65673E-02 8.33969E-04
 -1      2362-6.83222E-02 7.30529E-02 8.79806E-04
 -1      2363-5.58071E-02 8.01667E-02 9.22241E-04
 -1      2364-4.46888E-02 8.77144E-02 9.61428E-04
 -1      2365-3.49771E-02 9.54995E-02 9.97522E-04
 -1      2366-2.66565E-02 1.03327E-01 1.03061E-03
 -1      2367-1.96862E-02 1.11006E-01 1.06072E-03
 -1      2368-1.40006E-02 1.18354E-01 1.08782E-03
 -1      2369-9.51070E-03 1.25199E-01 1.11184E-03
 -1      2370-6.10569E-03 1.31383E-01 1.13268E-03
 -1      2371-3.65481E-03 1.36765E-01 1.15025E-03
 -1      2372-2.00983E-03 1.41225E-01 1.16447E-03
 -1      2373-1.00767E-03 1.44661E-01 1.17528E-03
 -1      2374-4.73474E-04 1.46997E-01 1.18257E-03
 -1      2375-2.23724E-04 1.48183E-01 1.18618E-03
 -1      2376-6.96216E-05 1.48190E-01 1.18627E-03
 -1      2377 1.79305E-04 1.47016E-01 1.18286E-03
 -1      2378 7.12032E-04 1.44689E-01 1.17586E-03
 -1      2379 1.71235E-03 1.41260E-01 1.16530E-03
 -1      2380 3.35540E-03 1.36806E-01 1.15123E-03
 -1      2381 5.80445E-03 1.31427E-01 1.13376E-03
 -1      2382 9.20791E-03 1.25245E-01 1.11299E-03
 -1      2383 1.36967E-02 1.18402E-01 1.08902E-03
 -1      2384 1.93818E-02 1.11054E-01 1.06194E-03
 -1      2385 2.63524E-02 1.03374E-01 1.03184E-03
 -1      2386 3.46740E-02 9.55450E-02 9.98734E-04
 -1      2387 4.43876E-02 8.77578E-02 9.62613E-04
 -1      2388 5.55088E-02 8.02076E-02 9.23388E-04
 -1      2389 6.80278E-02 7.30910E-02 8.80905E-04
 -1      2390 8.19092E-02 6.66025E-02 8.35010E-04
 -1      2391 9.70935E-02 6.09322E-02 7.85763E-04
 -1      2392 1.13498E-01 5.62637E-02 7.34021E-04
 -1      2393 1.31019E-01 5.27736E-02 6.82667E-04
 -1      2394 1.49530E-01 5.06319E-02 6.38361E-04
 -1      2395-1.51367E-01 6.97586E-02 1.77938E-03
 -1      2396-1.34253E-01 7.09714E-02 1.88641E-03
 -1      2397-1.17991E-01 7.33831E-02 1.99705E-03
 -1      2398-1.02685E-01 7.68507E-02 2.10542E-03
 -1      2399-8.84244E-02 8.12235E-02 2.20951E-03
 -1      2400-7.52783E-02 8.63431E-02 2.30858E-03
 -1      2401-6.32992E-02 9.20445E-02 2.40232E-03
 -1      2402-5.25181E-02 9.81586E-02 2.49051E-03
 -1      2403-4.29446E-02 1.04515E-01 2.57291E-03
 -1      2404-3.45662E-02 1.10943E-01 2.64924E-03
 -1      2405-2.73482E-02 1.17278E-01 2.71921E-03
 -1      2406-2.12347E-02 1.23362E-01 2.78248E-03
 -1      2407-1.61497E-02 1.29045E-01 2.83874E-03
 -1      2408-1.19980E-02 1.34191E-01 2.88769E-03
 -1      2409-8.66719E-03 1.38678E-01 2.92903E-03
 -1      2410-6.02989E-03 1.42400E-01 2.96255E-03
 -1      2411-3.94578E-03 1.45271E-01 2.98803E-03
 -1      2412-2.26433E-03 1.47225E-01 3.00534E-03
 -1      2413-8.27542E-04 1.48218E-01 3.01424E-03
 -1      2414 5.27043E-04 1.48224E-01 3.01478E-03
 -1      2415 1.96337E-03 1.47244E-01 3.00686E-03
 -1      2416 3.64411E-03 1.45299E-01 2.99041E-03
 -1      2417 5.72739E-03 1.42434E-01 2.96557E-03
 -1      2418 8.36383E-03 1.38718E-01 2.93251E-03
 -1      2419 1.16938E-02 1.34235E-01 2.89147E-03
 -1      2420 1.58450E-02 1.29091E-01 2.84273E-03
 -1      2421 2.09299E-02 1.23410E-01 2.78657E-03
 -1      2422 2.70436E-02 1.17327E-01 2.72334E-03
 -1      2423 3.42625E-02 1.10991E-01 2.65336E-03
 -1      2424 4.26425E-02 1.04562E-01 2.57695E-03
 -1      2425 5.22184E-02 9.82045E-02 2.49445E-03
 -1      2426 6.30026E-02 9.20888E-02 2.40611E-03
 -1      2427 7.49858E-02 8.63854E-02 2.31220E-03
 -1      2428 8.81366E-02 8.12639E-02 2.21292E-03
 -1      2429 1.02403E-01 7.68891E-02 2.10860E-03
 -1      2430 1.17715E-01 7.34197E-02 1.99994E-03
 -1      2431 1.33984E-01 7.10066E-02 1.88896E-03
 -1      2432 1.51107E-01 6.97926E-02 1.78148E-03
 -1      2433-1.88901E-01 8.94506E-03-1.38168E-03
 -1      2434-1.88643E-01 2.95977E-02-4.06134E-04
 -1      2435-1.88560E-01 5.01704E-02 5.85698E-04
 -1      2436-1.88694E-01 7.07727E-02 1.59266E-03
 -1      2437-2.08830E-01 8.00827E-03-1.32534E-03
 -1      2438-2.08615E-01 2.92427E-02-3.93683E-04
 -1      2439-2.08581E-01 5.04189E-02 5.43638E-04
 -1      2440-2.08743E-01 7.16542E-02 1.48516E-03
 -1      2441-2.29351E-01 7.13601E-03-1.26464E-03
 -1      2442-2.29164E-01 2.89371E-02-3.84172E-04
 -1      2443-2.29153E-01 5.06853E-02 4.97269E-04
 -1      2444-2.29322E-01 7.25003E-02 1.37847E-03
 -1      2445-2.50414E-01 6.32372E-03-1.19804E-03
 -1      2446-2.50245E-01 2.86636E-02-3.72221E-04
 -1      2447-2.50243E-01 5.09494E-02 4.53116E-04
 -1      2448-2.50408E-01 7.33017E-02 1.27716E-03
 -1      2449-2.71973E-01 5.56886E-03-1.12499E-03
 -1      2450-2.71818E-01 2.84134E-02-3.55731E-04
 -1      2451-2.71819E-01 5.12015E-02 4.12871E-04
 -1      2452-2.71975E-01 7.40539E-02 1.18015E-03
 -1      2453-2.93991E-01 4.86942E-03-1.04661E-03
 -1      2454-2.93848E-01 2.81827E-02-3.34953E-04
 -1      2455-2.93849E-01 5.14376E-02 3.76224E-04
 -1      2456-2.93994E-01 7.47551E-02 1.08633E-03
 -1      2457-3.16433E-01 4.22403E-03-9.63903E-04
 -1      2458-3.16301E-01 2.79699E-02-3.10645E-04
 -1      2459-3.16302E-01 5.16561E-02 3.42314E-04
 -1      2460-3.16436E-01 7.54041E-02 9.94464E-04
 -1      2461-3.39265E-01 3.63177E-03-8.77487E-04
 -1      2462-3.39144E-01 2.77744E-02-2.83554E-04
 -1      2463-3.39145E-01 5.18567E-02 3.10194E-04
 -1      2464-3.39267E-01 7.60004E-02 9.03367E-04
 -1      2465-3.62454E-01 3.09178E-03-7.87619E-04
 -1      2466-3.62344E-01 2.75959E-02-2.54233E-04
 -1      2467-3.62344E-01 5.20393E-02 2.78997E-04
 -1      2468-3.62455E-01 7.65440E-02 8.11872E-04
 -1      2469-3.85966E-01 2.60285E-03-6.94291E-04
 -1      2470-3.85867E-01 2.74340E-02-2.23050E-04
 -1      2471-3.85868E-01 5.22043E-02 2.47983E-04
 -1      2472-3.85968E-01 7.70359E-02 7.18862E-04
 -1      2473-4.09771E-01 2.16307E-03-5.97510E-04
 -1      2474-4.09682E-01 2.72883E-02-1.90292E-04
 -1      2475-4.09683E-01 5.23524E-02 2.16616E-04
 -1      2476-4.09773E-01 7.74777E-02 6.23456E-04
 -1      2477-4.33835E-01 1.76938E-03-4.97889E-04
 -1      2478-4.33756E-01 2.71579E-02-1.56380E-04
 -1      2479-4.33758E-01 5.24851E-02 1.84776E-04
 -1      2480-4.33839E-01 7.78725E-02 5.25540E-04
 -1      2481-4.58128E-01 1.41762E-03-3.97746E-04
 -1      2482-4.58058E-01 2.70421E-02-1.22258E-04
 -1      2483-4.58062E-01 5.26047E-02 1.53247E-04
 -1      2484-4.58137E-01 7.82245E-02 4.26905E-04
 -1      2485-4.82624E-01 1.10226E-03-3.01607E-04
 -1      2486-4.82560E-01 2.69400E-02-8.94907E-05
 -1      2487-4.82567E-01 5.27154E-02 1.24266E-04
 -1      2488-4.82640E-01 7.85396E-02 3.31976E-04
 -1      2489-5.07299E-01 8.16166E-04-2.21612E-04
 -1      2490-5.07237E-01 2.68505E-02-6.04948E-05
 -1      2491-5.07248E-01 5.28229E-02 1.02504E-04
 -1      2492-5.07322E-01 7.88250E-02 2.53359E-04
 -1      2493-1.89834E-01-1.18785E-02-1.73273E-03
 -1      2494-2.09115E-01-1.33741E-02-1.66703E-03
 -1      2495-2.28948E-01-1.47948E-02-1.59375E-03
 -1      2496-2.50235E-01-1.61842E-02-1.50850E-03
 -1      2497-2.72038E-01-1.74766E-02-1.41416E-03
 -1      2498-2.94317E-01-1.86729E-02-1.31285E-03
 -1      2499-3.17034E-01-1.97752E-02-1.20590E-03
 -1      2500-3.40154E-01-2.07850E-02-1.09394E-03
 -1      2501-3.63642E-01-2.17036E-02-9.76882E-04
 -1      2502-3.87463E-01-2.25325E-02-8.54065E-04
 -1      2503-4.11582E-01-2.32737E-02-7.24463E-04
 -1      2504-4.35967E-01-2.39308E-02-5.87447E-04
 -1      2505-4.60586E-01-2.45091E-02-4.44428E-04
 -1      2506-4.84323E-01-2.49955E-02-3.07597E-04
 -1      2507-5.08236E-01-2.54169E-02-1.87938E-04
 -1      2508-1.90034E-01-1.18708E-02-1.13788E-03
 -1      2509-2.08714E-01-1.33030E-02-1.09484E-03
 -1      2510-2.27911E-01-1.46728E-02-1.05030E-03
 -1      2511-2.49466E-01-1.60795E-02-9.96510E-04
 -1      2512-2.71553E-01-1.73920E-02-9.35541E-04
 -1      2513-2.94132E-01-1.86086E-02-8.68580E-04
 -1      2514-3.17164E-01-1.97294E-02-7.96564E-04
 -1      2515-3.40612E-01-2.07546E-02-7.19986E-04
 -1      2516-3.64438E-01-2.16844E-02-6.38721E-04
 -1      2517-3.88606E-01-2.25188E-02-5.51933E-04
 -1      2518-4.13078E-01-2.32576E-02-4.58017E-04
 -1      2519-4.37817E-01-2.39016E-02-3.54728E-04
 -1      2520-4.62789E-01-2.44535E-02-2.40088E-04
 -1      2521-4.85787E-01-2.48857E-02-1.25070E-04
 -1      2522-5.08938E-01-2.52577E-02-1.56753E-05
 -1      2523-1.89935E-01-1.18482E-02-5.62788E-04
 -1      2524-2.08026E-01-1.32255E-02-5.41075E-04
 -1      2525-2.26604E-01-1.45482E-02-5.19498E-04
 -1      2526-2.48442E-01-1.59724E-02-4.92841E-04
 -1      2527-2.70830E-01-1.73041E-02-4.62252E-04
 -1      2528-2.93726E-01-1.85398E-02-4.28202E-04
 -1      2529-3.17091E-01-1.96780E-02-3.91106E-04
 -1      2530-3.40884E-01-2.07177E-02-3.51203E-04
 -1      2531-3.65067E-01-2.16579E-02-3.08366E-04
 -1      2532-3.89600E-01-2.24966E-02-2.61942E-04
 -1      2533-4.14444E-01-2.32310E-02-2.10513E-04
 -1      2534-4.39556E-01-2.38567E-02-1.51511E-04
 -1      2535-4.64894E-01-2.43677E-02-8.08311E-05
 -1      2536-4.87158E-01-2.47178E-02-2.44678E-06
 -1      2537-5.09524E-01-2.49812E-02 9.12738E-05
 -1      2538-1.89630E-01 9.16276E-02 1.97305E-03
 -1      2539-2.09016E-01 9.31055E-02 1.84212E-03
 -1      2540-2.28905E-01 9.44905E-02 1.71525E-03
 -1      2541-2.50220E-01 9.58504E-02 1.58945E-03
 -1      2542-2.72033E-01 9.71253E-02 1.46811E-03
 -1      2543-2.94316E-01 9.83132E-02 1.35005E-03
 -1      2544-3.17034E-01 9.94124E-02 1.23367E-03
 -1      2545-3.40155E-01 1.00422E-01 1.11729E-03
 -1      2546-3.63643E-01 1.01341E-01 9.99127E-04
 -1      2547-3.87464E-01 1.02172E-01 8.77219E-04
 -1      2548-4.11584E-01 1.02914E-01 7.49548E-04
 -1      2549-4.35971E-01 1.03572E-01 6.14681E-04
 -1      2550-4.60593E-01 1.04149E-01 4.73456E-04
 -1      2551-4.84334E-01 1.04629E-01 3.37699E-04
 -1      2552-5.08245E-01 1.05031E-01 2.18717E-04
 -1      2553-1.89865E-01 9.14936E-02 1.32200E-03
 -1      2554-2.08631E-01 9.29618E-02 1.24073E-03
 -1      2555-2.27874E-01 9.43323E-02 1.15800E-03
 -1      2556-2.49452E-01 9.57312E-02 1.07039E-03
 -1      2557-2.71547E-01 9.70371E-02 9.85480E-04
 -1      2558-2.94129E-01 9.82500E-02 9.03298E-04
 -1      2559-3.17163E-01 9.93691E-02 8.22738E-04
 -1      2560-3.40611E-01 1.00394E-01 7.42326E-04
 -1      2561-3.64438E-01 1.01324E-01 6.60360E-04
 -1      2562-3.88606E-01 1.02158E-01 5.74822E-04
 -1      2563-4.13079E-01 1.02898E-01 4.83270E-04
 -1      2564-4.37820E-01 1.03542E-01 3.82947E-04
 -1      2565-4.62795E-01 1.04092E-01 2.71802E-04
 -1      2566-4.85796E-01 1.04518E-01 1.60903E-04
 -1      2567-5.08945E-01 1.04875E-01 5.69850E-05
 -1      2568-1.89782E-01 9.13650E-02 6.62369E-04
 -1      2569-2.07953E-01 9.28115E-02 6.24482E-04
 -1      2570-2.26572E-01 9.41616E-02 5.84685E-04
 -1      2571-2.48430E-01 9.55990E-02 5.39862E-04
 -1      2572-2.70825E-01 9.69369E-02 4.95952E-04
 -1      2573-2.93723E-01 9.81759E-02 4.53565E-04
 -1      2574-3.17088E-01 9.93157E-02 4.12200E-04
 -1      2575-3.40882E-01 1.00356E-01 3.71009E-04
 -1      2576-3.65065E-01 1.01296E-01 3.28923E-04
 -1      2577-3.89600E-01 1.02135E-01 2.84575E-04
 -1      2578-4.14444E-01 1.02870E-01 2.36071E-04
 -1      2579-4.39558E-01 1.03495E-01 1.80617E-04
 -1      2580-4.64898E-01 1.04006E-01 1.14258E-04
 -1      2581-4.87165E-01 1.04354E-01 4.09079E-05
 -1      2582-5.09533E-01 1.04612E-01-4.56668E-05
 -1      2583-5.32222E-01 5.41267E-04-7.34729E-05
 -1      2584-5.32174E-01 2.67661E-02-1.10796E-05
 -1      2585-5.32177E-01 5.29184E-02 5.73194E-05
 -1      2586-5.32222E-01 7.90840E-02 1.11820E-04
 -1      2587-5.32148E-01 6.60117E-04 6.23877E-06
 -1      2588-5.32106E-01 2.68035E-02 7.95031E-06
 -1      2589-5.32111E-01 5.28771E-02 2.72386E-05
 -1      2590-5.32152E-01 7.89691E-02 3.49083E-05
 -1      2591-5.31918E-01 8.85752E-04 2.78281E-05
 -1      2592-5.31889E-01 2.68692E-02 1.68744E-05
 -1      2593-5.31895E-01 5.27965E-02 1.66557E-05
 -1      2594-5.31928E-01 7.87507E-02 1.29755E-05
 -1      2595-5.98985E-01 6.36214E-02 9.09427E-05
 -1      2596-5.99053E-01 4.77293E-02 8.55328E-05
 -1      2597-5.99199E-01 3.18551E-02 8.55789E-05
 -1      2598-5.99483E-01 1.59628E-02 9.14809E-05
 -1      2599-5.98975E-01 6.36182E-02 6.77238E-05
 -1      2600-5.99046E-01 4.77265E-02 5.51666E-05
 -1      2601-5.99201E-01 3.18526E-02 3.92724E-05
 -1      2602-5.99495E-01 1.59620E-02 2.23075E-05
 -1      2603-5.98952E-01 6.36020E-02 4.30652E-05
 -1      2604-5.99021E-01 4.77188E-02 2.28940E-05
 -1      2605-5.99177E-01 3.18547E-02-1.15587E-05
 -1      2606-5.99481E-01 1.59678E-02-4.79622E-05
 -1      2607-5.74048E-01 8.92599E-02 1.31742E-04
 -1      2608-5.71474E-01 9.02216E-02 7.16738E-05
 -1      2609-5.68847E-01 9.11305E-02 7.83910E-06
 -1      2610-5.51193E-01 9.80502E-02 1.49126E-04
 -1      2611-5.47989E-01 9.91934E-02 5.05003E-05
 -1      2612-5.44683E-01 1.00214E-01-2.57469E-05
 -1      2613-5.74208E-01-9.76566E-03-6.55850E-05
 -1      2614-5.71609E-01-1.07273E-02-2.76142E-05
 -1      2615-5.68937E-01-1.16323E-02 3.10264E-05
 -1      2616-5.51252E-01-1.85074E-02-1.22438E-04
 -1      2617-5.48034E-01-1.96459E-02-8.24794E-06
 -1      2618-5.44703E-01-2.06328E-02 8.01174E-05
 -1      2619-5.76588E-01 6.88587E-02 1.42158E-04
 -1      2620-5.76643E-01 4.95244E-02 9.99334E-05
 -1      2621-5.76725E-01 3.02179E-02 5.42398E-05
 -1      2622-5.76791E-01 1.08670E-02-2.09706E-05
 -1      2623-5.54297E-01 7.40183E-02 1.70364E-04
 -1      2624-5.54296E-01 5.12510E-02 9.07277E-05
 -1      2625-5.54308E-01 2.84965E-02-8.59926E-07
 -1      2626-5.54313E-01 5.64342E-03-1.08567E-04
 -1      2627-5.66109E-01 7.10410E-02 1.21522E-05
 -1      2628-5.66129E-01 5.02413E-02 5.57808E-06
 -1      2629-5.66171E-01 2.94631E-02-1.07259E-05
 -1      2630-5.66208E-01 8.64829E-03 8.52380E-06
 -1      2631-5.41245E-01 7.65641E-02 4.17555E-05
 -1      2632-5.41212E-01 5.20709E-02 2.62915E-05
 -1      2633-5.41212E-01 2.76012E-02 7.38749E-06
 -1      2634-5.41232E-01 3.07252E-03-3.60389E-06
 -1      2635 5.07173E-01 8.11563E-04-2.42878E-04
 -1      2636 5.07108E-01 2.68560E-02-8.10416E-05
 -1      2637 5.07117E-01 5.28404E-02 8.35839E-05
 -1      2638 5.07193E-01 7.88544E-02 2.36145E-04
 -1      2639 4.82487E-01 1.10037E-03-3.21529E-04
 -1      2640 4.82422E-01 2.69476E-02-1.08091E-04
 -1      2641 4.82428E-01 5.27330E-02 1.07381E-04
 -1      2642 4.82501E-01 7.85674E-02 3.16823E-04
 -1      2643 4.57982E-01 1.41731E-03-4.16475E-04
 -1      2644 4.57912E-01 2.70509E-02-1.39139E-04
 -1      2645 4.57915E-01 5.26227E-02 1.38301E-04
 -1      2646 4.57989E-01 7.82517E-02 4.13977E-04
 -1      2647 4.33680E-01 1.77007E-03-5.15294E-04
 -1      2648 4.33601E-01 2.71674E-02-1.71640E-04
 -1      2649 4.33603E-01 5.25034E-02 1.71679E-04
 -1      2650 4.33684E-01 7.78996E-02 5.14670E-04
 -1      2651 4.09608E-01 2.16447E-03-6.13442E-04
 -1      2652 4.09519E-01 2.72983E-02-2.03952E-04
 -1      2653 4.09520E-01 5.23712E-02 2.05239E-04
 -1      2654 4.09610E-01 7.75051E-02 6.14410E-04
 -1      2655 3.85796E-01 2.60483E-03-7.08660E-04
 -1      2656 3.85697E-01 2.74446E-02-2.35139E-04
 -1      2657 3.85697E-01 5.22235E-02 2.38192E-04
 -1      2658 3.85797E-01 7.70637E-02 7.11410E-04
 -1      2659 3.62276E-01 3.09428E-03-8.00401E-04
 -1      2660 3.62166E-01 2.76071E-02-2.64801E-04
 -1      2661 3.62166E-01 5.20591E-02 2.70666E-04
 -1      2662 3.62277E-01 7.65724E-02 8.05817E-04
 -1      2663 3.39079E-01 3.63478E-03-8.88712E-04
 -1      2664 3.38959E-01 2.77861E-02-2.92676E-04
 -1      2665 3.38959E-01 5.18771E-02 3.03204E-04
 -1      2666 3.39081E-01 7.60294E-02 8.98546E-04
 -1      2667 3.16240E-01 4.22756E-03-9.73640E-04
 -1      2668 3.16108E-01 2.79821E-02-3.18410E-04
 -1      2669 3.16109E-01 5.16771E-02 3.36552E-04
 -1      2670 3.16243E-01 7.54337E-02 9.90742E-04
 -1      2671 2.93790E-01 4.87347E-03-1.05496E-03
 -1      2672 2.93647E-01 2.81954E-02-3.41458E-04
 -1      2673 2.93648E-01 5.14591E-02 3.71586E-04
 -1      2674 2.93793E-01 7.47853E-02 1.08360E-03
 -1      2675 2.71765E-01 5.57345E-03-1.13205E-03
 -1      2676 2.71610E-01 2.84267E-02-3.61077E-04
 -1      2677 2.71610E-01 5.12236E-02 4.09261E-04
 -1      2678 2.71766E-01 7.40848E-02 1.17832E-03
 -1      2679 2.50198E-01 6.32885E-03-1.20393E-03
 -1      2680 2.50029E-01 2.86774E-02-3.76510E-04
 -1      2681 2.50027E-01 5.09721E-02 4.50446E-04
 -1      2682 2.50191E-01 7.33331E-02 1.27616E-03
 -1      2683 2.29127E-01 7.14171E-03-1.26950E-03
 -1      2684 2.28940E-01 2.89515E-02-3.87506E-04
 -1      2685 2.28929E-01 5.07085E-02 4.95454E-04
 -1      2686 2.29097E-01 7.25323E-02 1.37823E-03
 -1      2687 2.08598E-01 8.01460E-03-1.32930E-03
 -1      2688 2.08383E-01 2.92578E-02-3.96166E-04
 -1      2689 2.08348E-01 5.04427E-02 5.42595E-04
 -1      2690 2.08511E-01 7.16868E-02 1.48563E-03
 -1      2691 1.88660E-01 8.95218E-03-1.38489E-03
 -1      2692 1.88402E-01 2.96135E-02-4.07888E-04
 -1      2693 1.88319E-01 5.01948E-02 5.85333E-04
 -1      2694 1.88453E-01 7.08058E-02 1.59378E-03
 -1      2695 5.09400E-01-2.49740E-02 6.39563E-05
 -1      2696 4.87029E-01-2.47145E-02-2.74916E-05
 -1      2697 4.64758E-01-2.43666E-02-1.03974E-04
 -1      2698 4.39412E-01-2.38568E-02-1.72575E-04
 -1      2699 4.14292E-01-2.32317E-02-2.29510E-04
 -1      2700 3.89440E-01-2.24974E-02-2.78886E-04
 -1      2701 3.64898E-01-2.16587E-02-3.23304E-04
 -1      2702 3.40706E-01-2.07185E-02-3.64212E-04
 -1      2703 3.16905E-01-1.96786E-02-4.02292E-04
 -1      2704 2.93532E-01-1.85402E-02-4.37692E-04
 -1      2705 2.70627E-01-1.73044E-02-4.70185E-04
 -1      2706 2.48231E-01-1.59725E-02-4.99369E-04
 -1      2707 2.26384E-01-1.45481E-02-5.24768E-04
 -1      2708 2.07799E-01-1.32252E-02-5.45343E-04
 -1      2709 1.89701E-01-1.18479E-02-5.65995E-04
 -1      2710 5.08812E-01-2.52585E-02-3.79985E-05
 -1      2711 4.85655E-01-2.48878E-02-1.46889E-04
 -1      2712 4.62650E-01-2.44562E-02-2.61215E-04
 -1      2713 4.37670E-01-2.39044E-02-3.74646E-04
 -1      2714 4.12922E-01-2.32603E-02-4.76386E-04
 -1      2715 3.88442E-01-2.25213E-02-5.68565E-04
 -1      2716 3.64266E-01-2.16867E-02-6.53547E-04
 -1      2717 3.40432E-01-2.07567E-02-7.33021E-04
 -1      2718 3.16976E-01-1.97312E-02-8.07881E-04
 -1      2719 2.93936E-01-1.86101E-02-8.78290E-04
 -1      2720 2.71349E-01-1.73933E-02-9.43781E-04
 -1      2721 2.49253E-01-1.60805E-02-1.00344E-03
 -1      2722 2.27689E-01-1.46736E-02-1.05608E-03
 -1      2723 2.08485E-01-1.33035E-02-1.09970E-03
 -1      2724 1.89798E-01-1.18711E-02-1.14193E-03
 -1      2725 5.08111E-01-2.54271E-02-2.08391E-04
 -1      2726 4.84189E-01-2.50040E-02-3.28196E-04
 -1      2727 4.60444E-01-2.45160E-02-4.64740E-04
 -1      2728 4.35816E-01-2.39365E-02-6.06887E-04
 -1      2729 4.11423E-01-2.32787E-02-7.42585E-04
 -1      2730 3.87296E-01-2.25369E-02-8.70604E-04
 -1      2731 3.63467E-01-2.17075E-02-9.91724E-04
 -1      2732 3.39971E-01-2.07885E-02-1.10707E-03
 -1      2733 3.16843E-01-1.97783E-02-1.21738E-03
 -1      2734 2.94118E-01-1.86757E-02-1.32277E-03
 -1      2735 2.71832E-01-1.74790E-02-1.42266E-03
 -1      2736 2.50021E-01-1.61863E-02-1.51573E-03
 -1      2737 2.28726E-01-1.47965E-02-1.59988E-03
 -1      2738 2.08885E-01-1.33755E-02-1.67229E-03
 -1      2739 1.89595E-01-1.18796E-02-1.73728E-03
 -1      2740 5.09407E-01 1.04646E-01-5.79765E-05
 -1      2741 4.87035E-01 1.04391E-01 3.03425E-05
 -1      2742 4.64762E-01 1.04046E-01 1.05450E-04
 -1      2743 4.39414E-01 1.03537E-01 1.73598E-04
 -1      2744 4.14292E-01 1.02912E-01 2.30595E-04
 -1      2745 3.89439E-01 1.02178E-01 2.80428E-04
 -1      2746 3.64897E-01 1.01340E-01 3.25923E-04
 -1      2747 3.40704E-01 1.00399E-01 3.69005E-04
 -1      2748 3.16902E-01 9.93593E-02 4.11065E-04
 -1      2749 2.93528E-01 9.82196E-02 4.53191E-04
 -1      2750 2.70621E-01 9.69808E-02 4.96250E-04
 -1      2751 2.48218E-01 9.56430E-02 5.40755E-04
 -1      2752 2.26352E-01 9.42057E-02 5.86098E-04
 -1      2753 2.07726E-01 9.28558E-02 6.26262E-04
 -1      2754 1.89547E-01 9.14097E-02 6.64302E-04
 -1      2755 5.08817E-01 1.04912E-01 4.02356E-05
 -1      2756 4.85662E-01 1.04556E-01 1.47468E-04
 -1      2757 4.62654E-01 1.04131E-01 2.61235E-04
 -1      2758 4.37672E-01 1.03581E-01 3.74853E-04
 -1      2759 4.12923E-01 1.02938E-01 4.77125E-04
 -1      2760 3.88442E-01 1.02199E-01 5.70247E-04
 -1      2761 3.64266E-01 1.01364E-01 6.57082E-04
 -1      2762 3.40431E-01 1.00435E-01 7.40146E-04
 -1      2763 3.16974E-01 9.94106E-02 8.21507E-04
 -1      2764 2.93932E-01 9.82919E-02 9.02907E-04
 -1      2765 2.71342E-01 9.70793E-02 9.85849E-04
 -1      2766 2.49238E-01 9.57737E-02 1.07147E-03
 -1      2767 2.27652E-01 9.43752E-02 1.15974E-03
 -1      2768 2.08402E-01 9.30051E-02 1.24301E-03
 -1      2769 1.89628E-01 9.15374E-02 1.32471E-03
 -1      2770 5.08117E-01 1.05072E-01 2.01175E-04
 -1      2771 4.84198E-01 1.04668E-01 3.23513E-04
 -1      2772 4.60449E-01 1.04187E-01 4.62279E-04
 -1      2773 4.35819E-01 1.03610E-01 6.06094E-04
 -1      2774 4.11425E-01 1.02952E-01 7.43021E-04
 -1      2775 3.87296E-01 1.02210E-01 8.72345E-04
 -1      2776 3.63467E-01 1.01380E-01 9.95607E-04
 -1      2777 3.39972E-01 1.00461E-01 1.11491E-03
 -1      2778 3.16843E-01 9.94520E-02 1.23227E-03
 -1      2779 2.94117E-01 9.83533E-02 1.34951E-03
 -1      2780 2.71826E-01 9.71659E-02 1.46836E-03
 -1      2781 2.50004E-01 9.58916E-02 1.59045E-03
 -1      2782 2.28682E-01 9.45323E-02 1.71696E-03
 -1      2783 2.08785E-01 9.31479E-02 1.84448E-03
 -1      2784 1.89391E-01 9.16707E-02 1.97601E-03
 -1      2785 5.31796E-01 9.00509E-04 2.45367E-07
 -1      2786 5.31762E-01 2.68833E-02-6.80809E-06
 -1      2787 5.31766E-01 5.28176E-02-2.89526E-06
 -1      2788 5.31802E-01 7.87775E-02-2.54338E-06
 -1      2789 5.32026E-01 6.64129E-04-1.71203E-05
 -1      2790 5.31979E-01 2.68126E-02-1.44914E-05
 -1      2791 5.31983E-01 5.28985E-02 6.00370E-06
 -1      2792 5.32028E-01 7.90006E-02 1.51319E-05
 -1      2793 5.32106E-01 5.36532E-04-9.54025E-05
 -1      2794 5.32054E-01 2.67714E-02-3.36174E-05
 -1      2795 5.32056E-01 5.29394E-02 3.59792E-05
 -1      2796 5.32104E-01 7.91190E-02 9.17637E-05
 -1      2797 5.98899E-01 6.36299E-02 1.23748E-05
 -1      2798 5.98967E-01 4.77381E-02-7.80871E-06
 -1      2799 5.99121E-01 3.18663E-02-4.18188E-05
 -1      2800 5.99435E-01 1.59721E-02-7.87357E-05
 -1      2801 5.98920E-01 6.36438E-02 3.59469E-05
 -1      2802 5.98989E-01 4.77434E-02 2.33732E-05
 -1      2803 5.99144E-01 3.18618E-02 8.21695E-06
 -1      2804 5.99449E-01 1.59629E-02-6.68570E-06
 -1      2805 5.98928E-01 6.36450E-02 5.84098E-05
 -1      2806 5.98995E-01 4.77442E-02 5.28967E-05
 -1      2807 5.99140E-01 3.18623E-02 5.34305E-05
 -1      2808 5.99433E-01 1.59622E-02 6.15891E-05
 -1      2809 5.75968E-01 8.84390E-02-6.50011E-06
 -1      2810 5.78050E-01 8.77102E-02 5.05165E-05
 -1      2811 5.80089E-01 8.69445E-02 1.02642E-04
 -1      2812 5.55552E-01 9.61558E-02-3.39690E-05
 -1      2813 5.58886E-01 9.50499E-02 4.21765E-05
 -1      2814 5.62142E-01 9.38535E-02 1.22271E-04
 -1      2815 5.40131E-01 1.01883E-01-5.47163E-05
 -1      2816 5.43089E-01 1.01053E-01 1.71634E-05
 -1      2817 5.45928E-01 1.00081E-01 1.30456E-04
 -1      2818 5.76150E-01-8.92169E-03-1.24779E-05
 -1      2819 5.78277E-01-8.19063E-03-5.32580E-05
 -1      2820 5.80344E-01-7.42939E-03-6.80425E-05
 -1      2821 5.55610E-01-1.65682E-02 4.32742E-05
 -1      2822 5.58978E-01-1.54966E-02-4.59508E-05
 -1      2823 5.62253E-01-1.43068E-02-1.34866E-04
 -1      2824 5.40142E-01-2.22453E-02 6.17333E-05
 -1      2825 5.43118E-01-2.14508E-02-1.46599E-05
 -1      2826 5.45968E-01-2.04940E-02-1.45179E-04
 -1      2827 5.73797E-01 6.93361E-02-2.29513E-05
 -1      2828 5.73837E-01 4.96843E-02-2.85771E-05
 -1      2829 5.73902E-01 3.00565E-02-4.70880E-05
 -1      2830 5.73957E-01 1.03979E-02-2.67875E-05
 -1      2831 5.52071E-01 7.41801E-02 1.21783E-05
 -1      2832 5.52055E-01 5.12967E-02-3.03030E-06
 -1      2833 5.52062E-01 2.84303E-02-2.37210E-05
 -1      2834 5.52075E-01 5.49794E-03-2.67513E-05
 -1      2835 5.37058E-01 7.74724E-02 1.95325E-05
 -1      2836 5.37018E-01 5.23829E-02 5.08120E-06
 -1      2837 5.37015E-01 2.73152E-02-1.31514E-05
 -1      2838 5.37054E-01 2.20772E-03-2.30442E-05
 -1      2839 5.82106E-01 6.75795E-02 1.09690E-04
 -1      2840 5.82172E-01 4.90964E-02 7.65072E-05
 -1      2841 5.82279E-01 3.06478E-02 4.61785E-05
 -1      2842 5.82390E-01 1.21713E-02-1.17767E-05
 -1      2843 5.65331E-01 7.14810E-02 1.34978E-04
 -1      2844 5.65362E-01 5.04134E-02 7.01478E-05
 -1      2845 5.65401E-01 2.93674E-02-4.79730E-06
 -1      2846 5.65403E-01 8.22126E-03-9.69312E-05
 -1      2847 5.48639E-01 7.53259E-02 1.59704E-04
 -1      2848 5.48622E-01 5.16918E-02 6.80515E-05
 -1      2849 5.48622E-01 2.80637E-02-3.51981E-05
 -1      2850 5.48645E-01 4.34702E-03-1.55922E-04
 -1      2851-5.46597E-01-2.02868E-02 2.10525E-04
 -1      2852-5.44355E-01-2.10900E-02 1.07938E-04
 -1      2853-5.42030E-01-2.17893E-02 1.28305E-05
 -1      2854-5.39630E-01-2.23925E-02-2.81969E-05
 -1      2855-5.62963E-01-1.40625E-02 1.91178E-04
 -1      2856-5.60369E-01-1.50345E-02 1.21151E-04
 -1      2857-5.57722E-01-1.59465E-02 5.06212E-05
 -1      2858-5.55008E-01-1.67692E-02-1.50179E-05
 -1      2859-5.80809E-01-7.27673E-03 1.09933E-04
 -1      2860-5.79170E-01-7.89251E-03 9.75836E-05
 -1      2861-5.77501E-01-8.49412E-03 7.86495E-05
 -1      2862-5.75784E-01-9.05822E-03 3.69958E-05
 -1      2863-5.46559E-01 9.98107E-02-1.41628E-04
 -1      2864-5.44319E-01 1.00622E-01-5.43895E-05
 -1      2865-5.42009E-01 1.01348E-01 3.03227E-05
 -1      2866-5.39624E-01 1.01986E-01 6.98182E-05
 -1      2867-5.62854E-01 9.35475E-02-1.22796E-04
 -1      2868-5.60270E-01 9.45229E-02-6.12563E-05
 -1      2869-5.57644E-01 9.54531E-02 1.67632E-06
 -1      2870-5.54959E-01 9.63123E-02 5.62103E-05
 -1      2871-5.80554E-01 8.67307E-02-9.22992E-05
 -1      2872-5.78936E-01 8.73519E-02-5.15146E-05
 -1      2873-5.77294E-01 8.79554E-02-1.08983E-05
 -1      2874-5.75620E-01 8.85273E-02 3.49273E-05
 -1      2875-5.48714E-01 4.32985E-03 1.88970E-04
 -1      2876-5.65465E-01 8.20207E-03 1.30486E-04
 -1      2877-5.82439E-01 1.21489E-02 4.85461E-05
 -1      2878-5.48691E-01 2.80324E-02 6.42423E-05
 -1      2879-5.65462E-01 2.93344E-02 3.58327E-05
 -1      2880-5.82334E-01 3.06148E-02-1.34740E-05
 -1      2881-5.48690E-01 5.16483E-02-4.38221E-05
 -1      2882-5.65424E-01 5.03700E-02-4.33651E-05
 -1      2883-5.82230E-01 4.90539E-02-4.71368E-05
 -1      2884-5.48707E-01 7.52716E-02-1.40981E-04
 -1      2885-5.65394E-01 7.14277E-02-1.12630E-04
 -1      2886-5.82164E-01 6.75271E-02-8.34862E-05
 -1      2887-5.37152E-01 2.19649E-03 5.36165E-05
 -1      2888-5.52164E-01 5.48601E-03 5.97691E-05
 -1      2889-5.74030E-01 1.03770E-02 5.93482E-05
 -1      2890-5.37115E-01 2.72942E-02 3.90287E-05
 -1      2891-5.52151E-01 2.84066E-02 5.15779E-05
 -1      2892-5.73977E-01 3.00290E-02 7.62431E-05
 -1      2893-5.37118E-01 5.23532E-02 1.67715E-05
 -1      2894-5.52144E-01 5.12640E-02 2.60620E-05
 -1      2895-5.73916E-01 4.96517E-02 5.47881E-05
 -1      2896-5.37157E-01 7.74339E-02-2.54004E-06
 -1      2897-5.52161E-01 7.41384E-02 5.70068E-06
 -1      2898-5.73878E-01 6.92967E-02 4.47200E-05
 -1      2899-5.99479E-01 1.59402E-02-4.41825E-05
 -1      2900-5.99496E-01 1.59382E-02 1.59282E-05
 -1      2901-5.99497E-01 1.59427E-02 6.93811E-05
 -1      2902-5.99484E-01 1.59533E-02 1.30928E-04
 -1      2903-5.99195E-01 3.18305E-02-3.06164E-05
 -1      2904-5.99204E-01 3.18302E-02 5.82134E-06
 -1      2905-5.99200E-01 3.18332E-02 4.51767E-05
 -1      2906-5.99183E-01 3.18389E-02 8.65263E-05
 -1      2907-5.99051E-01 4.77031E-02-2.77202E-05
 -1      2908-5.99052E-01 4.77057E-02-4.26820E-06
 -1      2909-5.99044E-01 4.77052E-02 2.09025E-05
 -1      2910-5.99030E-01 4.77025E-02 4.66975E-05
 -1      2911-5.98984E-01 6.35957E-02-3.26870E-05
 -1      2912-5.98984E-01 6.36004E-02-1.47232E-05
 -1      2913-5.98975E-01 6.35966E-02 3.21557E-06
 -1      2914-5.98963E-01 6.35861E-02 2.26570E-05
 -1      2915-6.56155E-01 7.72819E-02 3.95566E-05
 -1      2916-6.56156E-01 5.22377E-02 4.43776E-05
 -1      2917-6.56156E-01 2.72019E-02 4.55737E-05
 -1      2918-6.56141E-01 2.19241E-03 4.56512E-05
 -1      2919-6.31488E-01 7.13632E-02 3.57275E-05
 -1      2920-6.31511E-01 5.02523E-02 5.51928E-05
 -1      2921-6.31552E-01 2.91555E-02 7.34947E-05
 -1      2922-6.31587E-01 8.05380E-03 6.53234E-05
 -1      2923-6.43459E-01 7.42267E-02 2.49952E-05
 -1      2924-6.43468E-01 5.11888E-02 1.50797E-05
 -1      2925-6.43479E-01 2.81794E-02 1.97255E-05
 -1      2926-6.43473E-01 5.22839E-03 3.80176E-05
 -1      2927-6.21275E-01 6.89026E-02-2.73933E-06
 -1      2928-6.21307E-01 4.94194E-02-1.24168E-05
 -1      2929-6.21389E-01 2.99558E-02-1.60767E-05
 -1      2930-6.21477E-01 1.04879E-02 8.84446E-06
 -1      2931-6.53608E-01 1.01317E-01 3.09568E-05
 -1      2932-6.29425E-01 9.16957E-02 2.09979E-05
 -1      2933-6.51064E-01 1.00314E-01 3.03340E-05
 -1      2934-6.27377E-01 9.08871E-02 2.13696E-05
 -1      2935-6.48520E-01 9.93037E-02 3.22740E-05
 -1      2936-6.25336E-01 9.00746E-02 1.98494E-05
 -1      2937-6.45981E-01 9.82872E-02 3.64962E-05
 -1      2938-6.23299E-01 8.92574E-02 1.82357E-05
 -1      2939-6.53624E-01-2.17967E-02 3.78502E-05
 -1      2940-6.29501E-01-1.20954E-02 5.53521E-05
 -1      2941-6.51099E-01-2.07626E-02 4.53651E-05
 -1      2942-6.27496E-01-1.12707E-02 5.85916E-05
 -1      2943-6.48572E-01-1.97353E-02 5.35777E-05
 -1      2944-6.25482E-01-1.04531E-02 5.04591E-05
 -1      2945-6.46038E-01-1.87199E-02 6.40427E-05
 -1      2946-6.23463E-01-9.63613E-03 4.08071E-05
 -1      2947-6.65597E-01 7.95472E-02 4.02856E-05
 -1      2948-6.65597E-01 5.29969E-02 4.39642E-05
 -1      2949-6.65591E-01 2.64546E-02 4.49272E-05
 -1      2950-6.65586E-01-7.29610E-05 4.28422E-05
 -1      2951-6.65596E-01 7.95493E-02 3.84101E-05
 -1      2952-6.65599E-01 5.29892E-02 4.40128E-05
 -1      2953-6.65593E-01 2.64455E-02 4.68093E-05
 -1      2954-6.65588E-01-7.22879E-05 4.39626E-05
 -1      2955-6.65591E-01 7.95507E-02 3.70416E-05
 -1      2956-6.65595E-01 5.29862E-02 4.02926E-05
 -1      2957-6.65591E-01 2.64448E-02 4.40725E-05
 -1      2958-6.65590E-01-6.49969E-05 4.59670E-05
 -1      2959-6.65588E-01 7.95480E-02 3.71422E-05
 -1      2960-6.65591E-01 5.29831E-02 3.55719E-05
 -1      2961-6.65587E-01 2.64439E-02 3.97267E-05
 -1      2962-6.65587E-01-6.22739E-05 4.88761E-05
 -1      2963 5.48638E-01 4.34890E-03 1.60144E-04
 -1      2964 5.48615E-01 2.80648E-02 3.73703E-05
 -1      2965 5.48615E-01 5.16913E-02-6.75654E-05
 -1      2966 5.48632E-01 7.53242E-02-1.61038E-04
 -1      2967 5.65397E-01 8.22372E-03 1.00202E-04
 -1      2968 5.65396E-01 2.93688E-02 6.95607E-06
 -1      2969 5.65357E-01 5.04131E-02-6.95918E-05
 -1      2970 5.65326E-01 7.14797E-02-1.35872E-04
 -1      2971 5.82386E-01 1.21752E-02 1.56276E-05
 -1      2972 5.82276E-01 3.06493E-02-4.43866E-05
 -1      2973 5.82169E-01 4.90962E-02-7.55822E-05
 -1      2974 5.82102E-01 6.75781E-02-1.10168E-04
 -1      2975 5.37052E-01 2.21091E-03 2.61410E-05
 -1      2976 5.37014E-01 2.73164E-02 1.49483E-05
 -1      2977 5.37018E-01 5.23821E-02-4.38837E-06
 -1      2978 5.37057E-01 7.74698E-02-2.00041E-05
 -1      2979 5.52075E-01 5.50071E-03 3.12898E-05
 -1      2980 5.52063E-01 2.84314E-02 2.62115E-05
 -1      2981 5.52056E-01 5.12962E-02 3.34491E-06
 -1      2982 5.52073E-01 7.41781E-02-1.39866E-05
 -1      2983 5.73962E-01 1.03982E-02 3.12211E-05
 -1      2984 5.73907E-01 3.00569E-02 5.01938E-05
 -1      2985 5.73843E-01 4.96850E-02 2.94257E-05
 -1      2986 5.73803E-01 6.93370E-02 2.13418E-05
 -1      2987 5.46518E-01-2.02821E-02 1.79052E-04
 -1      2988 5.62893E-01-1.40564E-02 1.59980E-04
 -1      2989 5.80750E-01-7.27032E-03 7.80332E-05
 -1      2990 5.44272E-01-2.10871E-02 7.57566E-05
 -1      2991 5.60296E-01-1.50301E-02 8.92362E-05
 -1      2992 5.79108E-01-7.88631E-03 6.56524E-05
 -1      2993 5.41942E-01-2.17872E-02-1.99305E-05
 -1      2994 5.57645E-01-1.59432E-02 1.81581E-05
 -1      2995 5.77435E-01-8.48900E-03 4.70549E-05
 -1      2996 5.39536E-01-2.23897E-02-6.08758E-05
 -1      2997 5.54925E-01-1.67659E-02-4.81443E-05
 -1      2998 5.75714E-01-9.05418E-03 5.06087E-06
 -1      2999 5.46480E-01 9.98698E-02-1.56793E-04
 -1      3000 5.62783E-01 9.36052E-02-1.41578E-04
 -1      3001 5.80490E-01 8.67869E-02-1.15913E-04
 -1      3002 5.44236E-01 1.00679E-01-6.87147E-05
 -1      3003 5.60195E-01 9.45786E-02-7.89903E-05
 -1      3004 5.78869E-01 8.74063E-02-7.38254E-05
 -1      3005 5.41921E-01 1.01402E-01 1.68340E-05
 -1      3006 5.57565E-01 9.55066E-02-1.51400E-05
 -1      3007 5.77224E-01 8.80078E-02-3.19048E-05
 -1      3008 5.39530E-01 1.02036E-01 5.70767E-05
 -1      3009 5.54875E-01 9.63636E-02 3.99187E-05
 -1      3010 5.75546E-01 8.85770E-02 1.49410E-05
 -1      3011 5.99427E-01 1.59646E-02-7.47938E-05
 -1      3012 5.99137E-01 3.18633E-02-5.96088E-05
 -1      3013 5.98994E-01 4.77434E-02-5.72204E-05
 -1      3014 5.98927E-01 6.36426E-02-6.27117E-05
 -1      3015 5.99446E-01 1.59622E-02-1.58228E-05
 -1      3016 5.99145E-01 3.18617E-02-2.45124E-05
 -1      3017 5.98993E-01 4.77442E-02-3.41618E-05
 -1      3018 5.98925E-01 6.36454E-02-4.44715E-05
 -1      3019 5.99447E-01 1.59658E-02 3.67743E-05
 -1      3020 5.99139E-01 3.18632E-02 1.39934E-05
 -1      3021 5.98983E-01 4.77419E-02-9.35776E-06
 -1      3022 5.98914E-01 6.36397E-02-2.63964E-05
 -1      3023 5.99431E-01 1.59750E-02 9.96463E-05
 -1      3024 5.99119E-01 3.18673E-02 5.46708E-05
 -1      3025 5.98965E-01 4.77372E-02 1.59995E-05
 -1      3026 5.98898E-01 6.36267E-02-6.67639E-06
 -1      3027 6.51755E-01 1.00665E-01 3.12516E-06
 -1      3028 6.54560E-01 1.01780E-01 8.70809E-06
 -1      3029 6.57368E-01 1.02885E-01 8.92207E-06
 -1      3030 6.35550E-01 9.42093E-02 6.32306E-06
 -1      3031 6.38776E-01 9.54947E-02 1.03763E-05
 -1      3032 6.42010E-01 9.67711E-02 1.32319E-05
 -1      3033 6.17674E-01 8.70999E-02 2.20861E-05
 -1      3034 6.19688E-01 8.79044E-02 1.71678E-05
 -1      3035 6.21711E-01 8.87045E-02 1.58975E-05
 -1      3036 6.51795E-01-2.10420E-02-1.49059E-05
 -1      3037 6.54589E-01-2.21740E-02-3.57509E-06
 -1      3038 6.57378E-01-2.33147E-02 2.17034E-07
 -1      3039 6.35660E-01-1.45440E-02-1.68628E-05
 -1      3040 6.38868E-01-1.58400E-02-1.05891E-05
 -1      3041 6.42068E-01-1.71521E-02-1.59031E-06
 -1      3042 6.17929E-01-7.39724E-03 1.06419E-05
 -1      3043 6.19915E-01-8.21000E-03-1.59903E-05
 -1      3044 6.21892E-01-9.01895E-03-2.80488E-05
 -1      3045 6.48969E-01 7.56131E-02 8.94964E-06
 -1      3046 6.32344E-01 7.16228E-02 2.18780E-05
 -1      3047 6.15673E-01 6.76245E-02 4.58874E-05
 -1      3048 6.48975E-01 5.16790E-02 1.87401E-05
 -1      3049 6.32363E-01 5.03438E-02 3.43179E-05
 -1      3050 6.15714E-01 4.90256E-02 5.66731E-05
 -1      3051 6.48975E-01 2.77782E-02 1.64531E-05
 -1      3052 6.32402E-01 2.90890E-02 3.27215E-05
 -1      3053 6.15821E-01 3.04445E-02 6.67256E-05
 -1      3054 6.48975E-01 3.92725E-03-3.20433E-06
 -1      3055 6.32415E-01 7.88985E-03 1.66601E-05
 -1      3056 6.15957E-01 1.18391E-02 5.12131E-05
 -1      3057 6.60175E-01 7.82969E-02 1.10821E-06
 -1      3058 6.45252E-01 7.47201E-02 1.48749E-06
 -1      3059 6.23761E-01 6.95638E-02-1.95528E-06
 -1      3060 6.60176E-01 5.25996E-02-2.31422E-06
 -1      3061 6.45259E-01 5.13960E-02-9.59358E-06
 -1      3062 6.23791E-01 4.96717E-02-2.43585E-05
 -1      3063 6.60173E-01 2.69102E-02-4.21243E-06
 -1      3064 6.45267E-01 2.80843E-02-1.47127E-05
 -1      3065 6.23857E-01 2.97950E-02-4.90313E-05
 -1      3066 6.60171E-01 1.23098E-03-3.09574E-06
 -1      3067 6.45255E-01 4.80845E-03-1.34292E-05
 -1      3068 6.23925E-01 9.90205E-03-4.52861E-05
 -1      3069 6.65570E-01 7.96030E-02 4.42159E-06
 -1      3070 6.65575E-01 7.96004E-02 3.99065E-06
 -1      3071 6.65579E-01 7.95946E-02 1.91764E-06
 -1      3072 6.65573E-01 5.30261E-02 4.43849E-06
 -1      3073 6.65578E-01 5.30260E-02-1.32467E-06
 -1      3074 6.65579E-01 5.30307E-02-2.94924E-06
 -1      3075 6.65571E-01 2.64733E-02 1.02570E-06
 -1      3076 6.65574E-01 2.64710E-02-4.53737E-06
 -1      3077 6.65575E-01 2.64764E-02-5.09980E-06
 -1      3078 6.65572E-01-4.88028E-05-4.90229E-06
 -1      3079 6.65573E-01-5.73928E-05-3.46920E-06
 -1      3080 6.65572E-01-6.47433E-05-2.66849E-06
 -1      3081 7.98333E-01 7.95937E-02 2.09666E-06
 -1      3082 7.98334E-01 5.30417E-02 2.02314E-06
 -1      3083 7.98334E-01 2.64895E-02 1.96097E-06
 -1      3084 7.98334E-01-6.28171E-05 1.77555E-06
 -1      3085 7.98332E-01 7.95947E-02 3.07390E-06
 -1      3086 7.98333E-01 5.30429E-02 2.90425E-06
 -1      3087 7.98332E-01 2.64909E-02 2.72499E-06
 -1      3088 7.98332E-01-6.12083E-05 2.32329E-06
 -1      3089 7.98331E-01 7.95959E-02 3.51004E-06
 -1      3090 7.98331E-01 5.30444E-02 3.26429E-06
 -1      3091 7.98331E-01 2.64928E-02 3.00787E-06
 -1      3092 7.98331E-01-5.91273E-05 2.48049E-06
 -1      3093 6.92129E-01 1.06148E-01 4.82609E-06
 -1      3094 6.92128E-01 1.06156E-01 4.95493E-06
 -1      3095 6.92127E-01 1.06159E-01 2.13752E-06
 -1      3096 7.18680E-01 1.06146E-01 2.72531E-06
 -1      3097 7.18680E-01 1.06149E-01 3.20309E-06
 -1      3098 7.18679E-01 1.06151E-01 1.90314E-06
 -1      3099 7.45231E-01 1.06145E-01 2.05112E-06
 -1      3100 7.45230E-01 1.06146E-01 2.67564E-06
 -1      3101 7.45229E-01 1.06148E-01 2.38331E-06
 -1      3102 7.71782E-01 1.06145E-01 2.01405E-06
 -1      3103 7.71781E-01 1.06146E-01 2.89995E-06
 -1      3104 7.71780E-01 1.06147E-01 3.13630E-06
 -1      3105 6.92123E-01-2.66130E-02 1.78761E-06
 -1      3106 6.92122E-01-2.66036E-02-9.53473E-07
 -1      3107 6.92119E-01-2.65968E-02-6.34751E-06
 -1      3108 7.18676E-01-2.66148E-02 6.38917E-07
 -1      3109 7.18674E-01-2.66105E-02-8.86787E-07
 -1      3110 7.18671E-01-2.66069E-02-3.62628E-06
 -1      3111 7.45228E-01-2.66154E-02 4.29646E-07
 -1      3112 7.45227E-01-2.66130E-02-4.89209E-07
 -1      3113 7.45225E-01-2.66105E-02-1.66346E-06
 -1      3114 7.71781E-01-2.66155E-02 6.39283E-07
 -1      3115 7.71780E-01-2.66136E-02 2.45400E-07
 -1      3116 7.71778E-01-2.66114E-02-1.17092E-07
 -1      3117 6.92130E-01 7.95914E-02 7.36574E-07
 -1      3118 6.92129E-01 5.30377E-02 7.49713E-07
 -1      3119 6.92127E-01 2.64850E-02 8.57564E-07
 -1      3120 6.92125E-01-6.64362E-05 1.04082E-06
 -1      3121 7.18681E-01 7.95922E-02 7.38857E-07
 -1      3122 7.18680E-01 5.30388E-02 7.99605E-07
 -1      3123 7.18678E-01 2.64863E-02 9.00709E-07
 -1      3124 7.18677E-01-6.50436E-05 1.01265E-06
 -1      3125 7.45231E-01 7.95927E-02 7.10669E-07
 -1      3126 7.45231E-01 5.30401E-02 7.83055E-07
 -1      3127 7.45230E-01 2.64877E-02 8.69179E-07
 -1      3128 7.45229E-01-6.41372E-05 9.58592E-07
 -1      3129 7.71782E-01 7.95930E-02 6.86179E-07
 -1      3130 7.71782E-01 5.30408E-02 7.61468E-07
 -1      3131 7.71782E-01 2.64885E-02 8.38530E-07
 -1      3132 7.71782E-01-6.36952E-05 9.16387E-07
 -1      3133 6.92130E-01 7.95968E-02 1.17704E-06
 -1      3134 6.92125E-01 5.30328E-02 3.37558E-06
 -1      3135 6.92116E-01 2.64828E-02 1.40254E-06
 -1      3136 6.92110E-01-5.24887E-05-5.13364E-06
 -1      3137 7.18679E-01 7.95968E-02 1.00680E-06
 -1      3138 7.18676E-01 5.30407E-02 1.48180E-06
 -1      3139 7.18670E-01 2.64903E-02 2.62313E-07
 -1      3140 7.18667E-01-5.47448E-05-2.81229E-06
 -1      3141 7.45229E-01 7.95970E-02 1.64075E-06
 -1      3142 7.45227E-01 5.30442E-02 1.46052E-06
 -1      3143 7.45224E-01 2.64932E-02 6.56045E-07
 -1      3144 7.45223E-01-5.61327E-05-9.17613E-07
 -1      3145 7.71779E-01 7.95971E-02 2.56344E-06
 -1      3146 7.71779E-01 5.30454E-02 2.18123E-06
 -1      3147 7.71778E-01 2.64943E-02 1.63156E-06
 -1      3148 7.71777E-01-5.67995E-05 7.35146E-07
 -1      3149-6.65586E-01-6.54638E-05 3.55825E-05
 -1      3150-6.65589E-01 2.64626E-02 3.37838E-05
 -1      3151-6.65593E-01 5.30031E-02 3.64450E-05
 -1      3152-6.65592E-01 7.95531E-02 4.19568E-05
 -1      3153-6.65586E-01-5.41723E-05 3.49286E-05
 -1      3154-6.65587E-01 2.64615E-02 3.43979E-05
 -1      3155-6.65590E-01 5.30023E-02 3.80133E-05
 -1      3156-6.65588E-01 7.95621E-02 4.38020E-05
 -1      3157-6.65585E-01-4.16055E-05 3.35654E-05
 -1      3158-6.65583E-01 2.64677E-02 3.97515E-05
 -1      3159-6.65585E-01 5.30062E-02 4.36087E-05
 -1      3160-6.65582E-01 7.95683E-02 4.41893E-05
 -1      3161-7.98281E-01-6.36243E-05 5.41496E-05
 -1      3162-7.98281E-01 2.64753E-02 5.50616E-05
 -1      3163-7.98281E-01 5.30141E-02 5.58347E-05
 -1      3164-7.98280E-01 7.95526E-02 5.66698E-05
 -1      3165-7.98278E-01-5.82829E-05 5.47633E-05
 -1      3166-7.98278E-01 2.64804E-02 5.59080E-05
 -1      3167-7.98278E-01 5.30188E-02 5.68209E-05
 -1      3168-7.98278E-01 7.95571E-02 5.77663E-05
 -1      3169-7.98276E-01-5.24960E-05 5.49307E-05
 -1      3170-7.98276E-01 2.64858E-02 5.62210E-05
 -1      3171-7.98276E-01 5.30239E-02 5.72344E-05
 -1      3172-7.98276E-01 7.95619E-02 5.82682E-05
 -1      3173-6.92124E-01-2.66007E-02 4.22615E-05
 -1      3174-6.92122E-01-2.65873E-02 3.96020E-05
 -1      3175-6.92119E-01-2.65765E-02 3.43782E-05
 -1      3176-7.18663E-01-2.66024E-02 4.37967E-05
 -1      3177-7.18660E-01-2.65941E-02 4.23494E-05
 -1      3178-7.18657E-01-2.65866E-02 3.96778E-05
 -1      3179-7.45202E-01-2.66028E-02 4.63097E-05
 -1      3180-7.45200E-01-2.65966E-02 4.54389E-05
 -1      3181-7.45197E-01-2.65903E-02 4.43094E-05
 -1      3182-7.71742E-01-2.66029E-02 4.92620E-05
 -1      3183-7.71739E-01-2.65972E-02 4.89339E-05
 -1      3184-7.71737E-01-2.65912E-02 4.86251E-05
 -1      3185-6.92130E-01 1.06093E-01 4.88728E-05
 -1      3186-6.92127E-01 1.06104E-01 4.87479E-05
 -1      3187-6.92125E-01 1.06111E-01 4.58472E-05
 -1      3188-7.18668E-01 1.06091E-01 4.96230E-05
 -1      3189-7.18666E-01 1.06098E-01 5.00662E-05
 -1      3190-7.18664E-01 1.06103E-01 4.87453E-05
 -1      3191-7.45205E-01 1.06090E-01 5.18477E-05
 -1      3192-7.45203E-01 1.06095E-01 5.24866E-05
 -1      3193-7.45201E-01 1.06100E-01 5.22023E-05
 -1      3194-7.71742E-01 1.06090E-01 5.46658E-05
 -1      3195-7.71740E-01 1.06095E-01 5.56017E-05
 -1      3196-7.71738E-01 1.06100E-01 5.58541E-05
 -1      3197-6.92127E-01-7.10776E-05 4.21249E-05
 -1      3198-6.92129E-01 2.64670E-02 4.28499E-05
 -1      3199-6.92131E-01 5.30063E-02 4.32865E-05
 -1      3200-6.92132E-01 7.95467E-02 4.37826E-05
 -1      3201-7.18665E-01-6.96532E-05 4.49395E-05
 -1      3202-7.18667E-01 2.64684E-02 4.55405E-05
 -1      3203-7.18669E-01 5.30076E-02 4.61014E-05
 -1      3204-7.18669E-01 7.95476E-02 4.67068E-05
 -1      3205-7.45204E-01-6.86893E-05 4.76244E-05
 -1      3206-7.45205E-01 2.64699E-02 4.82675E-05
 -1      3207-7.45206E-01 5.30089E-02 4.88864E-05
 -1      3208-7.45206E-01 7.95481E-02 4.95570E-05
 -1      3209-7.71743E-01-6.82062E-05 5.03361E-05
 -1      3210-7.71744E-01 2.64707E-02 5.10084E-05
 -1      3211-7.71744E-01 5.30097E-02 5.16611E-05
 -1      3212-7.71744E-01 7.95485E-02 5.23571E-05
 -1      3213-6.92109E-01-4.18653E-05 3.60498E-05
 -1      3214-6.92114E-01 2.64803E-02 4.30091E-05
 -1      3215-6.92122E-01 5.30165E-02 4.56282E-05
 -1      3216-6.92127E-01 7.95663E-02 4.42294E-05
 -1      3217-7.18651E-01-4.43419E-05 4.11244E-05
 -1      3218-7.18655E-01 2.64873E-02 4.48310E-05
 -1      3219-7.18660E-01 5.30240E-02 4.67672E-05
 -1      3220-7.18663E-01 7.95664E-02 4.70882E-05
 -1      3221-7.45193E-01-4.58303E-05 4.58028E-05
 -1      3222-7.45195E-01 2.64900E-02 4.81103E-05
 -1      3223-7.45198E-01 5.30274E-02 4.96755E-05
 -1      3224-7.45200E-01 7.95666E-02 5.06584E-05
 -1      3225-7.71734E-01-4.65281E-05 5.02920E-05
 -1      3226-7.71735E-01 2.64910E-02 5.19618E-05
 -1      3227-7.71736E-01 5.30286E-02 5.32863E-05
 -1      3228-7.71737E-01 7.95667E-02 5.44680E-05
 -1      3229-6.17715E-01 8.70598E-02 5.61759E-05
 -1      3230-6.19727E-01 8.78621E-02 5.03537E-05
 -1      3231-6.21747E-01 8.86604E-02 4.85853E-05
 -1      3232-6.35579E-01 9.41664E-02 4.24824E-05
 -1      3233-6.38803E-01 9.54494E-02 4.66799E-05
 -1      3234-6.42035E-01 9.67236E-02 5.02717E-05
 -1      3235-6.51774E-01 1.00619E-01 4.15986E-05
 -1      3236-6.54578E-01 1.01731E-01 4.75752E-05
 -1      3237-6.57385E-01 1.02833E-01 4.85818E-05
 -1      3238-6.17965E-01-7.38727E-03 4.27882E-05
 -1      3239-6.19950E-01-8.20062E-03 1.85679E-05
 -1      3240-6.21926E-01-9.01264E-03 8.30319E-06
 -1      3241-6.35686E-01-1.45297E-02 1.88997E-05
 -1      3242-6.38892E-01-1.58279E-02 2.53854E-05
 -1      3243-6.42091E-01-1.71416E-02 3.36247E-05
 -1      3244-6.51814E-01-2.10244E-02 2.22078E-05
 -1      3245-6.54607E-01-2.21591E-02 3.32232E-05
 -1      3246-6.57395E-01-2.33019E-02 3.70403E-05
 -1      3247-6.15716E-01 6.75992E-02 7.96560E-05
 -1      3248-6.32374E-01 7.15952E-02 5.75217E-05
 -1      3249-6.48989E-01 7.55840E-02 4.66910E-05
 -1      3250-6.15756E-01 4.90117E-02 8.97843E-05
 -1      3251-6.32393E-01 5.03296E-02 6.90265E-05
 -1      3252-6.48995E-01 5.16642E-02 5.55882E-05
 -1      3253-6.15859E-01 3.04419E-02 9.79880E-05
 -1      3254-6.32431E-01 2.90882E-02 6.65010E-05
 -1      3255-6.48995E-01 2.77769E-02 5.26191E-05
 -1      3256-6.15989E-01 1.18491E-02 8.08102E-05
 -1      3257-6.32444E-01 7.89903E-03 5.04138E-05
 -1      3258-6.48996E-01 3.93696E-03 3.32570E-05
 -1      3259-6.23795E-01 6.95285E-02 3.22733E-05
 -1      3260-6.45275E-01 7.46821E-02 3.86467E-05
 -1      3261-6.60192E-01 7.82553E-02 4.06219E-05
 -1      3262-6.23824E-01 4.96489E-02 1.04214E-05
 -1      3263-6.45282E-01 5.13709E-02 2.75255E-05
 -1      3264-6.60193E-01 5.25713E-02 3.64619E-05
 -1      3265-6.23887E-01 2.97844E-02-1.31814E-05
 -1      3266-6.45290E-01 2.80723E-02 2.22386E-05
 -1      3267-6.60189E-01 2.68954E-02 3.40306E-05
 -1      3268-6.23954E-01 9.90336E-03-9.73297E-06
 -1      3269-6.45278E-01 4.80730E-03 2.31514E-05
 -1      3270-6.60188E-01 1.22889E-03 3.46243E-05
 -1      3271-6.92135E-01 7.95388E-02 4.35510E-05
 -1      3272-6.92129E-01 5.29880E-02 4.09533E-05
 -1      3273-6.92119E-01 2.64520E-02 4.30300E-05
 -1      3274-6.92113E-01-6.86572E-05 4.99539E-05
 -1      3275-7.18671E-01 7.95392E-02 4.64930E-05
 -1      3276-7.18667E-01 5.29964E-02 4.55673E-05
 -1      3277-7.18661E-01 2.64597E-02 4.64425E-05
 -1      3278-7.18657E-01-7.13858E-05 4.93280E-05
 -1      3279-7.45207E-01 7.95394E-02 4.85161E-05
 -1      3280-7.45205E-01 5.30001E-02 4.81788E-05
 -1      3281-7.45202E-01 2.64627E-02 4.84943E-05
 -1      3282-7.45200E-01-7.31525E-05 4.96209E-05
 -1      3283-7.71744E-01 7.95395E-02 5.01984E-05
 -1      3284-7.71743E-01 5.30014E-02 5.00258E-05
 -1      3285-7.71742E-01 2.64637E-02 5.00160E-05
 -1      3286-7.71741E-01-7.39893E-05 5.03738E-05
 -1      3287-6.92131E-01 1.06091E-01 4.37668E-05
 -1      3288-7.18670E-01 1.06082E-01 4.63950E-05
 -1      3289-7.45207E-01 1.06079E-01 4.83782E-05
 -1      3290-7.71744E-01 1.06079E-01 5.01661E-05
 -1      3291-6.92132E-01 1.06093E-01 4.07391E-05
 -1      3292-7.18670E-01 1.06084E-01 4.50014E-05
 -1      3293-7.45207E-01 1.06081E-01 4.79893E-05
 -1      3294-7.71744E-01 1.06081E-01 5.02803E-05
 -1      3295-6.92133E-01 1.06090E-01 3.96490E-05
 -1      3296-7.18671E-01 1.06084E-01 4.46544E-05
 -1      3297-7.45207E-01 1.06083E-01 4.81837E-05
 -1      3298-7.71744E-01 1.06082E-01 5.08343E-05
 -1      3299-6.92133E-01 1.06087E-01 4.08995E-05
 -1      3300-7.18670E-01 1.06085E-01 4.56812E-05
 -1      3301-7.45207E-01 1.06084E-01 4.90762E-05
 -1      3302-7.71744E-01 1.06084E-01 5.18642E-05
 -1      3303-6.92122E-01-2.65970E-02 5.24043E-05
 -1      3304-7.18661E-01-2.66078E-02 5.03350E-05
 -1      3305-7.45202E-01-2.66116E-02 5.00940E-05
 -1      3306-7.71742E-01-2.66125E-02 5.07612E-05
 -1      3307-6.92125E-01-2.65990E-02 4.64297E-05
 -1      3308-7.18663E-01-2.66081E-02 4.76618E-05
 -1      3309-7.45203E-01-2.66112E-02 4.90520E-05
 -1      3310-7.71743E-01-2.66120E-02 5.04957E-05
 -1      3311-6.92125E-01-2.66044E-02 4.24102E-05
 -1      3312-7.18664E-01-2.66093E-02 4.55548E-05
 -1      3313-7.45204E-01-2.66108E-02 4.80757E-05
 -1      3314-7.71744E-01-2.66112E-02 5.01589E-05
 -1      3315-6.92125E-01-2.66093E-02 4.07716E-05
 -1      3316-7.18665E-01-2.66098E-02 4.45556E-05
 -1      3317-7.45204E-01-2.66098E-02 4.73695E-05
 -1      3318-7.71744E-01-2.66098E-02 4.98377E-05
 -1      3319-7.98282E-01 7.95412E-02 5.18094E-05
 -1      3320-7.98282E-01 5.30031E-02 5.14720E-05
 -1      3321-7.98281E-01 2.64650E-02 5.11250E-05
 -1      3322-7.98281E-01-7.35133E-05 5.10717E-05
 -1      3323-7.98282E-01 7.95428E-02 5.20911E-05
 -1      3324-7.98282E-01 5.30045E-02 5.16919E-05
 -1      3325-7.98282E-01 2.64660E-02 5.13058E-05
 -1      3326-7.98282E-01-7.28108E-05 5.11825E-05
 -1      3327-7.98283E-01 7.95444E-02 5.27509E-05
 -1      3328-7.98283E-01 5.30059E-02 5.22869E-05
 -1      3329-7.98283E-01 2.64671E-02 5.18334E-05
 -1      3330-7.98283E-01-7.18448E-05 5.15720E-05
 -1      3331-7.98283E-01 7.95464E-02 5.38051E-05
 -1      3332-7.98283E-01 5.30077E-02 5.32459E-05
 -1      3333-7.98283E-01 2.64688E-02 5.27108E-05
 -1      3334-7.98283E-01-7.02970E-05 5.22655E-05
 -1      3335 7.71776E-01-5.62994E-05 1.06175E-06
 -1      3336 7.71777E-01 2.64946E-02-3.43872E-09
 -1      3337 7.71778E-01 5.30456E-02-7.15854E-07
 -1      3338 7.71778E-01 7.95971E-02-1.26906E-06
 -1      3339 7.45222E-01-5.55754E-05 2.82147E-06
 -1      3340 7.45223E-01 2.64936E-02 1.05013E-06
 -1      3341 7.45226E-01 5.30444E-02 5.76216E-08
 -1      3342 7.45228E-01 7.95971E-02-3.12571E-07
 -1      3343 7.18666E-01-5.40598E-05 4.87262E-06
 -1      3344 7.18669E-01 2.64907E-02 1.54797E-06
 -1      3345 7.18675E-01 5.30409E-02 9.37528E-08
 -1      3346 7.18679E-01 7.95968E-02 3.46567E-07
 -1      3347 6.92109E-01-5.16297E-05 7.54442E-06
 -1      3348 6.92115E-01 2.64833E-02 5.93862E-07
 -1      3349 6.92124E-01 5.30330E-02-1.72226E-06
 -1      3350 6.92129E-01 7.95967E-02 1.98846E-07
 -1      3351 7.71781E-01-2.66156E-02 1.26752E-06
 -1      3352 7.45228E-01-2.66156E-02 1.47459E-06
 -1      3353 7.18676E-01-2.66155E-02 1.33327E-06
 -1      3354 6.92123E-01-2.66148E-02 3.15150E-07
 -1      3355 7.71780E-01-2.66143E-02 1.57913E-06
 -1      3356 7.45227E-01-2.66139E-02 2.12045E-06
 -1      3357 7.18674E-01-2.66122E-02 2.21255E-06
 -1      3358 6.92122E-01-2.66074E-02 1.70065E-06
 -1      3359 7.71779E-01-2.66124E-02 1.89995E-06
 -1      3360 7.45226E-01-2.66117E-02 3.01799E-06
 -1      3361 7.18673E-01-2.66086E-02 4.08368E-06
 -1      3362 6.92121E-01-2.65999E-02 5.19005E-06
 -1      3363 7.71777E-01-2.66105E-02 2.15846E-06
 -1      3364 7.45224E-01-2.66096E-02 3.99297E-06
 -1      3365 7.18670E-01-2.66058E-02 6.52527E-06
 -1      3366 6.92118E-01-2.65955E-02 1.03392E-05
 -1      3367 7.71782E-01 1.06145E-01-5.65492E-07
 -1      3368 7.45231E-01 1.06145E-01-5.50400E-07
 -1      3369 7.18680E-01 1.06145E-01-1.06000E-06
 -1      3370 6.92130E-01 1.06147E-01-2.87297E-06
 -1      3371 7.71781E-01 1.06145E-01-1.47859E-06
 -1      3372 7.45230E-01 1.06146E-01-1.35124E-06
 -1      3373 7.18680E-01 1.06147E-01-2.01272E-06
 -1      3374 6.92129E-01 1.06153E-01-4.04986E-06
 -1      3375 7.71780E-01 1.06146E-01-1.94828E-06
 -1      3376 7.45229E-01 1.06147E-01-1.50182E-06
 -1      3377 7.18679E-01 1.06150E-01-1.67421E-06
 -1      3378 6.92127E-01 1.06157E-01-3.03395E-06
 -1      3379 7.71779E-01 1.06147E-01-2.02347E-06
 -1      3380 7.45229E-01 1.06148E-01-1.11943E-06
 -1      3381 7.18679E-01 1.06151E-01-3.63769E-07
 -1      3382 6.92126E-01 1.06159E-01-1.71798E-07
 -1      3383 7.98334E-01-6.29802E-05 1.38069E-07
 -1      3384 7.98334E-01 2.64894E-02-1.32787E-07
 -1      3385 7.98334E-01 5.30416E-02-3.02496E-07
 -1      3386 7.98333E-01 7.95936E-02-4.86303E-07
 -1      3387 7.98333E-01-6.18036E-05-4.35090E-07
 -1      3388 7.98333E-01 2.64904E-02-8.94329E-07
 -1      3389 7.98333E-01 5.30424E-02-1.15988E-06
 -1      3390 7.98333E-01 7.95942E-02-1.43721E-06
 -1      3391 7.98331E-01-6.01553E-05-7.29843E-07
 -1      3392 7.98331E-01 2.64918E-02-1.33630E-06
 -1      3393 7.98331E-01 5.30436E-02-1.68599E-06
 -1      3394 7.98331E-01 7.95951E-02-2.03141E-06
 -1      3395 7.98330E-01-5.83175E-05-7.89106E-07
 -1      3396 7.98330E-01 2.64934E-02-1.47144E-06
 -1      3397 7.98330E-01 5.30448E-02-1.87302E-06
 -1      3398 7.98330E-01 7.95962E-02-2.28392E-06
 -1      3399 6.65573E-01-6.58145E-05 4.18639E-06
 -1      3400 6.65575E-01 2.64784E-02 5.92445E-06
 -1      3401 6.65579E-01 5.30323E-02 3.92427E-06
 -1      3402 6.65579E-01 7.95934E-02-2.38607E-07
 -1      3403 6.65573E-01-6.13823E-05 5.55722E-06
 -1      3404 6.65575E-01 2.64717E-02 7.52237E-06
 -1      3405 6.65579E-01 5.30271E-02 4.29190E-06
 -1      3406 6.65577E-01 7.95979E-02-1.93063E-06
 -1      3407 6.65573E-01-5.29181E-05 6.08432E-06
 -1      3408 6.65573E-01 2.64721E-02 4.50308E-06
 -1      3409 6.65576E-01 5.30262E-02 7.40341E-07
 -1      3410 6.65573E-01 7.96020E-02-3.19145E-06
 -1      3411 6.65570E-01-4.76739E-05 8.24769E-06
 -1      3412 6.65570E-01 2.64735E-02-3.69031E-08
 -1      3413 6.65572E-01 5.30257E-02-3.95482E-06
 -1      3414 6.65570E-01 7.96025E-02-3.00364E-06
 -1      3415 6.15955E-01 1.18375E-02-4.79195E-05
 -1      3416 6.15819E-01 3.04439E-02-6.49831E-05
 -1      3417 6.15713E-01 4.90249E-02-5.53734E-05
 -1      3418 6.15672E-01 6.76232E-02-4.54198E-05
 -1      3419 6.32413E-01 7.88961E-03-1.42960E-05
 -1      3420 6.32401E-01 2.90886E-02-3.06768E-05
 -1      3421 6.32363E-01 5.03432E-02-3.30626E-05
 -1      3422 6.32344E-01 7.16219E-02-2.12106E-05
 -1      3423 6.48974E-01 3.92773E-03 5.87490E-06
 -1      3424 6.48974E-01 2.77781E-02-1.45187E-05
 -1      3425 6.48974E-01 5.16787E-02-1.73094E-05
 -1      3426 6.48969E-01 7.56126E-02-7.96177E-06
 -1      3427 6.23925E-01 9.90090E-03 4.81360E-05
 -1      3428 6.23859E-01 2.97941E-02 5.18453E-05
 -1      3429 6.23795E-01 4.96720E-02 2.59289E-05
 -1      3430 6.23763E-01 6.95649E-02 2.28846E-06
 -1      3431 6.45255E-01 4.80816E-03 1.56260E-05
 -1      3432 6.45267E-01 2.80841E-02 1.65560E-05
 -1      3433 6.45260E-01 5.13960E-02 1.11616E-05
 -1      3434 6.45253E-01 7.47201E-02-3.53495E-07
 -1      3435 6.60172E-01 1.23068E-03 5.14293E-06
 -1      3436 6.60173E-01 2.69101E-02 5.93453E-06
 -1      3437 6.60177E-01 5.25996E-02 3.78495E-06
 -1      3438 6.60176E-01 7.82967E-02 1.84564E-07
 -1      3439 6.17531E-01-7.23653E-03-1.12468E-05
 -1      3440 6.35016E-01-1.42867E-02 2.23398E-05
 -1      3441 6.51233E-01-2.08174E-02 2.11064E-05
 -1      3442 6.19121E-01-7.88605E-03 9.69183E-06
 -1      3443 6.37585E-01-1.53195E-02 1.63751E-05
 -1      3444 6.53472E-01-2.17183E-02 1.08826E-05
 -1      3445 6.20708E-01-8.53281E-03 2.67134E-05
 -1      3446 6.40149E-01-1.63620E-02 1.12083E-05
 -1      3447 6.55704E-01-2.26298E-02 3.78643E-06
 -1      3448 6.22286E-01-9.18377E-03 3.06856E-05
 -1      3449 6.42708E-01-1.74154E-02 2.91993E-06
 -1      3450 6.57936E-01-2.35431E-02 2.05529E-06
 -1      3451 6.17272E-01 8.69372E-02-2.30417E-05
 -1      3452 6.34906E-01 9.39506E-02-4.74371E-06
 -1      3453 6.51195E-01 1.00440E-01-8.05073E-07
 -1      3454 6.18883E-01 8.75830E-02-1.92262E-05
 -1      3455 6.37485E-01 9.49811E-02-8.44089E-06
 -1      3456 6.53437E-01 1.01335E-01-6.07629E-06
 -1      3457 6.20497E-01 8.82246E-02-1.60955E-05
 -1      3458 6.40069E-01 9.60059E-02-1.10022E-05
 -1      3459 6.55683E-01 1.02222E-01-8.52180E-06
 -1      3460 6.22120E-01 8.88632E-02-1.66127E-05
 -1      3461 6.42658E-01 9.70247E-02-1.26430E-05
 -1      3462 6.57930E-01 1.03105E-01-7.17036E-06
 -1      3463-5.09554E-01 7.85853E-02 2.48016E-05
 -1      3464-5.09515E-01 5.27310E-02 2.26830E-05
 -1      3465-5.09512E-01 2.69083E-02 2.31163E-05
 -1      3466-5.09546E-01 1.04609E-03 1.64666E-05
 -1      3467-4.87324E-01 7.84420E-02-7.37467E-06
 -1      3468-4.87274E-01 5.26803E-02 9.68225E-06
 -1      3469-4.87272E-01 2.69542E-02 2.90589E-05
 -1      3470-4.87318E-01 1.18860E-03 4.44441E-05
 -1      3471-4.65178E-01 7.82418E-02-4.06100E-05
 -1      3472-4.65116E-01 5.26119E-02-2.45942E-06
 -1      3473-4.65115E-01 2.70197E-02 3.65362E-05
 -1      3474-4.65175E-01 1.38816E-03 7.41428E-05
 -1      3475-4.39739E-01 7.79392E-02-7.38620E-05
 -1      3476-4.39665E-01 5.25103E-02-1.47396E-05
 -1      3477-4.39664E-01 2.71198E-02 4.44598E-05
 -1      3478-4.39737E-01 1.69055E-03 1.03466E-04
 -1      3479-4.14524E-01 7.75662E-02-1.02988E-04
 -1      3480-4.14438E-01 5.23857E-02-2.57525E-05
 -1      3481-4.14438E-01 2.72441E-02 5.14913E-05
 -1      3482-4.14524E-01 2.06377E-03 1.28717E-04
 -1      3483-3.89579E-01 7.71265E-02-1.28902E-04
 -1      3484-3.89481E-01 5.22392E-02-3.57525E-05
 -1      3485-3.89481E-01 2.73908E-02 5.75267E-05
 -1      3486-3.89579E-01 2.50396E-03 1.50697E-04
 -1      3487-3.64946E-01 7.66231E-02-1.52672E-04
 -1      3488-3.64836E-01 5.20716E-02-4.51429E-05
 -1      3489-3.64837E-01 2.75589E-02 6.26833E-05
 -1      3490-3.64947E-01 3.00792E-03 1.70253E-04
 -1      3491-3.40666E-01 7.60577E-02-1.75225E-04
 -1      3492-3.40544E-01 5.18830E-02-5.43300E-05
 -1      3493-3.40545E-01 2.77473E-02 6.69992E-05
 -1      3494-3.40667E-01 3.57344E-03 1.87944E-04
 -1      3495-3.16778E-01 7.54311E-02-1.97335E-04
 -1      3496-3.16644E-01 5.16734E-02-6.37315E-05
 -1      3497-3.16645E-01 2.79551E-02 7.03941E-05
 -1      3498-3.16779E-01 4.19896E-03 2.04020E-04
 -1      3499-2.93321E-01 7.47435E-02-2.19662E-04
 -1      3500-2.93176E-01 5.14422E-02-7.37667E-05
 -1      3501-2.93176E-01 2.81811E-02 7.26736E-05
 -1      3502-2.93322E-01 4.88312E-03 2.18471E-04
 -1      3503-2.70335E-01 7.39941E-02-2.42749E-04
 -1      3504-2.70178E-01 5.11880E-02-8.48123E-05
 -1      3505-2.70178E-01 2.84242E-02 7.35955E-05
 -1      3506-2.70336E-01 5.62455E-03 2.31118E-04
 -1      3507-2.47856E-01 7.31812E-02-2.66901E-04
 -1      3508-2.47688E-01 5.09098E-02-9.70667E-05
 -1      3509-2.47690E-01 2.86831E-02 7.30218E-05
 -1      3510-2.47862E-01 6.42176E-03 2.41770E-04
 -1      3511-2.25918E-01 7.23020E-02-2.91887E-04
 -1      3512-2.25743E-01 5.06079E-02-1.10339E-04
 -1      3513-2.25752E-01 2.89582E-02 7.11653E-05
 -1      3514-2.25941E-01 7.27334E-03 2.50542E-04
 -1      3515-2.07400E-01 7.14873E-02-3.14220E-04
 -1      3516-2.07226E-01 5.03316E-02-1.22090E-04
 -1      3517-2.07252E-01 2.92129E-02 6.94609E-05
 -1      3518-2.07461E-01 8.05089E-03 2.57937E-04
 -1      3519-1.89324E-01 7.06214E-02-3.34697E-04
 -1      3520-1.89166E-01 5.00523E-02-1.32113E-04
 -1      3521-1.89225E-01 2.94921E-02 6.89300E-05
 -1      3522-1.89466E-01 8.86736E-03 2.65669E-04
 -1      3523-5.09081E-01 7.87097E-02-8.28347E-06
 -1      3524-5.09028E-01 5.27734E-02 1.02760E-05
 -1      3525-5.09024E-01 2.68638E-02 3.58354E-05
 -1      3526-5.09073E-01 9.10736E-04 5.03189E-05
 -1      3527-4.86225E-01 7.85097E-02-5.38503E-05
 -1      3528-4.86168E-01 5.27009E-02-6.28862E-06
 -1      3529-4.86165E-01 2.69282E-02 4.54661E-05
 -1      3530-4.86218E-01 1.11240E-03 9.13469E-05
 -1      3531-4.63500E-01 7.82711E-02-1.08913E-04
 -1      3532-4.63435E-01 5.26189E-02-2.53440E-05
 -1      3533-4.63433E-01 2.70066E-02 5.95733E-05
 -1      3534-4.63496E-01 1.35186E-03 1.42676E-04
 -1      3535-4.38361E-01 7.79499E-02-1.66631E-04
 -1      3536-4.38285E-01 5.25110E-02-4.56269E-05
 -1      3537-4.38285E-01 2.71131E-02 7.53821E-05
 -1      3538-4.38360E-01 1.67376E-03 1.96367E-04
 -1      3539-4.13452E-01 7.75685E-02-2.19373E-04
 -1      3540-4.13365E-01 5.23838E-02-6.45068E-05
 -1      3541-4.13365E-01 2.72403E-02 9.01058E-05
 -1      3542-4.13451E-01 2.05574E-03 2.45058E-04
 -1      3543-3.88810E-01 7.71269E-02-2.67440E-04
 -1      3544-3.88712E-01 5.22367E-02-8.20071E-05
 -1      3545-3.88712E-01 2.73879E-02 1.03278E-04
 -1      3546-3.88811E-01 2.49812E-03 2.88830E-04
 -1      3547-3.64476E-01 7.66257E-02-3.12142E-04
 -1      3548-3.64366E-01 5.20699E-02-9.86335E-05
 -1      3549-3.64367E-01 2.75555E-02 1.14919E-04
 -1      3550-3.64477E-01 3.00008E-03 3.28582E-04
 -1      3551-3.40487E-01 7.60657E-02-3.54891E-04
 -1      3552-3.40365E-01 5.18832E-02-1.15033E-04
 -1      3553-3.40366E-01 2.77424E-02 1.25024E-04
 -1      3554-3.40488E-01 3.56080E-03 3.65068E-04
 -1      3555-3.16880E-01 7.54471E-02-3.96971E-04
 -1      3556-3.16747E-01 5.16767E-02-1.31915E-04
 -1      3557-3.16748E-01 2.79484E-02 1.33421E-04
 -1      3558-3.16881E-01 4.17958E-03 3.98640E-04
 -1      3559-2.93694E-01 7.47702E-02-4.39528E-04
 -1      3560-2.93550E-01 5.14498E-02-1.50022E-04
 -1      3561-2.93550E-01 2.81726E-02 1.39746E-04
 -1      3562-2.93695E-01 4.85580E-03 4.29241E-04
 -1      3563-2.70966E-01 7.40343E-02-4.83555E-04
 -1      3564-2.70810E-01 5.12018E-02-1.70051E-04
 -1      3565-2.70810E-01 2.84144E-02 1.43529E-04
 -1      3566-2.70968E-01 5.58877E-03 4.56506E-04
 -1      3567-2.48731E-01 7.32385E-02-5.29726E-04
 -1      3568-2.48565E-01 5.09320E-02-1.92453E-04
 -1      3569-2.48567E-01 2.86732E-02 1.44442E-04
 -1      3570-2.48738E-01 6.37771E-03 4.80002E-04
 -1      3571-2.27023E-01 7.23809E-02-5.78015E-04
 -1      3572-2.26849E-01 5.06414E-02-2.17022E-04
 -1      3573-2.26859E-01 2.89496E-02 1.42802E-04
 -1      3574-2.27047E-01 7.22172E-03 4.99870E-04
 -1      3575-2.08012E-01 7.15578E-02-6.22875E-04
 -1      3576-2.07839E-01 5.03667E-02-2.39824E-04
 -1      3577-2.07866E-01 2.92167E-02 1.40740E-04
 -1      3578-2.08075E-01 8.02360E-03 5.16476E-04
 -1      3579-1.89466E-01 7.06834E-02-6.65214E-04
 -1      3580-1.89310E-01 5.00905E-02-2.59744E-04
 -1      3581-1.89370E-01 2.95111E-02 1.40936E-04
 -1      3582-1.89612E-01 8.86797E-03 5.33831E-04
 -1      3583-5.08555E-01 7.88025E-02-6.83112E-05
 -1      3584-5.08494E-01 5.28027E-02-1.03214E-05
 -1      3585-5.08490E-01 2.68286E-02 5.50719E-05
 -1      3586-5.08546E-01 8.06709E-04 1.12316E-04
 -1      3587-4.85082E-01 7.85668E-02-1.26738E-04
 -1      3588-4.85019E-01 5.27165E-02-3.06071E-05
 -1      3589-4.85016E-01 2.69061E-02 6.98391E-05
 -1      3590-4.85074E-01 1.04653E-03 1.65813E-04
 -1      3591-4.61767E-01 7.82963E-02-1.96446E-04
 -1      3592-4.61699E-01 5.26232E-02-5.43991E-05
 -1      3593-4.61697E-01 2.69954E-02 8.89339E-05
 -1      3594-4.61763E-01 1.31917E-03 2.31092E-04
 -1      3595-4.36916E-01 7.79586E-02-2.71898E-04
 -1      3596-4.36838E-01 5.25098E-02-8.06023E-05
 -1      3597-4.36837E-01 2.71077E-02 1.10594E-04
 -1      3598-4.36914E-01 1.65816E-03 3.02073E-04
 -1      3599-4.12298E-01 7.75688E-02-3.43646E-04
 -1      3600-4.12210E-01 5.23797E-02-1.05864E-04
 -1      3601-4.12210E-01 2.72379E-02 1.31511E-04
 -1      3602-4.12298E-01 2.04895E-03 3.69465E-04
 -1      3603-3.87948E-01 7.71246E-02-4.10813E-04
 -1      3604-3.87849E-01 5.22318E-02-1.29818E-04
 -1      3605-3.87849E-01 2.73864E-02 1.50861E-04
 -1      3606-3.87948E-01 2.49394E-03 4.32047E-04
 -1      3607-3.63899E-01 7.66251E-02-4.74327E-04
 -1      3608-3.63789E-01 5.20655E-02-1.52867E-04
 -1      3609-3.63789E-01 2.75533E-02 1.68460E-04
 -1      3610-3.63900E-01 2.99414E-03 4.90175E-04
 -1      3611-3.40189E-01 7.60700E-02-5.35619E-04
 -1      3612-3.40067E-01 5.18806E-02-1.75718E-04
 -1      3613-3.40067E-01 2.77387E-02 1.84202E-04
 -1      3614-3.40189E-01 3.55007E-03 5.44440E-04
 -1      3615-3.16852E-01 7.54592E-02-5.96145E-04
 -1      3616-3.16719E-01 5.16769E-02-1.99212E-04
 -1      3617-3.16719E-01 2.79426E-02 1.97827E-04
 -1      3618-3.16853E-01 4.16202E-03 5.95146E-04
 -1      3619-2.93925E-01 7.47927E-02-6.57277E-04
 -1      3620-2.93781E-01 5.14543E-02-2.24264E-04
 -1      3621-2.93781E-01 2.81649E-02 2.08846E-04
 -1      3622-2.93926E-01 4.83022E-03 6.42161E-04
 -1      3623-2.71444E-01 7.40704E-02-7.20276E-04
 -1      3624-2.71289E-01 5.12125E-02-2.51789E-04
 -1      3625-2.71289E-01 2.84054E-02 2.16609E-04
 -1      3626-2.71446E-01 5.55484E-03 6.84951E-04
 -1      3627-2.49443E-01 7.32924E-02-7.86178E-04
 -1      3628-2.49277E-01 5.09516E-02-2.82491E-04
 -1      3629-2.49280E-01 2.86645E-02 2.20575E-04
 -1      3630-2.49451E-01 6.33607E-03 7.22810E-04
 -1      3631-2.27954E-01 7.24580E-02-8.55440E-04
 -1      3632-2.27782E-01 5.06735E-02-3.16343E-04
 -1      3633-2.27792E-01 2.89437E-02 2.20918E-04
 -1      3634-2.27980E-01 7.17399E-03 7.55554E-04
 -1      3635-2.08437E-01 7.16306E-02-9.22807E-04
 -1      3636-2.08268E-01 5.04040E-02-3.49302E-04
 -1      3637-2.08296E-01 2.92263E-02 2.19921E-04
 -1      3638-2.08506E-01 8.00341E-03 7.83272E-04
 -1      3639-1.89409E-01 7.07547E-02-9.88263E-04
 -1      3640-1.89257E-01 5.01367E-02-3.78850E-04
 -1      3641-1.89320E-01 2.95410E-02 2.21594E-04
 -1      3642-1.89564E-01 8.88070E-03 8.10895E-04
 -1      3643-5.07952E-01 7.88390E-02-1.43414E-04
 -1      3644-5.07887E-01 5.28116E-02-3.64843E-05
 -1      3645-5.07882E-01 2.68147E-02 7.97321E-05
 -1      3646-5.07941E-01 7.62677E-04 1.90364E-04
 -1      3647-4.83873E-01 7.85798E-02-2.13698E-04
 -1      3648-4.83806E-01 5.27160E-02-5.95068E-05
 -1      3649-4.83802E-01 2.69003E-02 9.89556E-05
 -1      3650-4.83863E-01 1.02618E-03 2.54918E-04
 -1      3651-4.59967E-01 7.82854E-02-2.97965E-04
 -1      3652-4.59895E-01 5.26143E-02-8.79788E-05
 -1      3653-4.59893E-01 2.69977E-02 1.22964E-04
 -1      3654-4.59962E-01 1.32297E-03 3.33765E-04
 -1      3655-4.35396E-01 7.79374E-02-3.87677E-04
 -1      3656-4.35317E-01 5.24973E-02-1.18962E-04
 -1      3657-4.35316E-01 2.71135E-02 1.49320E-04
 -1      3658-4.35394E-01 1.67258E-03 4.18408E-04
 -1      3659-4.11060E-01 7.75425E-02-4.75093E-04
 -1      3660-4.10971E-01 5.23655E-02-1.49508E-04
 -1      3661-4.10970E-01 2.72453E-02 1.75317E-04
 -1      3662-4.11059E-01 2.06844E-03 5.01110E-04
 -1      3663-3.86988E-01 7.70978E-02-5.58708E-04
 -1      3664-3.86889E-01 5.22173E-02-1.78998E-04
 -1      3665-3.86889E-01 2.73938E-02 1.99989E-04
 -1      3666-3.86988E-01 2.51369E-03 5.79914E-04
 -1      3667-3.63214E-01 7.66012E-02-6.39009E-04
 -1      3668-3.63103E-01 5.20519E-02-2.07700E-04
 -1      3669-3.63103E-01 2.75594E-02 2.23008E-04
 -1      3670-3.63214E-01 3.01049E-03 6.54636E-04
 -1      3671-3.39770E-01 7.60517E-02-7.17205E-04
 -1      3672-3.39649E-01 5.18686E-02-2.36265E-04
 -1      3673-3.39648E-01 2.77425E-02 2.44178E-04
 -1      3674-3.39770E-01 3.56028E-03 7.25595E-04
 -1      3675-3.16693E-01 7.54485E-02-7.94655E-04
 -1      3676-3.16559E-01 5.16673E-02-2.65526E-04
 -1      3677-3.16559E-01 2.79435E-02 2.63178E-04
 -1      3678-3.16692E-01 4.16409E-03 7.92969E-04
 -1      3679-2.94014E-01 7.47917E-02-8.72703E-04
 -1      3680-2.93870E-01 5.14480E-02-2.96422E-04
 -1      3681-2.93869E-01 2.81625E-02 2.79463E-04
 -1      3682-2.94014E-01 4.82272E-03 8.56563E-04
 -1      3683-2.71770E-01 7.40817E-02-9.52658E-04
 -1      3684-2.71614E-01 5.12109E-02-3.29946E-04
 -1      3685-2.71614E-01 2.84001E-02 2.92291E-04
 -1      3686-2.71771E-01 5.53708E-03 9.15753E-04
 -1      3687-2.49991E-01 7.33193E-02-1.03573E-03
 -1      3688-2.49827E-01 5.09571E-02-3.66958E-04
 -1      3689-2.49829E-01 2.86575E-02 3.00938E-04
 -1      3690-2.50000E-01 6.30822E-03 9.69604E-04
 -1      3691-2.28710E-01 7.25057E-02-1.12288E-03
 -1      3692-2.28540E-01 5.06895E-02-4.07689E-04
 -1      3693-2.28551E-01 2.89372E-02 3.05317E-04
 -1      3694-2.28739E-01 7.13745E-03 1.01745E-03
 -1      3695-2.08673E-01 7.16741E-02-1.21134E-03
 -1      3696-2.08507E-01 5.04250E-02-4.49032E-04
 -1      3697-2.08538E-01 2.92347E-02 3.07583E-04
 -1      3698-2.08750E-01 7.99321E-03 1.05922E-03
 -1      3699-1.89146E-01 7.07998E-02-1.29973E-03
 -1      3700-1.89001E-01 5.01694E-02-4.86748E-04
 -1      3701-1.89071E-01 2.95719E-02 3.12559E-04
 -1      3702-1.89321E-01 8.90473E-03 1.09887E-03
 -1      3703 5.07856E-01 7.88878E-02-1.57508E-04
 -1      3704 5.07790E-01 5.28499E-02-5.48193E-05
 -1      3705 5.07784E-01 2.68420E-02 5.74300E-05
 -1      3706 5.07843E-01 7.78310E-04 1.64274E-04
 -1      3707 5.08455E-01 7.88482E-02-8.20361E-05
 -1      3708 5.08394E-01 5.28383E-02-2.84126E-05
 -1      3709 5.08389E-01 2.68538E-02 3.28483E-05
 -1      3710 5.08445E-01 8.20668E-04 8.60011E-05
 -1      3711 5.08976E-01 7.87515E-02-2.16280E-05
 -1      3712 5.08923E-01 5.28061E-02-7.60706E-06
 -1      3713 5.08919E-01 2.68869E-02 1.36613E-05
 -1      3714 5.08967E-01 9.23746E-04 2.37426E-05
 -1      3715 5.09443E-01 7.86223E-02 1.16473E-05
 -1      3716 5.09405E-01 5.27603E-02 4.92350E-06
 -1      3717 5.09402E-01 2.69298E-02 9.92700E-07
 -1      3718 5.09436E-01 1.05921E-03-1.02402E-05
 -1      3719 4.83766E-01 7.86276E-02-2.25656E-04
 -1      3720 4.83699E-01 5.27533E-02-7.55972E-05
 -1      3721 4.83695E-01 2.69270E-02 7.88797E-05
 -1      3722 4.83756E-01 1.04197E-03 2.30983E-04
 -1      3723 4.84971E-01 7.86117E-02-1.38416E-04
 -1      3724 4.84909E-01 5.27513E-02-4.65659E-05
 -1      3725 4.84905E-01 2.69307E-02 4.97427E-05
 -1      3726 4.84963E-01 1.06068E-03 1.41647E-04
 -1      3727 4.86111E-01 7.85511E-02-6.52935E-05
 -1      3728 4.86054E-01 5.27331E-02-2.21550E-05
 -1      3729 4.86051E-01 2.69510E-02 2.53324E-05
 -1      3730 4.86104E-01 1.12546E-03 6.69396E-05
 -1      3731 4.87205E-01 7.84794E-02-1.88679E-05
 -1      3732 4.87156E-01 5.27096E-02-6.20665E-06
 -1      3733 4.87153E-01 2.69753E-02 8.96768E-06
 -1      3734 4.87199E-01 1.20119E-03 2.00100E-05
 -1      3735 4.59850E-01 7.83322E-02-3.08222E-04
 -1      3736 4.59779E-01 5.26508E-02-1.02134E-04
 -1      3737 4.59776E-01 2.70239E-02 1.04992E-04
 -1      3738 4.59845E-01 1.33876E-03 3.12073E-04
 -1      3739 4.61648E-01 7.83405E-02-2.06530E-04
 -1      3740 4.61579E-01 5.26575E-02-6.84980E-05
 -1      3741 4.61577E-01 2.70197E-02 7.09059E-05
 -1      3742 4.61643E-01 1.33333E-03 2.09213E-04
 -1      3743 4.63377E-01 7.83123E-02-1.18938E-04
 -1      3744 4.63312E-01 5.26508E-02-3.94526E-05
 -1      3745 4.63310E-01 2.70291E-02 4.14848E-05
 -1      3746 4.63373E-01 1.36479E-03 1.20641E-04
 -1      3747 4.65051E-01 7.82797E-02-5.08693E-05
 -1      3748 4.64990E-01 5.26412E-02-1.66987E-05
 -1      3749 4.64988E-01 2.70405E-02 1.84413E-05
 -1      3750 4.65048E-01 1.40017E-03 5.21679E-05
 -1      3751 4.35270E-01 7.79833E-02-3.96478E-04
 -1      3752 4.35190E-01 5.25331E-02-1.31345E-04
 -1      3753 4.35189E-01 2.71392E-02 1.33405E-04
 -1      3754 4.35267E-01 1.68822E-03 3.99040E-04
 -1      3755 4.36787E-01 7.80023E-02-2.80569E-04
 -1      3756 4.36709E-01 5.25436E-02-9.29229E-05
 -1      3757 4.36708E-01 2.71316E-02 9.46785E-05
 -1      3758 4.36784E-01 1.67218E-03 2.82635E-04
 -1      3759 4.38229E-01 7.79909E-02-1.75304E-04
 -1      3760 4.38153E-01 5.25426E-02-5.79603E-05
 -1      3761 4.38152E-01 2.71353E-02 5.94560E-05
 -1      3762 4.38227E-01 1.68644E-03 1.76900E-04
 -1      3763 4.39603E-01 7.79775E-02-8.27564E-05
 -1      3764 4.39529E-01 5.25396E-02-2.71882E-05
 -1      3765 4.39528E-01 2.71403E-02 2.85450E-05
 -1      3766 4.39602E-01 1.70206E-03 8.41044E-05
 -1      3767 4.10924E-01 7.75877E-02-4.82631E-04
 -1      3768 4.10834E-01 5.24007E-02-1.60289E-04
 -1      3769 4.10834E-01 2.72707E-02 1.61333E-04
 -1      3770 4.10922E-01 2.08382E-03 4.83985E-04
 -1      3771 4.12159E-01 7.76119E-02-3.51071E-04
 -1      3772 4.12071E-01 5.24130E-02-1.16568E-04
 -1      3773 4.12071E-01 2.72615E-02 1.17571E-04
 -1      3774 4.12158E-01 2.06274E-03 3.52350E-04
 -1      3775 4.13310E-01 7.76094E-02-2.26804E-04
 -1      3776 4.13223E-01 5.24151E-02-7.52047E-05
 -1      3777 4.13222E-01 2.72623E-02 7.61910E-05
 -1      3778 4.13309E-01 2.06816E-03 2.27978E-04
 -1      3779 4.14379E-01 7.76047E-02-1.10582E-04
 -1      3780 4.14293E-01 5.24151E-02-3.65274E-05
 -1      3781 4.14293E-01 2.72644E-02 3.75985E-05
 -1      3782 4.14379E-01 2.07492E-03 1.11742E-04
 -1      3783 3.86842E-01 7.71423E-02-5.65110E-04
 -1      3784 3.86742E-01 5.22520E-02-1.88308E-04
 -1      3785 3.86742E-01 2.74187E-02 1.87805E-04
 -1      3786 3.86841E-01 2.52873E-03 5.64908E-04
 -1      3787 3.87799E-01 7.71673E-02-4.17100E-04
 -1      3788 3.87700E-01 5.22647E-02-1.39033E-04
 -1      3789 3.87700E-01 2.74096E-02 1.38755E-04
 -1      3790 3.87799E-01 2.50744E-03 4.17103E-04
 -1      3791 3.88659E-01 7.71676E-02-2.73707E-04
 -1      3792 3.88561E-01 5.22679E-02-9.11892E-05
 -1      3793 3.88561E-01 2.74096E-02 9.12233E-05
 -1      3794 3.88659E-01 2.51028E-03 2.73951E-04
 -1      3795 3.89425E-01 7.71651E-02-1.35263E-04
 -1      3796 3.89327E-01 5.22686E-02-4.49692E-05
 -1      3797 3.89327E-01 2.74110E-02 4.55029E-05
 -1      3798 3.89425E-01 2.51486E-03 1.35906E-04
 -1      3799 3.63058E-01 7.66452E-02-6.44374E-04
 -1      3800 3.62947E-01 5.20860E-02-2.15655E-04
 -1      3801 3.62947E-01 2.75839E-02 2.12496E-04
 -1      3802 3.63057E-01 3.02514E-03 6.41615E-04
 -1      3803 3.63741E-01 7.66674E-02-4.79566E-04
 -1      3804 3.63631E-01 5.20981E-02-1.60708E-04
 -1      3805 3.63631E-01 2.75762E-02 1.58051E-04
 -1      3806 3.63741E-01 3.00733E-03 4.77247E-04
 -1      3807 3.64315E-01 7.66662E-02-3.17327E-04
 -1      3808 3.64206E-01 5.21008E-02-1.06413E-04
 -1      3809 3.64206E-01 2.75769E-02 1.04581E-04
 -1      3810 3.64316E-01 3.01200E-03 3.15734E-04
 -1      3811 3.64783E-01 7.66616E-02-1.57885E-04
 -1      3812 3.64673E-01 5.21009E-02-5.29180E-05
 -1      3813 3.64673E-01 2.75789E-02 5.23867E-05
 -1      3814 3.64784E-01 3.01864E-03 1.57476E-04
 -1      3815 3.39605E-01 7.60950E-02-7.21629E-04
 -1      3816 3.39483E-01 5.19022E-02-2.42976E-04
 -1      3817 3.39483E-01 2.77665E-02 2.35213E-04
 -1      3818 3.39604E-01 3.57452E-03 7.14423E-04
 -1      3819 3.40021E-01 7.61119E-02-5.39901E-04
 -1      3820 3.39899E-01 5.19128E-02-1.82295E-04
 -1      3821 3.39899E-01 2.77613E-02 1.75362E-04
 -1      3822 3.40021E-01 3.56295E-03 5.33384E-04
 -1      3823 3.40317E-01 7.61059E-02-3.59085E-04
 -1      3824 3.40195E-01 5.19139E-02-1.21523E-04
 -1      3825 3.40195E-01 2.77636E-02 1.16270E-04
 -1      3826 3.40317E-01 3.57249E-03 3.54097E-04
 -1      3827 3.40493E-01 7.60961E-02-1.79390E-04
 -1      3828 3.40372E-01 5.19122E-02-6.07810E-05
 -1      3829 3.40372E-01 2.77672E-02 5.82967E-05
 -1      3830 3.40494E-01 3.58403E-03 1.77033E-04
 -1      3831 3.16517E-01 7.54913E-02-7.98243E-04
 -1      3832 3.16384E-01 5.17005E-02-2.71104E-04
 -1      3833 3.16383E-01 2.79670E-02 2.55641E-04
 -1      3834 3.16516E-01 4.17790E-03 7.83522E-04
 -1      3835 3.16675E-01 7.55007E-02-5.99572E-04
 -1      3836 3.16542E-01 5.17088E-02-2.04639E-04
 -1      3837 3.16542E-01 2.79649E-02 1.90430E-04
 -1      3838 3.16675E-01 4.17458E-03 5.85829E-04
 -1      3839 3.16701E-01 7.54871E-02-4.00276E-04
 -1      3840 3.16568E-01 5.17072E-02-1.37232E-04
 -1      3841 3.16568E-01 2.79693E-02 1.26124E-04
 -1      3842 3.16702E-01 4.19106E-03 3.89409E-04
 -1      3843 3.16596E-01 7.54695E-02-2.00558E-04
 -1      3844 3.16463E-01 5.17025E-02-6.89773E-05
 -1      3845 3.16463E-01 2.79749E-02 6.31573E-05
 -1      3846 3.16597E-01 4.20943E-03 1.94836E-04
 -1      3847 2.93829E-01 7.48340E-02-8.75571E-04
 -1      3848 2.93685E-01 5.14806E-02-3.00984E-04
 -1      3849 2.93684E-01 2.81856E-02 2.73237E-04
 -1      3850 2.93828E-01 4.83611E-03 8.48723E-04
 -1      3851 2.93739E-01 7.48338E-02-6.59965E-04
 -1      3852 2.93594E-01 5.14857E-02-2.28659E-04
 -1      3853 2.93594E-01 2.81868E-02 2.02770E-04
 -1      3854 2.93739E-01 4.84247E-03 6.34459E-04
 -1      3855 2.93506E-01 7.48099E-02-4.42060E-04
 -1      3856 2.93361E-01 5.14800E-02-1.54284E-04
 -1      3857 2.93361E-01 2.81933E-02 1.33779E-04
 -1      3858 2.93506E-01 4.86708E-03 4.21622E-04
 -1      3859 2.93131E-01 7.47818E-02-2.22059E-04
 -1      3860 2.92985E-01 5.14711E-02-7.79284E-05
 -1      3861 2.92985E-01 2.82008E-02 6.67759E-05
 -1      3862 2.93131E-01 4.89351E-03 2.10884E-04
 -1      3863 2.71575E-01 7.41235E-02-9.54937E-04
 -1      3864 2.71419E-01 5.12431E-02-3.33617E-04
 -1      3865 2.71419E-01 2.84228E-02 2.87255E-04
 -1      3866 2.71576E-01 5.55004E-03 9.09411E-04
 -1      3867 2.71248E-01 7.41111E-02-7.22357E-04
 -1      3868 2.71092E-01 5.12435E-02-2.55280E-04
 -1      3869 2.71092E-01 2.84270E-02 2.11733E-04
 -1      3870 2.71250E-01 5.56679E-03 6.78747E-04
 -1      3871 2.70768E-01 7.40737E-02-4.85441E-04
 -1      3872 2.70612E-01 5.12318E-02-1.73385E-04
 -1      3873 2.70612E-01 2.84349E-02 1.38767E-04
 -1      3874 2.70770E-01 5.59988E-03 4.50375E-04
 -1      3875 2.70135E-01 7.40322E-02-2.44443E-04
 -1      3876 2.69978E-01 5.12168E-02-8.80145E-05
 -1      3877 2.69978E-01 2.84437E-02 6.89105E-05
 -1      3878 2.70137E-01 5.63487E-03 2.25001E-04
 -1      3879 2.49787E-01 7.33606E-02-1.03756E-03
 -1      3880 2.49622E-01 5.09887E-02-3.69874E-04
 -1      3881 2.49625E-01 2.86796E-02 2.96967E-04
 -1      3882 2.49795E-01 6.32078E-03 9.64651E-04
 -1      3883 2.49237E-01 7.33327E-02-7.87796E-04
 -1      3884 2.49071E-01 5.09823E-02-2.85212E-04
 -1      3885 2.49074E-01 2.86857E-02 2.16769E-04
 -1      3886 2.49245E-01 6.34774E-03 7.17991E-04
 -1      3887 2.48524E-01 7.32777E-02-5.31106E-04
 -1      3888 2.48357E-01 5.09617E-02-1.94992E-04
 -1      3889 2.48359E-01 2.86935E-02 1.40757E-04
 -1      3890 2.48531E-01 6.38865E-03 4.75242E-04
 -1      3891 2.47647E-01 7.32191E-02-2.68024E-04
 -1      3892 2.47479E-01 5.09384E-02-9.94378E-05
 -1      3893 2.47481E-01 2.87026E-02 6.94226E-05
 -1      3894 2.47653E-01 6.43202E-03 2.37000E-04
 -1      3895 2.28496E-01 7.25465E-02-1.12443E-03
 -1      3896 2.28326E-01 5.07206E-02-4.09996E-04
 -1      3897 2.28337E-01 2.89589E-02 3.02273E-04
 -1      3898 2.28525E-01 7.14963E-03 1.01377E-03
 -1      3899 2.27738E-01 7.24978E-02-8.56751E-04
 -1      3900 2.27567E-01 5.07038E-02-3.18439E-04
 -1      3901 2.27577E-01 2.89646E-02 2.18043E-04
 -1      3902 2.27764E-01 7.18541E-03 7.51999E-04
 -1      3903 2.26806E-01 7.24197E-02-5.79038E-04
 -1      3904 2.26633E-01 5.06708E-02-2.18906E-04
 -1      3905 2.26642E-01 2.89697E-02 1.40061E-04
 -1      3906 2.26830E-01 7.23252E-03 4.96362E-04
 -1      3907 2.25700E-01 7.23397E-02-2.92577E-04
 -1      3908 2.25525E-01 5.06364E-02-1.12011E-04
 -1      3909 2.25534E-01 2.89775E-02 6.85282E-05
 -1      3910 2.25723E-01 7.28356E-03 2.47006E-04
 -1      3911 2.08449E-01 7.17142E-02-1.21278E-03
 -1      3912 2.08283E-01 5.04556E-02-4.50904E-04
 -1      3913 2.08314E-01 2.92561E-02 3.05285E-04
 -1      3914 2.08526E-01 8.00509E-03 1.05662E-03
 -1      3915 2.08213E-01 7.16701E-02-9.23975E-04
 -1      3916 2.08043E-01 5.04339E-02-3.50958E-04
 -1      3917 2.08071E-01 2.92469E-02 2.17775E-04
 -1      3918 2.08282E-01 8.01463E-03 7.80761E-04
 -1      3919 2.07787E-01 7.15962E-02-6.23712E-04
 -1      3920 2.07615E-01 5.03957E-02-2.41246E-04
 -1      3921 2.07641E-01 2.92366E-02 1.38733E-04
 -1      3922 2.07851E-01 8.03431E-03 5.13993E-04
 -1      3923 2.07174E-01 7.15247E-02-3.14661E-04
 -1      3924 2.07000E-01 5.03598E-02-1.23268E-04
 -1      3925 2.07026E-01 2.92321E-02 6.75643E-05
 -1      3926 2.07236E-01 8.06109E-03 2.55394E-04
 -1      3927 1.88913E-01 7.08393E-02-1.30120E-03
 -1      3928 1.88768E-01 5.01994E-02-4.88336E-04
 -1      3929 1.88838E-01 2.95929E-02 3.10845E-04
 -1      3930 1.89087E-01 8.91643E-03 1.09717E-03
 -1      3931 1.89176E-01 7.07936E-02-9.89410E-04
 -1      3932 1.89024E-01 5.01661E-02-3.80207E-04
 -1      3933 1.89087E-01 2.95614E-02 2.20029E-04
 -1      3934 1.89332E-01 8.89181E-03 8.09246E-04
 -1      3935 1.89233E-01 7.07213E-02-6.65982E-04
 -1      3936 1.89077E-01 5.01192E-02-2.60829E-04
 -1      3937 1.89138E-01 2.95309E-02 1.39546E-04
 -1      3938 1.89379E-01 8.87862E-03 5.32239E-04
 -1      3939 1.89091E-01 7.06584E-02-3.35034E-04
 -1      3940 1.88933E-01 5.00802E-02-1.32889E-04
 -1      3941 1.88993E-01 2.95112E-02 6.77449E-05
 -1      3942 1.89234E-01 8.87763E-03 2.64128E-04
 -1      3943-1.53625E-01 6.94684E-02-3.67991E-04
 -1      3944-1.51956E-01 5.03166E-02-1.44187E-04
 -1      3945-1.50529E-01 3.11415E-02 7.58755E-05
 -1      3946-1.49268E-01 1.18871E-02 2.89730E-04
 -1      3947-1.53402E-01 6.95359E-02-7.34570E-04
 -1      3948-1.51744E-01 5.03696E-02-2.84209E-04
 -1      3949-1.50327E-01 3.11837E-02 1.56513E-04
 -1      3950-1.49078E-01 1.19189E-02 5.83814E-04
 -1      3951-1.52962E-01 6.96332E-02-1.09714E-03
 -1      3952-1.51318E-01 5.04501E-02-4.15447E-04
 -1      3953-1.49915E-01 3.12551E-02 2.46332E-04
 -1      3954-1.48678E-01 1.19806E-02 8.85288E-04
 -1      3955-1.52286E-01 6.97252E-02-1.45096E-03
 -1      3956-1.50664E-01 5.05367E-02-5.33754E-04
 -1      3957-1.49284E-01 3.13452E-02 3.48659E-04
 -1      3958-1.48068E-01 1.20690E-02 1.19719E-03
 -1      3959-1.36280E-01 7.05653E-02-3.89912E-04
 -1      3960-1.33184E-01 5.23699E-02-1.55200E-04
 -1      3961-1.30347E-01 3.41522E-02 7.52919E-05
 -1      3962-1.27670E-01 1.58578E-02 2.98573E-04
 -1      3963-1.36133E-01 7.06365E-02-7.78683E-04
 -1      3964-1.33054E-01 5.24206E-02-3.05995E-04
 -1      3965-1.30234E-01 3.41860E-02 1.55570E-04
 -1      3966-1.27574E-01 1.58752E-02 6.01356E-04
 -1      3967-1.35760E-01 7.07515E-02-1.16399E-03
 -1      3968-1.32703E-01 5.25129E-02-4.47227E-04
 -1      3969-1.29903E-01 3.42629E-02 2.45984E-04
 -1      3970-1.27264E-01 1.59357E-02 9.11890E-04
 -1      3971-1.35139E-01 7.08786E-02-1.54008E-03
 -1      3972-1.32113E-01 5.26281E-02-5.73641E-04
 -1      3973-1.29347E-01 3.43744E-02 3.50874E-04
 -1      3974-1.26737E-01 1.60384E-02 1.23416E-03
 -1      3975-1.19806E-01 7.28684E-02-4.13900E-04
 -1      3976-1.15430E-01 5.57857E-02-1.68261E-04
 -1      3977-1.11327E-01 3.86620E-02 7.26695E-05
 -1      3978-1.07381E-01 2.14521E-02 3.05387E-04
 -1      3979-1.19726E-01 7.29356E-02-8.26500E-04
 -1      3980-1.15372E-01 5.58250E-02-3.31534E-04
 -1      3981-1.11290E-01 3.86772E-02 1.51003E-04
 -1      3982-1.07365E-01 2.14433E-02 6.15616E-04
 -1      3983-1.19414E-01 7.30636E-02-1.23513E-03
 -1      3984-1.15087E-01 5.59230E-02-4.83923E-04
 -1      3985-1.11031E-01 3.87523E-02 2.40959E-04
 -1      3986-1.07132E-01 2.14941E-02 9.35070E-04
 -1      3987-1.18844E-01 7.32257E-02-1.63281E-03
 -1      3988-1.14555E-01 5.60650E-02-6.19151E-04
 -1      3989-1.10540E-01 3.88820E-02 3.47833E-04
 -1      3990-1.06677E-01 2.16064E-02 1.26878E-03
 -1      3991-1.04309E-01 7.62333E-02-4.37992E-04
 -1      3992-9.88224E-02 6.03902E-02-1.81566E-04
 -1      3993-9.36180E-02 4.44791E-02 6.98401E-05
 -1      3994-8.85695E-02 2.84678E-02 3.12176E-04
 -1      3995-1.04287E-01 7.62911E-02-8.74226E-04
 -1      3996-9.88253E-02 6.04118E-02-3.57364E-04
 -1      3997-9.36444E-02 4.44684E-02 1.46205E-04
 -1      3998-8.86195E-02 2.84247E-02 6.30116E-04
 -1      3999-1.04029E-01 7.64293E-02-1.30545E-03
 -1      4000-9.85970E-02 6.05115E-02-5.20718E-04
 -1      4001-9.34448E-02 4.45369E-02 2.35908E-04
 -1      4002-8.84484E-02 2.84601E-02 9.59170E-04
 -1      4003-1.03505E-01 7.66266E-02-1.72376E-03
 -1      4004-9.81156E-02 6.06790E-02-6.64660E-04
 -1      4005-9.30089E-02 4.46822E-02 3.44833E-04
 -1      4006-8.80527E-02 2.85783E-02 1.30500E-03
 -1      4007-8.98778E-02 8.05067E-02-4.61126E-04
 -1      4008-8.34678E-02 6.60026E-02-1.94128E-04
 -1      4009-7.73443E-02 5.14005E-02 6.76568E-05
 -1      4010-7.13755E-02 3.66832E-02 3.19673E-04
 -1      4011-8.99039E-02 8.05518E-02-9.19955E-04
 -1      4012-8.35190E-02 6.60025E-02-3.81710E-04
 -1      4013-7.74192E-02 5.13596E-02 1.42678E-04
 -1      4014-7.14741E-02 3.66011E-02 6.46018E-04
 -1      4015-8.96923E-02 8.06988E-02-1.37269E-03
 -1      4016-8.33373E-02 6.61020E-02-5.55355E-04
 -1      4017-7.72670E-02 5.14187E-02 2.32636E-04
 -1      4018-7.13507E-02 3.66179E-02 9.85216E-04
 -1      4019-8.92099E-02 8.09317E-02-1.81073E-03
 -1      4020-8.28992E-02 6.62943E-02-7.07591E-04
 -1      4021-7.68763E-02 5.15779E-02 3.43857E-04
 -1      4022-7.10013E-02 3.67397E-02 1.34337E-03
 -1      4023-7.65847E-02 8.55263E-02-4.82850E-04
 -1      4024-6.94491E-02 7.24338E-02-2.05589E-04
 -1      4025-6.26010E-02 5.92126E-02 6.63348E-05
 -1      4026-5.59053E-02 4.58611E-02 3.27914E-04
 -1      4027-7.66487E-02 8.55574E-02-9.62932E-04
 -1      4028-6.95359E-02 7.24107E-02-4.03959E-04
 -1      4029-6.27095E-02 5.91397E-02 1.40747E-04
 -1      4030-5.60353E-02 4.57383E-02 6.63257E-04
 -1      4031-7.64757E-02 8.57131E-02-1.43602E-03
 -1      4032-6.93908E-02 7.25094E-02-5.87119E-04
 -1      4033-6.25920E-02 5.91889E-02 2.31451E-04
 -1      4034-5.59445E-02 4.57359E-02 1.01288E-03
 -1      4035-7.60306E-02 8.59824E-02-1.89301E-03
 -1      4036-6.89888E-02 7.27271E-02-7.47209E-04
 -1      4037-6.22365E-02 5.93621E-02 3.45112E-04
 -1      4038-5.56287E-02 4.58610E-02 1.38323E-03
 -1      4039-6.44806E-02 9.11224E-02-5.03048E-04
 -1      4040-5.68247E-02 7.94873E-02-2.15917E-04
 -1      4041-4.94540E-02 6.76924E-02 6.57775E-05
 -1      4042-4.22318E-02 5.57527E-02 3.36643E-04
 -1      4043-6.45724E-02 9.11399E-02-1.00298E-03
 -1      4044-5.69349E-02 7.94419E-02-4.24083E-04
 -1      4045-4.95815E-02 6.75890E-02 1.40201E-04
 -1      4046-4.23765E-02 5.55910E-02 6.81310E-04
 -1      4047-6.44305E-02 9.13055E-02-1.49527E-03
 -1      4048-5.68164E-02 7.95415E-02-6.16019E-04
 -1      4049-4.94865E-02 6.76300E-02 2.32017E-04
 -1      4050-4.23038E-02 5.55714E-02 1.04140E-03
 -1      4051-6.40187E-02 9.16129E-02-1.97043E-03
 -1      4052-5.64436E-02 7.97862E-02-7.83545E-04
 -1      4053-4.91565E-02 6.78190E-02 3.48163E-04
 -1      4054-4.20094E-02 5.57020E-02 1.42360E-03
 -1      4055-5.35942E-02 9.71202E-02-5.21735E-04
 -1      4056-4.56272E-02 8.69611E-02-2.25211E-04
 -1      4057-3.79392E-02 7.66114E-02 6.57893E-05
 -1      4058-3.03945E-02 6.61024E-02 3.45543E-04
 -1      4059-5.37043E-02 9.71268E-02-1.04014E-03
 -1      4060-4.57489E-02 8.68970E-02-4.42265E-04
 -1      4061-3.80717E-02 7.64815E-02 1.40673E-04
 -1      4062-3.05376E-02 6.59067E-02 6.99577E-04
 -1      4063-5.35868E-02 9.73051E-02-1.55047E-03
 -1      4064-4.56479E-02 8.70008E-02-6.42296E-04
 -1      4065-3.79878E-02 7.65185E-02 2.33824E-04
 -1      4066-3.04693E-02 6.58750E-02 1.06993E-03
 -1      4067-5.32044E-02 9.76533E-02-2.04292E-03
 -1      4068-4.52980E-02 8.72761E-02-8.16838E-04
 -1      4069-3.76744E-02 7.67272E-02 3.52431E-04
 -1      4070-3.01853E-02 6.60156E-02 1.46353E-03
 -1      4071-4.39315E-02 1.03344E-01-5.38957E-04
 -1      4072-3.58622E-02 9.46515E-02-2.33585E-04
 -1      4073-2.80622E-02 8.57383E-02 6.61729E-05
 -1      4074-2.03985E-02 7.66521E-02 3.54319E-04
 -1      4075-4.40512E-02 1.03344E-01-1.07447E-03
 -1      4076-3.59846E-02 9.45745E-02-4.58714E-04
 -1      4077-2.81869E-02 8.55891E-02 1.41797E-04
 -1      4078-2.05251E-02 7.64306E-02 7.17509E-04
 -1      4079-4.39520E-02 1.03539E-01-1.60165E-03
 -1      4080-3.58930E-02 9.46881E-02-6.66198E-04
 -1      4081-2.81037E-02 8.56286E-02 2.36398E-04
 -1      4082-2.04491E-02 7.63946E-02 1.09774E-03
 -1      4083-4.35965E-02 1.03932E-01-2.11041E-03
 -1      4084-3.55610E-02 9.49988E-02-8.47316E-04
 -1      4085-2.77995E-02 8.58632E-02 3.57383E-04
 -1      4086-2.01656E-02 7.65525E-02 1.50215E-03
 -1      4087-3.54748E-02 1.09618E-01-5.54738E-04
 -1      4088-2.75084E-02 1.02356E-01-2.41133E-04
 -1      4089-1.97976E-02 9.48440E-02 6.67700E-05
 -1      4090-1.22146E-02 8.71454E-02 3.62734E-04
 -1      4091-3.55968E-02 1.09619E-01-1.10600E-03
 -1      4092-2.76223E-02 1.02275E-01-4.73585E-04
 -1      4093-1.99033E-02 9.46852E-02 1.43281E-04
 -1      4094-1.23122E-02 8.69097E-02 7.34660E-04
 -1      4095-3.55112E-02 1.09837E-01-1.64879E-03
 -1      4096-2.75334E-02 1.02405E-01-6.87907E-04
 -1      4097-1.98124E-02 9.47362E-02 2.39357E-04
 -1      4098-1.22179E-02 8.68800E-02 1.12423E-03
 -1      4099-3.51811E-02 1.10279E-01-2.17277E-03
 -1      4100-2.72155E-02 1.02758E-01-8.75138E-04
 -1      4101-1.95115E-02 9.50048E-02 3.62606E-04
 -1      4102-1.19269E-02 8.70648E-02 1.53880E-03
 -1      4103-2.81838E-02 1.15774E-01-5.69075E-04
 -1      4104-2.05176E-02 1.09879E-01-2.47911E-04
 -1      4105-1.30899E-02 1.03705E-01 6.74598E-05
 -1      4106-5.78012E-03 9.73331E-02 3.70603E-04
 -1      4107-2.83021E-02 1.15783E-01-1.13470E-03
 -1      4108-2.06157E-02 1.09803E-01-4.86975E-04
 -1      4109-1.31680E-02 1.03549E-01 1.44906E-04
 -1      4110-5.83826E-03 9.70973E-02 7.50683E-04
 -1      4111-2.82270E-02 1.16030E-01-1.69180E-03
 -1      4112-2.05247E-02 1.09960E-01-7.07522E-04
 -1      4113-1.30628E-02 1.03623E-01 2.42418E-04
 -1      4114-5.71787E-03 9.70868E-02 1.14894E-03
 -1      4115-2.79222E-02 1.16528E-01-2.22979E-03
 -1      4116-2.02191E-02 1.10362E-01-9.00369E-04
 -1      4117-1.27613E-02 1.03935E-01 3.67782E-04
 -1      4118-5.41383E-03 9.73103E-02 1.57291E-03
 -1      4119-2.19954E-02 1.21648E-01-5.81938E-04
 -1      4120-1.48160E-02 1.17031E-01-2.53945E-04
 -1      4121-7.85420E-03 1.12109E-01 6.81670E-05
 -1      4122-9.99185E-04 1.06977E-01 3.77793E-04
 -1      4123-2.21064E-02 1.21675E-01-1.16049E-03
 -1      4124-1.48932E-02 1.16972E-01-4.98924E-04
 -1      4125-7.89843E-03 1.11970E-01 1.46528E-04
 -1      4126-1.01059E-03 1.06758E-01 7.65326E-04
 -1      4127-2.20403E-02 1.21961E-01-1.73054E-03
 -1      4128-1.47976E-02 1.17166E-01-7.25077E-04
 -1      4129-7.77530E-03 1.12079E-01 2.45382E-04
 -1      4130-8.59057E-04 1.06781E-01 1.17151E-03
 -1      4131-2.17626E-02 1.22521E-01-2.28126E-03
 -1      4132-1.45044E-02 1.17628E-01-9.23013E-04
 -1      4133-7.47172E-03 1.12447E-01 3.72691E-04
 -1      4134-5.39038E-04 1.07057E-01 1.60404E-03
 -1      4135-1.68259E-02 1.27091E-01-5.93279E-04
 -1      4136-1.03050E-02 1.23638E-01-2.59238E-04
 -1      4137-3.97788E-03 1.19856E-01 6.88388E-05
 -1      4138 2.25498E-03 1.15854E-01 3.84204E-04
 -1      4139-1.69279E-02 1.27147E-01-1.18328E-03
 -1      4140-1.03590E-02 1.23610E-01-5.09433E-04
 -1      4141-3.98519E-03 1.19750E-01 1.48051E-04
 -1      4142 2.29408E-03 1.15670E-01 7.78396E-04
 -1      4143-1.68715E-02 1.27480E-01-1.76484E-03
 -1      4144-1.02586E-02 1.23853E-01-7.40555E-04
 -1      4145-3.84304E-03 1.19909E-01 2.48128E-04
 -1      4146 2.47859E-03 1.15745E-01 1.19167E-03
 -1      4147-1.66243E-02 1.28109E-01-2.32693E-03
 -1      4148-9.98027E-03 1.24383E-01-9.43033E-04
 -1      4149-3.53861E-03 1.20344E-01 3.77184E-04
 -1      4150 2.81438E-03 1.16088E-01 1.63186E-03
 -1      4151-1.25717E-02 1.31963E-01-6.03045E-04
 -1      4152-6.86365E-03 1.29539E-01-2.63781E-04
 -1      4153-1.32253E-03 1.26766E-01 6.94430E-05
 -1      4154 4.13797E-03 1.23762E-01 3.89766E-04
 -1      4155-1.26656E-02 1.32060E-01-1.20296E-03
 -1      4156-6.89511E-03 1.29557E-01-5.18473E-04
 -1      4157-1.29320E-03 1.26710E-01 1.49418E-04
 -1      4158 4.22755E-03 1.23633E-01 7.89756E-04
 -1      4159-1.26219E-02 1.32450E-01-1.79453E-03
 -1      4160-6.79240E-03 1.29860E-01-7.53910E-04
 -1      4161-1.13418E-03 1.26933E-01 2.50571E-04
 -1      4162 4.44323E-03 1.23777E-01 1.20922E-03
 -1      4163-1.24107E-02 1.33155E-01-2.36656E-03
 -1      4164-6.53371E-03 1.30469E-01-9.60359E-04
 -1      4165-8.33036E-04 1.27449E-01 3.81152E-04
 -1      4166 4.79128E-03 1.24203E-01 1.65612E-03
 -1      4167-9.11190E-03 1.36145E-01-6.11182E-04
 -1      4168-4.35043E-03 1.34595E-01-2.67555E-04
 -1      4169 2.73512E-04 1.32677E-01 6.99645E-05
 -1      4170 4.83133E-03 1.30522E-01 3.94427E-04
 -1      4171-9.20130E-03 1.36294E-01-1.21941E-03
 -1      4172-4.36311E-03 1.34673E-01-5.26017E-04
 -1      4173 3.35497E-04 1.32689E-01 1.50590E-04
 -1      4174 4.96722E-03 1.30468E-01 7.99299E-04
 -1      4175-9.17547E-03 1.36750E-01-1.81943E-03
 -1      4176-4.26350E-03 1.35049E-01-7.65094E-04
 -1      4177 5.05935E-04 1.32992E-01 2.52663E-04
 -1      4178 5.20855E-03 1.30699E-01 1.22401E-03
 -1      4179-9.00768E-03 1.37538E-01-2.39992E-03
 -1      4180-4.03177E-03 1.35746E-01-9.74918E-04
 -1      4181 7.96685E-04 1.33601E-01 3.84549E-04
 -1      4182 5.56181E-03 1.31224E-01 1.67662E-03
 -1      4183-6.31039E-03 1.39532E-01-6.17636E-04
 -1      4184-2.60622E-03 1.38684E-01-2.70544E-04
 -1      4185 9.91906E-04 1.37454E-01 7.03860E-05
 -1      4186 4.53921E-03 1.35982E-01 3.98149E-04
 -1      4187-6.40150E-03 1.39746E-01-1.23253E-03
 -1      4188-2.60706E-03 1.38837E-01-5.32023E-04
 -1      4189 1.07890E-03 1.37551E-01 1.51544E-04
 -1      4190 4.71307E-03 1.36023E-01 8.06961E-04
 -1      4191-6.40119E-03 1.40276E-01-1.83941E-03
 -1      4192-2.51885E-03 1.39299E-01-7.74052E-04
 -1      4193 1.25185E-03 1.37950E-01 2.54364E-04
 -1      4194 4.97045E-03 1.36359E-01 1.23592E-03
 -1      4195-6.28631E-03 1.41153E-01-2.42681E-03
 -1      4196-2.32400E-03 1.40094E-01-9.86644E-04
 -1      4197 1.52192E-03 1.38665E-01 3.87305E-04
 -1      4198 5.31821E-03 1.36999E-01 1.69320E-03
 -1      4199-4.01835E-03 1.42041E-01-6.22361E-04
 -1      4200-1.45712E-03 1.41711E-01-2.72736E-04
 -1      4201 1.03115E-03 1.40988E-01 7.06990E-05
 -1      4202 3.48447E-03 1.40018E-01 4.00899E-04
 -1      4203-4.12015E-03 1.42331E-01-1.24223E-03
 -1      4204-1.45637E-03 1.41953E-01-5.36467E-04
 -1      4205 1.13165E-03 1.41188E-01 1.52255E-04
 -1      4206 3.68358E-03 1.40175E-01 8.12665E-04
 -1      4207-4.15533E-03 1.42945E-01-1.85432E-03
 -1      4208-1.39075E-03 1.42512E-01-7.80742E-04
 -1      4209 1.29479E-03 1.41695E-01 2.55647E-04
 -1      4210 3.94358E-03 1.40632E-01 1.24488E-03
 -1      4211-4.10478E-03 1.43916E-01-2.44707E-03
 -1      4212-1.24519E-03 1.43413E-01-9.95477E-04
 -1      4213 1.53086E-03 1.42528E-01 3.89399E-04
 -1      4214 4.27156E-03 1.41402E-01 1.70576E-03
 -1      4215-2.07707E-03 1.43613E-01-6.25322E-04
 -1      4216-7.17854E-04 1.43605E-01-2.74118E-04
 -1      4217 6.02334E-04 1.43198E-01 7.08680E-05
 -1      4218 1.90438E-03 1.42541E-01 4.02626E-04
 -1      4219-2.20121E-03 1.43988E-01-1.24845E-03
 -1      4220-7.28946E-04 1.43949E-01-5.39322E-04
 -1      4221 7.01247E-04 1.43515E-01 1.52690E-04
 -1      4222 2.11188E-03 1.42831E-01 8.16334E-04
 -1      4223-2.28422E-03 1.44693E-01-1.86408E-03
 -1      4224-6.99928E-04 1.44614E-01-7.85109E-04
 -1      4225 8.38976E-04 1.44145E-01 2.56485E-04
 -1      4226 2.35719E-03 1.43426E-01 1.25076E-03
 -1      4227-2.31124E-03 1.45762E-01-2.46058E-03
 -1      4228-6.18475E-04 1.45628E-01-1.00135E-03
 -1      4229 1.02485E-03 1.45105E-01 3.90810E-04
 -1      4230 2.64760E-03 1.44338E-01 1.71417E-03
 -1      4231-3.20937E-04 1.44209E-01-6.26544E-04
 -1      4232-1.95810E-04 1.44323E-01-2.74691E-04
 -1      4233-7.43148E-05 1.44034E-01 7.09480E-05
 -1      4234 4.54544E-05 1.43494E-01 4.03236E-04
 -1      4235-4.81616E-04 1.44678E-01-1.25118E-03
 -1      4236-2.35069E-04 1.44779E-01-5.40561E-04
 -1      4237 4.41362E-06 1.44482E-01 1.52915E-04
 -1      4238 2.40647E-04 1.43933E-01 8.17863E-04
 -1      4239-6.26939E-04 1.45479E-01-1.86863E-03
 -1      4240-2.59180E-04 1.45558E-01-7.87097E-04
 -1      4241 9.80125E-05 1.45245E-01 2.56955E-04
 -1      4242 4.50512E-04 1.44679E-01 1.25350E-03
 -1      4243-7.46556E-04 1.46648E-01-2.46723E-03
 -1      4244-2.58741E-04 1.46690E-01-1.00415E-03
 -1      4245 2.14721E-04 1.46340E-01 3.91638E-04
 -1      4246 6.82486E-04 1.45744E-01 1.71839E-03
 -1      4247 1.34720E-03 1.43849E-01-6.25983E-04
 -1      4248 2.85592E-04 1.43888E-01-2.74377E-04
 -1      4249-7.46460E-04 1.43526E-01 7.09821E-05
 -1      4250-1.76401E-03 1.42914E-01 4.03013E-04
 -1      4251 1.15301E-03 1.44407E-01-1.25041E-03
 -1      4252 2.05920E-04 1.44451E-01-5.40146E-04
 -1      4253-7.14804E-04 1.44099E-01 1.52942E-04
 -1      4254-1.62262E-03 1.43496E-01 8.17473E-04
 -1      4255 9.48022E-04 1.45297E-01-1.86799E-03
 -1      4256 1.16039E-04 1.45339E-01-7.86744E-04
 -1      4257-6.92630E-04 1.44989E-01 2.56975E-04
 -1      4258-1.49009E-03 1.44387E-01 1.25311E-03
 -1      4259 7.37142E-04 1.46558E-01-2.46705E-03
 -1      4260 2.15387E-05 1.46582E-01-1.00399E-03
 -1      4261-6.73621E-04 1.46214E-01 3.91690E-04
 -1      4262-1.35967E-03 1.45599E-01 1.71824E-03
 -1      4263 3.15006E-03 1.42583E-01-6.23794E-04
 -1      4264 9.23482E-04 1.42362E-01-2.73379E-04
 -1      4265-1.23998E-03 1.41744E-01 7.08050E-05
 -1      4266-3.37349E-03 1.40879E-01 4.01668E-04
 -1      4267 2.90943E-03 1.43215E-01-1.24629E-03
 -1      4268 7.88410E-04 1.43015E-01-5.38279E-04
 -1      4269-1.27259E-03 1.42424E-01 1.52597E-04
 -1      4270-3.30516E-03 1.41583E-01 8.14973E-04
 -1      4271 2.63170E-03 1.44178E-01-1.86224E-03
 -1      4272 6.17567E-04 1.43992E-01-7.84186E-04
 -1      4273-1.33932E-03 1.43418E-01 2.56432E-04
 -1      4274-3.26958E-03 1.42595E-01 1.24957E-03
 -1      4275 2.31629E-03 1.45509E-01-2.46000E-03
 -1      4276 4.12648E-04 1.45322E-01-1.00094E-03
 -1      4277-1.43586E-03 1.44747E-01 3.90923E-04
 -1      4278-3.26074E-03 1.43928E-01 1.71378E-03
 -1      4279 5.23466E-03 1.40441E-01-6.19939E-04
 -1      4280 1.89032E-03 1.39777E-01-2.71610E-04
 -1      4281-1.35844E-03 1.38727E-01 7.05238E-05
 -1      4282-4.56168E-03 1.37432E-01 3.99460E-04
 -1      4283 4.93780E-03 1.41130E-01-1.23881E-03
 -1      4284 1.68829E-03 1.40502E-01-5.34879E-04
 -1      4285-1.46858E-03 1.39491E-01 1.52009E-04
 -1      4286-4.58147E-03 1.38234E-01 8.10622E-04
 -1      4287 4.57782E-03 1.42145E-01-1.85138E-03
 -1      4288 1.42511E-03 1.41545E-01-7.79342E-04
 -1      4289-1.63735E-03 1.40566E-01 2.55463E-04
 -1      4290-4.65784E-03 1.39340E-01 1.24310E-03
 -1      4291 4.14867E-03 1.43523E-01-2.44609E-03
 -1      4292 1.09861E-03 1.42937E-01-9.94898E-04
 -1      4293-1.86249E-03 1.41971E-01 3.89457E-04
 -1      4294-4.78562E-03 1.40765E-01 1.70521E-03
 -1      4295 7.74316E-03 1.37469E-01-6.14464E-04
 -1      4296 3.35239E-03 1.36190E-01-2.69073E-04
 -1      4297-9.11812E-04 1.34537E-01 7.01607E-05
 -1      4298-5.11542E-03 1.32645E-01 3.96334E-04
 -1      4299 7.38356E-03 1.38198E-01-1.22803E-03
 -1      4300 3.07553E-03 1.36966E-01-5.29947E-04
 -1      4301-1.10866E-03 1.35363E-01 1.51220E-04
 -1      4302-5.23379E-03 1.33520E-01 8.04383E-04
 -1      4303 6.93546E-03 1.39245E-01-1.83553E-03
 -1      4304 2.71275E-03 1.38053E-01-7.72232E-04
 -1      4305-1.38816E-03 1.36493E-01 2.54112E-04
 -1      4306-5.43213E-03 1.34692E-01 1.23370E-03
 -1      4307 6.38755E-03 1.40647E-01-2.42545E-03
 -1      4308 2.25806E-03 1.39480E-01-9.85897E-04
 -1      4309-1.75003E-03 1.37947E-01 3.87341E-04
 -1      4310-5.70615E-03 1.36177E-01 1.69253E-03
 -1      4311 1.08104E-02 1.33736E-01-6.07398E-04
 -1      4312 5.46727E-03 1.31678E-01-2.65789E-04
 -1      4313 2.79823E-04 1.29263E-01 6.97080E-05
 -1      4314-4.83268E-03 1.26615E-01 3.92298E-04
 -1      4315 1.03848E-02 1.34487E-01-1.21404E-03
 -1      4316 5.11142E-03 1.32485E-01-5.23521E-04
 -1      4317-8.74896E-06 1.30128E-01 1.50222E-04
 -1      4318-5.05544E-03 1.27537E-01 7.96280E-04
 -1      4319 9.84631E-03 1.35546E-01-1.81476E-03
 -1      4320 4.64586E-03 1.33592E-01-7.62900E-04
 -1      4321-4.03030E-04 1.31287E-01 2.52367E-04
 -1      4322-5.38073E-03 1.28748E-01 1.22139E-03
 -1      4323 9.17875E-03 1.36946E-01-2.39820E-03
 -1      4324 4.06098E-03 1.35029E-01-9.74001E-04
 -1      4325-9.04834E-04 1.32761E-01 3.84581E-04
 -1      4326-5.80517E-03 1.30261E-01 1.67582E-03
 -1      4327 1.45614E-02 1.29325E-01-5.98782E-04
 -1      4328 8.38099E-03 1.26340E-01-2.61778E-04
 -1      4329 2.38320E-03 1.23016E-01 6.91691E-05
 -1      4330-3.52617E-03 1.19467E-01 3.87387E-04
 -1      4331 1.40696E-02 1.30081E-01-1.19690E-03
 -1      4332 7.94569E-03 1.27157E-01-5.15643E-04
 -1      4333 2.00210E-03 1.23897E-01 1.49019E-04
 -1      4334-3.85447E-03 1.20411E-01 7.86372E-04
 -1      4335 1.34421E-02 1.31132E-01-1.78923E-03
 -1      4336 7.37825E-03 1.28263E-01-7.51414E-04
 -1      4337 1.49343E-03 1.25061E-01 2.50246E-04
 -1      4338-4.30667E-03 1.21632E-01 1.20627E-03
 -1      4339 1.26580E-02 1.32508E-01-2.36455E-03
 -1      4340 6.66569E-03 1.29683E-01-9.59296E-04
 -1      4341 8.53499E-04 1.26526E-01 3.81184E-04
 -1      4342-4.88040E-03 1.23145E-01 1.65519E-03
 -1      4343 1.91089E-02 1.24338E-01-5.88661E-04
 -1      4344 1.22256E-02 1.20292E-01-2.57057E-04
 -1      4345 5.54908E-03 1.15929E-01 6.85567E-05
 -1      4346-1.02643E-03 1.11350E-01 3.81644E-04
 -1      4347 1.85540E-02 1.25082E-01-1.17672E-03
 -1      4348 1.17139E-02 1.21101E-01-5.06348E-04
 -1      4349 5.07861E-03 1.16804E-01 1.47639E-04
 -1      4350-1.45702E-03 1.12292E-01 7.74746E-04
 -1      4351 1.78422E-02 1.26106E-01-1.75907E-03
 -1      4352 1.10493E-02 1.22182E-01-7.37825E-04
 -1      4353 4.46025E-03 1.17948E-01 2.47789E-04
 -1      4354-2.03144E-03 1.13496E-01 1.18848E-03
 -1      4355 1.69486E-02 1.27434E-01-2.32469E-03
 -1      4356 1.02158E-02 1.23561E-01-9.41853E-04
 -1      4357 3.68868E-03 1.19378E-01 3.77205E-04
 -1      4358-2.74814E-03 1.14978E-01 1.63082E-03
 -1      4359 2.45520E-02 1.18890E-01-5.77090E-04
 -1      4360 1.71168E-02 1.13668E-01-2.51642E-04
 -1      4361 9.90974E-03 1.08154E-01 6.78914E-05
 -1      4362 2.81512E-03 1.02435E-01 3.75129E-04
 -1      4363 2.39398E-02 1.19607E-01-1.15359E-03
 -1      4364 1.65350E-02 1.14451E-01-4.95668E-04
 -1      4365 9.35673E-03 1.09004E-01 1.46120E-04
 -1      4366 2.28957E-03 1.03351E-01 7.61525E-04
 -1      4367 2.31516E-02 1.20585E-01-1.72448E-03
 -1      4368 1.57817E-02 1.15488E-01-7.22197E-04
 -1      4369 8.63755E-03 1.10105E-01 2.45034E-04
 -1      4370 1.60227E-03 1.04514E-01 1.16817E-03
 -1      4371 2.21590E-02 1.21847E-01-2.27887E-03
 -1      4372 1.48379E-02 1.16803E-01-9.21757E-04
 -1      4373 7.74504E-03 1.11474E-01 3.72713E-04
 -1      4374 7.53563E-04 1.05938E-01 1.60292E-03
 -1      4375 3.09737E-02 1.13109E-01-5.64113E-04
 -1      4376 2.31517E-02 1.06618E-01-2.45533E-04
 -1      4377 1.55764E-02 9.98600E-02 6.72113E-05
 -1      4378 8.12371E-03 9.29090E-02 3.67922E-04
 -1      4379 3.03127E-02 1.13785E-01-1.12764E-03
 -1      4380 2.25094E-02 1.07358E-01-4.83618E-04
 -1      4381 1.49512E-02 1.00666E-01 1.44530E-04
 -1      4382 7.51446E-03 9.37796E-02 7.46851E-04
 -1      4383 2.94587E-02 1.14702E-01-1.68559E-03
 -1      4384 2.16788E-02 1.08333E-01-7.04554E-04
 -1      4385 1.41434E-02 1.01704E-01 2.42094E-04
 -1      4386 6.72733E-03 9.48785E-02 1.14557E-03
 -1      4387 2.83809E-02 1.15878E-01-2.22734E-03
 -1      4388 2.06391E-02 1.09563E-01-8.99074E-04
 -1      4389 1.31448E-02 1.02990E-01 3.67810E-04
 -1      4390 5.76203E-03 9.62207E-02 1.57176E-03
 -1      4391 3.84398E-02 1.07134E-01-5.49768E-04
 -1      4392 3.04079E-02 9.93010E-02-2.38722E-04
 -1      4393 2.26378E-02 9.12295E-02 6.65738E-05
 -1      4394 1.49991E-02 8.29769E-02 3.60128E-04
 -1      4395 3.77405E-02 1.07757E-01-1.09894E-03
 -1      4396 2.97169E-02 9.99843E-02-4.70188E-04
 -1      4397 2.19534E-02 9.19753E-02 1.42976E-04
 -1      4398 1.43205E-02 8.37840E-02 7.30933E-04
 -1      4399 3.68342E-02 1.08599E-01-1.64260E-03
 -1      4400 2.88235E-02 1.00882E-01-6.84914E-04
 -1      4401 2.10728E-02 9.29334E-02 2.39092E-04
 -1      4402 1.34504E-02 8.47996E-02 1.12095E-03
 -1      4403 3.56874E-02 1.09675E-01-2.17033E-03
 -1      4404 2.77052E-02 1.02011E-01-8.73840E-04
 -1      4405 1.99861E-02 9.41176E-02 3.62660E-04
 -1      4406 1.23875E-02 8.60385E-02 1.53771E-03
 -1      4407 4.69977E-02 1.01111E-01-5.34077E-04
 -1      4408 3.89412E-02 9.18879E-02-2.31176E-04
 -1      4409 3.11581E-02 8.24550E-02 6.60620E-05
 -1      4410 2.35139E-02 7.28540E-02 3.51884E-04
 -1      4411 4.62729E-02 1.01671E-01-1.06756E-03
 -1      4412 3.82156E-02 9.25036E-02-4.55328E-04
 -1      4413 3.04303E-02 8.31280E-02 1.41610E-04
 -1      4414 2.27832E-02 7.35830E-02 7.14029E-04
 -1      4415 4.53293E-02 1.02429E-01-1.59561E-03
 -1      4416 3.72762E-02 9.33118E-02-6.63229E-04
 -1      4417 2.94949E-02 8.39918E-02 2.36233E-04
 -1      4418 2.18497E-02 7.44996E-02 1.09468E-03
 -1      4419 4.41322E-02 1.03392E-01-2.10808E-03
 -1      4420 3.60990E-02 9.43251E-02-8.46045E-04
 -1      4421 2.83411E-02 8.50587E-02 3.57485E-04
 -1      4422 2.07115E-02 7.56181E-02 1.50118E-03
 -1      4423 5.66757E-02 9.51921E-02-5.17036E-04
 -1      4424 4.87852E-02 8.45547E-02-2.22834E-04
 -1      4425 4.11763E-02 7.37365E-02 6.57937E-05
 -1      4426 3.37126E-02 6.27636E-02 3.43371E-04
 -1      4427 5.59394E-02 9.56837E-02-1.03351E-03
 -1      4428 4.80410E-02 8.50946E-02-4.38938E-04
 -1      4429 4.04228E-02 7.43271E-02 1.40647E-04
 -1      4430 3.29491E-02 6.34037E-02 6.96480E-04
 -1      4431 5.49754E-02 9.63486E-02-1.54471E-03
 -1      4432 4.70740E-02 8.58041E-02-6.39400E-04
 -1      4433 3.94526E-02 7.50863E-02 2.33801E-04
 -1      4434 3.19741E-02 6.42097E-02 1.06722E-03
 -1      4435 5.37482E-02 9.71904E-02-2.04076E-03
 -1      4436 4.58596E-02 8.66921E-02-8.15615E-04
 -1      4437 3.82547E-02 7.60245E-02 3.52598E-04
 -1      4438 3.07849E-02 6.51951E-02 1.46274E-03
 -1      4439 6.74822E-02 8.95335E-02-4.98615E-04
 -1      4440 5.99507E-02 7.74811E-02-2.13606E-04
 -1      4441 5.27057E-02 6.52778E-02 6.59227E-05
 -1      4442 4.56104E-02 5.29336E-02 3.34817E-04
 -1      4443 6.67495E-02 8.99520E-02-9.96754E-04
 -1      4444 5.92048E-02 7.79403E-02-4.20862E-04
 -1      4445 5.19452E-02 6.57802E-02 1.40372E-04
 -1      4446 4.48350E-02 5.34779E-02 6.78713E-04
 -1      4447 6.57828E-02 9.05200E-02-1.48992E-03
 -1      4448 5.82299E-02 7.85458E-02-6.13239E-04
 -1      4449 5.09619E-02 6.64285E-02 2.32165E-04
 -1      4450 4.38419E-02 5.41660E-02 1.03915E-03
 -1      4451 6.45468E-02 9.12359E-02-1.96850E-03
 -1      4452 5.70013E-02 7.93027E-02-7.82401E-04
 -1      4453 4.97443E-02 6.72309E-02 3.48415E-04
 -1      4454 4.26277E-02 5.50103E-02 1.42307E-03
 -1      4455 7.94059E-02 8.42904E-02-4.78777E-04
 -1      4456 7.24256E-02 7.08473E-02-2.03390E-04
 -1      4457 6.57332E-02 5.72830E-02 6.66255E-05
 -1      4458 5.91939E-02 4.35920E-02 3.26489E-04
 -1      4459 7.86922E-02 8.46352E-02-9.57238E-04
 -1      4460 7.16955E-02 7.12245E-02-4.00909E-04
 -1      4461 6.49853E-02 5.76952E-02 1.41123E-04
 -1      4462 5.84280E-02 4.40380E-02 6.61243E-04
 -1      4463 7.77413E-02 8.51057E-02-1.43119E-03
 -1      4464 7.07330E-02 7.17247E-02-5.84515E-04
 -1      4465 6.40111E-02 5.82305E-02 2.31781E-04
 -1      4466 5.74408E-02 4.46056E-02 1.01118E-03
 -1      4467 7.65184E-02 8.56948E-02-1.89139E-03
 -1      4468 6.95136E-02 7.23488E-02-7.46178E-04
 -1      4469 6.27987E-02 5.88950E-02 3.45447E-04
 -1      4470 5.62286E-02 4.53059E-02 1.38299E-03
 -1      4471 9.24159E-02 7.96166E-02-4.57523E-04
 -1      4472 8.61750E-02 6.48310E-02-1.92116E-04
 -1      4473 8.02201E-02 4.99536E-02 6.80633E-05
 -1      4474 7.44203E-02 3.49640E-02 3.18665E-04
 -1      4475 9.17369E-02 7.98900E-02-9.14947E-04
 -1      4476 8.54782E-02 6.51283E-02-3.78933E-04
 -1      4477 7.95044E-02 5.02774E-02 1.43222E-04
 -1      4478 7.36856E-02 3.53134E-02 6.44612E-04
 -1      4479 9.08199E-02 8.02661E-02-1.36851E-03
 -1      4480 8.45483E-02 6.55258E-02-5.53016E-04
 -1      4481 7.85612E-02 5.07023E-02 2.33114E-04
 -1      4482 7.27285E-02 3.57626E-02 9.84078E-04
 -1      4483 8.96317E-02 8.07319E-02-1.80946E-03
 -1      4484 8.33615E-02 6.60203E-02-7.06722E-04
 -1      4485 7.73792E-02 5.12312E-02 3.44249E-04
 -1      4486 7.15449E-02 3.63210E-02 1.34342E-03
 -1      4487 1.06463E-01 7.56610E-02-4.35005E-04
 -1      4488 1.01142E-01 5.96047E-02-1.79856E-04
 -1      4489 9.61023E-02 4.34851E-02 7.02803E-05
 -1      4490 9.12186E-02 2.72676E-02 3.11531E-04
 -1      4491 1.05834E-01 7.58686E-02-8.70102E-04
 -1      4492 1.00496E-01 5.98278E-02-3.55020E-04
 -1      4493 9.54378E-02 4.37264E-02 1.46804E-04
 -1      4494 9.05361E-02 2.75266E-02 6.29245E-04
 -1      4495 1.04968E-01 7.61572E-02-1.30209E-03
 -1      4496 9.96180E-02 6.01296E-02-5.18782E-04
 -1      4497 9.45470E-02 4.40477E-02 2.36433E-04
 -1      4498 8.96321E-02 2.78646E-02 9.58529E-04
 -1      4499 1.03836E-01 7.65076E-02-1.72293E-03
 -1      4500 9.84862E-02 6.05020E-02-6.64031E-04
 -1      4501 9.34192E-02 4.44485E-02 3.45209E-04
 -1      4502 8.85028E-02 2.82884E-02 1.30527E-03
 -1      4503 1.21481E-01 7.25658E-02-4.11702E-04
 -1      4504 1.17250E-01 5.53344E-02-1.67003E-04
 -1      4505 1.13291E-01 3.80649E-02 7.30107E-05
 -1      4506 1.09489E-01 2.07107E-02 3.04972E-04
 -1      4507 1.20915E-01 7.27164E-02-8.23501E-04
 -1      4508 1.16670E-01 5.54924E-02-3.29834E-04
 -1      4509 1.12695E-01 3.82334E-02 1.51464E-04
 -1      4510 1.08879E-01 2.08895E-02 6.15082E-04
 -1      4511 1.20118E-01 7.29280E-02-1.23279E-03
 -1      4512 1.15862E-01 5.57094E-02-4.82581E-04
 -1      4513 1.11877E-01 3.84622E-02 2.41347E-04
 -1      4514 1.08049E-01 2.11283E-02 9.34736E-04
 -1      4515 1.19061E-01 7.31755E-02-1.63252E-03
 -1      4516 1.14807E-01 5.59722E-02-6.18871E-04
 -1      4517 1.10826E-01 3.87476E-02 3.48064E-04
 -1      4518 1.06998E-01 2.14305E-02 1.26911E-03
 -1      4519 1.37388E-01 7.04656E-02-3.88658E-04
 -1      4520 1.34402E-01 5.21791E-02-1.54520E-04
 -1      4521 1.31673E-01 3.38712E-02 7.53945E-05
 -1      4522 1.29105E-01 1.54872E-02 2.98195E-04
 -1      4523 1.36899E-01 7.05702E-02-7.77043E-04
 -1      4524 1.33902E-01 5.22840E-02-3.05138E-04
 -1      4525 1.31163E-01 3.39797E-02 1.55672E-04
 -1      4526 1.28584E-01 1.55996E-02 6.00861E-04
 -1      4527 1.36184E-01 7.07189E-02-1.16289E-03
 -1      4528 1.33181E-01 5.24306E-02-4.46679E-04
 -1      4529 1.30434E-01 3.41316E-02 2.46000E-04
 -1      4530 1.27849E-01 1.57555E-02 9.11542E-04
 -1      4531 1.35220E-01 7.08805E-02-1.54043E-03
 -1      4532 1.32220E-01 5.26012E-02-5.73834E-04
 -1      4533 1.29480E-01 3.43191E-02 3.50783E-04
 -1      4534 1.26897E-01 1.59548E-02 1.23429E-03
 -1      4535 1.54090E-01 6.94872E-02-3.67684E-04
 -1      4536 1.52481E-01 5.02918E-02-1.44114E-04
 -1      4537 1.51114E-01 3.10730E-02 7.56976E-05
 -1      4538 1.49914E-01 1.17743E-02 2.89322E-04
 -1      4539 1.53688E-01 6.95592E-02-7.34318E-04
 -1      4540 1.52075E-01 5.03580E-02-2.84287E-04
 -1      4541 1.50703E-01 3.11372E-02 1.56110E-04
 -1      4542 1.49498E-01 1.18370E-02 5.83131E-04
 -1      4543 1.53068E-01 6.96612E-02-1.09734E-03
 -1      4544 1.51455E-01 5.04519E-02-4.15817E-04
 -1      4545 1.50080E-01 3.12308E-02 2.45784E-04
 -1      4546 1.48874E-01 1.19297E-02 8.84635E-04
 -1      4547 1.52212E-01 6.97581E-02-1.45199E-03
 -1      4548 1.50605E-01 5.05522E-02-5.34541E-04
 -1      4549 1.49239E-01 3.13434E-02 3.48059E-04
 -1      4550 1.48038E-01 1.20497E-02 1.19684E-03
 -1      4551-1.49242E-01 1.18928E-02-3.59836E-04
 -1      4552-1.27667E-01 1.58585E-02-3.71139E-04
 -1      4553-1.07398E-01 2.14447E-02-3.79838E-04
 -1      4554-8.86036E-02 2.84500E-02-3.88451E-04
 -1      4555-7.14217E-02 3.66537E-02-3.97908E-04
 -1      4556-5.59592E-02 4.58193E-02-4.08245E-04
 -1      4557-4.22891E-02 5.56990E-02-4.19157E-04
 -1      4558-3.04507E-02 6.60380E-02-4.30258E-04
 -1      4559-2.04498E-02 7.65790E-02-4.41189E-04
 -1      4560-1.22575E-02 8.70667E-02-4.51667E-04
 -1      4561-5.81183E-03 9.72524E-02-4.61460E-04
 -1      4562-1.01764E-03 1.06899E-01-4.70411E-04
 -1      4563 2.25090E-03 1.15783E-01-4.78397E-04
 -1      4564 4.14848E-03 1.23704E-01-4.85334E-04
 -1      4565 4.85550E-03 1.30481E-01-4.91155E-04
 -1      4566 4.57508E-03 1.35963E-01-4.95822E-04
 -1      4567 3.52890E-03 1.40028E-01-4.99288E-04
 -1      4568 1.95317E-03 1.42584E-01-5.01492E-04
 -1      4569 9.33981E-05 1.43575E-01-5.02320E-04
 -1      4570-1.72728E-03 1.43030E-01-5.02074E-04
 -1      4571-3.35275E-03 1.41025E-01-5.00459E-04
 -1      4572-4.56073E-03 1.37604E-01-4.97742E-04
 -1      4573-5.13690E-03 1.32835E-01-4.93871E-04
 -1      4574-4.87815E-03 1.26818E-01-4.88863E-04
 -1      4575-3.59600E-03 1.19677E-01-4.82756E-04
 -1      4576-1.11998E-03 1.11561E-01-4.75608E-04
 -1      4577 2.69954E-03 1.02641E-01-4.67493E-04
 -1      4578 7.98871E-03 9.31052E-02-4.58508E-04
 -1      4579 1.48480E-02 8.31591E-02-4.48784E-04
 -1      4580 2.33509E-02 7.30187E-02-4.38488E-04
 -1      4581 3.35422E-02 6.29082E-02-4.27842E-04
 -1      4582 4.54376E-02 5.30563E-02-4.17127E-04
 -1      4583 5.90238E-02 4.36922E-02-4.06672E-04
 -1      4584 7.42582E-02 3.50421E-02-3.96823E-04
 -1      4585 9.10694E-02 2.73250E-02-3.87821E-04
 -1      4586 1.09358E-01 2.07498E-02-3.79550E-04
 -1      4587 1.28996E-01 1.55112E-02-3.71048E-04
 -1      4588 1.49830E-01 1.17871E-02-3.59978E-04
 -1      4589-1.48910E-01 1.19475E-02-7.27021E-04
 -1      4590-1.27451E-01 1.59008E-02-7.49646E-04
 -1      4591-1.07281E-01 2.14613E-02-7.68338E-04
 -1      4592-8.85665E-02 2.84319E-02-7.87387E-04
 -1      4593-7.14449E-02 3.65958E-02-8.08029E-04
 -1      4594-5.60222E-02 4.57201E-02-8.30139E-04
 -1      4595-4.23719E-02 5.55608E-02-8.53092E-04
 -1      4596-3.05344E-02 6.58671E-02-8.76178E-04
 -1      4597-2.05169E-02 7.63856E-02-8.98759E-04
 -1      4598-1.22931E-02 8.68646E-02-9.20318E-04
 -1      4599-5.80421E-03 9.70589E-02-9.40442E-04
 -1      4600-9.58718E-04 1.06734E-01-9.58828E-04
 -1      4601 2.36503E-03 1.15669E-01-9.75254E-04
 -1      4602 4.31694E-03 1.23664E-01-9.89551E-04
 -1      4603 5.07249E-03 1.30541E-01-1.00160E-03
 -1      4604 4.82961E-03 1.36147E-01-1.01131E-03
 -1      4605 3.80477E-03 1.40359E-01-1.01860E-03
 -1      4606 2.22908E-03 1.43084E-01-1.02339E-03
 -1      4607 3.43436E-04 1.44262E-01-1.02554E-03
 -1      4608-1.55507E-03 1.43896E-01-1.02519E-03
 -1      4609-3.28264E-03 1.42044E-01-1.02222E-03
 -1      4610-4.61151E-03 1.38743E-01-1.01688E-03
 -1      4611-5.32145E-03 1.34063E-01-1.00913E-03
 -1      4612-5.20335E-03 1.28100E-01-9.99020E-04
 -1      4613-4.06276E-03 1.20981E-01-9.86622E-04
 -1      4614-1.72359E-03 1.12856E-01-9.72057E-04
 -1      4615 1.96919E-03 1.03897E-01-9.55457E-04
 -1      4616 7.14646E-03 9.42959E-02-9.37013E-04
 -1      4617 1.39130E-02 8.42614E-02-9.16963E-04
 -1      4618 2.23457E-02 7.40139E-02-8.95620E-04
 -1      4619 3.24921E-02 6.37824E-02-8.73386E-04
 -1      4620 4.43697E-02 5.38009E-02-8.50775E-04
 -1      4621 5.79663E-02 4.43040E-02-8.28394E-04
 -1      4622 7.32391E-02 3.55235E-02-8.06908E-04
 -1      4623 9.01160E-02 2.76842E-02-7.86866E-04
 -1      4624 1.08495E-01 2.10004E-02-7.68310E-04
 -1      4625 1.28247E-01 1.56717E-02-7.49957E-04
 -1      4626 1.49216E-01 1.18796E-02-7.27742E-04
 -1      4627-1.48253E-01 1.20462E-02-1.10910E-03
 -1      4628-1.26900E-01 1.60091E-02-1.14402E-03
 -1      4629-1.06822E-01 2.15713E-02-1.17584E-03
 -1      4630-8.81834E-02 2.85383E-02-1.20879E-03
 -1      4631-7.11203E-02 3.66953E-02-1.24372E-03
 -1      4632-5.57391E-02 4.58125E-02-1.28014E-03
 -1      4633-4.21138E-02 5.56487E-02-1.31717E-03
 -1      4634-3.02862E-02 6.59565E-02-1.35386E-03
 -1      4635-2.02652E-02 7.64859E-02-1.38944E-03
 -1      4636-1.20270E-02 8.69884E-02-1.42321E-03
 -1      4637-5.51525E-03 9.72214E-02-1.45467E-03
 -1      4638-6.42309E-04 1.06953E-01-1.48339E-03
 -1      4639 2.70964E-03 1.15964E-01-1.50906E-03
 -1      4640 4.68621E-03 1.24056E-01-1.53145E-03
 -1      4641 5.45834E-03 1.31051E-01-1.55038E-03
 -1      4642 5.21922E-03 1.36796E-01-1.56571E-03
 -1      4643 4.18071E-03 1.41166E-01-1.57735E-03
 -1      4644 2.56936E-03 1.44066E-01-1.58516E-03
 -1      4645 6.22037E-04 1.45434E-01-1.58911E-03
 -1      4646-1.39139E-03 1.45252E-01-1.58900E-03
 -1      4647-3.25874E-03 1.43551E-01-1.58485E-03
 -1      4648-4.74618E-03 1.40365E-01-1.57690E-03
 -1      4649-5.62694E-03 1.35763E-01-1.56514E-03
 -1      4650-5.68525E-03 1.29842E-01-1.54965E-03
 -1      4651-4.72024E-03 1.22727E-01-1.53055E-03
 -1      4652-2.54949E-03 1.14570E-01-1.50800E-03
 -1      4653 9.87686E-04 1.05547E-01-1.48221E-03
 -1      4654 6.02754E-03 9.58522E-02-1.45344E-03
 -1      4655 1.26793E-02 8.56986E-02-1.42201E-03
 -1      4656 2.10237E-02 7.53111E-02-1.38835E-03
 -1      4657 3.11111E-02 6.49244E-02-1.35298E-03
 -1      4658 4.29611E-02 5.47779E-02-1.31657E-03
 -1      4659 5.65621E-02 4.51126E-02-1.27990E-03
 -1      4660 7.18714E-02 3.61664E-02-1.24387E-03
 -1      4661 8.88156E-02 2.81708E-02-1.20932E-03
 -1      4662 1.07291E-01 2.13464E-02-1.17672E-03
 -1      4663 1.27164E-01 1.58994E-02-1.14518E-03
 -1      4664 1.48276E-01 1.20166E-02-1.11061E-03
 -1      4665-1.50499E-01 3.11501E-02-9.44630E-05
 -1      4666-1.30340E-01 3.41572E-02-9.39960E-05
 -1      4667-1.11339E-01 3.86607E-02-9.09221E-05
 -1      4668-9.36460E-02 4.44695E-02-8.75495E-05
 -1      4669-7.73844E-02 5.13814E-02-8.49499E-05
 -1      4670-6.26494E-02 5.91833E-02-8.33876E-05
 -1      4671-4.95067E-02 6.76534E-02-8.27504E-05
 -1      4672-3.79927E-02 7.65635E-02-8.28000E-05
 -1      4673-2.81128E-02 8.56834E-02-8.32993E-05
 -1      4674-1.98424E-02 9.47846E-02-8.40547E-05
 -1      4675-1.31265E-02 1.03645E-01-8.49224E-05
 -1      4676-7.88079E-03 1.12051E-01-8.58067E-05
 -1      4677-3.99349E-03 1.19805E-01-8.66469E-05
 -1      4678-1.32707E-03 1.26725E-01-8.74035E-05
 -1      4679 2.79169E-04 1.32652E-01-8.80556E-05
 -1      4680 1.00599E-03 1.37450E-01-8.85899E-05
 -1      4681 1.05084E-03 1.41009E-01-8.89901E-05
 -1      4682 6.23874E-04 1.43248E-01-8.92175E-05
 -1      4683-5.55868E-05 1.44117E-01-8.93279E-05
 -1      4684-7.37258E-04 1.43640E-01-8.93699E-05
 -1      4685-1.24457E-03 1.41885E-01-8.91631E-05
 -1      4686-1.38017E-03 1.38889E-01-8.88230E-05
 -1      4687-9.53009E-04 1.34716E-01-8.83714E-05
 -1      4688 2.17792E-04 1.29452E-01-8.78070E-05
 -1      4689 2.30004E-03 1.23210E-01-8.71297E-05
 -1      4690 5.44545E-03 1.16123E-01-8.63572E-05
 -1      4691 9.78715E-03 1.08343E-01-8.55157E-05
 -1      4692 1.54373E-02 1.00040E-01-8.46515E-05
 -1      4693 2.24851E-02 9.13965E-02-8.38336E-05
 -1      4694 3.09956E-02 8.26058E-02-8.31620E-05
 -1      4695 4.10082E-02 7.38688E-02-8.27817E-05
 -1      4696 5.25364E-02 6.53900E-02-8.28811E-05
 -1      4697 6.55674E-02 5.73748E-02-8.36760E-05
 -1      4698 8.00624E-02 5.00253E-02-8.53694E-05
 -1      4699 9.59573E-02 4.35381E-02-8.80224E-05
 -1      4700 1.13163E-01 3.81014E-02-9.13247E-05
 -1      4701 1.31566E-01 3.38943E-02-9.42209E-05
 -1      4702 1.51031E-01 3.10863E-02-9.45573E-05
 -1      4703-1.50153E-01 3.12184E-02-1.98000E-04
 -1      4704-1.30101E-01 3.42209E-02-1.97745E-04
 -1      4705-1.11194E-01 3.87083E-02-1.92984E-04
 -1      4706-9.35780E-02 4.44930E-02-1.87946E-04
 -1      4707-7.73766E-02 5.13761E-02-1.84370E-04
 -1      4708-6.26841E-02 5.91478E-02-1.82626E-04
 -1      4709-4.95668E-02 6.75895E-02-1.82462E-04
 -1      4710-3.80617E-02 7.64765E-02-1.83443E-04
 -1      4711-2.81760E-02 8.55819E-02-1.85150E-04
 -1      4712-1.98870E-02 9.46805E-02-1.87242E-04
 -1      4713-1.31425E-02 1.03553E-01-1.89472E-04
 -1      4714-7.86173E-03 1.11988E-01-1.91661E-04
 -1      4715-3.93632E-03 1.19791E-01-1.93708E-04
 -1      4716-1.23298E-03 1.26780E-01-1.95539E-04
 -1      4717 4.04564E-04 1.32798E-01-1.97113E-04
 -1      4718 1.15253E-03 1.37707E-01-1.98399E-04
 -1      4719 1.20382E-03 1.41396E-01-1.99380E-04
 -1      4720 7.64221E-04 1.43785E-01-2.00024E-04
 -1      4721 4.88090E-05 1.44817E-01-2.00382E-04
 -1      4722-7.02511E-04 1.44498E-01-2.00432E-04
 -1      4723-1.30112E-03 1.42875E-01-2.00022E-04
 -1      4724-1.54454E-03 1.39983E-01-1.99279E-04
 -1      4725-1.23645E-03 1.35884E-01-1.98243E-04
 -1      4726-1.90562E-04 1.30665E-01-1.96923E-04
 -1      4727 1.76626E-03 1.24438E-01-1.95321E-04
 -1      4728 4.79092E-03 1.17338E-01-1.93467E-04
 -1      4729 9.02127E-03 1.09518E-01-1.91412E-04
 -1      4730 1.45738E-02 1.01152E-01-1.89235E-04
 -1      4731 2.15417E-02 9.24239E-02-1.87057E-04
 -1      4732 2.99928E-02 8.35326E-02-1.85058E-04
 -1      4733 3.99691E-02 7.46827E-02-1.83490E-04
 -1      4734 5.14859E-02 6.60837E-02-1.82680E-04
 -1      4735 6.45310E-02 5.79456E-02-1.83030E-04
 -1      4736 7.90658E-02 5.04759E-02-1.84937E-04
 -1      4737 9.50251E-02 4.38764E-02-1.88593E-04
 -1      4738 1.12318E-01 3.83401E-02-1.93580E-04
 -1      4739 1.30830E-01 3.40506E-02-1.98176E-04
 -1      4740 1.50422E-01 3.11812E-02-1.98330E-04
 -1      4741-1.49476E-01 3.13242E-02-3.19251E-04
 -1      4742-1.29520E-01 3.43449E-02-3.21257E-04
 -1      4743-1.10697E-01 3.88445E-02-3.17895E-04
 -1      4744-9.31529E-02 4.46370E-02-3.14367E-04
 -1      4745-7.70090E-02 5.15254E-02-3.12714E-04
 -1      4746-6.23603E-02 5.93023E-02-3.13222E-04
 -1      4747-4.92733E-02 6.77514E-02-3.15513E-04
 -1      4748-3.77862E-02 7.66509E-02-3.19031E-04
 -1      4749-2.79078E-02 8.57768E-02-3.23265E-04
 -1      4750-1.96174E-02 9.49065E-02-3.27803E-04
 -1      4751-1.28654E-02 1.03823E-01-3.32342E-04
 -1      4752-7.57392E-03 1.12317E-01-3.36670E-04
 -1      4753-3.63833E-03 1.20195E-01-3.40638E-04
 -1      4754-9.28911E-04 1.27277E-01-3.44159E-04
 -1      4755 7.06652E-04 1.33404E-01-3.47175E-04
 -1      4756 1.44051E-03 1.38440E-01-3.49638E-04
 -1      4757 1.46155E-03 1.42273E-01-3.51526E-04
 -1      4758 9.71745E-04 1.44818E-01-3.52823E-04
 -1      4759 1.82571E-04 1.46019E-01-3.53630E-04
 -1      4760-6.77497E-04 1.45859E-01-3.53753E-04
 -1      4761-1.40700E-03 1.44367E-01-3.53100E-04
 -1      4762-1.79769E-03 1.41573E-01-3.51806E-04
 -1      4763-1.64736E-03 1.37538E-01-3.49928E-04
 -1      4764-7.63629E-04 1.32348E-01-3.47468E-04
 -1      4765 1.03254E-03 1.26117E-01-3.44455E-04
 -1      4766 3.90370E-03 1.18980E-01-3.40926E-04
 -1      4767 7.99304E-03 1.11094E-01-3.36949E-04
 -1      4768 1.34218E-02 1.02634E-01-3.32622E-04
 -1      4769 2.02872E-02 9.37903E-02-3.28098E-04
 -1      4770 2.86606E-02 8.47640E-02-3.23600E-04
 -1      4771 3.85866E-02 7.57654E-02-3.19435E-04
 -1      4772 5.00820E-02 6.70093E-02-3.16008E-04
 -1      4773 6.31356E-02 5.87114E-02-3.13816E-04
 -1      4774 7.77086E-02 5.10850E-02-3.13395E-04
 -1      4775 9.37347E-02 4.43379E-02-3.15097E-04
 -1      4776 1.11121E-01 3.86693E-02-3.18611E-04
 -1      4777 1.29750E-01 3.42685E-02-3.21922E-04
 -1      4778 1.49480E-01 3.13141E-02-3.19924E-04
 -1      4779-1.51924E-01 5.03282E-02 1.78676E-04
 -1      4780-1.33173E-01 5.23794E-02 1.92189E-04
 -1      4781-1.15437E-01 5.57906E-02 2.08303E-04
 -1      4782-9.88450E-02 6.03887E-02 2.24736E-04
 -1      4783-8.35025E-02 6.59936E-02 2.40264E-04
 -1      4784-6.94926E-02 7.24169E-02 2.54444E-04
 -1      4785-5.68737E-02 7.94625E-02 2.67237E-04
 -1      4786-4.56785E-02 8.69294E-02 2.78760E-04
 -1      4787-3.59128E-02 9.46144E-02 2.89153E-04
 -1      4788-2.75558E-02 1.02316E-01 2.98528E-04
 -1      4789-2.05597E-02 1.09838E-01 3.06953E-04
 -1      4790-1.48513E-02 1.16993E-01 3.14460E-04
 -1      4791-1.03327E-02 1.23605E-01 3.21051E-04
 -1      4792-6.88379E-03 1.29517E-01 3.26712E-04
 -1      4793-4.36381E-03 1.34586E-01 3.31425E-04
 -1      4794-2.61443E-03 1.38693E-01 3.35163E-04
 -1      4795-1.46265E-03 1.41742E-01 3.37913E-04
 -1      4796-7.24017E-04 1.43661E-01 3.39658E-04
 -1      4797-2.06695E-04 1.44407E-01 3.40398E-04
 -1      4798 2.66935E-04 1.43999E-01 3.40046E-04
 -1      4799 8.93332E-04 1.42495E-01 3.38822E-04
 -1      4800 1.84575E-03 1.39929E-01 3.36638E-04
 -1      4801 3.29140E-03 1.36355E-01 3.33499E-04
 -1      4802 5.38870E-03 1.31852E-01 3.29429E-04
 -1      4803 8.28463E-03 1.26517E-01 3.24455E-04
 -1      4804 1.21120E-02 1.20469E-01 3.18598E-04
 -1      4805 1.69874E-02 1.13840E-01 3.11875E-04
 -1      4806 2.30088E-02 1.06781E-01 3.04293E-04
 -1      4807 3.02540E-02 9.94521E-02 2.95840E-04
 -1      4808 3.87798E-02 9.20241E-02 2.86480E-04
 -1      4809 4.86199E-02 8.46741E-02 2.76139E-04
 -1      4810 5.97856E-02 7.75824E-02 2.64709E-04
 -1      4811 7.22647E-02 7.09303E-02 2.52064E-04
 -1      4812 8.60225E-02 6.48960E-02 2.38116E-04
 -1      4813 1.01002E-01 5.96531E-02 2.22944E-04
 -1      4814 1.17126E-01 5.53684E-02 2.07020E-04
 -1      4815 1.34297E-01 5.22013E-02 1.91528E-04
 -1      4816 1.52400E-01 5.03056E-02 1.78609E-04
 -1      4817-1.51565E-01 5.04105E-02 3.49028E-04
 -1      4818-1.32913E-01 5.24648E-02 3.75480E-04
 -1      4819-1.15265E-01 5.58689E-02 4.06485E-04
 -1      4820-9.87466E-02 6.04531E-02 4.37792E-04
 -1      4821-8.34637E-02 6.60401E-02 4.67320E-04
 -1      4822-6.94989E-02 7.24441E-02 4.94366E-04
 -1      4823-5.69107E-02 7.94720E-02 5.18904E-04
 -1      4824-4.57325E-02 8.69254E-02 5.41142E-04
 -1      4825-3.59717E-02 9.46040E-02 5.61314E-04
 -1      4826-2.76091E-02 1.02309E-01 5.79594E-04
 -1      4827-2.05993E-02 1.09847E-01 5.96079E-04
 -1      4828-1.48721E-02 1.17032E-01 6.10819E-04
 -1      4829-1.03328E-02 1.23691E-01 6.23797E-04
 -1      4830-6.86465E-03 1.29666E-01 6.34984E-04
 -1      4831-4.33087E-03 1.34817E-01 6.44341E-04
 -1      4832-2.57696E-03 1.39022E-01 6.51814E-04
 -1      4833-1.43386E-03 1.42185E-01 6.57367E-04
 -1      4834-7.20965E-04 1.44234E-01 6.60964E-04
 -1      4835-2.49846E-04 1.45121E-01 6.62566E-04
 -1      4836 1.62200E-04 1.44847E-01 6.62163E-04
 -1      4837 7.08162E-04 1.43456E-01 6.59931E-04
 -1      4838 1.56579E-03 1.40976E-01 6.55801E-04
 -1      4839 2.90704E-03 1.37463E-01 6.49778E-04
 -1      4840 4.89518E-03 1.32994E-01 6.41902E-04
 -1      4841 7.68194E-03 1.27668E-01 6.32226E-04
 -1      4842 1.14048E-02 1.21601E-01 6.20797E-04
 -1      4843 1.61843E-02 1.14932E-01 6.07658E-04
 -1      4844 2.21226E-02 1.07811E-01 5.92833E-04
 -1      4845 2.93008E-02 1.00402E-01 5.76319E-04
 -1      4846 3.77782E-02 9.28802E-02 5.58071E-04
 -1      4847 4.75911E-02 8.54253E-02 5.37981E-04
 -1      4848 5.87518E-02 7.82227E-02 5.15878E-04
 -1      4849 7.12491E-02 7.14578E-02 4.91543E-04
 -1      4850 8.50482E-02 6.53139E-02 4.64797E-04
 -1      4851 1.00091E-01 5.99690E-02 4.35712E-04
 -1      4852 1.16300E-01 5.55943E-02 4.05020E-04
 -1      4853 1.33574E-01 5.23535E-02 3.74761E-04
 -1      4854 1.51796E-01 5.04034E-02 3.49024E-04
 -1      4855-1.50864E-01 5.05196E-02 5.02995E-04
 -1      4856-1.32298E-01 5.26005E-02 5.40457E-04
 -1      4857-1.14726E-01 5.60268E-02 5.83533E-04
 -1      4858-9.82742E-02 6.06303E-02 6.26757E-04
 -1      4859-8.30473E-02 6.62351E-02 6.67563E-04
 -1      4860-6.91278E-02 7.26573E-02 7.05183E-04
 -1      4861-5.65749E-02 7.97054E-02 7.39623E-04
 -1      4862-4.54227E-02 8.71834E-02 7.71118E-04
 -1      4863-3.56799E-02 9.48932E-02 7.99905E-04
 -1      4864-2.73293E-02 1.02638E-01 8.26152E-04
 -1      4865-2.03276E-02 1.10226E-01 8.49931E-04
 -1      4866-1.46073E-02 1.17473E-01 8.71266E-04
 -1      4867-1.00764E-02 1.24208E-01 8.90112E-04
 -1      4868-6.62167E-03 1.30272E-01 9.06418E-04
 -1      4869-4.10939E-03 1.35525E-01 9.20113E-04
 -1      4870-2.38854E-03 1.39846E-01 9.31128E-04
 -1      4871-1.29338E-03 1.43137E-01 9.39408E-04
 -1      4872-6.46498E-04 1.45324E-01 9.44871E-04
 -1      4873-2.62341E-04 1.46356E-01 9.47419E-04
 -1      4874 4.60593E-05 1.46220E-01 9.47172E-04
 -1      4875 4.69153E-04 1.44938E-01 9.44219E-04
 -1      4876 1.18984E-03 1.42539E-01 9.38475E-04
 -1      4877 2.38552E-03 1.39075E-01 9.29952E-04
 -1      4878 4.22498E-03 1.34623E-01 9.18710E-04
 -1      4879 6.86531E-03 1.29283E-01 9.04822E-04
 -1      4880 1.04491E-02 1.23174E-01 8.88368E-04
 -1      4881 1.51018E-02 1.16435E-01 8.69423E-04
 -1      4882 2.09297E-02 1.09220E-01 8.48037E-04
 -1      4883 2.80177E-02 1.01697E-01 8.24248E-04
 -1      4884 3.64280E-02 9.40435E-02 7.98034E-04
 -1      4885 4.61993E-02 8.64457E-02 7.69312E-04
 -1      4886 5.73454E-02 7.90931E-02 7.37922E-04
 -1      4887 6.98558E-02 7.21763E-02 7.03631E-04
 -1      4888 8.36955E-02 6.58842E-02 6.66220E-04
 -1      4889 9.88059E-02 6.04004E-02 6.25700E-04
 -1      4890 1.15106E-01 5.59018E-02 5.82849E-04
 -1      4891 1.32495E-01 5.25573E-02 5.40194E-04
 -1      4892 1.50850E-01 5.05285E-02 5.03126E-04
 -1      4893-1.53591E-01 6.94833E-02 4.56548E-04
 -1      4894-1.36266E-01 7.05796E-02 4.83747E-04
 -1      4895-1.19809E-01 7.28799E-02 5.13552E-04
 -1      4896-1.04326E-01 7.62403E-02 5.43478E-04
 -1      4897-8.99075E-02 8.05084E-02 5.72205E-04
 -1      4898-7.66238E-02 8.55221E-02 5.99182E-04
 -1      4899-6.45261E-02 9.11124E-02 6.24269E-04
 -1      4900-5.36437E-02 9.71051E-02 6.47491E-04
 -1      4901-4.39825E-02 1.03325E-01 6.68900E-04
 -1      4902-3.55253E-02 1.09597E-01 6.88526E-04
 -1      4903-2.82319E-02 1.15752E-01 7.06363E-04
 -1      4904-2.20401E-02 1.21630E-01 7.22376E-04
 -1      4905-1.68664E-02 1.27078E-01 7.36507E-04
 -1      4906-1.26082E-02 1.31959E-01 7.48688E-04
 -1      4907-9.14507E-03 1.36152E-01 7.58851E-04
 -1      4908-6.34170E-03 1.39554E-01 7.66936E-04
 -1      4909-4.04992E-03 1.42082E-01 7.72875E-04
 -1      4910-2.11177E-03 1.43674E-01 7.76631E-04
 -1      4911-3.62299E-04 1.44294E-01 7.78217E-04
 -1      4912 1.29994E-03 1.43957E-01 7.77589E-04
 -1      4913 3.09370E-03 1.42709E-01 7.74918E-04
 -1      4914 5.16669E-03 1.40581E-01 7.70166E-04
 -1      4915 7.66193E-03 1.37621E-01 7.63392E-04
 -1      4916 1.07150E-02 1.33894E-01 7.54631E-04
 -1      4917 1.44516E-02 1.29486E-01 7.43933E-04
 -1      4918 1.89854E-02 1.24497E-01 7.31359E-04
 -1      4919 2.44159E-02 1.19044E-01 7.16973E-04
 -1      4920 3.08270E-02 1.13255E-01 7.00838E-04
 -1      4921 3.82848E-02 1.07268E-01 6.82999E-04
 -1      4922 4.68375E-02 1.01232E-01 6.63490E-04
 -1      4923 5.65135E-02 9.52984E-02 6.42307E-04
 -1      4924 6.73214E-02 8.96237E-02 6.19416E-04
 -1      4925 7.92503E-02 8.43644E-02 5.94772E-04
 -1      4926 9.22690E-02 7.96749E-02 5.68371E-04
 -1      4927 1.06328E-01 7.57049E-02 5.40388E-04
 -1      4928 1.21362E-01 7.25973E-02 5.11401E-04
 -1      4929 1.37288E-01 7.04872E-02 4.82706E-04
 -1      4930 1.54011E-01 6.95019E-02 4.56594E-04
 -1      4931-1.53217E-01 6.95864E-02 9.09767E-04
 -1      4932-1.35983E-01 7.06930E-02 9.64762E-04
 -1      4933-1.19607E-01 7.29953E-02 1.02397E-03
 -1      4934-1.04195E-01 7.63522E-02 1.08284E-03
 -1      4935-8.98361E-02 8.06134E-02 1.13920E-03
 -1      4936-7.66001E-02 8.56192E-02 1.19222E-03
 -1      4937-6.45389E-02 9.12026E-02 1.24170E-03
 -1      4938-5.36821E-02 9.71918E-02 1.28769E-03
 -1      4939-4.40369E-02 1.03413E-01 1.33025E-03
 -1      4940-3.55875E-02 1.09696E-01 1.36939E-03
 -1      4941-2.82959E-02 1.15871E-01 1.40505E-03
 -1      4942-2.21022E-02 1.21779E-01 1.43714E-03
 -1      4943-1.69256E-02 1.27271E-01 1.46554E-03
 -1      4944-1.26663E-02 1.32210E-01 1.49009E-03
 -1      4945-9.20737E-03 1.36475E-01 1.51066E-03
 -1      4946-6.41656E-03 1.39962E-01 1.52714E-03
 -1      4947-4.14898E-03 1.42588E-01 1.53939E-03
 -1      4948-2.24987E-03 1.44290E-01 1.54734E-03
 -1      4949-5.57305E-04 1.45027E-01 1.55098E-03
 -1      4950 1.05177E-03 1.44801E-01 1.55027E-03
 -1      4951 2.77610E-03 1.43645E-01 1.54534E-03
 -1      4952 4.76758E-03 1.41587E-01 1.53621E-03
 -1      4953 7.17342E-03 1.38673E-01 1.52296E-03
 -1      4954 1.01334E-02 1.34970E-01 1.50566E-03
 -1      4955 1.37773E-02 1.30562E-01 1.48442E-03
 -1      4956 1.82230E-02 1.25552E-01 1.45938E-03
 -1      4957 2.35736E-02 1.20057E-01 1.43067E-03
 -1      4958 2.99162E-02 1.14208E-01 1.39842E-03
 -1      4959 3.73202E-02 1.08146E-01 1.36277E-03
 -1      4960 4.58357E-02 1.02022E-01 1.32379E-03
 -1      4961 5.54933E-02 9.59915E-02 1.28153E-03
 -1      4962 6.63029E-02 9.02153E-02 1.23598E-03
 -1      4963 7.82540E-02 8.48536E-02 1.18708E-03
 -1      4964 9.13156E-02 8.00650E-02 1.13481E-03
 -1      4965 1.05438E-01 7.60035E-02 1.07939E-03
 -1      4966 1.20552E-01 7.28162E-02 1.02169E-03
 -1      4967 1.36576E-01 7.06414E-02 9.63848E-04
 -1      4968 1.53411E-01 6.96095E-02 9.10228E-04
 -1      4969-1.52493E-01 6.97111E-02 1.35440E-03
 -1      4970-1.35334E-01 7.08519E-02 1.43737E-03
 -1      4971-1.19027E-01 7.31860E-02 1.52428E-03
 -1      4972-1.03677E-01 7.65735E-02 1.60975E-03
 -1      4973-8.93726E-02 8.08649E-02 1.69152E-03
 -1      4974-7.61841E-02 8.59017E-02 1.76879E-03
 -1      4975-6.41635E-02 9.15179E-02 1.84138E-03
 -1      4976-5.33410E-02 9.75434E-02 1.90925E-03
 -1      4977-4.37251E-02 1.03806E-01 1.97236E-03
 -1      4978-3.53015E-02 1.10137E-01 2.03062E-03
 -1      4979-2.80341E-02 1.16368E-01 2.08387E-03
 -1      4980-2.18649E-02 1.22341E-01 2.13191E-03
 -1      4981-1.67158E-02 1.27908E-01 2.17453E-03
 -1      4982-1.24896E-02 1.32932E-01 2.21150E-03
 -1      4983-9.07175E-03 1.37291E-01 2.24260E-03
 -1      4984-6.33291E-03 1.40883E-01 2.26767E-03
 -1      4985-4.13080E-03 1.43621E-01 2.28653E-03
 -1      4986-2.31324E-03 1.45441E-01 2.29906E-03
 -1      4987-7.20708E-04 1.46301E-01 2.30517E-03
 -1      4988 7.90756E-04 1.46189E-01 2.30487E-03
 -1      4989 2.40098E-03 1.45122E-01 2.29817E-03
 -1      4990 4.26667E-03 1.43126E-01 2.28509E-03
 -1      4991 6.53995E-03 1.40245E-01 2.26573E-03
 -1      4992 9.36552E-03 1.36547E-01 2.24021E-03
 -1      4993 1.28781E-02 1.32117E-01 2.20872E-03
 -1      4994 1.71998E-02 1.27059E-01 2.17146E-03
 -1      4995 2.24384E-02 1.21491E-01 2.12865E-03
 -1      4996 2.86844E-02 1.15548E-01 2.08051E-03
 -1      4997 3.60106E-02 1.09374E-01 2.02726E-03
 -1      4998 4.44698E-02 1.03123E-01 1.96910E-03
 -1      4999 5.40947E-02 9.69566E-02 1.90619E-03
 -1      5000 6.48964E-02 9.10380E-02 1.83862E-03
 -1      5001 7.68649E-02 8.55330E-02 1.76643E-03
 -1      5002 8.99694E-02 8.06054E-02 1.68965E-03
 -1      5003 1.04159E-01 7.64143E-02 1.60849E-03
 -1      5004 1.19364E-01 7.31121E-02 1.52374E-03
 -1      5005 1.35498E-01 7.08423E-02 1.43766E-03
 -1      5006 1.52461E-01 6.97392E-02 1.35551E-03
 -1      5007-1.89415E-01 8.90108E-03-1.01436E-03
 -1      5008-1.89167E-01 2.95696E-02-2.84048E-04
 -1      5009-1.89100E-01 5.01701E-02 4.60190E-04
 -1      5010-1.89247E-01 7.08020E-02 1.21547E-03
 -1      5011-2.08722E-01 7.99836E-03-9.76151E-04
 -1      5012-2.08511E-01 2.92388E-02-2.78576E-04
 -1      5013-2.08481E-01 5.04296E-02 4.25596E-04
 -1      5014-2.08648E-01 7.16775E-02 1.13388E-03
 -1      5015-2.28583E-01 7.14919E-03-9.36138E-04
 -1      5016-2.28395E-01 2.89453E-02-2.75528E-04
 -1      5017-2.28384E-01 5.06958E-02 3.87685E-04
 -1      5018-2.28555E-01 7.25085E-02 1.05188E-03
 -1      5019-2.49896E-01 6.31785E-03-8.89900E-04
 -1      5020-2.49726E-01 2.86660E-02-2.70243E-04
 -1      5021-2.49723E-01 5.09664E-02 3.50218E-04
 -1      5022-2.49888E-01 7.33276E-02 9.70402E-04
 -1      5023-2.71724E-01 5.54443E-03-8.37680E-04
 -1      5024-2.71567E-01 2.84087E-02-2.60646E-04
 -1      5025-2.71567E-01 5.12225E-02 3.16546E-04
 -1      5026-2.71723E-01 7.40945E-02 8.93046E-04
 -1      5027-2.94027E-01 4.82792E-03-7.79989E-04
 -1      5028-2.93882E-01 2.81708E-02-2.46738E-04
 -1      5029-2.93883E-01 5.14613E-02 2.86517E-04
 -1      5030-2.94027E-01 7.48082E-02 8.19006E-04
 -1      5031-3.16767E-01 4.16742E-03-7.17706E-04
 -1      5032-3.16635E-01 2.79516E-02-2.29188E-04
 -1      5033-3.16635E-01 5.16822E-02 2.59320E-04
 -1      5034-3.16768E-01 7.54681E-02 7.47133E-04
 -1      5035-3.39910E-01 3.56216E-03-6.51434E-04
 -1      5036-3.39789E-01 2.77506E-02-2.08719E-04
 -1      5037-3.39789E-01 5.18848E-02 2.33982E-04
 -1      5038-3.39911E-01 7.60741E-02 6.76123E-04
 -1      5039-3.63421E-01 3.01139E-03-5.81359E-04
 -1      5040-3.63311E-01 2.75676E-02-1.85864E-04
 -1      5041-3.63311E-01 5.20694E-02 2.09559E-04
 -1      5042-3.63422E-01 7.66260E-02 6.04607E-04
 -1      5043-3.87264E-01 2.51425E-03-5.07273E-04
 -1      5044-3.87165E-01 2.74024E-02-1.60934E-04
 -1      5045-3.87165E-01 5.22359E-02 1.85210E-04
 -1      5046-3.87265E-01 7.71244E-02 5.31184E-04
 -1      5047-4.11405E-01 2.06946E-03-4.28807E-04
 -1      5048-4.11316E-01 2.72545E-02-1.34111E-04
 -1      5049-4.11317E-01 5.23850E-02 1.60266E-04
 -1      5050-4.11406E-01 7.75703E-02 4.54585E-04
 -1      5051-4.35810E-01 1.67512E-03-3.46065E-04
 -1      5052-4.35732E-01 2.71237E-02-1.05702E-04
 -1      5053-4.35734E-01 5.25174E-02 1.34443E-04
 -1      5054-4.35813E-01 7.79653E-02 3.74258E-04
 -1      5055-4.60449E-01 1.32828E-03-2.60925E-04
 -1      5056-4.60381E-01 2.70096E-02-7.66574E-05
 -1      5057-4.60384E-01 5.26347E-02 1.08340E-04
 -1      5058-4.60455E-01 7.83123E-02 2.91658E-04
 -1      5059-4.84203E-01 1.03777E-03-1.82094E-04
 -1      5060-4.84144E-01 2.69152E-02-5.00736E-05
 -1      5061-4.84149E-01 5.27355E-02 8.49975E-05
 -1      5062-4.84214E-01 7.86019E-02 2.15204E-04
 -1      5063-5.08131E-01 7.81116E-04-1.16615E-04
 -1      5064-5.08075E-01 2.68333E-02-2.77544E-05
 -1      5065-5.08081E-01 5.28298E-02 6.68952E-05
 -1      5066-5.08144E-01 7.88553E-02 1.52245E-04
 -1      5067-1.89619E-01 8.87527E-03-6.61927E-04
 -1      5068-1.89377E-01 2.95286E-02-1.75846E-04
 -1      5069-1.89315E-01 5.01182E-02 3.20005E-04
 -1      5070-1.89470E-01 7.07252E-02 8.22396E-04
 -1      5071-2.08322E-01 8.01525E-03-6.37731E-04
 -1      5072-2.08112E-01 2.92251E-02-1.73531E-04
 -1      5073-2.08085E-01 5.03911E-02 2.96358E-04
 -1      5074-2.08256E-01 7.16018E-02 7.69490E-04
 -1      5075-2.27544E-01 7.20003E-03-6.13809E-04
 -1      5076-2.27356E-01 2.89508E-02-1.73536E-04
 -1      5077-2.27346E-01 5.06640E-02 2.69721E-04
 -1      5078-2.27519E-01 7.24280E-02 7.14369E-04
 -1      5079-2.49125E-01 6.35934E-03-5.85315E-04
 -1      5080-2.48953E-01 2.86733E-02-1.72332E-04
 -1      5081-2.48951E-01 5.09488E-02 2.41955E-04
 -1      5082-2.49118E-01 7.32745E-02 6.56588E-04
 -1      5083-2.71237E-01 5.57456E-03-5.52214E-04
 -1      5084-2.71080E-01 2.84147E-02-1.67810E-04
 -1      5085-2.71079E-01 5.12146E-02 2.17084E-04
 -1      5086-2.71236E-01 7.40619E-02 6.01798E-04
 -1      5087-2.93841E-01 4.84610E-03-5.14493E-04
 -1      5088-2.93695E-01 2.81740E-02-1.59699E-04
 -1      5089-2.93695E-01 5.14599E-02 1.95247E-04
 -1      5090-2.93840E-01 7.47915E-02 5.49808E-04
 -1      5091-3.16897E-01 4.17430E-03-4.72715E-04
 -1      5092-3.16763E-01 2.79512E-02-1.48424E-04
 -1      5093-3.16763E-01 5.16852E-02 1.75873E-04
 -1      5094-3.16896E-01 7.54637E-02 4.99768E-04
 -1      5095-3.40368E-01 3.55936E-03-4.27335E-04
 -1      5096-3.40246E-01 2.77467E-02-1.34550E-04
 -1      5097-3.40246E-01 5.18908E-02 1.58148E-04
 -1      5098-3.40368E-01 7.60789E-02 4.50533E-04
 -1      5099-3.64217E-01 3.00147E-03-3.78451E-04
 -1      5100-3.64107E-01 2.75610E-02-1.18506E-04
 -1      5101-3.64107E-01 5.20771E-02 1.41233E-04
 -1      5102-3.64217E-01 7.66371E-02 4.00820E-04
 -1      5103-3.88408E-01 2.50080E-03-3.25730E-04
 -1      5104-3.88309E-01 2.73942E-02-1.00515E-04
 -1      5105-3.88309E-01 5.22442E-02 1.24337E-04
 -1      5106-3.88408E-01 7.71381E-02 3.49231E-04
 -1      5107-4.12903E-01 2.05743E-03-2.68485E-04
 -1      5108-4.12815E-01 2.72467E-02-8.06269E-05
 -1      5109-4.12816E-01 5.23923E-02 1.06776E-04
 -1      5110-4.12903E-01 7.75818E-02 2.94318E-04
 -1      5111-4.37664E-01 1.67112E-03-2.06072E-04
 -1      5112-4.37588E-01 2.71183E-02-5.89246E-05
 -1      5113-4.37589E-01 5.25217E-02 8.80929E-05
 -1      5114-4.37667E-01 7.79683E-02 2.34948E-04
 -1      5115-4.62657E-01 1.34019E-03-1.39077E-04
 -1      5116-4.62592E-01 2.70093E-02-3.60637E-05
 -1      5117-4.62595E-01 5.26334E-02 6.84712E-05
 -1      5118-4.62662E-01 7.82992E-02 1.71445E-04
 -1      5119-4.85674E-01 1.08297E-03-7.65336E-05
 -1      5120-4.85619E-01 2.69259E-02-1.55960E-05
 -1      5121-4.85623E-01 5.27222E-02 5.06836E-05
 -1      5122-4.85683E-01 7.85556E-02 1.12368E-04
 -1      5123-5.08842E-01 8.59279E-04-2.59469E-05
 -1      5124-5.08790E-01 2.68557E-02 3.82722E-07
 -1      5125-5.08796E-01 5.28036E-02 3.64875E-05
 -1      5126-5.08853E-01 7.87768E-02 6.49722E-05
 -1      5127-1.89522E-01 8.86793E-03-3.25665E-04
 -1      5128-1.89282E-01 2.94974E-02-8.27546E-05
 -1      5129-1.89222E-01 5.00626E-02 1.64600E-04
 -1      5130-1.89380E-01 7.06375E-02 4.14901E-04
 -1      5131-2.07634E-01 8.04498E-03-3.13213E-04
 -1      5132-2.07425E-01 2.92151E-02-8.13613E-05
 -1      5133-2.07399E-01 5.03420E-02 1.53165E-04
 -1      5134-2.07573E-01 7.15067E-02 3.89606E-04
 -1      5135-2.26236E-01 7.26180E-03-3.01551E-04
 -1      5136-2.26048E-01 2.89578E-02-8.15564E-05
 -1      5137-2.26039E-01 5.06186E-02 1.39877E-04
 -1      5138-2.26213E-01 7.23243E-02 3.62535E-04
 -1      5139-2.48100E-01 6.41249E-03-2.87626E-04
 -1      5140-2.47928E-01 2.86828E-02-8.14268E-05
 -1      5141-2.47926E-01 5.09181E-02 1.25262E-04
 -1      5142-2.48094E-01 7.31987E-02 3.32707E-04
 -1      5143-2.70513E-01 5.61769E-03-2.71156E-04
 -1      5144-2.70355E-01 2.84242E-02-7.94706E-05
 -1      5145-2.70355E-01 5.11947E-02 1.12201E-04
 -1      5146-2.70511E-01 7.40077E-02 3.04270E-04
 -1      5147-2.93434E-01 4.87869E-03-2.51980E-04
 -1      5148-2.93288E-01 2.81818E-02-7.54188E-05
 -1      5149-2.93288E-01 5.14476E-02 1.00900E-04
 -1      5150-2.93433E-01 7.47541E-02 2.77438E-04
 -1      5151-3.16822E-01 4.19683E-03-2.30346E-04
 -1      5152-3.16688E-01 2.79565E-02-6.94513E-05
 -1      5153-3.16688E-01 5.16781E-02 9.11018E-05
 -1      5154-3.16821E-01 7.54394E-02 2.51815E-04
 -1      5155-3.40639E-01 3.57331E-03-2.06483E-04
 -1      5156-3.40517E-01 2.77495E-02-6.18698E-05
 -1      5157-3.40517E-01 5.18872E-02 8.23421E-05
 -1      5158-3.40638E-01 7.60642E-02 2.26733E-04
 -1      5159-3.64846E-01 3.00932E-03-1.80414E-04
 -1      5160-3.64736E-01 2.75617E-02-5.29148E-05
 -1      5161-3.64736E-01 5.20755E-02 7.41129E-05
 -1      5162-3.64846E-01 7.66284E-02 2.01392E-04
 -1      5163-3.89403E-01 2.50622E-03-1.51852E-04
 -1      5164-3.89305E-01 2.73941E-02-4.26882E-05
 -1      5165-3.89305E-01 5.22432E-02 6.59157E-05
 -1      5166-3.89403E-01 7.71315E-02 1.74868E-04
 -1      5167-4.14271E-01 2.06587E-03-1.20151E-04
 -1      5168-4.14185E-01 2.72474E-02-3.11528E-05
 -1      5169-4.14185E-01 5.23900E-02 5.72769E-05
 -1      5170-4.14272E-01 7.75719E-02 1.46080E-04
 -1      5171-4.39408E-01 1.69083E-03-8.43706E-05
 -1      5172-4.39334E-01 2.71227E-02-1.81973E-05
 -1      5173-4.39335E-01 5.25156E-02 4.77520E-05
 -1      5174-4.39410E-01 7.79471E-02 1.13836E-04
 -1      5175-4.64770E-01 1.38360E-03-4.37565E-05
 -1      5176-4.64709E-01 2.70214E-02-4.01246E-06
 -1      5177-4.64711E-01 5.26192E-02 3.71125E-05
 -1      5178-4.64774E-01 7.82548E-02 7.72812E-05
 -1      5179-4.87057E-01 1.17361E-03-3.55413E-06
 -1      5180-4.87009E-01 2.69529E-02 9.05092E-06
 -1      5181-4.87012E-01 5.26916E-02 2.65133E-05
 -1      5182-4.87064E-01 7.84653E-02 4.09600E-05
 -1      5183-5.09442E-01 1.01377E-03 3.31495E-05
 -1      5184-5.09404E-01 2.69026E-02 1.98473E-05
 -1      5185-5.09409E-01 5.27495E-02 1.59388E-05
 -1      5186-5.09452E-01 7.86255E-02 7.80541E-06
 -1      5187-5.74048E-01 6.94597E-02 1.05778E-04
 -1      5188-5.74095E-01 4.97163E-02 7.23875E-05
 -1      5189-5.74175E-01 2.99944E-02 3.21723E-05
 -1      5190-5.74243E-01 1.02216E-02-1.52663E-05
 -1      5191-5.71468E-01 7.00369E-02 6.86455E-05
 -1      5192-5.71510E-01 4.99065E-02 4.42101E-05
 -1      5193-5.71583E-01 2.97996E-02 1.04353E-05
 -1      5194-5.71645E-01 9.63890E-03-1.93120E-05
 -1      5195-5.68832E-01 7.05727E-02 3.17755E-05
 -1      5196-5.68866E-01 5.00835E-02 1.91397E-05
 -1      5197-5.68931E-01 2.96214E-02-4.09433E-06
 -1      5198-5.68981E-01 9.10598E-03-9.84860E-06
 -1      5199-5.51162E-01 7.47495E-02 1.10347E-04
 -1      5200-5.51158E-01 5.14836E-02 6.12394E-05
 -1      5201-5.51174E-01 2.82290E-02 1.93181E-06
 -1      5202-5.51189E-01 4.88112E-03-6.24038E-05
 -1      5203-5.47949E-01 7.54273E-02 5.29140E-05
 -1      5204-5.47939E-01 5.17046E-02 3.45029E-05
 -1      5205-5.47951E-01 2.79993E-02 5.19864E-06
 -1      5206-5.47965E-01 4.20058E-03-1.14249E-05
 -1      5207-5.44634E-01 7.60209E-02 2.38463E-05
 -1      5208-5.44617E-01 5.18974E-02 2.07531E-05
 -1      5209-5.44623E-01 2.77978E-02 7.23749E-06
 -1      5210-5.44630E-01 3.61469E-03 1.59720E-05
 -1      5211 5.09318E-01 1.02590E-03 9.40041E-06
 -1      5212 5.09280E-01 2.69191E-02-9.93815E-07
 -1      5213 5.09284E-01 5.27717E-02-2.63808E-06
 -1      5214 5.09326E-01 7.86538E-02-8.07804E-06
 -1      5215 4.86928E-01 1.18369E-03-2.54635E-05
 -1      5216 4.86880E-01 2.69696E-02-1.01039E-05
 -1      5217 4.86882E-01 5.27151E-02 9.90512E-06
 -1      5218 4.86934E-01 7.84959E-02 2.70778E-05
 -1      5219 4.64634E-01 1.39249E-03-6.39046E-05
 -1      5220 4.64573E-01 2.70379E-02-2.14470E-05
 -1      5221 4.64575E-01 5.26434E-02 2.23164E-05
 -1      5222 4.64638E-01 7.82868E-02 6.52639E-05
 -1      5223 4.39265E-01 1.69904E-03-1.02571E-04
 -1      5224 4.39191E-01 2.71392E-02-3.37111E-05
 -1      5225 4.39191E-01 5.25403E-02 3.49015E-05
 -1      5226 4.39266E-01 7.79801E-02 1.03763E-04
 -1      5227 4.14119E-01 2.07382E-03-1.36439E-04
 -1      5228 4.14033E-01 2.72640E-02-4.48244E-05
 -1      5229 4.14033E-01 5.24152E-02 4.62234E-05
 -1      5230 4.14120E-01 7.76055E-02 1.37729E-04
 -1      5231 3.89243E-01 2.51411E-03-1.66266E-04
 -1      5232 3.89145E-01 2.74107E-02-5.46064E-05
 -1      5233 3.89145E-01 5.22686E-02 5.65110E-05
 -1      5234 3.89243E-01 7.71656E-02 1.68039E-04
 -1      5235 3.64677E-01 3.01726E-03-1.93016E-04
 -1      5236 3.64567E-01 2.75785E-02-6.31771E-05
 -1      5237 3.64567E-01 5.21011E-02 6.62169E-05
 -1      5238 3.64677E-01 7.66628E-02 1.95911E-04
 -1      5239 3.40462E-01 3.58136E-03-2.17356E-04
 -1      5240 3.40340E-01 2.77664E-02-7.05815E-05
 -1      5241 3.40340E-01 5.19130E-02 7.58235E-05
 -1      5242 3.40461E-01 7.60988E-02 2.22448E-04
 -1      5243 3.16636E-01 4.20501E-03-2.39592E-04
 -1      5244 3.16502E-01 2.79736E-02-7.67242E-05
 -1      5245 3.16502E-01 5.17040E-02 8.58367E-05
 -1      5246 3.16635E-01 7.54742E-02 2.48596E-04
 -1      5247 2.93239E-01 4.88703E-03-2.59716E-04
 -1      5248 2.93093E-01 2.81990E-02-8.13683E-05
 -1      5249 2.93093E-01 5.14737E-02 9.67708E-05
 -1      5250 2.93238E-01 7.47891E-02 2.75167E-04
 -1      5251 2.70310E-01 5.62618E-03-2.77506E-04
 -1      5252 2.70152E-01 2.84415E-02-8.42129E-05
 -1      5253 2.70151E-01 5.12209E-02 1.09095E-04
 -1      5254 2.70308E-01 7.40429E-02 3.02841E-04
 -1      5255 2.47888E-01 6.42112E-03-2.92713E-04
 -1      5256 2.47716E-01 2.87003E-02-8.50744E-05
 -1      5257 2.47714E-01 5.09445E-02 1.23072E-04
 -1      5258 2.47882E-01 7.32339E-02 3.32020E-04
 -1      5259 2.26016E-01 7.27054E-03-3.05483E-04
 -1      5260 2.25828E-01 2.89753E-02-8.42090E-05
 -1      5261 2.25819E-01 5.06451E-02 1.38496E-04
 -1      5262 2.25993E-01 7.23597E-02 3.62485E-04
 -1      5263 2.07407E-01 8.05381E-03-3.16185E-04
 -1      5264 2.07198E-01 2.92327E-02-8.32065E-05
 -1      5265 2.07172E-01 5.03684E-02 1.52405E-04
 -1      5266 2.07345E-01 7.15421E-02 3.90005E-04
 -1      5267 1.89288E-01 8.87689E-03-3.27614E-04
 -1      5268 1.89047E-01 2.95152E-02-8.38064E-05
 -1      5269 1.88988E-01 5.00890E-02 1.64386E-04
 -1      5270 1.89146E-01 7.06728E-02 4.15593E-04
 -1      5271 5.08715E-01 8.64856E-04-4.75906E-05
 -1      5272 5.08662E-01 2.68679E-02-2.00963E-05
 -1      5273 5.08667E-01 5.28248E-02 1.74640E-05
 -1      5274 5.08724E-01 7.88068E-02 4.74455E-05
 -1      5275 4.85541E-01 1.08859E-03-9.67655E-05
 -1      5276 4.85485E-01 2.69392E-02-3.42307E-05
 -1      5277 4.85489E-01 5.27439E-02 3.36862E-05
 -1      5278 4.85549E-01 7.85857E-02 9.71290E-05
 -1      5279 4.62517E-01 1.34572E-03-1.58067E-04
 -1      5280 4.62452E-01 2.70231E-02-5.30678E-05
 -1      5281 4.62454E-01 5.26556E-02 5.34600E-05
 -1      5282 4.62522E-01 7.83298E-02 1.58536E-04
 -1      5283 4.37517E-01 1.67671E-03-2.23591E-04
 -1      5284 4.37441E-01 2.71324E-02-7.41887E-05
 -1      5285 4.37441E-01 5.25444E-02 7.50786E-05
 -1      5286 4.37519E-01 7.79994E-02 2.24284E-04
 -1      5287 4.12747E-01 2.06319E-03-2.84406E-04
 -1      5288 4.12659E-01 2.72610E-02-9.41836E-05
 -1      5289 4.12660E-01 5.24153E-02 9.55878E-05
 -1      5290 4.12748E-01 7.76133E-02 2.85576E-04
 -1      5291 3.88244E-01 2.50680E-03-3.39978E-04
 -1      5292 3.88145E-01 2.74089E-02-1.12409E-04
 -1      5293 3.88145E-01 5.22675E-02 1.14811E-04
 -1      5294 3.88244E-01 7.71700E-02 3.42132E-04
 -1      5295 3.64045E-01 3.00773E-03-3.91016E-04
 -1      5296 3.63935E-01 2.75759E-02-1.28807E-04
 -1      5297 3.63935E-01 5.21007E-02 1.33221E-04
 -1      5298 3.64045E-01 7.66693E-02 3.95144E-04
 -1      5299 3.40188E-01 3.56589E-03-4.38260E-04
 -1      5300 3.40066E-01 2.77619E-02-1.43343E-04
 -1      5301 3.40066E-01 5.19147E-02 1.51516E-04
 -1      5302 3.40187E-01 7.61115E-02 4.46103E-04
 -1      5303 3.16708E-01 4.18110E-03-4.82079E-04
 -1      5304 3.16575E-01 2.79667E-02-1.55810E-04
 -1      5305 3.16575E-01 5.17094E-02 1.70498E-04
 -1      5306 3.16708E-01 7.54967E-02 4.96443E-04
 -1      5307 2.93644E-01 4.85318E-03-5.22401E-04
 -1      5308 2.93499E-01 2.81898E-02-1.65783E-04
 -1      5309 2.93499E-01 5.14845E-02 1.91016E-04
 -1      5310 2.93643E-01 7.48247E-02 5.47472E-04
 -1      5311 2.71033E-01 5.58190E-03-5.58783E-04
 -1      5312 2.70875E-01 2.84308E-02-1.72702E-04
 -1      5313 2.70875E-01 5.12394E-02 2.13892E-04
 -1      5314 2.71031E-01 7.40955E-02 6.00351E-04
 -1      5315 2.48912E-01 6.36694E-03-5.90665E-04
 -1      5316 2.48740E-01 2.86896E-02-1.76135E-04
 -1      5317 2.48738E-01 5.09739E-02 2.39704E-04
 -1      5318 2.48905E-01 7.33084E-02 6.55945E-04
 -1      5319 2.27322E-01 7.20790E-03-6.18053E-04
 -1      5320 2.27134E-01 2.89673E-02-1.76348E-04
 -1      5321 2.27125E-01 5.06893E-02 2.68317E-04
 -1      5322 2.27297E-01 7.24622E-02 7.14443E-04
 -1      5323 2.08093E-01 8.02336E-03-6.41036E-04
 -1      5324 2.07883E-01 2.92419E-02-1.75507E-04
 -1      5325 2.07856E-01 5.04167E-02 2.95645E-04
 -1      5326 2.08027E-01 7.16363E-02 7.70127E-04
 -1      5327 1.89383E-01 8.88371E-03-6.64360E-04
 -1      5328 1.89140E-01 2.95458E-02-1.77075E-04
 -1      5329 1.89079E-01 5.01440E-02 3.19891E-04
 -1      5330 1.89233E-01 7.07599E-02 8.23484E-04
 -1      5331 5.08005E-01 7.80336E-04-1.37502E-04
 -1      5332 5.07946E-01 2.68420E-02-4.81157E-05
 -1      5333 5.07952E-01 5.28498E-02 4.78294E-05
 -1      5334 5.08016E-01 7.88862E-02 1.34408E-04
 -1      5335 4.84068E-01 1.03872E-03-2.01747E-04
 -1      5336 4.84008E-01 2.69254E-02-6.85536E-05
 -1      5337 4.84012E-01 5.27555E-02 6.79728E-05
 -1      5338 4.84077E-01 7.86316E-02 1.99677E-04
 -1      5339 4.60305E-01 1.33033E-03-2.79491E-04
 -1      5340 4.60237E-01 2.70207E-02-9.34963E-05
 -1      5341 4.60240E-01 5.26549E-02 9.33027E-05
 -1      5342 4.60311E-01 7.83416E-02 2.78503E-04
 -1      5343 4.35659E-01 1.67800E-03-3.63351E-04
 -1      5344 4.35581E-01 2.71354E-02-1.20895E-04
 -1      5345 4.35582E-01 5.25380E-02 1.21358E-04
 -1      5346 4.35661E-01 7.79946E-02 3.63359E-04
 -1      5347 4.11246E-01 2.07296E-03-4.44630E-04
 -1      5348 4.11157E-01 2.72667E-02-1.47672E-04
 -1      5349 4.11158E-01 5.24059E-02 1.48976E-04
 -1      5350 4.11247E-01 7.75998E-02 4.45628E-04
 -1      5351 3.87097E-01 2.51826E-03-5.21519E-04
 -1      5352 3.86998E-01 2.74150E-02-1.72891E-04
 -1      5353 3.86998E-01 5.22572E-02 1.75559E-04
 -1      5354 3.87097E-01 7.71543E-02 5.23888E-04
 -1      5355 3.63246E-01 3.01586E-03-5.93991E-04
 -1      5356 3.63136E-01 2.75807E-02-1.96270E-04
 -1      5357 3.63136E-01 5.20911E-02 2.01404E-04
 -1      5358 3.63246E-01 7.66563E-02 5.98745E-04
 -1      5359 3.39728E-01 3.56704E-03-6.62479E-04
 -1      5360 3.39606E-01 2.77641E-02-2.17650E-04
 -1      5361 3.39606E-01 5.19070E-02 2.27193E-04
 -1      5362 3.39728E-01 7.61048E-02 6.71516E-04
 -1      5363 3.16577E-01 4.17271E-03-7.27234E-04
 -1      5364 3.16444E-01 2.79655E-02-2.36738E-04
 -1      5365 3.16444E-01 5.17048E-02 2.53779E-04
 -1      5366 3.16577E-01 7.54993E-02 7.43639E-04
 -1      5367 2.93828E-01 4.83361E-03-7.88096E-04
 -1      5368 2.93684E-01 2.81851E-02-2.53007E-04
 -1      5369 2.93684E-01 5.14844E-02 2.82114E-04
 -1      5370 2.93828E-01 7.48398E-02 8.16511E-04
 -1      5371 2.71517E-01 5.55051E-03-8.44480E-04
 -1      5372 2.71361E-01 2.84234E-02-2.65739E-04
 -1      5373 2.71361E-01 5.12459E-02 3.13183E-04
 -1      5374 2.71516E-01 7.41266E-02 8.91457E-04
 -1      5375 2.49682E-01 6.32433E-03-8.95514E-04
 -1      5376 2.49511E-01 2.86812E-02-2.74261E-04
 -1      5377 2.49508E-01 5.09903E-02 3.47802E-04
 -1      5378 2.49673E-01 7.33602E-02 9.69642E-04
 -1      5379 2.28360E-01 7.15607E-03-9.40687E-04
 -1      5380 2.28172E-01 2.89609E-02-2.78569E-04
 -1      5381 2.28161E-01 5.07201E-02 3.86128E-04
 -1      5382 2.28331E-01 7.25416E-02 1.05187E-03
 -1      5383 2.08492E-01 8.00568E-03-9.79792E-04
 -1      5384 2.08280E-01 2.92548E-02-2.80773E-04
 -1      5385 2.08250E-01 5.04543E-02 4.24777E-04
 -1      5386 2.08417E-01 7.17111E-02 1.13452E-03
 -1      5387 1.89176E-01 8.90893E-03-1.01719E-03
 -1      5388 1.88928E-01 2.95861E-02-2.85507E-04
 -1      5389 1.88860E-01 5.01952E-02 4.60014E-04
 -1      5390 1.89007E-01 7.08360E-02 1.21668E-03
 -1      5391 5.75962E-01 6.89585E-02 1.24115E-05
 -1      5392 5.76011E-01 4.95521E-02-5.55182E-06
 -1      5393 5.76099E-01 3.01767E-02-3.62833E-05
 -1      5394 5.76182E-01 1.07565E-02-5.08894E-05
 -1      5395 5.78051E-01 6.85271E-02 4.56282E-05
 -1      5396 5.78106E-01 4.94077E-02 2.09998E-05
 -1      5397 5.78204E-01 3.03173E-02-1.28772E-05
 -1      5398 5.78301E-01 1.11854E-02-4.40949E-05
 -1      5399 5.80095E-01 6.80644E-02 7.77937E-05
 -1      5400 5.80155E-01 4.92531E-02 4.94293E-05
 -1      5401 5.80258E-01 3.04702E-02 1.68588E-05
 -1      5402 5.80366E-01 1.16488E-02-2.21259E-05
 -1      5403 5.55514E-01 7.36054E-02 3.62598E-06
 -1      5404 5.55517E-01 5.11090E-02-3.70398E-06
 -1      5405 5.55537E-01 2.86329E-02-2.12675E-05
 -1      5406 5.55542E-01 6.06774E-03-1.39772E-05
 -1      5407 5.58861E-01 7.29523E-02 4.14435E-05
 -1      5408 5.58874E-01 5.08931E-02 1.57519E-05
 -1      5409 5.58905E-01 2.88502E-02-1.98106E-05
 -1      5410 5.58917E-01 6.71047E-03-4.46584E-05
 -1      5411 5.62125E-01 7.22350E-02 8.84074E-05
 -1      5412 5.62147E-01 5.06564E-02 4.19335E-05
 -1      5413 5.62185E-01 2.90925E-02-1.31415E-05
 -1      5414 5.62198E-01 7.43158E-03-7.50714E-05
 -1      5415 5.40074E-01 7.70276E-02 2.39557E-06
 -1      5416 5.40045E-01 5.22425E-02-9.29459E-07
 -1      5417 5.40042E-01 2.74744E-02-1.44682E-05
 -1      5418 5.40073E-01 2.64399E-03-7.80874E-06
 -1      5419 5.43039E-01 7.65471E-02 2.67940E-05
 -1      5420 5.43014E-01 5.20874E-02 1.05005E-05
 -1      5421 5.43016E-01 2.76376E-02-1.84276E-05
 -1      5422 5.43051E-01 3.11274E-03-2.98646E-05
 -1      5423 5.45887E-01 7.59707E-02 9.08865E-05
 -1      5424 5.45869E-01 5.18982E-02 3.79177E-05
 -1      5425 5.45874E-01 2.78303E-02-2.74477E-05
 -1      5426 5.45909E-01 3.68403E-03-9.21898E-05
 -1      5427-5.46539E-01 3.79599E-03 1.39420E-04
 -1      5428-5.44291E-01 3.31321E-03 8.82463E-05
 -1      5429-5.41963E-01 2.90022E-03 4.76464E-05
 -1      5430-5.39565E-01 2.54482E-03 4.08845E-05
 -1      5431-5.62911E-01 7.56632E-03 1.14286E-04
 -1      5432-5.60311E-01 6.97356E-03 9.20149E-05
 -1      5433-5.57659E-01 6.42526E-03 6.63451E-05
 -1      5434-5.54942E-01 5.93277E-03 4.51565E-05
 -1      5435-5.80826E-01 1.17223E-02 5.29581E-05
 -1      5436-5.79188E-01 1.13449E-02 7.00429E-05
 -1      5437-5.77522E-01 1.09848E-02 8.36172E-05
 -1      5438-5.75813E-01 1.06545E-02 8.26792E-05
 -1      5439-5.46506E-01 2.78447E-02 5.82108E-05
 -1      5440-5.44255E-01 2.76820E-02 5.02562E-05
 -1      5441-5.41929E-01 2.75439E-02 4.36824E-05
 -1      5442-5.39534E-01 2.74199E-02 4.09314E-05
 -1      5443-5.62898E-01 2.91129E-02 4.19810E-05
 -1      5444-5.60297E-01 2.89134E-02 4.76319E-05
 -1      5445-5.57648E-01 2.87308E-02 5.03223E-05
 -1      5446-5.54936E-01 2.85644E-02 4.97882E-05
 -1      5447-5.80722E-01 3.04699E-02 8.83077E-06
 -1      5448-5.79091E-01 3.03449E-02 3.29021E-05
 -1      5449-5.77434E-01 3.02284E-02 5.46463E-05
 -1      5450-5.75739E-01 3.01202E-02 7.03264E-05
 -1      5451-5.46501E-01 5.18163E-02-2.04676E-05
 -1      5452-5.44252E-01 5.19770E-02 1.88796E-06
 -1      5453-5.41929E-01 5.21182E-02 1.83507E-05
 -1      5454-5.39538E-01 5.22383E-02 2.24862E-05
 -1      5455-5.62861E-01 5.05662E-02-2.13583E-05
 -1      5456-5.60264E-01 5.07608E-02-6.73733E-07
 -1      5457-5.57622E-01 5.09457E-02 1.73460E-05
 -1      5458-5.54919E-01 5.11146E-02 2.90554E-05
 -1      5459-5.80621E-01 4.91804E-02-2.63148E-05
 -1      5460-5.78994E-01 4.93075E-02-3.85747E-06
 -1      5461-5.77343E-01 4.94298E-02 1.77092E-05
 -1      5462-5.75658E-01 4.95447E-02 3.74392E-05
 -1      5463-5.46518E-01 7.57939E-02-8.73982E-05
 -1      5464-5.44274E-01 7.62797E-02-3.53854E-05
 -1      5465-5.41956E-01 7.67066E-02 5.62892E-06
 -1      5466-5.39568E-01 7.70756E-02 1.30781E-05
 -1      5467-5.62838E-01 7.20354E-02-7.66652E-05
 -1      5468-5.60248E-01 7.26231E-02-4.04741E-05
 -1      5469-5.57614E-01 7.31784E-02-5.97718E-06
 -1      5470-5.54919E-01 7.36848E-02 1.78554E-05
 -1      5471-5.80561E-01 6.79194E-02-5.86630E-05
 -1      5472-5.78938E-01 6.82972E-02-3.36170E-05
 -1      5473-5.77291E-01 6.86597E-02-9.17686E-06
 -1      5474-5.75612E-01 6.89978E-02 1.65325E-05
 -1      5475-6.53617E-01 7.66750E-02 3.71586E-05
 -1      5476-6.53623E-01 5.20266E-02 4.55172E-05
 -1      5477-6.53627E-01 2.73932E-02 5.00838E-05
 -1      5478-6.53611E-01 2.79788E-03 4.58785E-05
 -1      5479-6.29433E-01 7.08744E-02 3.11811E-05
 -1      5480-6.29458E-01 5.00882E-02 4.80973E-05
 -1      5481-6.29520E-01 2.93200E-02 6.61941E-05
 -1      5482-6.29572E-01 8.55445E-03 7.07119E-05
 -1      5483-6.51074E-01 7.60679E-02 3.43144E-05
 -1      5484-6.51083E-01 5.18193E-02 4.18358E-05
 -1      5485-6.51093E-01 2.75921E-02 4.81861E-05
 -1      5486-6.51082E-01 3.41193E-03 4.80051E-05
 -1      5487-6.27386E-01 7.03895E-02 2.35540E-05
 -1      5488-6.27416E-01 4.99258E-02 3.52150E-05
 -1      5489-6.27486E-01 2.94830E-02 5.13236E-05
 -1      5490-6.27551E-01 9.04934E-03 6.16778E-05
 -1      5491-6.48530E-01 7.54599E-02 3.13073E-05
 -1      5492-6.48542E-01 5.16143E-02 3.42365E-05
 -1      5493-6.48556E-01 2.77941E-02 4.07116E-05
 -1      5494-6.48552E-01 4.02679E-03 4.76230E-05
 -1      5495-6.25346E-01 6.99024E-02 1.50553E-05
 -1      5496-6.25380E-01 4.97630E-02 1.98579E-05
 -1      5497-6.25455E-01 2.96459E-02 3.05630E-05
 -1      5498-6.25529E-01 9.53917E-03 4.27298E-05
 -1      5499-6.45991E-01 7.48472E-02 2.86271E-05
 -1      5500-6.46003E-01 5.14062E-02 2.51527E-05
 -1      5501-6.46019E-01 2.79925E-02 3.04913E-05
 -1      5502-6.46017E-01 4.63331E-03 4.54801E-05
 -1      5503-6.23309E-01 6.94087E-02 6.35983E-06
 -1      5504-6.23344E-01 4.95963E-02 3.34632E-06
 -1      5505-6.23424E-01 2.98070E-02 6.97588E-06
 -1      5506-6.23506E-01 1.00267E-02 2.07705E-05
 -1      5507 5.46460E-01 3.81317E-03 1.10653E-04
 -1      5508 5.46427E-01 2.78747E-02 3.19701E-05
 -1      5509 5.46422E-01 5.18567E-02-4.35052E-05
 -1      5510 5.46440E-01 7.58437E-02-1.06662E-04
 -1      5511 5.62841E-01 7.58617E-03 8.43495E-05
 -1      5512 5.62829E-01 2.91454E-02 1.37969E-05
 -1      5513 5.62791E-01 5.06072E-02-4.68238E-05
 -1      5514 5.62767E-01 7.20848E-02-9.90189E-05
 -1      5515 5.80771E-01 1.17478E-02 2.17715E-05
 -1      5516 5.80662E-01 3.05036E-02-2.08098E-05
 -1      5517 5.80557E-01 4.92212E-02-5.41247E-05
 -1      5518 5.80497E-01 6.79682E-02-8.47585E-05
 -1      5519 5.44208E-01 3.32865E-03 5.95886E-05
 -1      5520 5.44172E-01 2.77100E-02 2.47297E-05
 -1      5521 5.44169E-01 5.20150E-02-2.03728E-05
 -1      5522 5.44191E-01 7.63269E-02-5.38988E-05
 -1      5523 5.60237E-01 6.99194E-03 6.25752E-05
 -1      5524 5.60224E-01 2.89442E-02 2.03716E-05
 -1      5525 5.60190E-01 5.07999E-02-2.52892E-05
 -1      5526 5.60173E-01 7.26704E-02-6.19267E-05
 -1      5527 5.79131E-01 1.13693E-02 3.94841E-05
 -1      5528 5.79029E-01 3.03772E-02 3.72429E-06
 -1      5529 5.78929E-01 4.93465E-02-3.12735E-05
 -1      5530 5.78872E-01 6.83440E-02-5.89816E-05
 -1      5531 5.41875E-01 2.91424E-03 1.90932E-05
 -1      5532 5.41841E-01 2.75698E-02 1.87857E-05
 -1      5533 5.41842E-01 5.21536E-02-3.22946E-06
 -1      5534 5.41868E-01 7.67509E-02-1.22201E-05
 -1      5535 5.57581E-01 6.44214E-03 3.72334E-05
 -1      5536 5.57571E-01 2.87599E-02 2.39033E-05
 -1      5537 5.57544E-01 5.09827E-02-6.44813E-06
 -1      5538 5.57535E-01 7.32234E-02-2.66113E-05
 -1      5539 5.77461E-01 1.10081E-02 5.38138E-05
 -1      5540 5.77369E-01 3.02594E-02 2.60374E-05
 -1      5541 5.77275E-01 4.94671E-02-9.16624E-06
 -1      5542 5.77222E-01 6.87045E-02-3.36566E-05
 -1      5543 5.39471E-01 2.55827E-03 1.25610E-05
 -1      5544 5.39440E-01 2.74436E-02 1.64241E-05
 -1      5545 5.39444E-01 5.22707E-02 1.28006E-06
 -1      5546 5.39474E-01 7.71162E-02-4.33589E-06
 -1      5547 5.54859E-01 5.94838E-03 1.63815E-05
 -1      5548 5.54854E-01 2.85914E-02 2.42064E-05
 -1      5549 5.54836E-01 5.11493E-02 5.97582E-06
 -1      5550 5.54836E-01 7.37274E-02-2.23606E-06
 -1      5551 5.75749E-01 1.06770E-02 5.36052E-05
 -1      5552 5.75671E-01 3.01500E-02 4.25803E-05
 -1      5553 5.75586E-01 4.95801E-02 1.12322E-05
 -1      5554 5.75539E-01 6.90403E-02-7.08299E-06
 -1      5555 6.51763E-01 7.62925E-02 7.17537E-06
 -1      5556 6.54568E-01 7.69630E-02 5.50405E-06
 -1      5557 6.57374E-01 7.76300E-02 2.94336E-06
 -1      5558 6.35561E-01 7.24086E-02 1.48672E-05
 -1      5559 6.38788E-01 7.31819E-02 9.51773E-06
 -1      5560 6.42021E-01 7.39506E-02 4.81980E-06
 -1      5561 6.17685E-01 6.81255E-02 3.26651E-05
 -1      5562 6.19699E-01 6.86089E-02 1.96489E-05
 -1      5563 6.21719E-01 6.90847E-02 7.23265E-06
 -1      5564 6.51773E-01 5.19150E-02 8.99273E-06
 -1      5565 6.54576E-01 5.21403E-02-8.44396E-10
 -1      5566 6.57379E-01 5.23678E-02-4.58683E-06
 -1      5567 6.35583E-01 5.06152E-02 1.81145E-05
 -1      5568 6.38806E-01 5.08744E-02 3.75684E-06
 -1      5569 6.42034E-01 5.11320E-02-6.76137E-06
 -1      5570 6.17728E-01 4.91977E-02 3.50608E-05
 -1      5571 6.19739E-01 4.93577E-02 1.21037E-05
 -1      5572 6.21754E-01 4.95147E-02-9.06960E-06
 -1      5573 6.51778E-01 2.75675E-02 4.66873E-06
 -1      5574 6.54578E-01 2.73433E-02-4.84049E-06
 -1      5575 6.57376E-01 2.71230E-02-8.43901E-06
 -1      5576 6.35620E-01 2.88479E-02 1.34641E-05
 -1      5577 6.38837E-01 2.85918E-02-4.46126E-06
 -1      5578 6.42055E-01 2.83336E-02-1.53278E-05
 -1      5579 6.17831E-01 3.02915E-02 3.27760E-05
 -1      5580 6.19837E-01 3.01274E-02-1.45393E-06
 -1      5581 6.21843E-01 2.99644E-02-3.00249E-05
 -1      5582 6.51785E-01 3.26356E-03-5.27490E-06
 -1      5583 6.54580E-01 2.58498E-03-5.31625E-06
 -1      5584 6.57374E-01 1.90554E-03-6.03905E-06
 -1      5585 6.35634E-01 7.13805E-03 7.03437E-07
 -1      5586 6.38844E-01 6.36464E-03-8.75667E-06
 -1      5587 6.42050E-01 5.58199E-03-1.16299E-05
 -1      5588 6.17954E-01 1.13785E-02 2.38626E-05
 -1      5589 6.19948E-01 1.08921E-02-1.45636E-05
 -1      5590 6.21940E-01 1.04056E-02-4.17102E-05
 -1      5591 6.92131E-01 7.95931E-02 2.34045E-06
 -1      5592 6.92129E-01 5.30359E-02-4.06253E-07
 -1      5593 6.92126E-01 2.64831E-02-1.24585E-06
 -1      5594 6.92123E-01-6.44845E-05 3.80348E-07
 -1      5595 6.92130E-01 7.95963E-02 2.83147E-06
 -1      5596 6.92128E-01 5.30351E-02 6.35760E-07
 -1      5597 6.92124E-01 2.64826E-02-6.42549E-07
 -1      5598 6.92121E-01-5.97857E-05-7.24792E-07
 -1      5599 6.92129E-01 7.95977E-02 2.33816E-06
 -1      5600 6.92126E-01 5.30354E-02 2.00390E-06
 -1      5601 6.92120E-01 2.64841E-02 3.31087E-07
 -1      5602 6.92117E-01-5.52333E-05-2.64947E-06
 -1      5603 7.18681E-01 7.95932E-02 1.90206E-06
 -1      5604 7.18680E-01 5.30390E-02 9.46559E-07
 -1      5605 7.18678E-01 2.64866E-02 6.17780E-07
 -1      5606 7.18676E-01-6.37411E-05 8.50876E-07
 -1      5607 7.18680E-01 7.95950E-02 2.29044E-06
 -1      5608 7.18679E-01 5.30398E-02 1.25668E-06
 -1      5609 7.18676E-01 2.64878E-02 5.68757E-07
 -1      5610 7.18674E-01-6.07046E-05 1.33507E-07
 -1      5611 7.18679E-01 7.95964E-02 1.82341E-06
 -1      5612 7.18677E-01 5.30408E-02 1.46142E-06
 -1      5613 7.18673E-01 2.64895E-02 5.09986E-07
 -1      5614 7.18671E-01-5.75310E-05-1.18632E-06
 -1      5615 7.45231E-01 7.95933E-02 1.66722E-06
 -1      5616 7.45231E-01 5.30406E-02 1.31688E-06
 -1      5617 7.45230E-01 2.64883E-02 1.11016E-06
 -1      5618 7.45229E-01-6.32588E-05 9.36818E-07
 -1      5619 7.45230E-01 7.95946E-02 2.13193E-06
 -1      5620 7.45230E-01 5.30418E-02 1.64134E-06
 -1      5621 7.45228E-01 2.64899E-02 1.18576E-06
 -1      5622 7.45227E-01-6.11021E-05 5.99684E-07
 -1      5623 7.45229E-01 7.95959E-02 2.04151E-06
 -1      5624 7.45228E-01 5.30432E-02 1.65535E-06
 -1      5625 7.45226E-01 2.64918E-02 1.01656E-06
 -1      5626 7.45225E-01-5.85788E-05-5.64635E-08
 -1      5627 7.71782E-01 7.95935E-02 1.72319E-06
 -1      5628 7.71782E-01 5.30413E-02 1.55330E-06
 -1      5629 7.71782E-01 2.64891E-02 1.40608E-06
 -1      5630 7.71781E-01-6.30092E-05 1.16066E-06
 -1      5631 7.71781E-01 7.95946E-02 2.40717E-06
 -1      5632 7.71781E-01 5.30426E-02 2.09081E-06
 -1      5633 7.71780E-01 2.64906E-02 1.75450E-06
 -1      5634 7.71780E-01-6.12403E-05 1.21458E-06
 -1      5635 7.71780E-01 7.95958E-02 2.64281E-06
 -1      5636 7.71780E-01 5.30441E-02 2.27370E-06
 -1      5637 7.71779E-01 2.64925E-02 1.81321E-06
 -1      5638 7.71778E-01-5.90231E-05 1.05492E-06
 -1      5639-6.92124E-01-6.52444E-05 4.14693E-05
 -1      5640-6.92126E-01 2.64691E-02 4.04966E-05
 -1      5641-6.92130E-01 5.30083E-02 4.19940E-05
 -1      5642-6.92131E-01 7.95518E-02 4.54065E-05
 -1      5643-6.92121E-01-5.66747E-05 4.04225E-05
 -1      5644-6.92123E-01 2.64725E-02 4.10904E-05
 -1      5645-6.92128E-01 5.30112E-02 4.29642E-05
 -1      5646-6.92129E-01 7.95584E-02 4.58324E-05
 -1      5647-6.92116E-01-4.82536E-05 3.85367E-05
 -1      5648-6.92119E-01 2.64778E-02 4.20232E-05
 -1      5649-6.92124E-01 5.30152E-02 4.42921E-05
 -1      5650-6.92127E-01 7.95635E-02 4.53215E-05
 -1      5651-7.18663E-01-6.45560E-05 4.47637E-05
 -1      5652-7.18665E-01 2.64724E-02 4.52393E-05
 -1      5653-7.18667E-01 5.30113E-02 4.62349E-05
 -1      5654-7.18668E-01 7.95519E-02 4.79071E-05
 -1      5655-7.18660E-01-5.76889E-05 4.40608E-05
 -1      5656-7.18662E-01 2.64774E-02 4.51610E-05
 -1      5657-7.18665E-01 5.30158E-02 4.65362E-05
 -1      5658-7.18666E-01 7.95573E-02 4.83120E-05
 -1      5659-7.18656E-01-5.07248E-05 4.27546E-05
 -1      5660-7.18658E-01 2.64828E-02 4.50972E-05
 -1      5661-7.18662E-01 5.30204E-02 4.67435E-05
 -1      5662-7.18664E-01 7.95623E-02 4.78627E-05
 -1      5663-7.45203E-01-6.40880E-05 4.76216E-05
 -1      5664-7.45203E-01 2.64741E-02 4.85318E-05
 -1      5665-7.45204E-01 5.30129E-02 4.94604E-05
 -1      5666-7.45205E-01 7.95521E-02 5.05766E-05
 -1      5667-7.45200E-01-5.81486E-05 4.73081E-05
 -1      5668-7.45201E-01 2.64794E-02 4.86285E-05
 -1      5669-7.45202E-01 5.30178E-02 4.98182E-05
 -1      5670-7.45203E-01 7.95570E-02 5.10877E-05
 -1      5671-7.45197E-01-5.18789E-05 4.66636E-05
 -1      5672-7.45198E-01 2.64849E-02 4.84684E-05
 -1      5673-7.45200E-01 5.30228E-02 4.98560E-05
 -1      5674-7.45201E-01 7.95619E-02 5.10312E-05
 -1      5675-7.71742E-01-6.38327E-05 5.06402E-05
 -1      5676-7.71742E-01 2.64749E-02 5.16468E-05
 -1      5677-7.71742E-01 5.30137E-02 5.25353E-05
 -1      5678-7.71742E-01 7.95524E-02 5.34901E-05
 -1      5679-7.71739E-01-5.83122E-05 5.07407E-05
 -1      5680-7.71740E-01 2.64801E-02 5.20463E-05
 -1      5681-7.71740E-01 5.30185E-02 5.31376E-05
 -1      5682-7.71740E-01 7.95570E-02 5.42463E-05
 -1      5683-7.71737E-01-5.23748E-05 5.06048E-05
 -1      5684-7.71737E-01 2.64856E-02 5.21326E-05
 -1      5685-7.71738E-01 5.30236E-02 5.33597E-05
 -1      5686-7.71738E-01 7.95618E-02 5.45254E-05
 -1      5687-6.17726E-01 6.80981E-02 6.66446E-05
 -1      5688-6.19738E-01 6.85790E-02 5.32616E-05
 -1      5689-6.21755E-01 6.90521E-02 4.05866E-05
 -1      5690-6.35590E-01 7.23785E-02 5.07090E-05
 -1      5691-6.38814E-01 7.31489E-02 4.56809E-05
 -1      5692-6.42045E-01 7.39148E-02 4.15131E-05
 -1      5693-6.51783E-01 7.62601E-02 4.51257E-05
 -1      5694-6.54586E-01 7.69273E-02 4.38459E-05
 -1      5695-6.57391E-01 7.75912E-02 4.17258E-05
 -1      5696-6.17768E-01 4.91820E-02 6.86478E-05
 -1      5697-6.19778E-01 4.93396E-02 4.57584E-05
 -1      5698-6.21788E-01 4.94943E-02 2.47774E-05
 -1      5699-6.35611E-01 5.05985E-02 5.34823E-05
 -1      5700-6.38832E-01 5.08549E-02 3.98038E-05
 -1      5701-6.42058E-01 5.11097E-02 2.99568E-05
 -1      5702-6.51792E-01 5.18968E-02 4.64084E-05
 -1      5703-6.54594E-01 5.21187E-02 3.80201E-05
 -1      5704-6.57396E-01 5.23429E-02 3.38493E-05
 -1      5705-6.17868E-01 3.02875E-02 6.56350E-05
 -1      5706-6.19871E-01 3.01212E-02 3.21870E-05
 -1      5707-6.21875E-01 2.99560E-02 4.52862E-06
 -1      5708-6.35647E-01 2.88445E-02 4.82923E-05
 -1      5709-6.38862E-01 2.85857E-02 3.14903E-05
 -1      5710-6.42078E-01 2.83247E-02 2.14109E-05
 -1      5711-6.51797E-01 2.75628E-02 4.16903E-05
 -1      5712-6.54596E-01 2.73354E-02 3.29237E-05
 -1      5713-6.57393E-01 2.71117E-02 2.96925E-05
 -1      5714-6.17986E-01 1.13865E-02 5.57197E-05
 -1      5715-6.19978E-01 1.08981E-02 1.92604E-05
 -1      5716-6.21968E-01 1.04092E-02-6.21951E-06
 -1      5717-6.35661E-01 7.14431E-03 3.56458E-05
 -1      5718-6.38869E-01 6.36852E-03 2.72209E-05
 -1      5719-6.42074E-01 5.58342E-03 2.46826E-05
 -1      5720-6.51804E-01 3.27017E-03 3.17799E-05
 -1      5721-6.54598E-01 2.58866E-03 3.20812E-05
 -1      5722-6.57391E-01 1.90623E-03 3.15254E-05
 -1      5723-6.92133E-01 7.95427E-02 4.25255E-05
 -1      5724-6.92130E-01 5.29932E-02 4.19982E-05
 -1      5725-6.92124E-01 2.64557E-02 4.36762E-05
 -1      5726-6.92120E-01-6.90527E-05 4.75690E-05
 -1      5727-7.18670E-01 7.95415E-02 4.58008E-05
 -1      5728-7.18668E-01 5.29992E-02 4.55105E-05
 -1      5729-7.18663E-01 2.64616E-02 4.61229E-05
 -1      5730-7.18660E-01-7.16315E-05 4.78171E-05
 -1      5731-7.45207E-01 7.95412E-02 4.81648E-05
 -1      5732-7.45205E-01 5.30019E-02 4.79777E-05
 -1      5733-7.45203E-01 2.64640E-02 4.81340E-05
 -1      5734-7.45202E-01-7.28482E-05 4.88413E-05
 -1      5735-7.71744E-01 7.95411E-02 5.01200E-05
 -1      5736-7.71743E-01 5.30028E-02 4.99303E-05
 -1      5737-7.71743E-01 2.64648E-02 4.98438E-05
 -1      5738-7.71742E-01-7.33802E-05 5.00896E-05
 -1      5739-6.92134E-01 7.95451E-02 4.18157E-05
 -1      5740-6.92132E-01 5.29959E-02 4.29310E-05
 -1      5741-6.92127E-01 2.64571E-02 4.40937E-05
 -1      5742-6.92123E-01-7.00764E-05 4.51833E-05
 -1      5743-7.18671E-01 7.95434E-02 4.52239E-05
 -1      5744-7.18669E-01 5.30010E-02 4.55180E-05
 -1      5745-7.18665E-01 2.64626E-02 4.58917E-05
 -1      5746-7.18663E-01-7.18506E-05 4.64753E-05
 -1      5747-7.45207E-01 7.95428E-02 4.79752E-05
 -1      5748-7.45206E-01 5.30033E-02 4.79044E-05
 -1      5749-7.45204E-01 2.64649E-02 4.79231E-05
 -1      5750-7.45203E-01-7.25630E-05 4.82114E-05
 -1      5751-7.71744E-01 7.95427E-02 5.02418E-05
 -1      5752-7.71744E-01 5.30042E-02 5.00166E-05
 -1      5753-7.71743E-01 2.64657E-02 4.98449E-05
 -1      5754-7.71743E-01-7.28082E-05 4.99341E-05
 -1      5755-6.92135E-01 7.95456E-02 4.17646E-05
 -1      5756-6.92133E-01 5.29979E-02 4.39780E-05
 -1      5757-6.92128E-01 2.64582E-02 4.46987E-05
 -1      5758-6.92125E-01-7.22427E-05 4.36373E-05
 -1      5759-7.18671E-01 7.95445E-02 4.50964E-05
 -1      5760-7.18670E-01 5.30027E-02 4.57384E-05
 -1      5761-7.18667E-01 2.64637E-02 4.58580E-05
 -1      5762-7.18664E-01-7.21911E-05 4.54461E-05
 -1      5763-7.45207E-01 7.95443E-02 4.81198E-05
 -1      5764-7.45207E-01 5.30047E-02 4.80480E-05
 -1      5765-7.45205E-01 2.64659E-02 4.78864E-05
 -1      5766-7.45204E-01-7.20837E-05 4.77688E-05
 -1      5767-7.71745E-01 7.95443E-02 5.06684E-05
 -1      5768-7.71744E-01 5.30055E-02 5.03578E-05
 -1      5769-7.71744E-01 2.64668E-02 5.00582E-05
 -1      5770-7.71744E-01-7.19883E-05 4.99197E-05
 -1      5771-6.92135E-01 7.95455E-02 4.24114E-05
 -1      5772-6.92133E-01 5.30018E-02 4.44761E-05
 -1      5773-6.92129E-01 2.64620E-02 4.49112E-05
 -1      5774-6.92126E-01-7.30393E-05 4.26664E-05
 -1      5775-7.18671E-01 7.95456E-02 4.56580E-05
 -1      5776-7.18669E-01 5.30049E-02 4.59988E-05
 -1      5777-7.18667E-01 2.64656E-02 4.57853E-05
 -1      5778-7.18665E-01-7.17516E-05 4.50225E-05
 -1      5779-7.45207E-01 7.95459E-02 4.86913E-05
 -1      5780-7.45207E-01 5.30065E-02 4.84060E-05
 -1      5781-7.45206E-01 2.64675E-02 4.80333E-05
 -1      5782-7.45205E-01-7.09560E-05 4.75917E-05
 -1      5783-7.71744E-01 7.95461E-02 5.14137E-05
 -1      5784-7.71744E-01 5.30073E-02 5.09378E-05
 -1      5785-7.71744E-01 2.64684E-02 5.04728E-05
 -1      5786-7.71744E-01-7.05657E-05 5.00716E-05
 -1      5787 7.71781E-01-6.32092E-05 6.99001E-07
 -1      5788 7.71782E-01 2.64889E-02 3.62744E-07
 -1      5789 7.71782E-01 5.30412E-02 1.03517E-07
 -1      5790 7.71782E-01 7.95933E-02-1.77809E-07
 -1      5791 7.45229E-01-6.35395E-05 9.34755E-07
 -1      5792 7.45230E-01 2.64881E-02 6.56950E-07
 -1      5793 7.45231E-01 5.30404E-02 3.33322E-07
 -1      5794 7.45231E-01 7.95930E-02-1.08863E-07
 -1      5795 7.18676E-01-6.42202E-05 1.06171E-06
 -1      5796 7.18678E-01 2.64864E-02 1.13375E-06
 -1      5797 7.18680E-01 5.30389E-02 6.90977E-07
 -1      5798 7.18681E-01 7.95928E-02-2.79921E-07
 -1      5799 6.92124E-01-6.53222E-05 1.53819E-06
 -1      5800 6.92126E-01 2.64834E-02 2.90270E-06
 -1      5801 6.92129E-01 5.30362E-02 1.95517E-06
 -1      5802 6.92131E-01 7.95925E-02-6.72317E-07
 -1      5803 7.71780E-01-6.19114E-05 5.86998E-07
 -1      5804 7.71781E-01 2.64900E-02-6.45557E-10
 -1      5805 7.71781E-01 5.30420E-02-4.23445E-07
 -1      5806 7.71781E-01 7.95940E-02-8.58337E-07
 -1      5807 7.45228E-01-6.19508E-05 1.09905E-06
 -1      5808 7.45229E-01 2.64893E-02 5.24155E-07
 -1      5809 7.45230E-01 5.30413E-02-1.29207E-08
 -1      5810 7.45230E-01 7.95940E-02-6.56952E-07
 -1      5811 7.18675E-01-6.19646E-05 1.44648E-06
 -1      5812 7.18676E-01 2.64872E-02 1.19165E-06
 -1      5813 7.18679E-01 5.30394E-02 4.40162E-07
 -1      5814 7.18681E-01 7.95942E-02-8.66177E-07
 -1      5815 6.92122E-01-6.19008E-05 2.22200E-06
 -1      5816 6.92125E-01 2.64824E-02 2.80815E-06
 -1      5817 6.92129E-01 5.30350E-02 1.45253E-06
 -1      5818 6.92131E-01 7.95949E-02-1.37663E-06
 -1      5819 7.71779E-01-6.01319E-05 6.26228E-07
 -1      5820 7.71779E-01 2.64915E-02-1.79080E-07
 -1      5821 7.71780E-01 5.30433E-02-7.32473E-07
 -1      5822 7.71780E-01 7.95951E-02-1.24421E-06
 -1      5823 7.45226E-01-5.98602E-05 1.51770E-06
 -1      5824 7.45227E-01 2.64908E-02 5.51608E-07
 -1      5825 7.45229E-01 5.30424E-02-1.63107E-07
 -1      5826 7.45230E-01 7.95952E-02-8.08506E-07
 -1      5827 7.18672E-01-5.91407E-05 2.32517E-06
 -1      5828 7.18674E-01 2.64887E-02 1.18207E-06
 -1      5829 7.18678E-01 5.30403E-02 1.74375E-07
 -1      5830 7.18680E-01 7.95956E-02-8.09690E-07
 -1      5831 6.92120E-01-5.74636E-05 3.52892E-06
 -1      5832 6.92122E-01 2.64835E-02 2.05385E-06
 -1      5833 6.92127E-01 5.30354E-02 3.72587E-07
 -1      5834 6.92129E-01 7.95971E-02-1.38819E-06
 -1      5835 7.71777E-01-5.81900E-05 7.91294E-07
 -1      5836 7.71778E-01 2.64932E-02-1.67421E-07
 -1      5837 7.71779E-01 5.30445E-02-8.07145E-07
 -1      5838 7.71779E-01 7.95961E-02-1.34915E-06
 -1      5839 7.45224E-01-5.76859E-05 2.10290E-06
 -1      5840 7.45225E-01 2.64924E-02 7.37194E-07
 -1      5841 7.45227E-01 5.30436E-02-1.14732E-07
 -1      5842 7.45229E-01 7.95962E-02-6.41689E-07
 -1      5843 7.18669E-01-5.65428E-05 3.52994E-06
 -1      5844 7.18672E-01 2.64901E-02 1.31669E-06
 -1      5845 7.18676E-01 5.30410E-02 9.78768E-08
 -1      5846 7.18679E-01 7.95965E-02-3.02833E-07
 -1      5847 6.92116E-01-5.41480E-05 5.40903E-06
 -1      5848 6.92119E-01 2.64845E-02 1.40790E-06
 -1      5849 6.92125E-01 5.30353E-02-6.56397E-07
 -1      5850 6.92128E-01 7.95976E-02-7.69414E-07
 -1      5851 6.17554E-01 1.14746E-02-2.81450E-05
 -1      5852 6.17428E-01 3.03238E-02-3.76430E-05
 -1      5853 6.17324E-01 4.91643E-02-3.82292E-05
 -1      5854 6.17282E-01 6.80265E-02-3.47287E-05
 -1      5855 6.34990E-01 7.29058E-03-4.80248E-07
 -1      5856 6.34976E-01 2.88980E-02-1.52314E-05
 -1      5857 6.34939E-01 5.05621E-02-1.97250E-05
 -1      5858 6.34917E-01 7.22523E-02-1.51808E-05
 -1      5859 6.51224E-01 3.39771E-03 8.06421E-06
 -1      5860 6.51218E-01 2.76113E-02-4.60412E-06
 -1      5861 6.51213E-01 5.18690E-02-9.25287E-06
 -1      5862 6.51203E-01 7.61571E-02-6.27197E-06
 -1      5863 6.19150E-01 1.10861E-02 2.84523E-06
 -1      5864 6.19035E-01 3.01933E-02-9.62497E-06
 -1      5865 6.18935E-01 4.92945E-02-1.96839E-05
 -1      5866 6.18894E-01 6.84166E-02-2.42475E-05
 -1      5867 6.37560E-01 6.67573E-03 8.48959E-06
 -1      5868 6.37550E-01 2.86953E-02 1.41060E-07
 -1      5869 6.37517E-01 5.07716E-02-7.66486E-06
 -1      5870 6.37497E-01 7.28735E-02-1.06582E-05
 -1      5871 6.53463E-01 2.85828E-03 8.12042E-06
 -1      5872 6.53458E-01 2.74340E-02 3.55703E-06
 -1      5873 6.53455E-01 5.20508E-02-1.78929E-06
 -1      5874 6.53446E-01 7.66955E-02-5.16466E-06
 -1      5875 6.20745E-01 1.06984E-02 3.04272E-05
 -1      5876 6.20639E-01 3.00623E-02 1.63304E-05
 -1      5877 6.20545E-01 4.94209E-02-1.76526E-06
 -1      5878 6.20507E-01 6.87999E-02-1.39474E-05
 -1      5879 6.40127E-01 6.05287E-03 1.37894E-05
 -1      5880 6.40125E-01 2.84889E-02 1.21103E-05
 -1      5881 6.40097E-01 5.09775E-02 2.66129E-06
 -1      5882 6.40081E-01 7.34896E-02-6.54823E-06
 -1      5883 6.55698E-01 2.31257E-03 7.93256E-06
 -1      5884 6.55698E-01 2.72542E-02 9.23016E-06
 -1      5885 6.55698E-01 5.22307E-02 4.15373E-06
 -1      5886 6.55692E-01 7.72299E-02-3.31885E-06
 -1      5887 6.22339E-01 1.03071E-02 4.77103E-05
 -1      5888 6.22247E-01 2.99316E-02 3.72375E-05
 -1      5889 6.22161E-01 4.95464E-02 1.43189E-05
 -1      5890 6.22127E-01 6.91802E-02-4.49391E-06
 -1      5891 6.42692E-01 5.42579E-03 1.44015E-05
 -1      5892 6.42699E-01 2.82827E-02 1.83754E-05
 -1      5893 6.42681E-01 5.11844E-02 9.64182E-06
 -1      5894 6.42669E-01 7.41045E-02-2.97734E-06
 -1      5895 6.57933E-01 1.76988E-03 7.98442E-06
 -1      5896 6.57936E-01 2.70797E-02 9.96194E-06
 -1      5897 6.57939E-01 5.24139E-02 6.18037E-06
 -1      5898 6.57936E-01 7.77632E-02-1.23415E-06
 -3
    1PSTEP                         2           1           1          
  100CL  101 1.000000000        5898                     0    1           1
 -4  STRESS      6    1
 -5  SXX         1    4    1    1
 -5  SYY         1    4    2    2
 -5  SZZ         1    4    3    3
 -5  SXY         1    4    1    2
 -5  SYZ         1    4    2    3
 -5  SZX         1    4    3    1
 -1         1 7.00567E-01-3.64275E+00-7.74964E+00 5.60198E+00 7.62188E-01 7.51655E-02
 -1         2 2.15815E-01 3.86542E+00 8.50761E+00 6.17756E+00-8.49831E-01 7.32929E-02
 -1         3-5.94414E-02 8.64655E+00 7.35250E-01 9.64231E+00-4.41913E-02 1.03216E-01
 -1         4 3.28100E+00 4.49910E+01 5.85493E+00 2.67124E+00-2.84565E-01 8.01437E-02
 -1         5-3.23531E+00-4.50329E+01-5.83778E+00 2.74397E+00 2.68974E-01 7.43114E-02
 -1         6-8.06113E-01 2.96761E+01 1.70566E+00 1.06522E+01 1.33638E-02 4.63067E-01
 -1         7-1.27275E+01-1.61657E+02-4.12614E+00 3.99710E+00 1.17775E-01 3.02883E-01
 -1         8 1.24775E+01 1.59439E+02 8.40857E+00 3.67727E+00-5.47155E-02 3.02642E-01
 -1         9 9.27610E+00 1.69960E+02 5.40963E+00-3.97134E+00 2.91035E-02 4.22431E-01
 -1        10-2.42739E+01-2.11836E+02-1.34254E+01 1.10890E+01 1.32471E-01 4.41588E-01
 -1        11 1.48697E+00 3.79437E+01-1.38242E+00 7.93314E+00 1.88068E+00 1.08175E+00
 -1        12 8.88521E+00 1.79368E+02 4.29469E+00-2.10374E+00 6.39451E-01 4.01329E+00
 -1        13-2.30215E+01-1.93807E+02-6.83838E+00 1.56290E+01-6.40369E+00 5.03437E+00
 -1        14-9.65403E-01-3.33193E+01 1.37672E+00 8.83005E+00-2.43474E+00 8.83750E-01
 -1        15-9.52546E-01-3.34385E+01 1.38548E+00-8.86158E+00-2.43861E+00-8.83881E-01
 -1        16 1.52106E+00 3.81577E+01-1.37711E+00-7.89689E+00 1.85778E+00-1.09299E+00
 -1        17-2.05959E-01 3.06668E+00 8.08461E+00-5.49145E+00-3.65648E-01-9.84023E-02
 -1        18 8.20241E-01-3.12783E+00-7.56521E+00-5.17798E+00 3.43239E-01-9.59983E-02
 -1        19-2.30411E+01-1.93963E+02-6.83653E+00-1.56967E+01-6.42999E+00-5.01316E+00
 -1        20 8.89747E+00 1.79424E+02 4.30504E+00 2.06653E+00 6.53633E-01-3.97349E+00
 -1        21 9.19508E+00 1.69994E+02 5.34459E+00 3.66462E+00 7.07648E-02-4.48725E-01
 -1        22-2.42495E+01-2.11575E+02-1.32594E+01-1.12805E+01 8.31481E-02-4.67768E-01
 -1        23-3.22824E+00-4.48751E+01-5.91385E+00-2.74704E+00 1.74103E-01-8.13088E-02
 -1        24-1.27187E+01-1.61647E+02-4.06585E+00-3.98728E+00 7.92834E-02-3.03809E-01
 -1        25 3.27624E+00 4.48581E+01 5.93674E+00-2.67674E+00-1.86794E-01-8.24998E-02
 -1        26 1.24754E+01 1.59447E+02 8.36770E+00-3.67071E+00-1.89647E-02-3.02259E-01
 -1        27-6.55199E-02 8.61286E+00 7.51487E-01-9.67092E+00-3.14569E-02-1.21966E-01
 -1        28-8.06099E-01 2.96698E+01 1.70392E+00-1.06372E+01 1.98948E-02-4.62150E-01
 -1        29-4.07354E+02-5.64523E+01-3.99169E+01-2.71411E-01 7.23024E-01 1.34381E-02
 -1        30 2.58492E+02 8.86439E+00 6.74767E+00-5.19733E-01 6.59114E-01 2.10898E-02
 -1        31 8.98178E+00 1.79696E+02 5.25099E+00 2.08549E+00-7.85113E-01 4.72598E+00
 -1        32 8.97235E+00 1.79550E+02 5.24472E+00-2.10334E+00-7.87152E-01-4.76655E+00
 -1        33-2.31115E+01-1.94390E+02-7.86131E+00-1.54364E+01 7.20751E+00 5.97052E+00
 -1        34-2.31046E+01-1.94412E+02-7.87780E+00 1.53963E+01 7.20545E+00-5.99806E+00
 -1        35-9.54660E-01-3.25254E+01 1.83572E+00 9.04170E+00 2.93968E+00-1.15300E+00
 -1        36 1.74574E+00 3.73535E+01-1.79876E+00 8.22514E+00-2.32860E+00-1.44175E+00
 -1        37-7.24757E+00-1.50271E+01-1.96285E+00 9.03586E+00 2.54929E+00-2.02846E-01
 -1        38-9.98805E+01-2.85623E+01-1.57018E+01 3.47833E+00-3.09542E+00 1.88582E+00
 -1        39-9.89029E+01-1.00280E+01-1.51976E+01 5.96942E+00 3.95681E-01-2.99944E+00
 -1        40-1.04687E+01-2.99551E+01-4.24000E+00 1.26709E+01 9.31685E-01-7.26203E-01
 -1        41 1.26090E+00 3.76654E+01-2.01937E+00-7.80177E+00-2.39964E+00 1.47310E+00
 -1        42-7.13412E-01-3.29862E+01 2.01152E+00-8.72700E+00 2.96898E+00 1.19423E+00
 -1        43-1.08915E+01-2.83186E+01-5.23746E+00-1.30039E+01 1.52029E-01 4.26148E-01
 -1        44-1.06148E+02-1.50551E+01-1.52743E+01-1.09968E+01 1.80376E+00 3.74523E+00
 -1        45-1.12397E+02-3.60371E+01-1.96180E+01-8.77551E+00-3.98977E+00-2.70492E+00
 -1        46-6.72248E+00-1.32784E+01-1.70777E+00-9.45191E+00 2.80990E+00 1.40475E-01
 -1        47-9.34165E+01-9.69496E+00-1.00415E+01 1.47346E+01-2.33840E+00 3.39785E+00
 -1        48-9.87323E+01-2.85412E+01-1.18132E+01 1.33155E+01 4.55405E+00-2.36695E+00
 -1        49-1.13710E+01-2.70655E+01-5.62678E+00 1.21448E+01-4.63192E-01 1.38237E-01
 -1        50-6.59335E+00-1.22706E+01-1.74092E+00 9.09619E+00-2.40477E+00-3.37424E-02
 -1        51 4.14638E-01 2.07052E-01 6.77294E-01 2.13756E-01-3.14202E-02 1.48898E-02
 -1        52 5.77722E-01 1.81921E-01 2.59890E-01-3.55678E-01 5.36505E-03 4.60167E-02
 -1        53 6.04725E-01 3.15292E+00 5.77966E-02 5.94761E-01 4.24814E-01 1.20936E-01
 -1        54 2.03956E-01 1.95791E+00 1.83345E-02-2.50683E-01 1.48441E-01-9.62389E-02
 -1        55-6.74391E+00-1.33070E+01-1.68744E+00-9.61999E+00-2.56349E+00-8.26510E-02
 -1        56-1.10373E+02-3.34741E+01-1.49826E+01-8.79291E+00 4.07641E+00 3.00597E+00
 -1        57-1.09323E+01-2.81495E+01-4.95916E+00-1.29710E+01-3.02384E-01-3.42844E-01
 -1        58-1.04566E+02-1.36186E+01-1.24982E+01-1.10197E+01-1.74192E+00-3.91968E+00
 -1        59 1.70731E-01 1.92149E+00 3.13149E-02 3.00647E-01-1.74983E-01-1.21638E-01
 -1        60 3.23748E-01 1.18446E-01 5.97516E-01-1.53490E-01 1.24361E-02-2.22979E-03
 -1        61 3.00300E-01-8.87453E-02 4.56105E-02 1.78347E-01 1.23813E-02-5.46321E-03
 -1        62 3.92664E-01 2.86605E+00 2.17018E-03-6.13673E-01-3.66532E-01 1.62503E-01
 -1        63-3.76832E-03-2.16468E-03 2.54461E-02-1.56378E-03 1.33445E-03-8.72061E-04
 -1        64 1.08866E-02 2.26845E-02 1.00198E-02-1.72446E-02-2.51364E-03-8.52661E-03
 -1        65 1.18467E-02 9.86193E-03 1.30875E-02 5.83236E-03-4.98468E-03-5.12194E-03
 -1        66 4.20442E-03 3.93735E-03 1.48486E-01 1.05377E-02 1.89128E-03 1.41442E-04
 -1        67 1.60749E-01 1.80000E+00 1.32596E-02-3.02174E-01-1.85987E-01 1.14326E-01
 -1        68 3.69288E-01 2.81881E+00 7.19677E-03 5.68620E-01-3.32998E-01-1.59130E-01
 -1        69 3.85670E-03 3.70376E-03 1.63206E-01-1.11604E-02-7.65183E-04 3.28030E-03
 -1        70 1.14408E-02 1.00274E-02 1.36786E-02-5.09169E-03-4.80694E-03 5.61703E-03
 -1        71 1.14220E-02 2.37048E-02 1.09089E-02 1.69397E-02-7.80946E-04 9.61525E-03
 -1        72-4.53358E-03-2.89353E-03 3.37844E-02 1.58787E-03 6.42172E-03 5.97164E-03
 -1        73 1.20855E-02 2.75428E-02 1.48561E-02 1.86938E-02 1.35792E-03-9.06312E-03
 -1        74 9.62106E-03 8.31909E-03 1.12707E-02-4.75703E-03 3.54745E-03-4.86738E-03
 -1        75 1.02171E-02 9.05327E-03 1.03501E-02 5.37205E-03 4.10126E-03 4.54462E-03
 -1        76 1.75003E-01 1.91991E+00 2.25492E-02 3.10274E-01 1.71569E-01 9.15258E-02
 -1        77 4.05769E-01 2.90531E+00 1.36458E-02-6.45557E-01 3.85356E-01-1.22267E-01
 -1        78 1.26881E-02 2.56624E-02 1.29670E-02-1.80426E-02 1.75382E-03 8.47390E-03
 -1        79 3.69538E+00-2.08595E+00 5.83906E-01 7.79825E+00 1.77388E-01-1.58333E-01
 -1        80 2.11046E+00-7.71066E-01 1.56979E-01 9.25148E+00 1.23662E-01-3.39994E-01
 -1        81-1.97454E+00 1.07776E-01-1.29876E+00 9.51385E+00-3.00716E-02-3.08925E-01
 -1        82-3.28631E+00 1.87143E+00-9.15373E-01 8.13528E+00-1.89300E-01-9.70318E-02
 -1        83 6.05423E-01 1.01607E+01 8.91311E+00 6.03148E-01-5.03614E-01-3.43685E-02
 -1        84 1.60327E+00 2.83867E+01 6.77908E+00 2.40880E+00-4.48492E-01 3.21541E-02
 -1        85 2.21154E-01-8.85494E+00-7.91114E-01 9.70036E+00 4.10086E-02 9.89690E-02
 -1        86 4.41208E-01-2.63131E+01-2.40552E+00 6.16063E+00 1.26668E-01 8.68784E-02
 -1        87-3.39008E-01 2.62279E+01 2.41377E+00 6.06613E+00-1.40635E-01 9.37096E-02
 -1        88-1.57517E+00-2.86250E+01-6.71129E+00 2.50955E+00 4.12813E-01 1.96655E-02
 -1        89-7.05093E-01-1.10866E+01-8.80498E+00 7.63165E-01 4.58753E-01-5.78495E-02
 -1        90-7.56568E-02 1.13988E+01 5.46169E-01 9.79873E+00-3.24431E-02 1.64028E-01
 -1        91-3.91418E-02 1.39547E+01 4.11774E-01 9.70201E+00-2.48318E-02 2.09067E-01
 -1        92-2.94699E-02 1.62910E+01 3.14123E-01 9.61614E+00-2.03478E-02 2.47420E-01
 -1        93-1.64837E-02 1.85002E+01 2.79371E-01 9.57195E+00-1.77125E-02 2.82655E-01
 -1        94-2.37172E-03 2.06062E+01 3.10462E-01 9.56587E+00-1.58394E-02 3.16213E-01
 -1        95 1.44314E-02 2.26096E+01 4.16346E-01 9.58844E+00-1.38167E-02 3.48652E-01
 -1        96 2.78826E-02 2.44928E+01 6.09787E-01 9.63324E+00-1.07260E-02 3.80102E-01
 -1        97 2.66891E-03 2.62546E+01 9.04638E-01 9.69205E+00-5.61071E-03 4.10332E-01
 -1        98-1.96499E-01 2.79320E+01 1.28578E+00 9.70984E+00 2.41255E-03 4.38889E-01
 -1        99-7.79931E-01-3.24365E+01 1.43758E+00 1.10557E+01 4.16675E-02 4.63223E-01
 -1       100-6.75255E-01-9.50784E+01 1.08952E+00 7.54125E+00 7.39376E-02 3.92919E-01
 -1       101-1.15953E+01-1.50135E+02-4.03947E+00 2.94858E+00 1.10280E-01 2.85793E-01
 -1       102-1.08413E+01-1.39344E+02-4.22397E+00 2.92964E+00 1.04541E-01 2.66755E-01
 -1       103-1.00475E+01-1.28534E+02-4.27572E+00 2.95001E+00 1.00891E-01 2.47264E-01
 -1       104-9.21890E+00-1.17681E+02-4.23024E+00 2.96458E+00 9.97073E-02 2.27182E-01
 -1       105-8.36654E+00-1.06757E+02-4.15261E+00 2.97091E+00 1.01031E-01 2.06492E-01
 -1       106-7.49228E+00-9.56868E+01-4.11001E+00 2.97499E+00 1.05741E-01 1.85083E-01
 -1       107-6.58476E+00-8.43201E+01-4.16804E+00 2.98383E+00 1.16195E-01 1.62658E-01
 -1       108-5.59677E+00-7.23565E+01-4.38307E+00 2.99553E+00 1.37559E-01 1.38452E-01
 -1       109-4.48006E+00-5.92543E+01-4.81872E+00 3.02166E+00 1.81991E-01 1.10231E-01
 -1       110 4.49913E+00 5.92356E+01 4.80185E+00 2.98531E+00-1.88608E-01 1.12360E-01
 -1       111 5.59529E+00 7.23552E+01 4.37620E+00 2.98003E+00-1.41125E-01 1.39788E-01
 -1       112 6.57416E+00 8.43459E+01 4.21000E+00 2.97725E+00-1.18955E-01 1.64074E-01
 -1       113 7.47924E+00 9.57288E+01 4.25095E+00 2.97337E+00-1.07898E-01 1.86806E-01
 -1       114 8.35809E+00 1.06785E+02 4.47681E+00 2.97924E+00-1.01732E-01 2.08539E-01
 -1       115 9.23035E+00 1.17657E+02 4.88111E+00 2.99699E+00-9.70754E-02 2.29520E-01
 -1       116 1.01072E+01 1.28420E+02 5.47842E+00 3.02587E+00-9.16587E-02 2.49795E-01
 -1       117 1.09717E+01 1.39067E+02 6.28060E+00 3.05098E+00-8.36597E-02 2.69223E-01
 -1       118 1.17307E+01 1.49381E+02 7.22729E+00 3.01308E+00-7.12639E-02 2.87633E-01
 -1       119-6.75026E-01 9.12596E+01 2.02727E+00 6.93645E+00-1.61184E-02 3.92041E-01
 -1       120 1.27689E+01 1.67476E+02 9.24751E+00 2.40606E+00-4.44964E-02 3.14681E-01
 -1       121 1.16796E+01 1.71434E+02 8.43569E+00 1.44288E+00-1.87845E-02 3.16835E-01
 -1       122-4.24956E+00 1.04556E+02 1.94351E+00-1.32399E+00-2.09579E-03 4.55129E-01
 -1       123-7.82023E+00 3.89774E+01 2.01818E+00 5.08726E+00 4.94788E-02 4.66849E-01
 -1       124-8.71059E+00-3.25234E+01 1.69521E+00 1.13636E+01 1.00863E-01 4.68952E-01
 -1       125-5.63353E+00-1.11928E+02 5.59630E-01 1.30671E+01 1.56989E-01 4.63817E-01
 -1       126-1.76969E+01-1.89520E+02-7.59363E+00 5.93402E+00 1.22124E-01 3.28187E-01
 -1       127-1.44252E+01-1.73941E+02-5.04802E+00 3.95420E+00 1.31895E-01 3.19493E-01
 -1       128 2.49857E-01 2.60256E+01-3.25137E-01 1.11705E+01 1.11047E+00 1.32067E+00
 -1       129-5.90254E-01 6.15163E+00-4.24245E-01 1.54085E+01 5.00983E-01 1.77874E+00
 -1       130 4.60667E-01-9.96283E+00 1.55323E-01 1.63396E+01-2.38383E-01 1.63122E+00
 -1       131-5.50257E-01-2.61427E+01-2.64825E-02 1.26108E+01-1.09910E+00 1.07027E+00
 -1       132 1.13855E+01 1.76985E+02 4.89873E+00 3.56487E+00 1.09795E+00 4.13096E+00
 -1       133 1.24933E+01 1.69459E+02 4.97179E+00 5.40647E+00 2.04814E+00 3.89937E+00
 -1       134 1.22432E+01 1.59113E+02 4.56477E+00 6.30175E+00 2.65401E+00 3.61247E+00
 -1       135 1.15608E+01 1.48218E+02 4.22078E+00 6.62553E+00 3.03087E+00 3.41752E+00
 -1       136 1.07519E+01 1.37521E+02 3.90069E+00 6.73024E+00 3.23682E+00 3.18663E+00
 -1       137 9.93839E+00 1.27137E+02 3.62765E+00 6.77628E+00 3.35938E+00 2.96696E+00
 -1       138 9.14502E+00 1.16989E+02 3.38804E+00 6.80878E+00 3.45303E+00 2.75132E+00
 -1       139 8.37837E+00 1.07035E+02 3.17690E+00 6.84854E+00 3.54858E+00 2.53669E+00
 -1       140 7.64186E+00 9.72836E+01 2.99650E+00 6.89933E+00 3.67030E+00 2.32185E+00
 -1       141 6.94396E+00 8.78223E+01 2.85364E+00 6.95632E+00 3.83929E+00 2.10881E+00
 -1       142 6.29854E+00 7.88204E+01 2.75093E+00 7.00577E+00 4.06923E+00 1.90396E+00
 -1       143 5.71083E+00 7.04983E+01 2.65977E+00 7.02415E+00 4.35278E+00 1.72159E+00
 -1       144 5.12802E+00 6.30255E+01 2.50964E+00 7.01744E+00 4.65053E+00 1.56101E+00
 -1       145 4.15897E+00 5.58103E+01 1.89242E+00 7.01128E+00 4.77147E+00 1.40251E+00
 -1       146 2.09030E+00 4.65551E+01 4.71243E-01 6.86459E+00 3.96701E+00 1.11765E+00
 -1       147-6.90872E+00-9.79545E+01 1.27448E+00 1.82469E+01-2.13340E+00 5.05710E+00
 -1       148-1.00700E+01-2.02115E+01 1.42350E+00 1.77343E+01-1.00189E+00 4.55166E+00
 -1       149-9.14342E+00 4.96726E+01 1.12746E+00 1.05823E+01-3.01569E-01 4.26520E+00
 -1       150-5.06458E+00 1.14113E+02 8.29883E-01 2.17574E+00 1.99336E-01 3.96454E+00
 -1       151-1.38542E+00-4.34617E+01-2.99458E-01 7.59013E+00-4.25280E+00 1.02970E+00
 -1       152-3.65263E+00-5.41250E+01-1.75346E+00 7.47566E+00-4.93109E+00 1.36210E+00
 -1       153-4.88924E+00-6.22819E+01-2.44984E+00 7.24787E+00-4.71894E+00 1.55388E+00
 -1       154-5.62568E+00-7.02256E+01-2.64291E+00 7.10963E+00-4.35876E+00 1.72302E+00
 -1       155-6.27966E+00-7.87668E+01-2.75597E+00 7.01985E+00-4.04222E+00 1.90867E+00
 -1       156-6.94689E+00-8.78815E+01-2.87085E+00 6.93918E+00-3.79860E+00 2.11628E+00
 -1       157-7.64448E+00-9.74013E+01-3.01966E+00 6.86644E+00-3.62966E+00 2.33316E+00
 -1       158-8.36329E+00-1.07143E+02-3.19723E+00 6.80040E+00-3.52146E+00 2.55246E+00
 -1       159-9.08734E+00-1.16949E+02-3.38811E+00 6.73811E+00-3.46019E+00 2.76982E+00
 -1       160-9.80076E+00-1.26683E+02-3.57474E+00 6.67886E+00-3.44058E+00 2.98106E+00
 -1       161-1.04976E+01-1.36219E+02-3.74073E+00 6.63514E+00-3.47275E+00 3.17908E+00
 -1       162-1.12164E+01-1.45517E+02-3.88128E+00 6.67378E+00-3.58565E+00 3.35592E+00
 -1       163-1.20786E+01-1.54687E+02-3.98581E+00 6.93085E+00-3.84218E+00 3.45595E+00
 -1       164-1.35270E+01-1.64353E+02-4.32426E+00 7.69522E+00-4.46558E+00 3.65560E+00
 -1       165-1.65860E+01-1.76637E+02-5.08178E+00 9.65809E+00-5.47248E+00 4.09085E+00
 -1       166-2.41421E+01-2.10883E+02-1.28216E+01 1.11642E+01-2.95056E+00 1.41290E-01
 -1       167-2.38557E+01-2.08636E+02-1.19119E+01 1.12376E+01-5.59296E+00 3.28280E-01
 -1       168-2.34026E+01-2.04941E+02-1.04212E+01 1.14136E+01-7.41258E+00 4.25655E-01
 -1       169-2.28075E+01-1.99743E+02-8.55357E+00 1.18741E+01-6.61311E+00 2.27601E-01
 -1       170-8.81773E-01-3.05234E+01 2.95040E+00 7.46293E+00-4.53789E+00 1.02625E+00
 -1       171-5.71436E-01-2.86952E+01 2.69165E+00 6.84716E+00-8.87322E+00 2.52329E+00
 -1       172-1.39121E+00-2.55593E+01-2.81666E+00 6.47751E+00-1.16013E+01 4.27676E+00
 -1       173-3.37740E+00-2.09022E+01-1.07339E+01 6.29034E+00-1.01631E+01 6.01004E+00
 -1       174 9.17740E+00 1.76347E+02 3.93546E+00-2.87823E+00 6.81205E-01 1.46573E-01
 -1       175 9.21685E+00 1.73543E+02 4.14017E+00-3.40926E+00 8.06897E-01 1.66426E-01
 -1       176 9.23116E+00 1.71505E+02 4.59937E+00-3.68236E+00 6.30919E-01 1.63532E-01
 -1       177 9.25852E+00 1.70294E+02 4.99591E+00-3.83759E+00 3.21805E-01 7.18239E-02
 -1       178 4.07570E+00 2.27802E+01 1.17534E+01 6.35245E+00 1.11716E+01 6.08096E+00
 -1       179 1.97596E+00 2.92440E+01 3.85537E+00 6.34171E+00 1.27566E+01 4.25023E+00
 -1       180 9.88412E-01 3.35871E+01-2.22004E+00 6.62283E+00 9.54500E+00 2.56229E+00
 -1       181 1.20555E+00 3.54049E+01-2.95476E+00 7.23381E+00 4.46975E+00 1.04835E+00
 -1       182-5.40564E-01-2.63137E+01-2.97958E-02-1.26479E+01-1.09933E+00-1.06693E+00
 -1       183 5.01061E-01-1.01277E+01 1.59964E-01-1.63639E+01-2.29938E-01-1.63145E+00
 -1       184-5.62196E-01 6.01134E+00-4.30126E-01-1.53736E+01 5.20033E-01-1.78771E+00
 -1       185 2.69524E-01 2.60693E+01-3.25267E-01-1.11110E+01 1.11814E+00-1.33249E+00
 -1       186 1.22644E+00 3.55810E+01-2.97313E+00-7.22246E+00 4.47005E+00-1.05665E+00
 -1       187 1.00484E+00 3.37595E+01-2.23633E+00-6.61462E+00 9.59570E+00-2.57743E+00
 -1       188 1.95702E+00 2.93081E+01 3.82684E+00-6.34918E+00 1.28865E+01-4.28081E+00
 -1       189 3.99483E+00 2.26226E+01 1.15936E+01-6.41797E+00 1.13867E+01-6.09017E+00
 -1       190-3.35475E+00 1.62682E+00-9.68784E-01-7.81308E+00 4.47058E-02 2.05433E-04
 -1       191-1.95210E+00 2.33939E-01-1.24648E+00-8.91836E+00 6.98738E-04 3.97324E-02
 -1       192 2.01072E+00-7.34090E-01 1.74260E-01-8.77627E+00 1.46851E-02 3.83611E-02
 -1       193 3.72247E+00-1.82675E+00 6.86328E-01-7.36136E+00-3.95679E-02 4.28770E-03
 -1       194-3.24729E+00-2.05909E+01-1.04646E+01-6.33841E+00-1.03758E+01-6.05137E+00
 -1       195-1.34094E+00-2.54851E+01-2.69846E+00-6.49425E+00-1.17010E+01-4.31710E+00
 -1       196-5.56770E-01-2.87197E+01 2.75953E+00-6.86937E+00-8.90925E+00-2.54001E+00
 -1       197-8.73540E-01-3.05887E+01 2.98377E+00-7.48852E+00-4.54700E+00-1.03091E+00
 -1       198-6.92292E+00-9.80561E+01 1.27824E+00-1.83415E+01-2.14267E+00-5.02431E+00
 -1       199-1.00821E+01-2.02635E+01 1.43062E+00-1.78516E+01-1.00277E+00-4.51444E+00
 -1       200-9.14511E+00 4.96620E+01 1.13699E+00-1.06887E+01-2.97288E-01-4.22734E+00
 -1       201-5.05978E+00 1.14135E+02 8.39335E-01-2.24440E+00 2.08910E-01-3.92786E+00
 -1       202 9.16882E+00 1.76399E+02 3.93832E+00 2.79739E+00 6.91233E-01-1.05346E-01
 -1       203 9.19227E+00 1.73593E+02 4.13865E+00 3.27119E+00 8.20049E-01-1.25340E-01
 -1       204 9.19247E+00 1.71553E+02 4.60233E+00 3.48407E+00 6.47137E-01-1.20917E-01
 -1       205 9.20004E+00 1.70341E+02 5.02734E+00 3.57990E+00 3.43858E-01-3.42692E-02
 -1       206-4.31805E+00 1.04554E+02 1.91044E+00 9.86704E-01 1.94325E-02-4.74148E-01
 -1       207-7.88144E+00 3.89372E+01 2.00366E+00-5.43832E+00 5.51366E-02-4.84328E-01
 -1       208-8.75996E+00-3.25522E+01 1.70670E+00-1.16973E+01 9.09162E-02-4.86861E-01
 -1       209-5.68055E+00-1.11891E+02 6.09746E-01-1.33406E+01 1.30048E-01-4.83671E-01
 -1       210-2.41295E+01-2.10719E+02-1.27299E+01-1.13293E+01-2.99773E+00-1.22755E-01
 -1       211-2.38502E+01-2.08557E+02-1.18245E+01-1.13696E+01-5.64351E+00-3.05682E-01
 -1       212-2.34025E+01-2.04942E+02-1.03591E+01-1.15117E+01-7.46414E+00-4.03064E-01
 -1       213-2.28118E+01-1.99815E+02-8.51974E+00-1.19410E+01-6.65244E+00-2.04315E-01
 -1       214-1.57554E+00-2.83975E+01-6.81813E+00-2.51411E+00 2.73468E-01-3.48457E-02
 -1       215-7.06328E-01-1.07797E+01-8.92451E+00-8.16581E-01 2.59094E-01 1.79267E-02
 -1       216-1.15922E+01-1.50135E+02-4.00178E+00-2.94322E+00 7.07216E-02-2.86478E-01
 -1       217-1.08400E+01-1.39346E+02-4.20121E+00-2.92649E+00 6.37091E-02-2.67318E-01
 -1       218-1.00469E+01-1.28535E+02-4.26380E+00-2.94796E+00 5.87712E-02-2.47775E-01
 -1       219-9.21858E+00-1.17679E+02-4.22700E+00-2.96312E+00 5.62957E-02-2.27677E-01
 -1       220-8.36616E+00-1.06751E+02-4.15725E+00-2.96987E+00 5.61954E-02-2.07024E-01
 -1       221-7.49147E+00-9.56733E+01-4.12284E+00-2.97438E+00 5.90131E-02-1.85748E-01
 -1       222-6.58289E+00-8.42927E+01-4.19041E+00-2.98388E+00 6.63415E-02-1.63635E-01
 -1       223-5.59285E+00-7.23040E+01-4.41747E+00-2.99649E+00 8.16673E-02-1.40102E-01
 -1       224-4.47359E+00-5.91585E+01-4.86959E+00-3.02370E+00 1.13458E-01-1.13423E-01
 -1       225-1.76267E+01-1.89373E+02-7.43922E+00-5.90754E+00 6.66730E-02-3.29933E-01
 -1       226-1.44018E+01-1.73898E+02-4.95586E+00-3.93517E+00 9.34404E-02-3.20978E-01
 -1       227-1.36720E+00-4.36031E+01-2.89573E-01-7.61338E+00-4.26925E+00-1.03207E+00
 -1       228-3.64756E+00-5.42882E+01-1.75170E+00-7.49591E+00-4.95569E+00-1.36523E+00
 -1       229-4.89200E+00-6.24363E+01-2.45411E+00-7.26640E+00-4.74642E+00-1.55680E+00
 -1       230-5.63080E+00-7.03583E+01-2.64959E+00-7.12790E+00-4.38591E+00-1.72525E+00
 -1       231-6.28463E+00-7.88782E+01-2.76282E+00-7.03836E+00-4.06757E+00-1.91035E+00
 -1       232-6.95087E+00-8.79764E+01-2.87675E+00-6.95789E+00-3.82192E+00-2.11757E+00
 -1       233-7.64749E+00-9.74856E+01-3.02445E+00-6.88526E+00-3.65132E+00-2.33418E+00
 -1       234-8.36558E+00-1.07221E+02-3.20108E+00-6.81939E+00-3.54204E+00-2.55327E+00
 -1       235-9.08914E+00-1.17024E+02-3.39123E+00-6.75746E+00-3.48034E+00-2.77043E+00
 -1       236-9.80218E+00-1.26757E+02-3.57723E+00-6.69887E+00-3.46092E+00-2.98145E+00
 -1       237-1.04986E+01-1.36292E+02-3.74256E+00-6.65621E+00-3.49391E+00-3.17916E+00
 -1       238-1.12170E+01-1.45589E+02-3.88242E+00-6.69640E+00-3.60826E+00-3.35550E+00
 -1       239-1.20784E+01-1.54758E+02-3.98612E+00-6.95587E+00-3.86670E+00-3.45466E+00
 -1       240-1.35263E+01-1.64425E+02-4.32412E+00-7.72448E+00-4.49294E+00-3.65298E+00
 -1       241-1.65926E+01-1.76737E+02-5.08573E+00-9.70174E+00-5.50309E+00-4.08544E+00
 -1       242 6.74614E-01 1.00032E+01 9.08172E+00-6.83558E-01-2.86517E-01 1.37552E-02
 -1       243 1.60160E+00 2.81953E+01 6.89374E+00-2.41489E+00-2.96381E-01-3.68589E-02
 -1       244 4.49376E+00 5.91567E+01 4.85407E+00-2.98764E+00-1.20598E-01-1.13833E-01
 -1       245 5.59245E+00 7.23146E+01 4.40932E+00-2.98085E+00-8.64262E-02-1.40318E-01
 -1       246 6.57290E+00 8.43266E+01 4.22966E+00-2.97711E+00-7.00139E-02-1.63901E-01
 -1       247 7.47872E+00 9.57207E+01 4.26079E+00-2.97265E+00-6.17837E-02-1.86190E-01
 -1       248 8.35782E+00 1.06782E+02 4.47895E+00-2.97815E+00-5.74156E-02-2.07699E-01
 -1       249 9.23011E+00 1.17658E+02 4.87650E+00-2.99561E+00-5.43212E-02-2.28598E-01
 -1       250 1.01070E+01 1.28423E+02 5.46713E+00-3.02416E+00-5.05702E-02-2.48870E-01
 -1       251 1.09717E+01 1.39073E+02 6.26196E+00-3.04877E+00-4.44738E-02-2.68350E-01
 -1       252 1.17306E+01 1.49390E+02 7.19960E+00-3.00973E+00-3.41501E-02-2.86909E-01
 -1       253 1.27534E+01 1.67466E+02 9.18385E+00-2.39110E+00-8.82094E-03-3.15188E-01
 -1       254 1.16335E+01 1.71340E+02 8.32279E+00-1.38486E+00 4.43974E-02-3.18330E-01
 -1       255 1.13866E+01 1.76964E+02 4.89830E+00-3.60295E+00 1.12178E+00-4.12682E+00
 -1       256 1.24923E+01 1.69410E+02 4.96749E+00-5.43589E+00 2.07484E+00-3.89585E+00
 -1       257 1.22430E+01 1.59060E+02 4.56018E+00-6.32856E+00 2.67937E+00-3.60988E+00
 -1       258 1.15606E+01 1.48162E+02 4.21651E+00-6.64970E+00 3.05457E+00-3.41552E+00
 -1       259 1.07516E+01 1.37463E+02 3.89690E+00-6.75232E+00 3.25886E+00-3.18505E+00
 -1       260 9.93801E+00 1.27079E+02 3.62448E+00-6.79685E+00 3.38023E+00-2.96568E+00
 -1       261 9.14476E+00 1.16932E+02 3.38549E+00-6.82840E+00 3.47327E+00-2.75029E+00
 -1       262 8.37843E+00 1.06979E+02 3.17500E+00-6.86760E+00 3.56879E+00-2.53585E+00
 -1       263 7.64251E+00 9.72323E+01 2.99539E+00-6.91801E+00 3.69102E+00-2.32119E+00
 -1       264 6.94562E+00 8.77793E+01 2.85343E+00-6.97438E+00 3.86086E+00-2.10833E+00
 -1       265 6.30194E+00 7.87915E+01 2.75156E+00-7.02229E+00 4.09158E+00-1.90371E+00
 -1       266 5.71713E+00 7.04922E+01 2.66075E+00-7.03712E+00 4.37490E+00-1.72176E+00
 -1       267 5.13922E+00 6.30542E+01 2.51038E+00-7.02356E+00 4.66987E+00-1.56197E+00
 -1       268 4.17751E+00 5.58880E+01 1.89342E+00-7.00641E+00 4.78404E+00-1.40513E+00
 -1       269 2.11533E+00 4.66914E+01 4.72538E-01-6.84510E+00 3.96698E+00-1.12331E+00
 -1       270 4.43517E-01-2.62030E+01-2.45089E+00-6.17410E+00 8.24728E-02-1.00822E-01
 -1       271 2.19304E-01-8.80900E+00-8.03813E-01-9.72638E+00 2.58986E-02-1.21091E-01
 -1       272-3.47468E-01 2.61268E+01 2.46042E+00-6.08203E+00-9.15402E-02-1.02487E-01
 -1       273-1.95495E-01 2.79277E+01 1.28336E+00-9.69952E+00 8.85049E-03-4.37532E-01
 -1       274 3.30807E-03 2.62529E+01 9.02393E-01-9.68491E+00 1.31004E-03-4.08989E-01
 -1       275 2.81553E-02 2.44925E+01 6.08026E-01-9.62800E+00-3.29223E-03-3.78939E-01
 -1       276 1.44894E-02 2.26099E+01 4.15244E-01-9.58444E+00-5.94494E-03-3.47801E-01
 -1       277-2.42702E-03 2.06063E+01 3.10284E-01-9.56291E+00-7.59258E-03-3.15912E-01
 -1       278-1.66298E-02 1.84993E+01 2.80581E-01-9.57032E+00-9.07001E-03-2.83355E-01
 -1       279-2.98026E-02 1.62876E+01 3.17483E-01-9.61679E+00-1.11309E-02-2.49885E-01
 -1       280-3.99952E-02 1.39464E+01 4.18388E-01-9.70690E+00-1.46404E-02-2.14469E-01
 -1       281-7.80189E-02 1.13814E+01 5.57245E-01-9.81136E+00-2.08110E-02-1.74209E-01
 -1       282-6.75410E-01-9.50830E+01 1.11792E+00-7.52612E+00 5.13668E-02-3.92414E-01
 -1       283-7.80212E-01-3.24472E+01 1.44831E+00-1.10391E+01 3.38216E-02-4.62255E-01
 -1       284-6.76145E-01 9.12562E+01 2.00883E+00-6.92571E+00 4.81017E-03-3.91584E-01
 -1       285-3.18891E+01-2.10342E+02-8.92112E+00-2.64612E+01-5.99385E+00-6.32079E+00
 -1       286-4.06744E+01-2.19310E+02-9.91830E+00-4.05525E+01-4.70247E+00-7.14635E+00
 -1       287-5.07693E+01-2.23056E+02-1.04192E+01-5.57609E+01-3.48081E+00-7.68577E+00
 -1       288-6.32275E+01-2.23168E+02-1.08048E+01-7.12510E+01-2.39168E+00-8.10664E+00
 -1       289-7.84404E+01-2.20194E+02-1.11940E+01-8.62629E+01-1.35550E+00-8.43879E+00
 -1       290-9.64137E+01-2.14305E+02-1.16046E+01-1.00112E+02-3.19316E-01-8.67168E+00
 -1       291-1.16927E+02-2.05614E+02-1.20251E+01-1.12168E+02 7.36467E-01-8.78573E+00
 -1       292-1.39606E+02-1.94327E+02-1.24395E+01-1.21853E+02 1.80944E+00-8.76509E+00
 -1       293-1.63955E+02-1.80783E+02-1.28346E+01-1.28659E+02 2.88571E+00-8.60024E+00
 -1       294-1.89383E+02-1.65452E+02-1.32017E+01-1.32172E+02 3.94618E+00-8.28736E+00
 -1       295-2.15220E+02-1.48909E+02-1.35351E+01-1.32093E+02 4.97002E+00-7.82746E+00
 -1       296-2.40744E+02-1.31806E+02-1.38310E+01-1.28254E+02 5.93607E+00-7.22541E+00
 -1       297-2.65206E+02-1.14832E+02-1.40871E+01-1.20629E+02 6.82379E+00-6.48934E+00
 -1       298-2.87857E+02-9.86814E+01-1.43007E+01-1.09342E+02 7.61383E+00-5.63125E+00
 -1       299-3.07987E+02-8.40268E+01-1.44709E+01-9.46595E+01 8.28872E+00-4.66607E+00
 -1       300-3.24948E+02-7.14802E+01-1.45965E+01-7.69862E+01 8.83349E+00-3.61085E+00
 -1       301-3.38177E+02-6.15687E+01-1.46759E+01-5.68494E+01 9.23592E+00-2.48523E+00
 -1       302-3.47232E+02-5.47109E+01-1.47098E+01-3.48803E+01 9.48744E+00-1.30971E+00
 -1       303-3.51780E+02-5.11855E+01-1.46954E+01-1.17934E+01 9.58163E+00-1.04896E-01
 -1       304-3.51673E+02-5.11508E+01-1.46487E+01 1.16824E+01 9.52904E+00 1.08294E+00
 -1       305-3.46967E+02-5.46198E+01-1.45875E+01 3.47988E+01 9.35598E+00 2.23520E+00
 -1       306-3.37842E+02-6.14456E+01-1.44837E+01 5.67806E+01 9.02745E+00 3.32914E+00
 -1       307-3.24595E+02-7.13368E+01-1.43466E+01 7.69129E+01 8.55908E+00 4.36803E+00
 -1       308-3.07631E+02-8.38647E+01-1.41732E+01 9.45776E+01 7.96207E+00 5.33344E+00
 -1       309-2.87505E+02-9.85011E+01-1.39651E+01 1.09251E+02 7.24977E+00 6.20761E+00
 -1       310-2.64863E+02-1.14634E+02-1.37239E+01 1.20529E+02 6.43710E+00 6.97587E+00
 -1       311-2.40415E+02-1.31591E+02-1.34504E+01 1.28146E+02 5.54080E+00 7.62559E+00
 -1       312-2.14908E+02-1.48678E+02-1.31470E+01 1.31979E+02 4.57929E+00 8.14674E+00
 -1       313-1.89091E+02-1.65206E+02-1.28162E+01 1.32055E+02 3.57163E+00 8.53275E+00
 -1       314-1.63686E+02-1.80526E+02-1.24610E+01 1.28541E+02 2.53742E+00 8.78025E+00
 -1       315-1.39362E+02-1.94060E+02-1.20868E+01 1.21736E+02 1.49592E+00 8.88915E+00
 -1       316-1.16710E+02-2.05340E+02-1.17017E+01 1.12055E+02 4.64304E-01 8.86384E+00
 -1       317-9.62238E+01-2.14026E+02-1.13176E+01 1.00005E+02-5.45224E-01 8.71401E+00
 -1       318-7.82774E+01-2.19914E+02-1.09488E+01 8.61628E+01-1.53210E+00 8.45522E+00
 -1       319-6.30905E+01-2.22888E+02-1.06036E+01 7.11590E+01-2.51788E+00 8.10646E+00
 -1       320-5.06563E+01-2.22780E+02-1.02613E+01 5.56775E+01-3.55749E+00 7.67763E+00
 -1       321-4.05842E+01-2.19046E+02-9.80286E+00 4.04761E+01-4.73214E+00 7.13882E+00
 -1       322-3.18276E+01-2.10111E+02-8.85438E+00 2.63837E+01-5.97986E+00 6.32349E+00
 -1       323-3.36533E+01-2.34904E+02-2.03680E+01 2.43039E+01 1.70598E-01 4.60528E-01
 -1       324-4.33105E+01-2.49888E+02-2.44206E+01 4.16115E+01 1.92014E-01 4.73497E-01
 -1       325-5.48397E+01-2.57443E+02-2.66280E+01 6.06517E+01 2.19625E-01 4.82889E-01
 -1       326-6.94408E+01-2.59568E+02-2.81427E+01 8.00729E+01 2.52307E-01 4.88196E-01
 -1       327-8.75580E+01-2.57097E+02-2.94560E+01 9.88575E+01 2.89459E-01 4.89101E-01
 -1       328-1.09164E+02-2.50401E+02-3.07206E+01 1.16111E+02 3.30022E-01 4.85185E-01
 -1       329-1.33963E+02-2.39801E+02-3.19604E+01 1.31015E+02 3.72717E-01 4.76129E-01
 -1       330-1.61464E+02-2.25715E+02-3.31598E+01 1.42825E+02 4.16434E-01 4.61767E-01
 -1       331-1.91020E+02-2.08711E+02-3.42976E+01 1.50898E+02 4.60095E-01 4.42013E-01
 -1       332-2.21853E+02-1.89488E+02-3.53563E+01 1.54719E+02 5.02655E-01 4.17024E-01
 -1       333-2.53080E+02-1.68860E+02-3.63223E+01 1.53930E+02 5.43271E-01 3.86921E-01
 -1       334-2.83751E+02-1.47712E+02-3.71861E+01 1.48352E+02 5.81120E-01 3.52061E-01
 -1       335-3.12882E+02-1.26963E+02-3.79385E+01 1.37998E+02 6.15607E-01 3.12704E-01
 -1       336-3.39501E+02-1.07527E+02-3.85721E+01 1.23080E+02 6.46147E-01 2.69260E-01
 -1       337-3.62692E+02-9.02666E+01-3.90798E+01 1.04005E+02 6.72132E-01 2.22410E-01
 -1       338-3.81632E+02-7.59507E+01-3.94542E+01 8.13614E+01 6.93211E-01 1.72715E-01
 -1       339-3.95618E+02-6.52107E+01-3.96816E+01 5.58947E+01 7.08940E-01 1.20852E-01
 -1       340-4.04095E+02-5.85171E+01-3.97446E+01 2.84775E+01 7.19136E-01 6.75671E-02
 -1       341-4.05041E+02-5.86572E+01-3.99672E+01-2.69652E+01 7.21432E-01-3.99162E-02
 -1       342-3.97030E+02-6.45669E+01-3.96773E+01-5.31541E+01 7.17123E-01-9.32098E-02
 -1       343-3.84208E+02-7.42329E+01-3.93207E+01-7.76445E+01 7.07199E-01-1.44916E-01
 -1       344-3.66925E+02-8.72405E+01-3.88814E+01-9.96897E+01 6.91692E-01-1.94745E-01
 -1       345-3.45705E+02-1.03045E+02-3.83495E+01-1.18634E+02 6.70755E-01-2.42287E-01
 -1       346-3.21212E+02-1.21003E+02-3.77245E+01-1.33942E+02 6.44754E-01-2.86948E-01
 -1       347-2.94207E+02-1.40391E+02-3.70084E+01-1.45223E+02 6.14132E-01-3.28360E-01
 -1       348-2.65506E+02-1.60435E+02-3.62043E+01-1.52239E+02 5.79350E-01-3.65928E-01
 -1       349-2.35949E+02-1.80342E+02-3.53161E+01-1.54915E+02 5.41049E-01-3.99346E-01
 -1       350-2.06370E+02-1.99336E+02-3.43509E+01-1.53336E+02 4.99928E-01-4.28156E-01
 -1       351-1.77555E+02-2.16686E+02-3.33178E+01-1.47737E+02 4.56662E-01-4.52234E-01
 -1       352-1.50225E+02-2.31737E+02-3.22287E+01-1.38494E+02 4.11998E-01-4.71452E-01
 -1       353-1.24999E+02-2.43934E+02-3.10994E+01-1.26096E+02 3.66922E-01-4.85755E-01
 -1       354-1.02387E+02-2.52841E+02-2.99485E+01-1.11132E+02 3.22486E-01-4.95180E-01
 -1       355-8.27589E+01-2.58135E+02-2.87841E+01-9.42613E+01 2.79861E-01-4.99907E-01
 -1       356-6.63178E+01-2.59555E+02-2.75698E+01-7.62023E+01 2.40114E-01-5.00302E-01
 -1       357-5.30250E+01-2.56750E+02-2.61378E+01-5.77400E+01 2.04148E-01-4.96841E-01
 -1       358-4.24214E+01-2.48925E+02-2.40034E+01-3.97777E+01 1.72530E-01-4.89945E-01
 -1       359-3.33581E+01-2.34217E+02-2.00794E+01-2.35199E+01 1.46566E-01-4.80420E-01
 -1       360 7.19982E+00 1.80880E+02 3.60186E+00-1.15827E+01 9.91495E-01 3.84361E+00
 -1       361 8.96836E+00 1.84781E+02 3.35787E+00-2.57528E+01 1.82506E+00 3.82230E+00
 -1       362 1.45076E+01 1.88053E+02 3.51461E+00-4.12102E+01 2.49358E+00 3.82419E+00
 -1       363 2.32787E+01 1.88584E+02 3.72572E+00-5.71749E+01 3.00321E+00 3.78730E+00
 -1       364 3.51376E+01 1.85819E+02 3.93064E+00-7.27988E+01 3.41988E+00 3.71417E+00
 -1       365 4.99154E+01 1.79720E+02 4.11501E+00-8.73483E+01 3.78021E+00 3.61002E+00
 -1       366 6.73674E+01 1.70486E+02 4.28037E+00-1.00172E+02 4.10358E+00 3.47911E+00
 -1       367 8.71468E+01 1.58455E+02 4.43080E+00-1.10686E+02 4.39976E+00 3.32418E+00
 -1       368 1.08796E+02 1.44067E+02 4.56980E+00-1.18380E+02 4.67324E+00 3.14687E+00
 -1       369 1.31755E+02 1.27860E+02 4.69944E+00-1.22832E+02 4.92558E+00 2.94830E+00
 -1       370 1.55372E+02 1.10449E+02 4.82043E+00-1.23730E+02 5.15715E+00 2.72920E+00
 -1       371 1.78938E+02 9.25095E+01 4.93302E+00-1.20894E+02 5.36719E+00 2.49097E+00
 -1       372 2.01705E+02 7.47525E+01 5.03684E+00-1.14284E+02 5.55437E+00 2.23510E+00
 -1       373 2.22928E+02 5.78918E+01 5.13143E+00-1.04010E+02 5.71756E+00 1.96290E+00
 -1       374 2.41890E+02 4.26162E+01 5.21650E+00-9.03318E+01 5.85533E+00 1.67677E+00
 -1       375 2.57937E+02 2.95541E+01 5.29070E+00-7.36480E+01 5.96652E+00 1.37880E+00
 -1       376 2.70501E+02 1.92456E+01 5.35238E+00-5.44818E+01 6.04920E+00 1.06969E+00
 -1       377 2.79150E+02 1.21266E+01 5.40381E+00-3.34692E+01 6.10567E+00 7.54651E-01
 -1       378 2.83641E+02 8.50614E+00 5.46035E+00-1.13119E+01 6.06591E+00 4.59168E-01
 -1       379 2.83762E+02 8.52262E+00 5.49455E+00 1.12599E+01 6.06307E+00 1.16552E-01
 -1       380 2.79426E+02 1.21742E+01 5.52049E+00 3.34613E+01 6.09427E+00-2.22263E-01
 -1       381 2.70807E+02 1.93098E+01 5.52010E+00 5.45105E+01 6.08645E+00-5.63792E-01
 -1       382 2.58253E+02 2.96387E+01 5.50022E+00 7.37067E+01 6.04483E+00-9.05105E-01
 -1       383 2.42210E+02 4.27271E+01 5.46199E+00 9.04173E+01 5.96815E+00-1.24134E+00
 -1       384 2.23242E+02 5.80301E+01 5.40530E+00 1.04117E+02 5.85697E+00-1.56922E+00
 -1       385 2.02005E+02 7.49173E+01 5.33114E+00 1.14406E+02 5.71257E+00-1.88476E+00
 -1       386 1.79218E+02 9.26994E+01 5.23997E+00 1.21026E+02 5.53662E+00-2.18406E+00
 -1       387 1.55629E+02 1.10661E+02 5.13251E+00 1.23866E+02 5.33073E+00-2.46432E+00
 -1       388 1.31985E+02 1.28093E+02 5.00946E+00 1.22967E+02 5.09704E+00-2.72267E+00
 -1       389 1.08998E+02 1.44315E+02 4.87096E+00 1.18509E+02 4.83713E+00-2.95693E+00
 -1       390 8.73204E+01 1.58714E+02 4.71688E+00 1.10805E+02 4.55147E+00-3.16560E+00
 -1       391 6.75135E+01 1.70751E+02 4.54583E+00 1.00277E+02 4.23951E+00-3.34697E+00
 -1       392 5.00352E+01 1.79985E+02 4.35472E+00 8.74367E+01 3.89770E+00-3.49908E+00
 -1       393 3.52329E+01 1.86076E+02 4.13967E+00 7.28674E+01 3.51746E+00-3.61892E+00
 -1       394 2.33513E+01 1.88825E+02 3.89871E+00 5.72215E+01 3.08085E+00-3.70214E+00
 -1       395 1.45597E+01 1.88267E+02 3.64577E+00 4.12332E+01 2.55293E+00-3.74381E+00
 -1       396 9.00393E+00 1.84963E+02 3.44278E+00 2.57537E+01 1.86981E+00-3.74373E+00
 -1       397 7.22187E+00 1.81014E+02 3.63968E+00 1.15618E+01 1.02352E+00-3.76234E+00
 -1       398 2.56145E+02 1.06172E+01 6.71368E+00-2.05925E+01 6.54832E-01 7.67040E-02
 -1       399 2.50109E+02 1.57227E+01 6.77750E+00-4.05536E+01 6.45347E-01 1.30376E-01
 -1       400 2.40135E+02 2.39224E+01 6.77107E+00-5.90328E+01 6.30114E-01 1.82154E-01
 -1       401 2.26671E+02 3.48723E+01 6.72181E+00-7.54270E+01 6.09319E-01 2.31692E-01
 -1       402 2.10230E+02 4.81100E+01 6.64055E+00-8.91907E+01 5.83321E-01 2.78367E-01
 -1       403 1.91405E+02 6.30621E+01 6.52768E+00-9.98921E+01 5.52441E-01 3.21455E-01
 -1       404 1.70863E+02 7.90884E+01 6.38286E+00-1.07231E+02 5.17145E-01 3.60604E-01
 -1       405 1.49313E+02 9.55099E+01 6.20391E+00-1.11050E+02 4.78097E-01 3.95034E-01
 -1       406 1.27472E+02 1.11643E+02 5.98612E+00-1.11339E+02 4.35911E-01 4.24503E-01
 -1       407 1.06038E+02 1.26831E+02 5.72108E+00-1.08232E+02 3.91287E-01 4.48646E-01
 -1       408 8.56527E+01 1.40476E+02 5.39532E+00-1.01995E+02 3.45284E-01 4.67166E-01
 -1       409 6.68792E+01 1.52056E+02 4.98722E+00-9.30072E+01 2.98764E-01 4.79967E-01
 -1       410 5.01782E+01 1.61154E+02 4.46713E+00-8.17391E+01 2.52695E-01 4.87182E-01
 -1       411 3.58997E+01 1.67467E+02 3.80136E+00-6.87309E+01 2.08375E-01 4.88902E-01
 -1       412 2.42891E+01 1.70839E+02 2.97373E+00-5.45781E+01 1.67045E-01 4.85399E-01
 -1       413 1.55178E+01 1.71361E+02 2.04970E+00-3.99340E+01 1.29708E-01 4.76997E-01
 -1       414 9.74430E+00 1.69648E+02 1.33233E+00-2.55394E+01 9.68512E-02 4.63730E-01
 -1       415 7.54651E+00 1.67830E+02 1.86042E+00-1.20921E+01 6.89857E-02 4.46596E-01
 -1       416 7.40114E+00 1.67939E+02 1.86589E+00 1.15087E+01 6.48254E-02-4.62096E-01
 -1       417 9.20199E+00 1.69564E+02 1.17327E+00 2.41637E+01 9.31793E-02-4.73306E-01
 -1       418 1.43085E+01 1.71392E+02 1.75649E+00 3.77848E+01 1.24596E-01-4.82653E-01
 -1       419 2.21568E+01 1.71331E+02 2.59571E+00 5.17407E+01 1.60216E-01-4.89209E-01
 -1       420 3.25960E+01 1.68740E+02 3.37298E+00 6.53782E+01 2.00287E-01-4.92251E-01
 -1       421 4.54907E+01 1.63479E+02 4.00866E+00 7.81226E+01 2.43992E-01-4.91011E-01
 -1       422 6.06539E+01 1.55642E+02 4.50965E+00 8.94500E+01 2.90062E-01-4.84844E-01
 -1       423 7.78165E+01 1.45453E+02 4.90509E+00 9.88805E+01 3.37244E-01-4.73270E-01
 -1       424 9.66189E+01 1.33235E+02 5.22373E+00 1.05985E+02 3.84363E-01-4.56072E-01
 -1       425 1.16613E+02 1.19401E+02 5.48760E+00 1.10402E+02 4.30299E-01-4.33187E-01
 -1       426 1.37277E+02 1.04435E+02 5.71190E+00 1.11853E+02 4.74082E-01-4.04732E-01
 -1       427 1.58034E+02 8.88787E+01 5.90650E+00 1.10163E+02 5.14781E-01-3.71041E-01
 -1       428 1.78273E+02 7.33087E+01 6.07758E+00 1.05268E+02 5.51679E-01-3.32448E-01
 -1       429 1.97377E+02 5.83143E+01 6.22933E+00 9.72232E+01 5.84030E-01-2.89384E-01
 -1       430 2.14744E+02 4.44705E+01 6.36369E+00 8.62036E+01 6.11172E-01-2.42692E-01
 -1       431 2.29812E+02 3.23148E+01 6.48223E+00 7.24995E+01 6.32646E-01-1.92692E-01
 -1       432 2.42085E+02 2.23229E+01 6.58580E+00 5.65082E+01 6.47999E-01-1.40247E-01
 -1       433 2.51168E+02 1.49022E+01 6.68471E+00 3.87177E+01 6.56859E-01-8.62504E-02
 -1       434 2.56882E+02 1.03763E+01 6.82885E+00 1.97421E+01 6.57741E-01-3.24321E-02
 -1       435 1.64618E+02-1.21790E+01 4.46607E+00-5.71720E-01 7.01702E-01 2.01034E-02
 -1       436 6.08104E+01-2.27128E+01 4.12496E+00-5.86743E-01 7.26843E-01 1.83913E-02
 -1       437-5.95512E+01-2.57165E+01 2.44696E+00-5.48871E-01 7.36798E-01 1.65359E-02
 -1       438-2.02339E+02-1.62506E+01-1.56750E+00-4.24596E-01 7.36468E-01 1.46339E-02
 -1       439 9.20800E+00 1.70671E+02 5.27788E+00 3.59049E+00-4.31567E-01 6.90811E-02
 -1       440 9.26041E+00 1.72622E+02 4.81715E+00 3.41001E+00-7.69472E-01 1.09320E-01
 -1       441 9.42422E+00 1.75948E+02 4.73555E+00 2.95468E+00-7.55423E-01 1.08795E-01
 -1       442 7.24896E+00 1.81090E+02 4.35226E+00 1.15969E+01-1.18325E+00 4.49186E+00
 -1       443 9.04895E+00 1.85000E+02 4.20887E+00 2.58174E+01-2.13366E+00 4.47443E+00
 -1       444 1.46437E+01 1.88333E+02 4.53105E+00 4.13115E+01-2.93110E+00 4.47828E+00
 -1       445 2.34721E+01 1.88920E+02 4.89179E+00 5.73042E+01-3.56284E+00 4.43361E+00
 -1       446 3.53838E+01 1.86190E+02 5.21955E+00 7.29505E+01-4.09111E+00 4.33925E+00
 -1       447 5.02111E+01 1.80109E+02 5.50534E+00 8.75180E+01-4.55312E+00 4.20065E+00
 -1       448 6.77106E+01 1.70882E+02 5.75580E+00 1.00355E+02-4.96917E+00 4.02271E+00
 -1       449 8.75359E+01 1.58848E+02 5.97811E+00 1.10879E+02-5.34952E+00 3.80869E+00
 -1       450 1.09230E+02 1.44452E+02 6.17719E+00 1.18578E+02-5.69816E+00 3.56099E+00
 -1       451 1.32229E+02 1.28231E+02 6.35526E+00 1.23029E+02-6.01598E+00 3.28131E+00
 -1       452 1.55885E+02 1.10801E+02 6.51305E+00 1.23922E+02-6.30222E+00 2.97165E+00
 -1       453 1.79483E+02 9.28408E+01 6.65057E+00 1.21075E+02-6.55471E+00 2.63464E+00
 -1       454 2.02278E+02 7.50601E+01 6.76698E+00 1.14449E+02-6.77096E+00 2.27359E+00
 -1       455 2.23519E+02 5.81741E+01 6.86154E+00 1.04153E+02-6.94875E+00 1.89224E+00
 -1       456 2.42491E+02 4.28721E+01 6.93371E+00 9.04467E+01-7.08590E+00 1.49511E+00
 -1       457 2.58535E+02 2.97844E+01 6.98241E+00 7.37296E+01-7.18075E+00 1.08739E+00
 -1       458 2.71088E+02 1.94558E+01 7.00750E+00 5.45272E+01-7.23266E+00 6.73457E-01
 -1       459 2.79704E+02 1.23197E+01 7.00773E+00 3.34717E+01-7.24242E+00 2.59540E-01
 -1       460 2.84033E+02 8.66657E+00 6.97713E+00 1.12636E+01-7.20709E+00-1.50866E-01
 -1       461 2.83905E+02 8.64810E+00 6.93644E+00-1.13131E+01-7.19504E+00-5.62878E-01
 -1       462 2.79405E+02 1.22642E+01 6.87145E+00-3.34720E+01-7.22824E+00-9.18306E-01
 -1       463 2.70749E+02 1.93785E+01 6.81114E+00-5.44857E+01-7.16065E+00-1.29792E+00
 -1       464 2.58182E+02 2.96823E+01 6.73606E+00-7.36542E+01-7.05839E+00-1.67076E+00
 -1       465 2.42132E+02 4.27394E+01 6.64422E+00-9.03413E+01-6.92183E+00-2.02917E+00
 -1       466 2.23166E+02 5.80095E+01 6.53788E+00-1.04024E+02-6.75292E+00-2.37263E+00
 -1       467 2.01940E+02 7.48643E+01 6.41865E+00-1.14303E+02-6.55325E+00-2.69844E+00
 -1       468 1.79168E+02 9.26156E+01 6.28698E+00-1.20919E+02-6.32459E+00-3.00403E+00
 -1       469 1.55596E+02 1.10549E+02 6.14332E+00-1.23761E+02-6.06845E+00-3.28761E+00
 -1       470 1.31971E+02 1.27956E+02 5.98822E+00-1.22870E+02-5.78657E+00-3.54728E+00
 -1       471 1.09004E+02 1.44159E+02 5.82111E+00-1.18426E+02-5.47998E+00-3.78161E+00
 -1       472 8.73428E+01 1.58542E+02 5.64066E+00-1.10739E+02-5.14831E+00-3.98963E+00
 -1       473 6.75490E+01 1.70569E+02 5.44386E+00-1.00232E+02-4.78959E+00-4.17015E+00
 -1       474 5.00791E+01 1.79795E+02 5.22514E+00-8.74133E+01-4.39849E+00-4.32133E+00
 -1       475 3.52793E+01 1.85882E+02 4.97699E+00-7.28669E+01-3.96354E+00-4.44011E+00
 -1       476 2.33927E+01 1.88624E+02 4.69324E+00-5.72431E+01-3.46297E+00-4.52157E+00
 -1       477 1.45871E+01 1.88057E+02 4.38362E+00-4.12732E+01-2.85813E+00-4.55982E+00
 -1       478 9.01171E+00 1.84749E+02 4.11791E+00-2.58001E+01-2.08450E+00-4.55376E+00
 -1       479 7.22775E+00 1.80876E+02 4.31559E+00-1.16003E+01-1.15685E+00-4.57312E+00
 -1       480 9.44353E+00 1.75852E+02 4.75996E+00-3.04102E+00-7.71374E-01-1.49728E-01
 -1       481 9.30357E+00 1.72555E+02 4.88181E+00-3.57282E+00-7.96295E-01-1.49556E-01
 -1       482 9.27304E+00 1.70630E+02 5.41140E+00-3.83131E+00-4.62090E-01-1.14918E-01
 -1       483-2.31873E+01-2.01629E+02-9.90908E+00-1.16218E+01 6.78139E+00 1.78626E-01
 -1       484-2.37380E+01-2.07174E+02-1.17130E+01-1.14241E+01 6.60554E+00 3.13383E-01
 -1       485-2.41147E+01-2.10489E+02-1.30093E+01-1.13145E+01 3.65195E+00 1.75087E-01
 -1       486-3.20031E+01-2.11082E+02-1.03808E+01 2.61945E+01 6.72591E+00-7.44993E+00
 -1       487-4.07876E+01-2.20177E+02-1.14960E+01 4.03986E+01 5.35197E+00-8.40923E+00
 -1       488-5.08738E+01-2.23937E+02-1.20018E+01 5.56997E+01 4.00796E+00-9.04767E+00
 -1       489-6.33216E+01-2.24025E+02-1.23704E+01 7.12609E+01 2.78988E+00-9.54721E+00
 -1       490-7.85339E+01-2.21024E+02-1.27538E+01 8.63366E+01 1.62609E+00-9.94634E+00
 -1       491-9.65223E+01-2.15107E+02-1.31754E+01 1.00248E+02 4.62464E-01-1.02376E+01
 -1       492-1.17068E+02-2.06387E+02-1.36212E+01 1.12364E+02-7.23614E-01-1.04014E+01
 -1       493-1.39795E+02-1.95063E+02-1.40715E+01 1.22105E+02-1.93169E+00-1.04209E+01
 -1       494-1.64207E+02-1.81475E+02-1.45104E+01 1.28959E+02-3.14866E+00-1.02851E+01
 -1       495-1.89711E+02-1.66092E+02-1.49278E+01 1.32510E+02-4.35521E+00-9.98887E+00
 -1       496-2.15633E+02-1.49493E+02-1.53169E+01 1.32455E+02-5.52951E+00-9.53219E+00
 -1       497-2.41249E+02-1.32330E+02-1.56738E+01 1.28625E+02-6.64923E+00-8.91894E+00
 -1       498-2.65803E+02-1.15295E+02-1.59954E+01 1.20994E+02-7.69234E+00-8.15685E+00
 -1       499-2.88546E+02-9.90868E+01-1.62791E+01 1.09682E+02-8.63764E+00-7.25755E+00
 -1       500-3.08763E+02-8.43806E+01-1.65235E+01 9.49579E+01-9.46566E+00-6.23569E+00
 -1       501-3.25804E+02-7.17919E+01-1.67267E+01 7.72266E+01-1.01593E+01-5.10838E+00
 -1       502-3.39112E+02-6.18523E+01-1.68867E+01 5.70146E+01-1.07031E+01-3.89604E+00
 -1       503-3.48281E+02-5.49938E+01-1.70079E+01 3.49433E+01-1.10842E+01-2.61761E+00
 -1       504-3.53016E+02-5.15110E+01-1.70888E+01 1.17333E+01-1.12891E+01-1.27311E+00
 -1       505-3.53134E+02-5.15515E+01-1.71558E+01-1.18367E+01-1.13553E+01 1.18389E-01
 -1       506-3.48568E+02-5.50956E+01-1.71749E+01-3.50155E+01-1.12451E+01 1.52644E+00
 -1       507-3.39471E+02-6.19862E+01-1.71364E+01-5.70712E+01-1.09519E+01 2.90165E+00
 -1       508-3.26179E+02-7.19439E+01-1.70441E+01-7.72855E+01-1.04828E+01 4.21816E+00
 -1       509-3.09140E+02-8.45485E+01-1.68976E+01-9.50239E+01-9.84807E+00 5.45248E+00
 -1       510-2.88917E+02-9.92697E+01-1.66981E+01-1.09756E+02-9.06214E+00 6.58182E+00
 -1       511-2.66164E+02-1.15492E+02-1.64472E+01-1.21076E+02-8.14212E+00 7.58639E+00
 -1       512-2.41595E+02-1.32539E+02-1.61462E+01-1.28714E+02-7.10821E+00 8.44922E+00
 -1       513-2.15960E+02-1.49712E+02-1.57974E+01-1.32549E+02-5.98294E+00 9.15654E+00
 -1       514-1.90015E+02-1.66319E+02-1.54042E+01-1.32605E+02-4.78998E+00 9.69888E+00
 -1       515-1.64484E+02-1.81704E+02-1.49711E+01-1.29054E+02-3.55351E+00 1.00707E+01
 -1       516-1.40043E+02-1.95291E+02-1.45052E+01-1.22195E+02-2.29736E+00 1.02712E+01
 -1       517-1.17285E+02-2.06606E+02-1.40177E+01-1.12448E+02-1.04295E+00 1.03046E+01
 -1       518-9.67079E+01-2.15314E+02-1.35257E+01-1.00324E+02 1.94446E-01 1.01819E+01
 -1       519-7.86886E+01-2.21211E+02-1.30513E+01-8.64024E+01 1.41229E+00 9.92031E+00
 -1       520-6.34472E+01-2.24190E+02-1.26120E+01-7.13166E+01 2.63093E+00 9.54018E+00
 -1       521-5.09734E+01-2.24076E+02-1.21878E+01-5.57462E+01 3.90217E+00 9.04982E+00
 -1       522-4.08638E+01-2.20284E+02-1.16271E+01-4.04394E+01 5.29565E+00 8.41112E+00
 -1       523-3.20510E+01-2.11141E+02-1.04492E+01-2.62400E+01 6.71411E+00 7.44195E+00
 -1       524-2.41391E+01-2.10701E+02-1.31951E+01 1.11642E+01 3.67925E+00-2.05654E-01
 -1       525-2.37534E+01-2.07321E+02-1.18287E+01 1.13185E+01 6.61631E+00-3.41881E-01
 -1       526-2.31960E+01-2.01722E+02-9.96852E+00 1.15635E+01 6.77896E+00-2.07083E-01
 -1       527-6.44398E+00-9.79223E+01 1.66186E+00 1.81030E+01 2.66294E+00-6.14920E+00
 -1       528-9.85777E+00-2.02890E+01 1.62997E+00 1.76766E+01 1.21999E+00-5.74298E+00
 -1       529-9.13474E+00 4.95446E+01 1.31850E+00 1.05690E+01 3.70988E-01-5.37581E+00
 -1       530-5.25837E+00 1.13924E+02 9.60257E-01 2.16548E+00-2.30893E-01-4.87253E+00
 -1       531-5.24879E+00 1.14060E+02 9.69372E-01-2.20353E+00-2.35397E-01 4.83045E+00
 -1       532-9.13012E+00 4.96572E+01 1.32984E+00-1.06301E+01 3.66906E-01 5.32945E+00
 -1       533-9.86399E+00-2.02110E+01 1.64033E+00-1.77460E+01 1.21603E+00 5.69612E+00
 -1       534-6.45390E+00-9.78809E+01 1.67181E+00-1.81607E+01 2.66184E+00 6.10892E+00
 -1       535-1.65740E+01-1.76940E+02-5.69592E+00 9.48097E+00 6.25394E+00-4.89791E+00
 -1       536-1.34962E+01-1.64588E+02-4.83668E+00 7.58462E+00 5.17706E+00-4.37285E+00
 -1       537-1.20594E+01-1.54945E+02-4.51910E+00 6.85063E+00 4.48717E+00-4.10722E+00
 -1       538-1.12183E+01-1.45804E+02-4.46094E+00 6.59641E+00 4.18268E+00-3.97257E+00
 -1       539-1.05135E+01-1.36519E+02-4.34207E+00 6.55171E+00 4.03928E+00-3.76289E+00
 -1       540-9.82644E+00-1.26990E+02-4.17563E+00 6.58905E+00 3.99009E+00-3.52819E+00
 -1       541-9.12097E+00-1.17259E+02-3.97732E+00 6.64290E+00 4.00552E+00-3.27832E+00
 -1       542-8.40466E+00-1.07456E+02-3.77216E+00 6.70028E+00 4.07303E+00-3.02086E+00
 -1       543-7.69490E+00-9.77217E+01-3.58429E+00 6.76149E+00 4.19811E+00-2.76053E+00
 -1       544-7.00816E+00-8.82128E+01-3.43382E+00 6.82921E+00 4.39640E+00-2.50219E+00
 -1       545-6.35173E+00-7.91079E+01-3.32524E+00 6.90448E+00 4.68332E+00-2.25377E+00
 -1       546-5.70263E+00-7.05580E+01-3.21452E+00 6.98851E+00 5.05170E+00-2.02961E+00
 -1       547-4.94021E+00-6.25222E+01-2.95661E+00 7.12135E+00 5.46146E+00-1.83136E+00
 -1       548-3.64499E+00-5.41547E+01-2.09879E+00 7.34241E+00 5.65637E+00-1.60368E+00
 -1       549-1.33773E+00-4.32229E+01-2.54093E-01 7.43006E+00 4.89142E+00-1.25277E+00
 -1       550-4.64990E-01-2.50911E+01 2.21608E-01 1.28476E+01 1.38350E+00-1.41040E+00
 -1       551 6.50156E-01-9.55678E+00 3.18966E-01 1.67311E+01 2.67767E-01-2.00629E+00
 -1       552-5.12221E-01 5.30775E+00-5.40834E-01 1.59231E+01-6.81960E-01-2.24048E+00
 -1       553 5.54301E-02 2.42116E+01-8.45491E-01 1.13571E+01-1.56627E+00-1.79586E+00
 -1       554 2.12174E+00 4.63247E+01 4.10320E-01 6.59015E+00-4.52278E+00-1.38031E+00
 -1       555 4.20982E+00 5.57064E+01 2.23080E+00 6.82429E+00-5.44354E+00-1.65341E+00
 -1       556 5.19097E+00 6.30332E+01 2.98906E+00 6.86556E+00-5.36671E+00-1.83726E+00
 -1       557 5.78617E+00 7.05725E+01 3.20687E+00 6.89411E+00-5.03649E+00-2.02462E+00
 -1       558 6.36430E+00 7.89012E+01 3.29879E+00 6.88794E+00-4.71095E+00-2.24531E+00
 -1       559 6.99901E+00 8.78989E+01 3.39794E+00 6.84592E+00-4.44188E+00-2.49128E+00
 -1       560 7.68769E+00 9.73553E+01 3.54509E+00 6.79402E+00-4.24322E+00-2.74610E+00
 -1       561 8.41797E+00 1.07107E+02 3.74111E+00 6.74712E+00-4.09960E+00-3.00250E+00
 -1       562 9.18192E+00 1.17069E+02 3.97936E+00 6.71054E+00-3.98593E+00-3.25839E+00
 -1       563 9.97693E+00 1.27235E+02 4.25921E+00 6.68080E+00-3.87303E+00-3.51519E+00
 -1       564 1.07985E+01 1.37653E+02 4.59040E+00 6.63836E+00-3.72428E+00-3.77637E+00
 -1       565 1.16246E+01 1.48407E+02 4.99507E+00 6.53960E+00-3.47369E+00-4.04720E+00
 -1       566 1.23345E+01 1.59382E+02 5.46510E+00 6.22522E+00-3.02466E+00-4.28486E+00
 -1       567 1.26230E+01 1.69814E+02 6.04585E+00 5.34905E+00-2.32819E+00-4.62905E+00
 -1       568 1.15284E+01 1.77338E+02 6.05620E+00 3.54475E+00-1.29244E+00-4.88950E+00
 -1       569 1.76234E+00 3.55070E+01-2.47286E+00 7.47300E+00-5.59390E+00-1.41560E+00
 -1       570 2.05205E+00 3.27274E+01 9.88749E-01 6.88245E+00-1.11307E+01-3.12645E+00
 -1       571 3.59814E+00 2.55578E+01 9.53504E+00 7.18171E+00-1.22998E+01-5.23811E+00
 -1       572-2.81660E+00-2.21718E+01-8.06382E+00 6.90372E+00 1.10780E+01-5.31474E+00
 -1       573-1.06494E+00-2.70646E+01 2.00157E-01 6.91271E+00 1.02508E+01-3.21211E+00
 -1       574-1.05883E+00-2.97695E+01 2.83220E+00 7.51421E+00 5.53919E+00-1.37936E+00
 -1       575-9.59142E+00-7.58695E+00-1.21323E+00 1.15265E+01 7.87811E-01-1.36141E-01
 -1       576-1.87319E+01-7.95639E-01-1.21070E+00 1.40922E+01 2.81876E-01 4.12271E-01
 -1       577-3.51146E+01 3.91907E+00-2.77484E+00 1.42503E+01-2.41970E-01 2.10978E+00
 -1       578-6.73539E+01 2.49701E+00-5.32784E+00 1.05610E+01-1.77211E-01 3.01842E+00
 -1       579-1.03701E+02-3.68316E+01-2.53050E+01 3.87688E+00-2.03834E+00-1.55587E+00
 -1       580-1.02075E+02-3.45236E+01-3.02983E+01 4.08344E+00-9.40724E-01-1.39774E+00
 -1       581-9.98274E+01-2.67284E+01-2.39548E+01 4.91239E+00 4.93467E-02-1.07381E+00
 -1       582-6.97505E+01 3.59152E+00-7.48352E+00 1.33350E+01-1.71416E+00-6.44838E+00
 -1       583-3.57437E+01 1.94990E+00-3.02108E+00 1.85171E+01-3.66256E-01-4.70922E+00
 -1       584-2.15180E+01-7.47635E+00-2.27018E+00 1.87456E+01 3.72451E-01-2.88803E+00
 -1       585-1.24834E+01-1.84894E+01-2.48193E+00 1.57628E+01 1.32969E+00-1.71354E+00
 -1       586-7.81789E+00-2.10655E+01-2.66425E+00 8.88018E+00 1.08080E+00-1.16554E+00
 -1       587-7.67272E+00-1.77912E+01-3.41206E+00 7.76896E+00 1.22831E+00-8.33138E-01
 -1       588-7.24027E+00-1.58848E+01-2.41400E+00 7.59383E+00 1.50946E+00-2.76107E-01
 -1       589 2.25864E-01-1.22159E+01-6.13133E+00 8.20536E+00 1.28537E+01-8.43677E+00
 -1       590-9.50153E+00-3.41187E+01-6.71293E+00 1.77969E+01 1.31077E+01-6.84434E+00
 -1       591-8.74720E+00-2.57957E+01-2.68903E-01 1.27809E+01 1.44575E+00-1.15633E+00
 -1       592-5.27078E+00-2.95147E+01 5.17403E-01 1.22476E+01 1.14101E+00-1.21301E+00
 -1       593 2.82563E+01 4.79415E+01 1.35802E+01 2.46207E+01-1.46583E+01-6.47807E+00
 -1       594-3.38553E+00 1.05690E+01 5.24275E+00 8.43484E+00-1.46693E+01-8.36819E+00
 -1       595 4.96769E+00 3.65649E+01-8.57904E-01 1.22753E+01-7.58091E-01-2.01113E+00
 -1       596 1.94977E+01 3.97736E+01 4.01118E+00 2.56703E+01-4.96721E+00-1.87323E+00
 -1       597 2.46674E-01 2.59866E+01-4.13295E-01-1.10155E+01-1.44526E+00 1.82161E+00
 -1       598-6.02650E-01 6.02067E+00-4.63744E-01-1.52700E+01-6.69732E-01 2.31595E+00
 -1       599 4.77828E-01-1.01010E+01 1.71445E-01-1.62458E+01 2.99815E-01 2.11623E+00
 -1       600-5.47640E-01-2.62087E+01 2.64041E-02-1.25178E+01 1.39966E+00 1.47172E+00
 -1       601-1.32793E+00-4.35726E+01-2.53168E-01-7.47313E+00 4.94994E+00 1.26604E+00
 -1       602-3.68544E+00-5.44411E+01-2.15101E+00-7.34287E+00 5.72798E+00 1.61417E+00
 -1       603-4.97446E+00-6.26580E+01-2.99803E+00-7.11815E+00 5.50576E+00 1.83297E+00
 -1       604-5.72000E+00-7.05886E+01-3.23832E+00-6.98422E+00 5.07347E+00 2.02833E+00
 -1       605-6.35885E+00-7.90822E+01-3.33655E+00-6.89920E+00 4.68989E+00 2.25193E+00
 -1       606-7.01030E+00-8.81608E+01-3.43786E+00-6.82233E+00 4.39380E+00 2.50058E+00
 -1       607-7.69481E+00-9.76583E+01-3.58437E+00-6.75313E+00 4.19037E+00 2.75922E+00
 -1       608-8.40353E+00-1.07388E+02-3.77004E+00-6.69095E+00 4.06280E+00 3.01977E+00
 -1       609-9.11921E+00-1.17188E+02-3.97379E+00-6.63323E+00 3.99457E+00 3.27734E+00
 -1       610-9.82411E+00-1.26917E+02-4.17092E+00-6.57965E+00 3.97977E+00 3.52718E+00
 -1       611-1.05104E+01-1.36443E+02-4.33609E+00-6.54325E+00 4.03067E+00 3.76164E+00
 -1       612-1.12142E+01-1.45723E+02-4.45342E+00-6.58966E+00 4.17679E+00 3.97068E+00
 -1       613-1.20536E+01-1.54857E+02-4.50936E+00-6.84676E+00 4.48486E+00 4.10407E+00
 -1       614-1.34887E+01-1.64494E+02-4.82435E+00-7.58606E+00 5.17930E+00 4.36720E+00
 -1       615-1.65716E+01-1.76868E+02-5.68478E+00-9.49828E+00 6.26007E+00 4.88746E+00
 -1       616 1.15278E+01 1.77415E+02 6.05435E+00-3.55894E+00-1.29356E+00 4.88443E+00
 -1       617 1.26206E+01 1.69868E+02 6.04314E+00-5.35092E+00-2.32804E+00 4.62658E+00
 -1       618 1.23334E+01 1.59434E+02 5.46417E+00-6.22250E+00-3.01993E+00 4.28407E+00
 -1       619 1.16241E+01 1.48459E+02 4.99528E+00-6.53366E+00-3.46606E+00 4.04714E+00
 -1       620 1.07982E+01 1.37705E+02 4.59120E+00-6.63029E+00-3.71446E+00 3.77669E+00
 -1       621 9.97686E+00 1.27289E+02 4.26066E+00-6.67146E+00-3.86180E+00 3.51567E+00
 -1       622 9.18226E+00 1.17124E+02 3.98160E+00-6.70062E+00-3.97411E+00 3.25889E+00
 -1       623 8.41900E+00 1.07163E+02 3.74449E+00-6.73723E+00-4.08829E+00 3.00290E+00
 -1       624 7.69000E+00 9.74155E+01 3.55046E+00-6.78475E+00-4.23412E+00 2.74630E+00
 -1       625 7.00371E+00 8.79696E+01 3.40711E+00-6.83809E+00-4.43781E+00 2.49124E+00
 -1       626 6.37339E+00 7.89963E+01 3.31525E+00-6.88296E+00-4.71685E+00 2.24516E+00
 -1       627 5.80190E+00 7.07165E+01 3.23596E+00-6.89474E+00-5.06074E+00 2.02504E+00
 -1       628 5.21536E+00 6.32627E+01 3.03785E+00-6.88024E+00-5.42219E+00 1.84011E+00
 -1       629 4.21167E+00 5.60321E+01 2.29007E+00-6.86532E+00-5.54731E+00 1.66158E+00
 -1       630 2.08429E+00 4.66784E+01 4.65125E-01-6.72734E+00-4.64088E+00 1.38182E+00
 -1       631 3.60435E+00 2.50880E+01 9.82710E+00-6.49366E+00-1.20353E+01 5.31919E+00
 -1       632 1.59392E+00 3.23934E+01 1.25378E+00-6.46402E+00-1.14528E+01 3.26829E+00
 -1       633 1.22257E+00 3.52847E+01-2.69251E+00-6.97085E+00-5.81633E+00 1.48251E+00
 -1       634-8.29476E-01-3.01072E+01 2.94841E+00-7.19606E+00 5.68471E+00 1.46237E+00
 -1       635-1.07183E+00-2.77867E+01-3.66896E-01-6.67777E+00 1.04785E+01 3.30630E+00
 -1       636-2.93553E+00-2.26245E+01-8.72064E+00-6.49282E+00 1.09382E+01 5.32045E+00
 -1       637-1.26453E+01-1.72157E+01-3.08808E+00-1.61954E+01 8.76641E-01 1.30118E+00
 -1       638-2.15646E+01-6.47007E+00-2.44985E+00-1.92327E+01 2.38645E-01 2.37962E+00
 -1       639-3.70250E+01 2.34211E+00-3.23197E+00-1.92313E+01-2.14968E-01 4.26455E+00
 -1       640-7.37910E+01 3.10935E+00-7.29287E+00-1.52816E+01-9.94726E-01 6.22645E+00
 -1       641-1.11857E+02-3.57941E+01-2.82763E+01-9.27537E+00 3.39576E-01 1.03179E+00
 -1       642-1.14938E+02-4.39112E+01-3.67848E+01-8.66247E+00-9.35601E-01 1.34604E+00
 -1       643-1.17105E+02-4.66064E+01-3.12444E+01-8.70562E+00-2.17701E+00 1.49864E+00
 -1       644-7.28764E+01 3.26919E+00-6.64244E+00-1.16888E+01-7.35941E-01-3.76238E+00
 -1       645-3.56327E+01 4.97451E+00-3.02433E+00-1.45101E+01-2.88827E-01-2.35405E+00
 -1       646-1.82813E+01 3.62681E-03-1.00967E+00-1.44734E+01 2.97927E-01-4.56674E-01
 -1       647-9.23563E+00-6.74789E+00-1.07359E+00-1.19458E+01 8.52095E-01 4.07345E-02
 -1       648-6.78912E+00-1.39402E+01-2.00398E+00-7.89316E+00 1.70949E+00 2.61737E-01
 -1       649-7.28097E+00-1.58241E+01-2.96487E+00-8.08151E+00 1.35147E+00 7.75068E-01
 -1       650-7.65059E+00-1.90480E+01-2.85057E+00-9.19138E+00 8.81835E-01 9.16877E-01
 -1       651-4.38830E+00-3.08529E+01 7.22703E-01-1.16143E+01 1.09313E+00 1.25159E+00
 -1       652-7.88790E+00-3.05391E+01-3.29852E-01-1.31550E+01 1.07468E+00 1.29058E+00
 -1       653-9.42364E+00-2.40248E+01-6.63525E-01-1.28214E+01 1.88290E+00 1.06861E+00
 -1       654-1.24879E+01-4.09452E+01-6.33158E+00-2.03733E+01 1.08896E+01 5.21447E+00
 -1       655-5.16386E+00-2.60968E+01-8.63438E+00-1.38737E+01 1.54794E+01 8.96372E+00
 -1       656 3.25564E+00-4.10506E+00-4.03234E+00-4.79201E+00 1.16485E+01 8.49754E+00
 -1       657 1.62243E+01 3.55532E+01 5.24506E+00-3.31571E+01-7.63079E+00 1.69604E+00
 -1       658 7.48687E+00 3.94715E+01-4.96693E-02-1.50016E+01-1.49322E+00 2.43753E+00
 -1       659 5.43984E+00 3.88121E+01-8.88489E-02-1.13927E+01-2.66442E-01 1.81483E+00
 -1       660-3.48962E+00 3.06198E+00 4.23669E+00-4.57548E+00-1.25885E+01 8.77463E+00
 -1       661 2.48164E+00 2.73717E+01 8.24960E+00-1.39688E+01-1.83903E+01 9.14064E+00
 -1       662 3.02549E+01 5.72996E+01 1.40619E+01-3.23123E+01-1.06597E+01 4.70907E+00
 -1       663-5.42186E+00-2.28169E+00 3.17184E+00 3.60029E+00 1.19616E+01 8.88458E+00
 -1       664 1.76952E+00 2.39217E+01 8.53643E+00 1.34355E+01 1.86213E+01 9.62948E+00
 -1       665 2.71926E+01 5.29988E+01 1.13345E+01 3.11932E+01 1.22257E+01 5.74071E+00
 -1       666-9.82530E+01-2.68340E+01-2.07671E+01 1.30212E+01-7.36872E-01 1.19792E+00
 -1       667-1.01788E+02-3.56118E+01-3.00517E+01 1.25265E+01 4.08928E-01 1.16167E+00
 -1       668-1.03865E+02-3.94373E+01-3.15191E+01 1.25648E+01 1.36452E+00 1.53499E+00
 -1       669-1.04570E+02-3.93809E+01-2.33396E+01 1.29298E+01 2.48663E+00 1.20582E+00
 -1       670 1.42987E+01 3.28037E+01 3.34158E+00 3.25046E+01 6.80324E+00 1.28739E+00
 -1       671 7.33292E+00 3.84001E+01-6.97680E-01 1.50963E+01 1.29433E+00 1.91060E+00
 -1       672 5.57158E+00 3.88476E+01 1.35620E-01 1.14246E+01-3.18734E-02 1.41921E+00
 -1       673-1.18178E+01-3.96653E+01-5.56747E+00 2.02574E+01-1.16145E+01 5.71884E+00
 -1       674-4.34725E+00-2.30479E+01-8.72551E+00 1.32058E+01-1.58752E+01 9.53089E+00
 -1       675 5.33228E+00 1.38283E+00-2.81753E+00 3.69845E+00-1.12680E+01 8.60776E+00
 -1       676-6.57646E+00-1.25611E+01-1.75289E+00 7.61973E+00-1.77366E+00 9.25318E-02
 -1       677-6.93994E+00-1.37235E+01-2.24104E+00 7.50476E+00-1.72256E+00 4.49869E-01
 -1       678-7.47939E+00-1.57650E+01-3.26001E+00 7.91085E+00-1.23722E+00 7.82139E-01
 -1       679-8.04716E+00-1.89702E+01-3.37131E+00 9.07006E+00-9.41752E-01 6.15611E-01
 -1       680-4.63130E+00-3.12123E+01 3.07459E-01 1.16699E+01-7.45414E-01 9.76954E-01
 -1       681-7.89928E+00-3.04067E+01-2.41095E-01 1.32071E+01-8.92585E-01 1.04112E+00
 -1       682-9.29356E+00-2.35433E+01-4.02831E-01 1.29915E+01-1.77856E+00 8.44167E-01
 -1       683-6.73300E+01 2.55120E+00-4.38382E+00 1.19877E+01 1.08726E+00-3.18683E+00
 -1       684-3.55140E+01 3.95113E+00-2.94961E+00 1.39535E+01 2.87093E-01-2.19835E+00
 -1       685-1.86310E+01-5.77910E-01-1.17532E+00 1.40295E+01-2.22283E-01-6.31133E-01
 -1       686-9.30031E+00-6.69075E+00-1.13464E+00 1.15425E+01-6.31434E-01-1.76195E-01
 -1       687-1.28857E+01-1.68301E+01-3.18298E+00 1.50654E+01-7.32974E-01 7.52341E-01
 -1       688-2.11411E+01-6.72260E+00-2.30614E+00 1.79166E+01-1.64867E-01 1.60322E+00
 -1       689-3.47521E+01 1.80753E+00-2.63878E+00 1.81465E+01 4.32911E-02 3.39010E+00
 -1       690-6.66461E+01 3.04589E+00-5.47232E+00 1.56103E+01 6.31732E-01 5.96934E+00
 -1       691 2.68009E-01-7.97154E-04 1.44993E-01 1.83119E-01-3.64507E-02 4.24387E-02
 -1       692 1.78813E-01-1.96390E-01-3.63404E-01 8.02817E-02 2.01199E-02 5.52944E-02
 -1       693-3.97360E-02-4.44550E-01-6.58906E-01-1.98550E-01 5.86556E-02 2.40084E-02
 -1       694 1.18703E-01-2.64002E-01-3.97727E-01-1.73665E-01 3.17134E-03-2.34532E-02
 -1       695-2.98377E+00-2.19296E+00-1.33118E+00-3.30607E-01-7.14983E-01-2.51099E-01
 -1       696 1.88401E+01 1.02257E+01 6.47352E+00-4.31795E+00-6.80381E-01-4.28845E-01
 -1       697-1.33087E+00-6.93457E-02-9.01595E-01 1.74002E+00-1.16806E+00-2.33169E-01
 -1       698-3.36334E-01 3.13129E-01 5.28911E-01 2.12567E-01-9.62299E-01-3.93282E-02
 -1       699-2.04301E-01-4.83458E-01-4.50218E-01 1.01448E+00-1.07208E-01 1.52487E-01
 -1       700 4.32642E-02-2.36974E+00-1.92400E-01 4.42344E-01-1.66017E-01 1.04934E-01
 -1       701 1.96744E-01-1.57164E+00 2.38676E-02-3.82718E-01-1.82080E-01-7.52881E-02
 -1       702-1.43520E-01-5.72093E-02-1.20379E-01-5.11520E-01-8.96582E-02-1.27319E-01
 -1       703 1.07483E+01 1.16987E+01 2.82147E+00-1.01562E+01-2.37672E+00 3.91941E-01
 -1       704-3.51016E-01 4.32587E+00-4.99778E-01 4.35348E-01 3.53805E-01 4.19893E-01
 -1       705 6.56141E-02 2.98642E+00-1.25431E-01 4.00738E-01 2.88998E-02-2.12963E-01
 -1       706-7.14924E-01 9.10472E-01-9.54920E-01 2.71249E+00-8.60689E-01-2.70621E-01
 -1       707 1.29690E-01 2.23286E+00 1.24263E-01-3.61787E-03-5.65505E-02-2.96290E-02
 -1       708 1.27500E-01 2.31466E+00 4.06928E-01-3.11896E-02-3.69536E-01-5.02915E-02
 -1       709 1.95921E-01 1.96113E+00 7.62517E-01 1.22727E-02-6.12057E-01 1.38376E-02
 -1       710 3.60775E-01 1.36779E+00 9.69041E-01 1.36399E-01-6.05073E-01 5.75738E-03
 -1       711 4.40309E-01 1.55382E+00 6.20533E-01-2.37718E-01-5.17432E-01-3.83035E-02
 -1       712 8.67612E-01 2.87646E+00 7.39833E-01-4.71963E-02-5.29745E-01-8.96796E-02
 -1       713 6.53733E-01 3.42159E+00 2.87416E-01 7.90849E-02-2.93861E-01 2.02455E-02
 -1       714 5.72604E-01 3.36653E+00 7.11424E-02 3.49752E-02 1.56794E-01 1.28911E-02
 -1       715-4.64367E+00-3.13446E+01 3.01416E-01-1.16982E+01-7.28633E-01-9.76159E-01
 -1       716-7.93669E+00-3.06078E+01-2.55190E-01-1.32005E+01-8.48868E-01-1.04470E+00
 -1       717-9.41468E+00-2.38972E+01-4.80013E-01-1.29291E+01-1.66112E+00-8.50723E-01
 -1       718-9.27936E+00-6.76509E+00-1.08359E+00-1.20942E+01-6.77499E-01 1.39500E-02
 -1       719-1.83880E+01 1.07428E-02-1.05748E+00-1.46113E+01-2.55951E-01 4.63164E-01
 -1       720-3.57595E+01 5.07878E+00-3.18106E+00-1.46565E+01 2.61304E-01 2.23213E+00
 -1       721-7.23371E+01 4.27188E+00-5.47904E+00-1.17764E+01 5.03072E-01 3.71064E+00
 -1       722 1.57858E+01 3.50770E+01 3.88727E+00-3.34745E+01 6.90540E+00-1.43083E+00
 -1       723 7.47179E+00 3.91063E+01-6.02126E-01-1.49902E+01 1.19457E+00-1.96722E+00
 -1       724 5.68073E+00 3.92807E+01 2.04342E-01-1.13801E+01-9.31761E-02-1.44572E+00
 -1       725-1.21743E+01-3.99489E+01-5.82547E+00-2.02261E+01-1.16964E+01-5.72182E+00
 -1       726-4.45497E+00-2.32934E+01-8.87203E+00-1.32971E+01-1.58902E+01-9.58956E+00
 -1       727 4.98439E+00 6.83021E-01-3.16770E+00-3.77297E+00-1.10941E+01-8.66976E+00
 -1       728-7.28823E+01 3.68717E+00-6.46040E+00-1.52145E+01 1.04009E+00-6.38516E+00
 -1       729-3.66126E+01 2.54848E+00-3.16891E+00-1.90867E+01 1.58274E-01-3.84099E+00
 -1       730-2.15715E+01-6.41612E+00-2.36693E+00-1.90753E+01-1.99732E-01-2.03828E+00
 -1       731-1.27378E+01-1.71910E+01-2.95213E+00-1.60968E+01-8.40300E-01-1.10259E+00
 -1       732-5.19868E+00-1.81050E+00 3.46716E+00-3.59278E+00 1.18223E+01-8.92524E+00
 -1       733 1.65298E+00 2.41273E+01 8.66747E+00-1.34879E+01 1.87822E+01-9.67638E+00
 -1       734 2.91558E+01 5.46675E+01 1.19635E+01-3.19582E+01 1.23281E+01-5.61759E+00
 -1       735-1.16943E+02-4.57866E+01-2.80572E+01-8.76752E+00 2.53424E+00-1.16569E+00
 -1       736-1.16263E+02-4.57577E+01-3.71995E+01-8.62385E+00 1.46685E+00-1.56418E+00
 -1       737-1.14076E+02-4.17452E+01-3.53782E+01-8.80664E+00 5.02271E-01-1.17653E+00
 -1       738-1.10444E+02-3.25801E+01-2.48280E+01-9.50279E+00-5.47603E-01-1.29138E+00
 -1       739-7.89960E+00-2.01054E+01-3.08841E+00-9.64703E+00-8.32171E-01-8.69916E-01
 -1       740-7.53150E+00-1.69652E+01-3.41836E+00-8.40183E+00-1.10890E+00-9.30711E-01
 -1       741-7.06047E+00-1.49186E+01-2.47730E+00-7.95506E+00-1.68073E+00-5.49118E-01
 -1       742-6.71530E+00-1.37415E+01-1.85536E+00-8.06094E+00-1.82076E+00-1.50970E-01
 -1       743 8.91224E-02 2.12512E+00 1.62674E-01 5.06649E-02 1.21420E-01-2.40819E-02
 -1       744 1.17735E-01 1.97895E+00 5.08312E-01 5.13651E-02 4.81772E-01 3.81449E-03
 -1       745 2.31292E-01 1.18623E+00 7.38858E-01-2.90576E-02 5.55767E-01-7.82846E-03
 -1       746-1.65815E-01-2.28519E-01 3.62188E-01 1.35145E-01 6.06852E-01-1.42260E-01
 -1       747-1.91741E-01 1.87894E+00 6.30151E-01-4.56640E-01 1.50111E+00-1.60628E-01
 -1       748-1.48383E+00-2.94083E-01-1.14665E+00-2.84369E+00 6.48548E-01-1.39196E-01
 -1       749-9.92412E-01 1.88132E-01-7.53137E-01-3.68691E+00 1.32085E+00-3.81512E-01
 -1       750-8.35350E-03 3.49395E+00-1.07527E-01-9.71973E-01 1.08222E-01-3.49931E-01
 -1       751 2.29526E-01 3.11457E+00 1.90180E-01-5.49548E-02-2.52892E-01-2.18681E-01
 -1       752 4.49716E-01 1.25587E+00 4.40616E-01-4.60328E-02 5.44407E-01-2.14593E-02
 -1       753 4.27382E-01 2.54148E+00 4.25054E-01-1.88632E-01 5.11643E-01-2.42204E-02
 -1       754 3.18548E-01 3.01787E+00 1.22547E-01-1.76977E-01 5.82679E-02 1.51862E-02
 -1       755 1.88463E+01 1.29985E+01 8.51810E+00 8.66548E+00-9.78670E-01-5.01509E-01
 -1       756-2.73448E+00-8.64220E-01-1.23191E+00-4.07609E-01 1.40793E+00-2.81199E-02
 -1       757-7.95707E-02-8.44787E-01-1.13377E-01-8.36618E-02 3.86501E-01 1.21204E-01
 -1       758 8.77182E-01 5.14393E+00 4.84527E-01-2.69927E-01-5.95612E-01 3.48417E-01
 -1       759-4.22645E-01 5.66690E+00-4.26722E-01 8.12590E-01 2.43502E-01 8.05871E-01
 -1       760 7.34395E+00 9.76971E+00 4.44226E+00 1.65433E+01 4.32557E+00 2.73016E-01
 -1       761-1.42720E-01-1.15553E-01-2.75968E-01-9.26410E-01 2.85179E-02 1.92116E-01
 -1       762-7.51933E-02-2.19478E+00-2.06623E-01-5.29367E-01 2.19514E-01 1.12758E-01
 -1       763-2.39459E-03-1.69582E+00-5.61977E-02 4.60549E-01 1.87662E-01-8.27848E-02
 -1       764-1.09065E-01 1.06741E-01-6.71807E-02 5.84611E-01 5.62976E-02-1.52814E-01
 -1       765 2.27523E-01 1.18039E-02 1.59824E-01-1.71642E-01-4.49604E-03-6.11833E-03
 -1       766 7.09749E-02-2.25133E-01-3.65776E-01-4.02108E-02-7.91362E-03-9.84789E-03
 -1       767-1.61554E-02-3.23260E-01-6.10543E-01 8.99450E-02-7.78999E-03-8.62691E-03
 -1       768 1.34966E-01-1.93999E-01-3.35824E-01 2.75954E-01 2.46346E-04-1.06615E-02
 -1       769 1.31356E-02-3.83393E-04 7.87787E-02 3.28508E-03 1.44169E-03-7.95875E-04
 -1       770 1.53466E-02-1.18336E-02 9.67643E-02 7.91478E-03 1.36821E-03-6.33117E-04
 -1       771 1.03549E-02-1.07368E-02 1.06144E-01 1.43433E-02 1.23453E-03-3.30993E-04
 -1       772 2.95113E-03 3.05002E-03 1.19796E-01 1.29177E-02 1.28435E-03-1.76297E-04
 -1       773 9.25970E-04 1.32531E-02 5.81042E-03-7.98718E-03 7.46056E-03-9.66170E-03
 -1       774 2.18602E-03 1.24637E-02 1.22618E-02-4.05845E-03 1.45520E-02-1.23110E-02
 -1       775-1.70112E-03 2.59316E-03 1.95305E-02-2.22852E-03 1.21514E-02-8.58734E-03
 -1       776 2.31855E-02 5.27477E-03 1.35812E-02 4.82240E-03-3.82113E-04-1.09037E-02
 -1       777 3.05581E-02-3.00602E-02-3.15711E-04-8.74618E-03 3.13135E-03-1.95115E-02
 -1       778 3.03532E-02-2.22905E-02-6.60727E-04-2.85947E-02 4.25986E-03-2.19138E-02
 -1       779 2.41906E-02 2.65002E-02 1.02912E-02-2.76647E-02 2.00063E-03-1.45980E-02
 -1       780 4.31316E-03 7.03645E-03 1.22603E-01 9.41085E-03 5.20321E-03-6.40283E-03
 -1       781 7.39356E-03 1.42424E-02 7.44140E-02 6.78381E-03 3.66139E-03-1.11672E-02
 -1       782 1.21599E-02 1.29067E-02 3.04460E-02 4.62495E-03-6.96762E-04-9.34542E-03
 -1       783 3.22871E-01 1.25105E+00 1.25981E-01 2.73791E-01-8.39756E-02-5.20094E-02
 -1       784 2.36564E-01 5.97576E-01 8.65089E-02 1.69463E-01-5.32318E-02-2.28437E-02
 -1       785 1.03641E-01 1.95164E-01 3.58277E-02 7.60090E-02-2.79503E-02-5.42730E-03
 -1       786 3.56124E-02 4.31454E-02 1.62713E-02 2.27886E-02-9.79003E-03-2.11190E-03
 -1       787 1.44149E-02 8.31401E-03 1.24684E-01 1.67928E-02 3.45158E-03-4.72135E-04
 -1       788 2.85928E-02 3.72402E-02 1.38804E-01 3.58008E-02 5.94992E-03-6.42923E-04
 -1       789 2.75368E-02 1.64968E-02 1.86681E-01 5.84275E-02 1.01978E-02-7.87949E-04
 -1       790 2.14289E-03-2.13897E-01 2.89974E-01 8.11130E-02 1.39721E-02-8.07629E-04
 -1       791 4.58286E-02 8.78773E-02 1.61221E-02-4.33247E-02-1.13638E-02-5.03946E-03
 -1       792 1.15763E-01 3.26233E-01 3.77402E-02-1.20537E-01-4.15718E-02 7.44487E-04
 -1       793 2.70632E-01 8.86068E-01 9.43100E-02-2.54330E-01-9.47780E-02 2.26006E-02
 -1       794 4.33689E-01 1.81353E+00 1.40911E-01-4.27414E-01-1.80688E-01 6.38625E-02
 -1       795-2.87338E-02-4.34801E-01-6.99969E-02-5.71373E-02 1.30345E-02-4.89199E-03
 -1       796 2.59304E-03-1.38290E-01-7.18358E-02-3.21002E-02 8.48476E-03-2.64387E-03
 -1       797 8.04824E-03-4.54867E-02-5.87489E-02-1.66584E-02 3.72753E-03-1.73547E-03
 -1       798-4.00622E-03-2.49168E-02-3.73920E-02-7.54090E-03 1.99244E-03-1.04421E-03
 -1       799 2.31178E-01 1.12367E+00 6.83796E-01 1.92250E-02 5.39488E-01 1.91042E-02
 -1       800 1.18648E-01 1.90045E+00 4.54968E-01-5.59308E-02 4.50665E-01-2.31043E-03
 -1       801 8.32959E-02 2.02005E+00 1.32730E-01-5.11765E-02 9.35443E-02 2.17881E-02
 -1       802-1.14908E-01 4.16143E-02-7.96020E-02-5.64807E-01 4.93943E-02 1.42964E-01
 -1       803-1.97785E-02-1.65746E+00-6.26522E-02-4.26276E-01 1.80835E-01 7.26906E-02
 -1       804-9.29752E-02-2.06920E+00-1.98129E-01 5.17529E-01 2.10135E-01-1.14591E-01
 -1       805-1.52205E-01-4.46595E-02-2.62073E-01 8.75952E-01 3.33823E-02-1.88335E-01
 -1       806 2.99302E-01 2.95141E+00 1.27592E-01 1.56246E-01 8.57686E-02-1.84200E-02
 -1       807 4.00877E-01 2.45591E+00 4.15785E-01 1.76823E-01 5.23048E-01 2.00881E-02
 -1       808 3.98867E-01 1.16731E+00 4.02169E-01 5.35913E-02 5.64654E-01 6.59819E-03
 -1       809 2.10006E-03 3.42488E-03 1.32506E-01-1.33223E-02-5.51007E-04 6.20016E-03
 -1       810 9.17159E-03-1.04870E-02 1.17892E-01-1.51182E-02 4.77410E-04 9.87234E-03
 -1       811 1.46235E-02-1.16218E-02 1.08431E-01-8.80318E-03 2.05689E-03 1.09082E-02
 -1       812 1.31190E-02-3.11821E-04 9.01773E-02-4.10094E-03 3.63414E-03 8.35849E-03
 -1       813 1.22615E-02 1.24976E-02 3.23577E-02-3.95182E-03-9.60140E-04 1.02791E-02
 -1       814 7.34233E-03 1.38097E-02 8.00838E-02-6.23368E-03 2.64499E-03 1.33070E-02
 -1       815 4.16245E-03 6.76829E-03 1.33346E-01-9.31725E-03 3.28645E-03 9.52556E-03
 -1       816 2.34648E-02 2.66590E-02 9.67365E-03 2.77678E-02 2.78427E-03 1.59650E-02
 -1       817 2.92214E-02-2.06487E-02 7.18160E-05 2.94146E-02 4.56158E-03 2.38019E-02
 -1       818 2.93399E-02-2.83423E-02 1.32192E-03 1.02377E-02 3.28167E-03 2.12007E-02
 -1       819 2.24901E-02 5.51289E-03 1.52472E-02-3.60015E-03-2.24061E-04 1.18538E-02
 -1       820-2.11616E-03 2.58490E-03 2.70236E-02 2.44450E-03 1.78840E-02 1.39476E-02
 -1       821 2.04542E-03 1.32130E-02 1.72095E-02 4.38854E-03 1.97118E-02 1.65877E-02
 -1       822 1.12378E-03 1.55475E-02 8.24558E-03 8.15193E-03 1.05713E-02 1.19264E-02
 -1       823 4.14631E-01 1.79749E+00 1.40282E-01 4.05575E-01-1.59504E-01-6.18432E-02
 -1       824 2.62984E-01 8.89098E-01 9.47294E-02 2.43442E-01-8.17126E-02-2.19275E-02
 -1       825 1.13693E-01 3.31732E-01 3.91389E-02 1.16215E-01-3.43204E-02-3.51043E-04
 -1       826 4.60963E-02 9.09053E-02 1.85128E-02 4.20636E-02-8.03076E-03 5.63443E-03
 -1       827-5.06902E-03-2.92136E-02-3.67548E-02 7.32370E-03 9.58943E-03 3.60342E-03
 -1       828 5.64323E-03-5.59136E-02-6.34921E-02 1.70610E-02 1.47664E-02 3.55373E-03
 -1       829 8.30552E-03-1.50170E-01-7.68695E-02 2.96472E-02 1.86338E-02 4.05600E-03
 -1       830-8.43935E-02-5.18472E-01-1.12101E-01 7.46755E-02 2.37082E-02-2.42084E-03
 -1       831 3.33283E-02 4.09446E-02 1.55692E-02-2.11922E-02-9.41956E-03 2.54892E-03
 -1       832 9.84586E-02 1.83998E-01 3.29769E-02-7.23187E-02-2.78878E-02 5.63971E-03
 -1       833 2.25453E-01 5.62898E-01 7.86444E-02-1.63461E-01-5.57715E-02 2.23606E-02
 -1       834 3.09541E-01 1.17850E+00 1.11389E-01-2.66863E-01-9.16001E-02 5.05686E-02
 -1       835-1.39791E-02-2.62893E-01 2.83528E-01-9.27462E-02-3.57068E-03 1.27492E-02
 -1       836 2.90148E-02 8.07798E-03 1.92108E-01-6.12946E-02-2.49262E-03 7.92206E-03
 -1       837 2.86055E-02 3.34986E-02 1.45654E-01-3.74913E-02-1.55525E-03 4.06251E-03
 -1       838 1.43989E-02 6.47550E-03 1.34436E-01-1.74316E-02-7.16179E-04 2.86422E-03
 -1       839-1.77838E+00-1.10708E+00-1.52285E+00 2.81914E+00 3.54777E-01 1.69272E-01
 -1       840-1.60775E-01 1.82416E+00 5.90467E-01 4.75235E-01 1.42372E+00 1.49010E-01
 -1       841-1.00704E-01-1.50755E-01 3.60993E-01-9.17967E-02 5.92885E-01 1.53832E-01
 -1       842 2.03278E-01 2.89907E+00 1.59380E-01 2.65945E-02-2.57438E-01 2.04054E-01
 -1       843-5.17808E-02 3.17905E+00-1.23881E-01 9.14732E-01 1.08100E-01 3.23555E-01
 -1       844-1.13992E+00-1.61989E-01-8.15607E-01 3.57401E+00 1.37989E+00 3.54366E-01
 -1       845 1.09529E-03-6.90349E-01-2.64136E-02 2.38630E-02 3.65023E-01-1.30273E-01
 -1       846-2.62090E+00-8.17076E-01-1.19537E+00 3.77558E-01 1.34583E+00 3.20673E-02
 -1       847 1.79714E+01 1.23604E+01 8.60682E+00-8.10020E+00-7.38531E-01 2.72548E-01
 -1       848 6.07840E+00 8.05243E+00 3.89178E+00-1.55681E+01 4.04571E+00-1.66569E-01
 -1       849-4.72600E-01 5.37021E+00-5.01768E-01-9.17270E-01 2.91499E-01-7.72009E-01
 -1       850 8.15010E-01 4.98454E+00 4.48768E-01 2.08762E-01-5.48777E-01-3.37054E-01
 -1       851 4.38784E-01 1.89487E+00 1.00785E-01 5.05233E-01 2.18732E-01 5.51792E-02
 -1       852 2.89621E-01 9.54228E-01 9.39984E-02 2.86177E-01 1.06182E-01 2.03785E-02
 -1       853 1.24467E-01 3.62644E-01 4.70113E-02 1.33414E-01 4.20743E-02-2.22004E-05
 -1       854 5.02724E-02 1.01107E-01 2.25308E-02 4.67918E-02 9.70069E-03-5.17412E-03
 -1       855 2.41786E-02 3.13002E-02 1.21738E-02 3.05630E-02-2.61944E-03-1.52381E-02
 -1       856 2.74693E-02-2.19146E-02-1.85949E-03 3.29000E-02-4.55895E-03-2.25762E-02
 -1       857 2.60771E-02-3.24067E-02-3.65690E-03 1.24440E-02-3.16656E-03-1.99578E-02
 -1       858 1.98325E-02 3.20875E-03 1.08325E-02-2.76462E-03 1.74106E-04-1.08649E-02
 -1       859 3.51669E-02 4.22439E-02 1.55377E-02-2.16879E-02 7.30216E-03-1.75159E-03
 -1       860 1.07007E-01 1.96332E-01 3.56884E-02-7.76029E-02 2.50261E-02-4.40397E-03
 -1       861 2.49459E-01 6.06170E-01 8.01642E-02-1.76638E-01 5.20149E-02-2.10404E-02
 -1       862 3.34662E-01 1.27365E+00 1.12461E-01-2.93552E-01 8.90826E-02-4.37653E-02
 -1       863 1.15523E-02 1.04799E-02 2.53904E-02-4.44225E-03 3.78585E-04-9.40457E-03
 -1       864 7.87237E-03 1.45556E-02 6.33519E-02-6.41145E-03-3.41058E-03-1.30623E-02
 -1       865 6.02080E-03 1.18666E-02 1.13387E-01-9.38237E-03-6.98677E-03-1.04068E-02
 -1       866 5.13397E-03 6.90093E-03 1.54143E-01-1.11800E-02-6.26176E-03-4.31103E-03
 -1       867-3.48766E-03 1.82861E-04 3.09811E-02 1.65727E-03-8.77836E-03-5.32904E-03
 -1       868-8.11259E-04 6.96516E-03 2.19625E-02 2.78688E-03-1.66142E-02-1.27765E-02
 -1       869 1.15129E-03 1.25399E-02 1.47353E-02 5.10290E-03-1.53043E-02-1.47905E-02
 -1       870-8.08285E-04 1.25396E-02 8.78469E-03 9.75244E-03-7.78274E-03-1.09365E-02
 -1       871 2.09646E-02 3.76778E-03 1.04340E-02 3.82802E-03 2.80793E-04 9.91871E-03
 -1       872 2.82558E-02-3.13213E-02-3.85372E-03-1.06403E-02-3.00759E-03 1.83776E-02
 -1       873 2.94200E-02-2.25854E-02-3.05299E-03-3.07136E-02-4.18148E-03 2.10156E-02
 -1       874 2.45173E-02 2.75846E-02 9.60977E-03-2.91754E-02-2.24070E-03 1.42601E-02
 -1       875 3.18594E-01 1.23390E+00 1.09539E-01 2.78034E-01 8.27609E-02 4.08939E-02
 -1       876 2.34218E-01 5.87345E-01 7.89994E-02 1.70709E-01 5.04522E-02 1.89022E-02
 -1       877 1.02612E-01 1.92714E-01 3.50380E-02 7.59242E-02 2.55890E-02 4.07476E-03
 -1       878 3.39906E-02 4.21450E-02 1.41983E-02 2.22292E-02 8.34685E-03 1.67000E-03
 -1       879-1.27504E-01-1.19936E-01-2.58552E-01-9.59588E-01-4.26948E-03-1.44547E-01
 -1       880-4.51485E-02-2.21560E+00-2.00026E-01-5.52488E-01-1.72519E-01-9.04725E-02
 -1       881 2.64949E-02-1.71840E+00-5.52304E-02 4.53070E-01-1.47946E-01 6.18906E-02
 -1       882-9.87594E-02 8.43897E-02-6.75161E-02 5.88363E-01-4.54271E-02 1.16160E-01
 -1       883 4.84943E-02 9.49104E-02 2.08637E-02-4.48176E-02 9.79221E-03 4.84759E-03
 -1       884 1.19915E-01 3.42522E-01 4.45483E-02-1.24761E-01 3.85443E-02-1.59146E-04
 -1       885 2.74171E-01 9.07027E-01 9.47745E-02-2.64497E-01 9.22082E-02-1.97198E-02
 -1       886 4.28437E-01 1.81622E+00 1.17501E-01-4.45546E-01 1.80511E-01-5.13454E-02
 -1       887 4.67450E-01 1.01740E+00 4.13434E-01 1.41888E-02-4.90100E-01-5.52709E-03
 -1       888 4.70912E-01 2.06016E+00 5.04171E-01-1.49069E-01-6.07417E-01 2.61544E-02
 -1       889 3.82998E-01 2.87299E+00 2.34129E-01-2.05241E-01-3.58816E-01-2.21470E-02
 -1       890 2.77173E-01 2.92258E+00-3.77541E-02-2.03525E-01 7.35078E-02-1.71281E-02
 -1       891 8.42787E-04 1.34526E-02 6.85321E-03-9.56483E-03-6.96732E-03 1.03443E-02
 -1       892 2.42863E-03 1.40257E-02 1.05612E-02-5.32725E-03-1.50002E-02 1.48370E-02
 -1       893 2.11575E-04 8.35719E-03 1.57386E-02-3.13565E-03-1.78530E-02 1.44911E-02
 -1       894-2.75064E-03 1.20385E-03 2.31602E-02-1.97952E-03-1.20390E-02 8.98447E-03
 -1       895 8.82693E-02 2.06575E+00 7.18760E-02 6.21259E-02-4.23771E-02 2.46598E-02
 -1       896 8.41601E-02 2.09063E+00 3.30761E-01 6.45311E-02-3.68779E-01 3.19172E-02
 -1       897 1.61486E-01 1.70026E+00 6.75433E-01 2.30745E-02-5.81262E-01-8.85360E-03
 -1       898 2.86050E-01 1.01410E+00 7.97719E-01-5.87725E-02-5.23161E-01 1.86699E-02
 -1       899 5.39094E-03 6.75251E-03 1.38489E-01 1.01399E-02-3.01865E-03 7.12146E-03
 -1       900 6.36924E-03 1.13599E-02 1.00520E-01 8.29478E-03-3.90491E-03 1.20476E-02
 -1       901 8.22402E-03 1.39076E-02 5.54898E-02 5.74956E-03-1.15434E-03 1.35001E-02
 -1       902 1.17017E-02 1.00993E-02 2.21901E-02 4.34457E-03 1.53059E-03 9.19163E-03
 -1       903-1.04826E+00-2.20311E-02-9.64798E-01-3.75590E+00-1.20179E+00 3.15053E-01
 -1       904-3.84630E-02 3.37722E+00-2.48845E-01-9.66634E-01-1.08956E-01 2.94173E-01
 -1       905 2.29038E-01 3.09813E+00 1.37157E-01-3.98366E-02 2.40051E-01 1.79491E-01
 -1       906 8.63287E-01 5.13900E+00 4.10197E-01-3.53026E-01 6.09742E-01-2.93193E-01
 -1       907-4.66900E-01 5.34683E+00-7.67302E-01 7.47833E-01-1.74099E-01-6.41606E-01
 -1       908 6.89170E+00 9.27349E+00 3.47299E+00 1.66529E+01-3.99271E+00-2.74938E-01
 -1       909-1.87534E-01-3.35829E-01 3.99194E-01 1.25318E-01-5.27820E-01 1.19110E-01
 -1       910-2.21557E-01 1.69852E+00 7.10617E-01-4.54008E-01-1.55083E+00 1.44913E-01
 -1       911-1.67604E+00-4.29460E-01-1.42282E+00-2.78414E+00-8.22425E-01 2.59128E-01
 -1       912 1.83624E+01 1.19457E+01 7.44310E+00 8.53127E+00 4.40516E-01 2.38763E-01
 -1       913-2.82006E+00-1.04746E+00-1.15019E+00-2.79841E-01-1.35782E+00 1.10287E-01
 -1       914-2.59763E-02-7.88879E-01-3.58493E-02-5.34961E-02-2.56690E-01-1.25364E-01
 -1       915 1.31463E+00-6.75848E+00-2.45033E+00 3.61514E+00 1.71377E-01-1.55124E-01
 -1       916 6.61664E-01-2.25082E+00-8.00949E-01 6.18947E+00 7.12556E-02-1.94133E-01
 -1       917-2.22807E-01 2.45179E+00 5.31313E-01 6.10807E+00-4.36815E-02-1.68597E-01
 -1       918-1.11064E+00 6.55126E+00 2.43731E+00 3.51103E+00-1.81997E-01-1.18226E-01
 -1       919 8.59965E-01-1.71798E+01-2.71807E+00 6.17021E+00 1.91536E-01 7.09863E-03
 -1       920 4.67631E-01-5.71625E+00-8.15669E-01 9.72508E+00 6.83310E-02 5.49936E-03
 -1       921-1.90748E-01 5.52471E+00 6.97292E-01 9.65074E+00-5.68610E-02 1.64708E-02
 -1       922-7.11363E-01 1.70303E+01 2.73631E+00 6.04719E+00-2.12662E-01 2.58438E-02
 -1       923 1.48391E-01-1.15039E+01-5.61348E-01 9.82754E+00 2.59182E-02 1.63102E-01
 -1       924 6.39742E-02-1.39664E+01-3.88984E-01 9.71222E+00 1.91317E-02 2.09067E-01
 -1       925 3.36835E-02-1.62537E+01-2.34805E-01 9.61688E+00 1.60391E-02 2.47521E-01
 -1       926 1.67470E-02-1.84679E+01-1.02696E-01 9.56623E+00 1.46711E-02 2.82637E-01
 -1       927 1.08483E-02-2.06593E+01 3.17210E-02 9.54966E+00 1.44011E-02 3.16055E-01
 -1       928 1.26017E-02-2.28850E+01 1.92203E-01 9.55132E+00 1.52456E-02 3.48380E-01
 -1       929 1.35822E-02-2.52042E+01 4.00724E-01 9.56426E+00 1.76123E-02 3.79748E-01
 -1       930-1.94419E-02-2.76620E+01 6.72153E-01 9.60392E+00 2.22457E-02 4.09940E-01
 -1       931-1.71161E-01-3.01725E+01 1.02769E+00 9.70761E+00 3.01218E-02 4.38544E-01
 -1       932 2.82611E-01-3.43908E+01-1.68919E+00 6.31699E+00 8.79972E-02 1.39679E-01
 -1       933 1.64865E-01-4.18684E+01-1.16906E+00 6.23783E+00 6.69701E-02 1.77843E-01
 -1       934 9.02000E-02-4.88127E+01-7.81205E-01 6.16926E+00 5.62202E-02 2.09980E-01
 -1       935 4.84842E-02-5.54371E+01-4.88967E-01 6.13501E+00 5.07350E-02 2.39485E-01
 -1       936 2.40174E-02-6.18992E+01-2.52468E-01 6.11991E+00 4.83469E-02 2.67632E-01
 -1       937 9.86038E-03-6.83058E+01-2.83011E-02 6.10974E+00 4.81452E-02 2.94877E-01
 -1       938-4.71675E-03-7.47471E+01 2.19946E-01 6.09609E+00 5.00025E-02 3.21333E-01
 -1       939-5.20091E-02-8.13309E+01 5.05560E-01 6.09225E+00 5.43557E-02 3.46904E-01
 -1       940-2.29104E-01-8.82148E+01 7.83962E-01 6.17323E+00 6.19539E-02 3.71478E-01
 -1       941-1.62526E-01 8.60894E+01 1.66336E+00 6.22361E+00-2.67604E-02 3.71908E-01
 -1       942-1.55423E-02 8.02762E+01 1.19835E+00 6.26359E+00-3.58893E-02 3.47632E-01
 -1       943 1.40807E-02 7.42945E+01 8.62077E-01 6.22066E+00-4.20524E-02 3.22087E-01
 -1       944 1.98501E-03 6.81646E+01 6.63355E-01 6.17423E+00-4.61057E-02 2.95500E-01
 -1       945-2.08944E-02 6.19008E+01 5.97094E-01 6.14726E+00-4.93544E-02 2.68030E-01
 -1       946-4.91493E-02 5.54866E+01 6.58644E-01 6.14453E+00-5.32994E-02 2.39596E-01
 -1       947-8.64298E-02 4.88593E+01 8.52602E-01 6.16843E+00-5.99096E-02 2.09814E-01
 -1       948-1.45333E-01 4.18857E+01 1.19047E+00 6.22170E+00-7.23281E-02 1.77733E-01
 -1       949-2.31313E-01 3.43620E+01 1.69190E+00 6.26979E+00-9.66261E-02 1.41022E-01
 -1       950-1.61191E+00-1.01695E+02 1.07476E+00 7.70149E+00 8.59257E-02 4.09691E-01
 -1       951-2.05481E+00-3.38196E+01 1.78143E+00 1.07117E+01 5.63419E-02 4.80989E-01
 -1       952-1.97362E+00 3.18568E+01 2.09676E+00 9.34888E+00 2.32767E-02 4.79734E-01
 -1       953-1.50188E+00 9.57442E+01 2.25662E+00 5.34647E+00-4.46433E-03 4.06245E-01
 -1       954-3.04771E+00-1.07346E+02 1.03118E+00 9.82899E+00 1.34806E-01 4.25588E-01
 -1       955-4.42877E+00-3.36879E+01 2.08641E+00 1.16254E+01 7.63683E-02 4.98696E-01
 -1       956-4.22804E+00 3.49894E+01 2.32112E+00 8.52842E+00 1.58102E-02 4.95745E-01
 -1       957-2.85874E+00 9.99079E+01 2.18129E+00 3.83208E+00-3.89963E-02 4.17838E-01
 -1       958 5.37918E-01-2.98954E+01-5.86045E-01 1.21680E+01-1.49383E+00 9.71982E-01
 -1       959 8.55284E-01-1.11238E+01-1.96019E-01 1.66804E+01-4.10688E-01 1.23888E+00
 -1       960-1.63097E-01 9.03379E+00-2.31858E-02 1.60531E+01 5.29857E-01 1.28800E+00
 -1       961 1.85749E-02 3.05112E+01 6.02202E-01 1.11370E+01 1.48081E+00 1.06898E+00
 -1       962 1.79468E-01-3.28964E+01-5.51784E-01 1.20956E+01-1.78201E+00 1.19466E+00
 -1       963 3.22227E-01-1.17645E+01-3.04566E-01 1.70799E+01-5.09766E-01 1.18525E+00
 -1       964 2.97900E-01 1.08638E+01 1.80020E-01 1.67149E+01 5.59436E-01 1.19564E+00
 -1       965 3.08311E-01 3.33618E+01 5.84663E-01 1.14649E+01 1.78043E+00 1.22372E+00
 -1       966-6.29723E-02-3.65155E+01-4.62160E-01 1.20049E+01-1.75128E+00 1.44585E+00
 -1       967 1.00557E-01-1.24787E+01-2.20074E-01 1.74159E+01-5.10040E-01 1.37819E+00
 -1       968 2.69940E-01 1.22019E+01 1.58574E-01 1.72372E+01 5.44355E-01 1.37885E+00
 -1       969 3.51871E-01 3.68547E+01 4.83107E-01 1.16942E+01 1.76574E+00 1.44690E+00
 -1       970-1.41098E-01-4.08339E+01-3.53600E-01 1.19763E+01-1.59273E+00 1.65000E+00
 -1       971 8.15962E-03-1.36955E+01-1.37933E-01 1.75883E+01-4.68406E-01 1.58149E+00
 -1       972 1.67132E-01 1.36637E+01 1.08319E-01 1.75161E+01 4.99785E-01 1.58038E+00
 -1       973 2.81211E-01 4.10472E+01 3.67692E-01 1.18538E+01 1.61543E+00 1.64595E+00
 -1       974-1.57013E-01-4.57199E+01-2.66636E-01 1.19550E+01-1.43969E+00 1.86068E+00
 -1       975-3.26601E-02-1.52589E+01-9.05125E-02 1.76486E+01-4.22344E-01 1.79883E+00
 -1       976 9.77732E-02 1.52631E+01 7.26087E-02 1.76290E+01 4.52084E-01 1.79743E+00
 -1       977 2.11688E-01 4.58071E+01 2.69131E-01 1.19246E+01 1.46688E+00 1.85654E+00
 -1       978-1.52424E-01-5.10062E+01-1.93239E-01 1.19074E+01-1.32205E+00 2.07646E+00
 -1       979-4.54785E-02-1.70223E+01-5.93414E-02 1.76262E+01-3.85821E-01 2.01938E+00
 -1       980 5.98724E-02 1.69624E+01 4.06664E-02 1.76305E+01 4.11319E-01 2.01812E+00
 -1       981 1.67122E-01 5.09779E+01 1.84171E-01 1.19180E+01 1.34859E+00 2.07339E+00
 -1       982-1.47148E-01-5.65595E+01-1.38423E-01 1.18430E+01-1.24514E+00 2.29093E+00
 -1       983-4.65371E-02-1.89028E+01-3.98015E-02 1.75605E+01-3.64030E-01 2.23347E+00
 -1       984 4.48880E-02 1.87394E+01 1.43225E-02 1.75779E+01 3.79716E-01 2.23232E+00
 -1       985 1.49520E-01 5.64351E+01 1.20694E-01 1.18758E+01 1.26382E+00 2.28868E+00
 -1       986-1.43793E-01-6.22581E+01-9.74326E-02 1.17680E+01-1.20309E+00 2.50230E+00
 -1       987-4.07684E-02-2.08433E+01-2.67172E-02 1.74738E+01-3.57526E-01 2.44078E+00
 -1       988 4.58036E-02 2.05708E+01-6.13931E-03 1.75051E+01 3.52270E-01 2.43992E+00
 -1       989 1.52254E-01 6.20737E+01 7.66418E-02 1.18249E+01 1.20205E+00 2.50119E+00
 -1       990-1.39741E-01-6.80067E+01-6.26138E-02 1.16854E+01-1.19059E+00 2.70976E+00
 -1       991-2.81203E-02-2.28017E+01-1.46225E-02 1.73783E+01-3.67787E-01 2.64285E+00
 -1       992 5.90867E-02 2.24441E+01-1.97432E-02 1.74306E+01 3.21242E-01 2.64333E+00
 -1       993 1.68658E-01 6.78307E+01 4.79302E-02 1.17802E+01 1.14909E+00 2.71235E+00
 -1       994-1.36993E-01-7.37320E+01-2.72281E-02 1.15982E+01-1.20764E+00 2.91126E+00
 -1       995-1.25438E-02-2.47345E+01 4.18878E-03 1.72812E+01-3.99316E-01 2.84049E+00
 -1       996 7.77784E-02 2.43718E+01-2.16513E-02 1.73598E+01 2.76988E-01 2.84504E+00
 -1       997 1.89078E-01 7.36870E+01 3.28210E-02 1.17430E+01 1.08949E+00 2.92473E+00
 -1       998-1.58141E-01-7.93753E+01 1.29728E-02 1.15260E+01-1.26130E+00 3.10238E+00
 -1       999-1.94688E-02-2.65631E+01 4.50593E-02 1.71963E+01-4.60038E-01 3.03276E+00
 -1      1000 7.16456E-02 2.64149E+01 1.10068E-03 1.72812E+01 2.08029E-01 3.04663E+00
 -1      1001 1.87709E-01 7.96622E+01 3.34203E-02 1.16926E+01 1.00527E+00 3.14154E+00
 -1      1002-2.73589E-01-8.48752E+01 6.35577E-02 1.15548E+01-1.36517E+00 3.27561E+00
 -1      1003-1.38503E-01-2.81090E+01 1.38519E-01 1.71795E+01-5.61735E-01 3.21796E+00
 -1      1004-4.96211E-02 2.87351E+01 7.69650E-02 1.71673E+01 1.02893E-01 3.24832E+00
 -1      1005 9.13165E-02 8.57959E+01 5.16447E-02 1.15731E+01 8.73381E-01 3.36395E+00
 -1      1006-6.35881E-01-9.00968E+01 1.46183E-01 1.18372E+01-1.55909E+00 3.38071E+00
 -1      1007-5.88459E-01-2.89636E+01 3.47005E-01 1.72834E+01-7.07190E-01 3.34481E+00
 -1      1008-5.06133E-01 3.16860E+01 2.56164E-01 1.68650E+01-3.63719E-02 3.39564E+00
 -1      1009-2.70189E-01 9.21034E+01 8.84054E-02 1.11713E+01 6.96640E-01 3.53796E+00
 -1      1010-1.53767E+00-9.47113E+01 2.68385E-01 1.26534E+01-1.80655E+00 3.64455E+00
 -1      1011-1.83045E+00-2.83551E+01 7.14795E-01 1.75172E+01-8.65904E-01 3.63638E+00
 -1      1012-1.77150E+00 3.58741E+01 5.90063E-01 1.60281E+01-1.89704E-01 3.67040E+00
 -1      1013-1.16164E+00 9.86827E+01 2.22674E-01 1.00408E+01 4.46234E-01 3.81152E+00
 -1      1014-3.30735E+00-9.75261E+01 7.15929E-01 1.44627E+01-2.04304E+00 4.13738E+00
 -1      1015-4.68560E+00-2.53112E+01 1.22158E+00 1.78550E+01-9.97676E-01 4.03355E+00
 -1      1016-4.51430E+00 4.19784E+01 9.90274E-01 1.43145E+01-3.21501E-01 3.95442E+00
 -1      1017-2.86272E+00 1.05872E+02 4.68751E-01 7.67422E+00 2.19293E-01 4.00655E+00
 -1      1018-3.00689E+00-2.66063E+01-9.58569E+00 3.19211E+00-9.46529E+00 1.00349E+00
 -1      1019-3.34886E+00-3.69467E+01-7.70065E+00 2.96441E+00-7.41316E+00 9.46058E-02
 -1      1020-3.98392E+00-4.89359E+01-6.27156E+00 2.88027E+00-5.07891E+00-1.17607E-01
 -1      1021-4.83306E+00-6.12846E+01-5.01084E+00 3.07388E+00-3.58166E+00-9.90671E-02
 -1      1022-5.76086E+00-7.34208E+01-4.41481E+00 3.04070E+00-2.79424E+00-6.30388E-02
 -1      1023-6.65085E+00-8.48735E+01-4.09508E+00 3.03073E+00-2.35622E+00-2.64759E-02
 -1      1024-7.49943E+00-9.59126E+01-3.95387E+00 3.02552E+00-2.11362E+00 1.04205E-03
 -1      1025-8.32888E+00-1.06730E+02-3.92165E+00 3.02374E+00-1.98960E+00 2.10941E-02
 -1      1026-9.14215E+00-1.17430E+02-3.92903E+00 3.01874E+00-1.94788E+00 3.59569E-02
 -1      1027-9.93371E+00-1.28061E+02-3.90734E+00 3.00505E+00-1.97452E+00 4.74095E-02
 -1      1028-1.06910E+01-1.38636E+02-3.78926E+00 2.98480E+00-2.06576E+00 5.60396E-02
 -1      1029-1.14180E+01-1.49188E+02-3.54362E+00 3.00758E+00-2.20802E+00 5.87721E-02
 -1      1030-1.24885E+01-1.60429E+02-3.51820E+00 3.89098E+00-2.39049E+00-6.90331E-03
 -1      1031-1.41743E+01-1.72663E+02-4.40874E+00 3.95904E+00-2.60251E+00-2.01222E-02
 -1      1032-1.74524E+01-1.88373E+02-6.91688E+00 5.84495E+00-2.79505E+00-2.62242E-03
 -1      1033-2.12318E+00-3.42689E+01-2.67907E+00 4.28677E+00-1.14764E+01 1.21214E+00
 -1      1034-3.78745E+00-4.47252E+01-4.79386E+00 3.61563E+00-1.00273E+01 1.65883E-01
 -1      1035-4.53283E+00-5.41401E+01-4.95016E+00 3.18295E+00-7.91981E+00-1.27133E-01
 -1      1036-5.17669E+00-6.43550E+01-4.38083E+00 3.24102E+00-6.11686E+00-1.32446E-01
 -1      1037-5.95061E+00-7.51348E+01-4.05125E+00 3.19817E+00-4.99962E+00-8.50649E-02
 -1      1038-6.75118E+00-8.58189E+01-3.86777E+00 3.19414E+00-4.32024E+00-3.28975E-02
 -1      1039-7.55131E+00-9.63902E+01-3.81188E+00 3.19683E+00-3.92359E+00 7.41118E-03
 -1      1040-8.34968E+00-1.06881E+02-3.84329E+00 3.19968E+00-3.71252E+00 3.64986E-02
 -1      1041-9.13976E+00-1.17308E+02-3.90965E+00 3.19659E+00-3.63580E+00 5.76804E-02
 -1      1042-9.91235E+00-1.27670E+02-3.95378E+00 3.18320E+00-3.67383E+00 7.37093E-02
 -1      1043-1.06572E+01-1.37949E+02-3.91567E+00 3.16260E+00-3.82414E+00 8.52587E-02
 -1      1044-1.13894E+01-1.48180E+02-3.76045E+00 3.17710E+00-4.07544E+00 8.92187E-02
 -1      1045-1.24117E+01-1.58979E+02-3.71211E+00 3.86001E+00-4.42884E+00 4.94241E-02
 -1      1046-1.40247E+01-1.70841E+02-4.35755E+00 4.02642E+00-4.86190E+00 6.93624E-02
 -1      1047-1.72335E+01-1.86339E+02-6.50067E+00 5.81043E+00-5.27365E+00 1.16396E-01
 -1      1048-1.70593E+00-3.89213E+01 3.56126E-01 4.96477E+00-9.55990E+00 7.36845E-01
 -1      1049-3.69622E+00-4.92032E+01-2.34725E+00 4.13009E+00-9.41950E+00 1.16733E-01
 -1      1050-4.69395E+00-5.80774E+01-3.40761E+00 3.61928E+00-8.29551E+00-1.07431E-01
 -1      1051-5.38192E+00-6.71843E+01-3.50807E+00 3.60327E+00-6.99083E+00-1.11161E-01
 -1      1052-6.08912E+00-7.68939E+01-3.48739E+00 3.56704E+00-6.00427E+00-6.77776E-02
 -1      1053-6.82471E+00-8.68381E+01-3.47604E+00 3.57152E+00-5.33565E+00-1.79868E-02
 -1      1054-7.57878E+00-9.69158E+01-3.53086E+00 3.58003E+00-4.91745E+00 2.19377E-02
 -1      1055-8.34305E+00-1.07052E+02-3.64423E+00 3.58429E+00-4.68174E+00 5.17277E-02
 -1      1056-9.10536E+00-1.17184E+02-3.78412E+00 3.58004E+00-4.58484E+00 7.42263E-02
 -1      1057-9.85402E+00-1.27248E+02-3.91004E+00 3.56511E+00-4.61037E+00 9.17863E-02
 -1      1058-1.05811E+01-1.37182E+02-3.97492E+00 3.54331E+00-4.76364E+00 1.04314E-01
 -1      1059-1.13080E+01-1.46984E+02-3.93985E+00 3.54754E+00-5.05211E+00 1.07116E-01
 -1      1060-1.22765E+01-1.57150E+02-3.92610E+00 4.02598E+00-5.51642E+00 7.74518E-02
 -1      1061-1.38211E+01-1.68371E+02-4.35180E+00 4.27121E+00-6.17102E+00 9.32309E-02
 -1      1062-1.69401E+01-1.83317E+02-5.97300E+00 5.93107E+00-6.85822E+00 1.59786E-01
 -1      1063-1.46068E+00-4.05443E+01 8.19053E-01 5.44649E+00-5.87075E+00 3.14630E-01
 -1      1064-3.51857E+00-5.16706E+01-1.38439E+00 4.75913E+00-6.45218E+00 3.16115E-02
 -1      1065-4.70499E+00-6.06380E+01-2.43144E+00 4.40323E+00-6.10101E+00-6.80724E-02
 -1      1066-5.47068E+00-6.92276E+01-2.77336E+00 4.37665E+00-5.41670E+00-5.87855E-02
 -1      1067-6.15642E+00-7.82283E+01-2.92113E+00 4.35722E+00-4.82401E+00-3.13480E-02
 -1      1068-6.84878E+00-8.76234E+01-3.03264E+00 4.35991E+00-4.38417E+00 2.06798E-03
 -1      1069-7.56165E+00-9.73098E+01-3.17227E+00 4.35978E+00-4.09270E+00 3.14380E-02
 -1      1070-8.28886E+00-1.07158E+02-3.34522E+00 4.35273E+00-3.91888E+00 5.56048E-02
 -1      1071-9.01749E+00-1.17049E+02-3.53470E+00 4.33767E+00-3.83716E+00 7.58241E-02
 -1      1072-9.73395E+00-1.26865E+02-3.71574E+00 4.31518E+00-3.83804E+00 9.30894E-02
 -1      1073-1.04317E+01-1.36497E+02-3.85962E+00 4.29410E+00-3.93033E+00 1.06656E-01
 -1      1074-1.11343E+01-1.45880E+02-3.93448E+00 4.30513E+00-4.13487E+00 1.11555E-01
 -1      1075-1.20185E+01-1.55295E+02-3.98198E+00 4.61402E+00-4.51252E+00 6.65064E-02
 -1      1076-1.34877E+01-1.65536E+02-4.31030E+00 4.95538E+00-5.15634E+00 3.85232E-02
 -1      1077-1.65412E+01-1.79388E+02-5.47378E+00 6.44209E+00-5.92527E+00 6.43679E-02
 -1      1078 3.24092E+00 2.72110E+01 1.00126E+01 3.00743E+00 9.98918E+00 8.66587E-01
 -1      1079 3.51381E+00 3.72542E+01 7.88915E+00 2.82161E+00 7.70474E+00 3.73031E-02
 -1      1080 4.06671E+00 4.90676E+01 6.31583E+00 2.79435E+00 5.21221E+00-1.35936E-01
 -1      1081 4.86161E+00 6.13323E+01 4.99915E+00 3.03536E+00 3.65119E+00-1.01387E-01
 -1      1082 5.76218E+00 7.34537E+01 4.40643E+00 3.02543E+00 2.84093E+00-6.23972E-02
 -1      1083 6.64212E+00 8.49267E+01 4.13057E+00 3.02455E+00 2.38622E+00-2.62360E-02
 -1      1084 7.48991E+00 9.59886E+01 4.08112E+00 3.02400E+00 2.11399E+00 2.31749E-04
 -1      1085 8.32783E+00 1.06815E+02 4.22105E+00 3.03137E+00 1.93123E+00 1.94991E-02
 -1      1086 9.16760E+00 1.17509E+02 4.53863E+00 3.04890E+00 1.78189E+00 3.43506E-02
 -1      1087 1.00172E+01 1.28131E+02 5.04600E+00 3.07640E+00 1.62710E+00 4.71912E-02
 -1      1088 1.08600E+01 1.38669E+02 5.75609E+00 3.10073E+00 1.43744E+00 5.91643E-02
 -1      1089 1.16180E+01 1.48943E+02 6.63025E+00 3.07867E+00 1.18805E+00 6.77516E-02
 -1      1090 1.23627E+01 1.59007E+02 7.74267E+00 3.61331E+00 8.79201E-01 1.86836E-03
 -1      1091 1.26875E+01 1.67297E+02 8.63586E+00 2.50906E+00 6.41965E-01-1.05215E-02
 -1      1092 1.16371E+01 1.71587E+02 7.92117E+00 1.48346E+00 4.25628E-01 3.00396E-03
 -1      1093 2.49274E+00 3.61441E+01 3.00484E+00 3.97735E+00 1.21327E+01 1.10353E+00
 -1      1094 4.08912E+00 4.57663E+01 4.99120E+00 3.40351E+00 1.03785E+01 1.02987E-01
 -1      1095 4.68003E+00 5.45755E+01 4.99901E+00 3.06935E+00 8.09816E+00-1.48402E-01
 -1      1096 5.22693E+00 6.45116E+01 4.36898E+00 3.19514E+00 6.21953E+00-1.35228E-01
 -1      1097 5.95940E+00 7.52062E+01 4.03788E+00 3.18256E+00 5.07698E+00-8.44285E-02
 -1      1098 6.74757E+00 8.58941E+01 3.88792E+00 3.18929E+00 4.37694E+00-3.37373E-02
 -1      1099 7.54968E+00 9.65026E+01 3.90160E+00 3.19658E+00 3.93679E+00 4.00928E-03
 -1      1100 8.36216E+00 1.07051E+02 4.06311E+00 3.20751E+00 3.63432E+00 3.06778E-02
 -1      1101 9.18653E+00 1.17576E+02 4.36661E+00 3.22463E+00 3.38551E+00 5.02463E-02
 -1      1102 1.00259E+01 1.28110E+02 4.82312E+00 3.24881E+00 3.12596E+00 6.62751E-02
 -1      1103 1.08655E+01 1.38646E+02 5.44813E+00 3.27003E+00 2.80015E+00 8.01288E-02
 -1      1104 1.16405E+01 1.49040E+02 6.22518E+00 3.25027E+00 2.35538E+00 8.90217E-02
 -1      1105 1.23709E+01 1.59244E+02 7.19846E+00 3.61590E+00 1.79509E+00 4.75247E-02
 -1      1106 1.26800E+01 1.67832E+02 8.01170E+00 2.66425E+00 1.31071E+00 6.58430E-02
 -1      1107 1.16513E+01 1.72534E+02 7.40257E+00 1.57794E+00 8.71587E-01 9.63784E-02
 -1      1108 2.23599E+00 4.19316E+01-4.15230E-02 4.63455E+00 9.94922E+00 6.95848E-01
 -1      1109 4.10057E+00 5.07684E+01 2.51859E+00 3.88404E+00 9.61490E+00 8.69714E-02
 -1      1110 4.88830E+00 5.87314E+01 3.45062E+00 3.48730E+00 8.40548E+00-1.16972E-01
 -1      1111 5.44955E+00 6.74125E+01 3.49783E+00 3.55198E+00 7.07559E+00-1.10989E-01
 -1      1112 6.10400E+00 7.69773E+01 3.47182E+00 3.55203E+00 6.08699E+00-6.72789E-02
 -1      1113 6.82630E+00 8.69066E+01 3.48134E+00 3.56950E+00 5.41008E+00-2.06515E-02
 -1      1114 7.58659E+00 9.70302E+01 3.57944E+00 3.58302E+00 4.95673E+00 1.50556E-02
 -1      1115 8.37287E+00 1.07272E+02 3.77342E+00 3.59443E+00 4.63697E+00 4.04631E-02
 -1      1116 9.18085E+00 1.17613E+02 4.06299E+00 3.60739E+00 4.37374E+00 5.91255E-02
 -1      1117 1.00110E+01 1.28069E+02 4.45712E+00 3.62397E+00 4.09925E+00 7.46265E-02
 -1      1118 1.08514E+01 1.38648E+02 4.96946E+00 3.63554E+00 3.74715E+00 8.84476E-02
 -1      1119 1.16441E+01 1.49251E+02 5.59252E+00 3.60543E+00 3.24188E+00 9.70723E-02
 -1      1120 1.23516E+01 1.59727E+02 6.34092E+00 3.79027E+00 2.56710E+00 6.85314E-02
 -1      1121 1.26204E+01 1.68770E+02 6.96645E+00 2.97923E+00 1.88693E+00 7.41221E-02
 -1      1122 1.16005E+01 1.74066E+02 6.49777E+00 1.82841E+00 1.19778E+00 1.03522E-01
 -1      1123 2.04940E+00 4.37531E+01-6.21305E-01 5.07869E+00 5.83888E+00 3.01073E-01
 -1      1124 3.96369E+00 5.33436E+01 1.51693E+00 4.47608E+00 6.44088E+00 2.65783E-02
 -1      1125 4.91202E+00 6.13207E+01 2.46476E+00 4.25346E+00 6.11177E+00-6.65887E-02
 -1      1126 5.54072E+00 6.94521E+01 2.76608E+00 4.31863E+00 5.45426E+00-5.61744E-02
 -1      1127 6.17155E+00 7.82854E+01 2.90805E+00 4.34275E+00 4.88129E+00-3.14028E-02
 -1      1128 6.85182E+00 8.76409E+01 3.03073E+00 4.36248E+00 4.44723E+00-2.53509E-03
 -1      1129 7.57445E+00 9.73532E+01 3.19368E+00 4.36959E+00 4.14143E+00 2.12216E-02
 -1      1130 8.32988E+00 1.07306E+02 3.40973E+00 4.37040E+00 3.92272E+00 3.89154E-02
 -1      1131 9.11415E+00 1.17451E+02 3.68057E+00 4.37049E+00 3.74506E+00 5.22228E-02
 -1      1132 9.92756E+00 1.27794E+02 4.01150E+00 4.37172E+00 3.56252E+00 6.33668E-02
 -1      1133 1.07636E+01 1.38375E+02 4.41393E+00 4.36583E+00 3.32434E+00 7.40262E-02
 -1      1134 1.15761E+01 1.49175E+02 4.88327E+00 4.31232E+00 2.96244E+00 8.23867E-02
 -1      1135 1.22757E+01 1.60022E+02 5.39977E+00 4.29003E+00 2.43266E+00 4.43112E-02
 -1      1136 1.25291E+01 1.69810E+02 5.81911E+00 3.58893E+00 1.80526E+00 1.64979E-02
 -1      1137 1.14835E+01 1.76013E+02 5.45448E+00 2.37506E+00 1.07333E+00 4.08769E-02
 -1      1138-7.76065E-01-1.44235E+01-4.33546E+00 9.18542E+00-6.94778E+00 6.79829E+00
 -1      1139-1.00025E-01-5.38659E+00-1.62159E+00 1.16956E+01-2.49136E+00 8.16563E+00
 -1      1140-2.78169E-01 3.52017E+00 2.73907E-01 1.14079E+01 1.74865E+00 8.04182E+00
 -1      1141 9.09046E-01 1.47174E+01 4.19986E+00 8.97029E+00 7.07194E+00 6.61679E+00
 -1      1142-1.54296E+00-1.99482E+01-4.21590E+00 9.33167E+00-7.27871E+00 5.30153E+00
 -1      1143-2.15449E-01-7.26405E+00-1.29122E+00 1.24328E+01-2.62799E+00 6.49397E+00
 -1      1144-3.18940E-01 4.81095E+00 4.92582E-01 1.19036E+01 2.09239E+00 6.36253E+00
 -1      1145 1.37958E+00 2.06050E+01 4.30218E+00 8.68463E+00 7.58226E+00 5.10461E+00
 -1      1146-1.38743E+00-2.31855E+01-1.63204E+00 9.78493E+00-5.36813E+00 3.16854E+00
 -1      1147-1.53994E-01-8.60417E+00-4.27849E-01 1.27919E+01-1.81829E+00 3.95279E+00
 -1      1148-6.78642E-01 5.97769E+00 7.01663E-02 1.21311E+01 1.72823E+00 3.93854E+00
 -1      1149 9.93948E-01 2.43415E+01 1.69306E+00 8.93554E+00 5.65822E+00 3.16123E+00
 -1      1150-1.29278E+00-2.46855E+01-2.21998E-01 1.07503E+01-2.46122E+00 1.16848E+00
 -1      1151-2.14624E-01-9.34402E+00 1.16164E-02 1.40259E+01-7.55958E-01 1.63579E+00
 -1      1152-6.61688E-01 6.53803E+00-2.45440E-01 1.33421E+01 8.35835E-01 1.68730E+00
 -1      1153 8.27954E-01 2.56905E+01 1.19024E-01 9.90021E+00 2.51266E+00 1.23616E+00
 -1      1154-5.60086E+00-1.11254E+02 7.94601E-01 1.31522E+01-1.99911E+00 3.66466E-01
 -1      1155-8.65982E+00-3.19936E+01 1.70763E+00 1.14913E+01-1.24543E+00 4.31089E-01
 -1      1156-7.79942E+00 3.94012E+01 1.87558E+00 5.24371E+00-6.75162E-01 3.13467E-01
 -1      1157-4.23659E+00 1.04927E+02 1.68543E+00-1.16736E+00-1.91589E-01 1.38094E-01
 -1      1158-5.53729E+00-1.09478E+02 9.53718E-01 1.32674E+01-3.66767E+00 7.10695E-01
 -1      1159-8.57038E+00-3.04896E+01 1.54176E+00 1.17692E+01-2.21340E+00 7.82234E-01
 -1      1160-7.71324E+00 4.07401E+01 1.63335E+00 5.58745E+00-1.18035E+00 5.37994E-01
 -1      1161-4.19645E+00 1.06168E+02 1.42261E+00-9.06678E-01-3.22158E-01 2.36367E-01
 -1      1162-5.53186E+00-1.06616E+02 1.03186E+00 1.35541E+01-4.36631E+00 8.95988E-01
 -1      1163-8.50053E+00-2.79915E+01 1.26073E+00 1.24009E+01-2.49740E+00 8.94235E-01
 -1      1164-7.68913E+00 4.29590E+01 1.25927E+00 6.31144E+00-1.33836E+00 5.55946E-01
 -1      1165-4.20272E+00 1.08215E+02 1.03310E+00-4.04081E-01-3.93331E-01 2.02326E-01
 -1      1166-5.78002E+00-1.02751E+02 8.91736E-01 1.44665E+01-3.14003E+00 6.86204E-01
 -1      1167-8.74187E+00-2.45124E+01 1.07394E+00 1.40204E+01-1.72470E+00 6.20828E-01
 -1      1168-8.01621E+00 4.59701E+01 9.12745E-01 7.81753E+00-9.24859E-01 3.40653E-01
 -1      1169-4.41899E+00 1.10924E+02 6.37627E-01 5.68358E-01-3.03116E-01 8.43547E-02
 -1      1170-1.29775E+00-2.48012E+01-2.13936E-01-1.07900E+01-2.46669E+00-1.17052E+00
 -1      1171-2.10050E-01-9.48587E+00 1.42416E-02-1.40684E+01-7.50177E-01-1.64151E+00
 -1      1172-6.65951E-01 6.40034E+00-2.55875E-01-1.33382E+01 8.52678E-01-1.69921E+00
 -1      1173 8.34607E-01 2.57212E+01 1.13693E-01-9.87388E+00 2.52551E+00-1.24743E+00
 -1      1174-1.39774E+00-2.32601E+01-1.61901E+00-9.82772E+00-5.39361E+00-3.18992E+00
 -1      1175-1.60794E-01-8.72349E+00-4.27844E-01-1.28527E+01-1.82539E+00-3.98555E+00
 -1      1176-6.93799E-01 5.83371E+00 5.42581E-02-1.21472E+01 1.73903E+00-3.97305E+00
 -1      1177 9.93149E-01 2.43579E+01 1.68759E+00-8.91655E+00 5.69062E+00-3.18436E+00
 -1      1178-1.54182E+00-1.99517E+01-4.20556E+00-9.37826E+00-7.34289E+00-5.35085E+00
 -1      1179-2.21852E-01-7.33348E+00-1.30320E+00-1.25126E+01-2.66044E+00-6.56350E+00
 -1      1180-3.49752E-01 4.66630E+00 4.66725E-01-1.19484E+01 2.09981E+00-6.42438E+00
 -1      1181 1.35660E+00 2.05617E+01 4.30109E+00-8.69304E+00 7.65432E+00-5.13770E+00
 -1      1182-7.79154E-01-1.43203E+01-4.35183E+00-9.25843E+00-7.03981E+00-6.85882E+00
 -1      1183-8.97513E-02-5.33877E+00-1.61237E+00-1.18192E+01-2.55703E+00-8.26065E+00
 -1      1184-3.63503E-01 3.34200E+00 2.18907E-01-1.15441E+01 1.77940E+00-8.10307E+00
 -1      1185 8.57611E-01 1.45459E+01 4.22803E+00-9.02670E+00 7.17835E+00-6.65696E+00
 -1      1186-5.79258E+00-1.02824E+02 9.04968E-01-1.45699E+01-3.16552E+00-6.50849E-01
 -1      1187-8.75842E+00-2.45653E+01 1.07953E+00-1.41556E+01-1.73606E+00-5.79786E-01
 -1      1188-8.03455E+00 4.59450E+01 9.14100E-01-7.95163E+00-9.27279E-01-2.99245E-01
 -1      1189-4.43543E+00 1.10933E+02 6.38018E-01-6.75059E-01-2.96510E-01-4.56042E-02
 -1      1190-5.55241E+00-1.06666E+02 1.05285E+00-1.36990E+01-4.40946E+00-8.61266E-01
 -1      1191-8.52423E+00-2.80429E+01 1.26683E+00-1.25824E+01-2.51983E+00-8.53507E-01
 -1      1192-7.71597E+00 4.29273E+01 1.25969E+00-6.49772E+00-1.34512E+00-5.14533E-01
 -1      1193-4.23145E+00 1.08219E+02 1.03141E+00 2.39875E-01-3.84038E-01-1.63511E-01
 -1      1194-5.56621E+00-1.09502E+02 9.81910E-01-1.34603E+01-3.71382E+00-6.78354E-01
 -1      1195-8.60110E+00-3.05358E+01 1.55315E+00-1.20070E+01-2.23834E+00-7.45320E-01
 -1      1196-7.75003E+00 4.07039E+01 1.63819E+00-5.83453E+00-1.18702E+00-4.99930E-01
 -1      1197-4.23587E+00 1.06171E+02 1.42896E+00 6.79366E-01-3.10269E-01-1.99296E-01
 -1      1198-5.63567E+00-1.11248E+02 8.26613E-01-1.33930E+01-2.03907E+00-3.37590E-01
 -1      1199-8.69567E+00-3.20312E+01 1.73067E+00-1.17855E+01-1.26532E+00-3.98883E-01
 -1      1200-7.83943E+00 3.93662E+01 1.90045E+00-5.55190E+00-6.78250E-01-2.79719E-01
 -1      1201-4.28668E+00 1.04931E+02 1.71623E+00 8.76209E-01-1.76992E-01-1.03744E-01
 -1      1202-1.44221E+00-4.06353E+01 8.54495E-01-5.46399E+00-5.89726E+00-3.17333E-01
 -1      1203-1.69039E+00-3.89920E+01 4.21094E-01-4.98550E+00-9.61880E+00-7.43002E-01
 -1      1204-2.10936E+00-3.43044E+01-2.58997E+00-4.31165E+00-1.15907E+01-1.22396E+00
 -1      1205-3.00864E+00-2.65298E+01-9.54179E+00-3.22969E+00-9.63953E+00-1.02938E+00
 -1      1206-3.51022E+00-5.17881E+01-1.36447E+00-4.77086E+00-6.49279E+00-3.21134E-02
 -1      1207-3.69038E+00-4.92894E+01-2.31194E+00-4.14366E+00-9.49752E+00-1.17589E-01
 -1      1208-3.78705E+00-4.47644E+01-4.76278E+00-3.63354E+00-1.01516E+01-1.70519E-01
 -1      1209-3.35305E+00-3.68783E+01-7.72076E+00-2.98613E+00-7.58012E+00-1.08994E-01
 -1      1210-4.70432E+00-6.07555E+01-2.42530E+00-4.41122E+00-6.14734E+00 6.83342E-02
 -1      1211-4.69488E+00-5.81597E+01-3.39828E+00-3.62744E+00-8.37618E+00 1.08274E-01
 -1      1212-4.53512E+00-5.41705E+01-4.95128E+00-3.19342E+00-8.03124E+00 1.25969E-01
 -1      1213-3.98611E+00-4.88833E+01-6.30771E+00-2.89092E+00-5.20629E+00 1.12542E-01
 -1      1214-5.47319E+00-6.93320E+01-2.77526E+00-4.38320E+00-5.46192E+00 5.91112E-02
 -1      1215-5.38484E+00-6.72556E+01-3.51238E+00-3.60838E+00-7.06418E+00 1.12203E-01
 -1      1216-5.17915E+00-6.43815E+01-4.39479E+00-3.24663E+00-6.20748E+00 1.32828E-01
 -1      1217-4.83295E+00-6.12516E+01-5.04392E+00-3.07906E+00-3.67472E+00 9.74158E-02
 -1      1218-6.15943E+00-7.83175E+01-2.92570E+00-4.36346E+00-4.86534E+00 3.14491E-02
 -1      1219-6.09193E+00-7.69551E+01-3.49558E+00-3.57069E+00-6.06828E+00 6.84831E-02
 -1      1220-5.95239E+00-7.51607E+01-4.06642E+00-3.20117E+00-5.07372E+00 8.55231E-02
 -1      1221-5.76044E+00-7.34060E+01-4.44033E+00-3.04314E+00-2.86671E+00 6.23856E-02
 -1      1222-6.85127E+00-8.77004E+01-3.03702E+00-4.36630E+00-4.42135E+00-2.21412E-03
 -1      1223-6.82680E+00-8.68919E+01-3.48347E+00-3.57463E+00-5.39169E+00 1.82634E-02
 -1      1224-6.75241E+00-8.58456E+01-3.87977E+00-3.19592E+00-4.38307E+00 3.30882E-02
 -1      1225-6.65070E+00-8.48715E+01-4.11278E+00-3.03174E+00-2.41695E+00 2.60458E-02
 -1      1226-7.56339E+00-9.73781E+01-3.17537E+00-4.36642E+00-4.12659E+00-3.17671E-02
 -1      1227-7.58017E+00-9.69649E+01-3.53587E+00-3.58302E+00-4.96785E+00-2.19592E-02
 -1      1228-7.55212E+00-9.64178E+01-3.81941E+00-3.19806E+00-3.97939E+00-7.43617E-03
 -1      1229-7.49946E+00-9.59184E+01-3.96425E+00-3.02576E+00-2.16776E+00-1.38336E-03
 -1      1230-8.28988E+00-1.07221E+02-3.34675E+00-4.35965E+00-3.95070E+00-5.60283E-02
 -1      1231-8.34387E+00-1.07099E+02-3.64633E+00-3.58733E+00-4.72872E+00-5.18788E-02
 -1      1232-8.35014E+00-1.06909E+02-3.84600E+00-3.20066E+00-3.76428E+00-3.65957E-02
 -1      1233-8.32890E+00-1.06740E+02-3.92513E+00-3.02353E+00-2.04005E+00-2.13400E-02
 -1      1234-9.01787E+00-1.17108E+02-3.53460E+00-4.34489E+00-3.86810E+00-7.62599E-02
 -1      1235-9.10569E+00-1.17229E+02-3.78308E+00-3.58318E+00-4.63033E+00-7.43538E-02
 -1      1236-9.13988E+00-1.17337E+02-3.90724E+00-3.19741E+00-3.68569E+00-5.77070E-02
 -1      1237-9.14198E+00-1.17443E+02-3.92550E+00-3.01817E+00-1.99642E+00-3.60609E-02
 -1      1238-9.73367E+00-1.26922E+02-3.71390E+00-4.32277E+00-3.86926E+00-9.34576E-02
 -1      1239-9.85383E+00-1.27291E+02-3.90549E+00-3.56835E+00-4.65610E+00-9.17414E-02
 -1      1240-9.91204E+00-1.27699E+02-3.94552E+00-3.18382E+00-3.72362E+00-7.35160E-02
 -1      1241-9.93316E+00-1.28076E+02-3.89588E+00-3.00401E+00-2.02236E+00-4.72981E-02
 -1      1242-1.04307E+01-1.36552E+02-3.85581E+00-4.30219E+00-3.96294E+00-1.06846E-01
 -1      1243-1.05802E+01-1.37224E+02-3.96615E+00-3.54666E+00-4.81129E+00-1.03899E-01
 -1      1244-1.06562E+01-1.37978E+02-3.90016E+00-3.16285E+00-3.87545E+00-8.46317E-02
 -1      1245-1.06897E+01-1.38652E+02-3.76782E+00-2.98294E+00-2.11393E+00-5.55855E-02
 -1      1246-1.11322E+01-1.45933E+02-3.92835E+00-4.31397E+00-4.16996E+00-1.11364E-01
 -1      1247-1.13062E+01-1.47025E+02-3.92578E+00-3.55097E+00-5.10329E+00-1.05969E-01
 -1      1248-1.13870E+01-1.48208E+02-3.73530E+00-3.17658E+00-4.12984E+00-8.77688E-02
 -1      1249-1.14149E+01-1.49204E+02-3.50856E+00-3.00409E+00-2.25756E+00-5.77143E-02
 -1      1250-1.20150E+01-1.55346E+02-3.97318E+00-4.62399E+00-4.55084E+00-6.54698E-02
 -1      1251-1.22725E+01-1.57187E+02-3.90501E+00-4.02930E+00-5.57203E+00-7.47993E-02
 -1      1252-1.24057E+01-1.59003E+02-3.67334E+00-3.85783E+00-4.48725E+00-4.62884E-02
 -1      1253-1.24804E+01-1.60436E+02-3.46323E+00-3.88423E+00-2.44189E+00 9.07961E-03
 -1      1254-1.34823E+01-1.65586E+02-4.29860E+00-4.96737E+00-5.19733E+00-3.56204E-02
 -1      1255-1.38124E+01-1.68401E+02-4.32129E+00-4.27329E+00-6.22950E+00-8.73906E-02
 -1      1256-1.40094E+01-1.70846E+02-4.29968E+00-4.02055E+00-4.92274E+00-6.30599E-02
 -1      1257-1.41537E+01-1.72646E+02-4.32701E+00-3.94559E+00-2.65693E+00 2.44553E-02
 -1      1258-1.65311E+01-1.79440E+02-5.45378E+00-6.45831E+00-5.96407E+00-5.59188E-02
 -1      1259-1.69170E+01-1.83325E+02-5.92333E+00-5.93496E+00-6.91000E+00-1.46247E-01
 -1      1260-1.71931E+01-1.86294E+02-6.41443E+00-5.80564E+00-5.32719E+00-1.02965E-01
 -1      1261-1.73927E+01-1.88271E+02-6.78648E+00-5.83193E+00-2.84682E+00 1.06501E-02
 -1      1262 2.06778E+00 4.38737E+01-6.34786E-01-5.07197E+00 5.85781E+00-3.03186E-01
 -1      1263 2.25324E+00 4.20608E+01-6.73465E-02-4.63308E+00 1.00113E+01-6.99480E-01
 -1      1264 2.49911E+00 3.62271E+01 2.96130E+00-3.98425E+00 1.22518E+01-1.10900E+00
 -1      1265 3.24419E+00 2.71762E+01 9.98705E+00-3.03381E+00 1.01648E+01-8.88828E-01
 -1      1266 3.97767E+00 5.34122E+01 1.50824E+00-4.47278E+00 6.47371E+00-2.59240E-02
 -1      1267 4.11471E+00 5.08390E+01 2.50129E+00-3.88403E+00 9.68719E+00-8.61839E-02
 -1      1268 4.10283E+00 4.58104E+01 4.97838E+00-3.40946E+00 1.04989E+01-1.04316E-01
 -1      1269 3.52970E+00 3.72181E+01 7.92615E+00-2.83718E+00 7.86872E+00-4.38605E-02
 -1      1270 4.92069E+00 6.13472E+01 2.46152E+00-4.25411E+00 6.15074E+00 6.81961E-02
 -1      1271 4.89795E+00 5.87583E+01 3.44625E+00-3.48876E+00 8.47818E+00 1.19084E-01
 -1      1272 4.69014E+00 5.45829E+01 5.00728E+00-3.07385E+00 8.20293E+00 1.49416E-01
 -1      1273 4.07463E+00 4.90206E+01 6.35950E+00-2.80138E+00 5.33633E+00 1.34398E-01
 -1      1274 5.54601E+00 6.94500E+01 2.76747E+00-4.32232E+00 5.49385E+00 5.79210E-02
 -1      1275 5.45545E+00 6.74115E+01 3.50208E+00-3.55461E+00 7.14194E+00 1.13259E-01
 -1      1276 5.23237E+00 6.44987E+01 4.38365E+00-3.19850E+00 6.30400E+00 1.36980E-01
 -1      1277 4.86415E+00 6.12905E+01 5.03377E+00-3.03915E+00 3.74001E+00 1.01446E-01
 -1      1278 6.17483E+00 7.82652E+01 2.91124E+00-4.34810E+00 4.91867E+00 3.29789E-02
 -1      1279 6.10738E+00 7.69607E+01 3.47829E+00-3.55498E+00 6.14561E+00 6.92755E-02
 -1      1280 5.96204E+00 7.51857E+01 4.05127E+00-3.18490E+00 5.14599E+00 8.61278E-02
 -1      1281 5.76280E+00 7.34228E+01 4.43048E+00-3.02736E+00 2.90965E+00 6.29312E-02
 -1      1282 6.85390E+00 8.76096E+01 3.03378E+00-4.36868E+00 4.48181E+00 3.89514E-03
 -1      1283 6.82824E+00 8.68819E+01 3.48689E+00-3.57250E+00 5.46233E+00 2.23068E-02
 -1      1284 6.74892E+00 8.58722E+01 3.89755E+00-3.19095E+00 4.43603E+00 3.52353E-02
 -1      1285 6.64238E+00 8.49052E+01 4.14577E+00-3.02540E+00 2.44415E+00 2.70189E-02
 -1      1286 7.57575E+00 9.73152E+01 3.19571E+00-4.37625E+00 4.17372E+00-2.00240E-02
 -1      1287 7.58775E+00 9.70015E+01 3.58283E+00-3.58605E+00 5.00464E+00-1.36343E-02
 -1      1288 7.55045E+00 9.64810E+01 3.90693E+00-3.19782E+00 3.99001E+00-2.63679E-03
 -1      1289 7.49009E+00 9.59732E+01 4.08897E+00-3.02419E+00 2.16618E+00 7.42826E-04
 -1      1290 8.33061E+00 1.07264E+02 3.41044E+00-4.37737E+00 3.95366E+00-3.77925E-02
 -1      1291 8.37355E+00 1.07241E+02 3.77427E+00-3.59752E+00 4.68241E+00-3.91302E-02
 -1      1292 8.36261E+00 1.07030E+02 4.06411E+00-3.20852E+00 3.68431E+00-2.93189E-02
 -1      1293 8.32792E+00 1.06803E+02 4.22255E+00-3.03116E+00 1.98029E+00-1.83552E-02
 -1      1294 9.11446E+00 1.17407E+02 3.67989E+00-4.37782E+00 3.77563E+00-5.10873E-02
 -1      1295 9.18124E+00 1.17581E+02 4.06115E+00-3.61059E+00 4.41827E+00-5.77451E-02
 -1      1296 9.18677E+00 1.17556E+02 4.36323E+00-3.22552E+00 3.43404E+00-4.87911E-02
 -1      1297 9.16758E+00 1.17500E+02 4.53415E+00-3.04840E+00 1.82920E+00-3.30329E-02
 -1      1298 9.92756E+00 1.27749E+02 4.00941E+00-4.37953E+00 3.59365E+00-6.21372E-02
 -1      1299 1.00113E+01 1.28038E+02 4.45244E+00-3.62741E+00 4.14418E+00-7.30740E-02
 -1      1300 1.00260E+01 1.28091E+02 4.81508E+00-3.24966E+00 3.17429E+00-6.46130E-02
 -1      1301 1.00171E+01 1.28124E+02 5.03533E+00-3.07566E+00 1.67345E+00-4.56666E-02
 -1      1302 1.07634E+01 1.38331E+02 4.41045E+00-4.37436E+00 3.35690E+00-7.26159E-02
 -1      1303 1.08515E+01 1.38619E+02 4.96179E+00-3.63936E+00 3.79366E+00-8.65907E-02
 -1      1304 1.08657E+01 1.38630E+02 5.43499E+00-3.27090E+00 2.84933E+00-7.81276E-02
 -1      1305 1.08600E+01 1.38665E+02 5.73850E+00-3.09967E+00 1.48335E+00-5.73756E-02
 -1      1306 1.15758E+01 1.49133E+02 4.87868E+00-4.32189E+00 2.99708E+00-8.06674E-02
 -1      1307 1.16442E+01 1.49225E+02 5.58193E+00-3.60981E+00 3.29098E+00-9.46992E-02
 -1      1308 1.16406E+01 1.49029E+02 6.20629E+00-3.25106E+00 2.40643E+00-8.64630E-02
 -1      1309 1.16180E+01 1.48944E+02 6.60434E+00-3.07686E+00 1.23416E+00-6.55871E-02
 -1      1310 1.22750E+01 1.59985E+02 5.39496E+00-4.30077E+00 2.46955E+00-4.20239E-02
 -1      1311 1.23511E+01 1.59706E+02 6.32792E+00-3.79493E+00 2.61919E+00-6.51612E-02
 -1      1312 1.23696E+01 1.59236E+02 7.17279E+00-3.61571E+00 1.84922E+00-4.38324E-02
 -1      1313 1.23609E+01 1.59010E+02 7.70559E+00-3.60908E+00 9.26536E-01 9.18347E-04
 -1      1314 1.25267E+01 1.69782E+02 5.81536E+00-3.60118E+00 1.84266E+00-1.27760E-02
 -1      1315 1.26149E+01 1.68749E+02 6.95103E+00-2.98292E+00 1.93942E+00-6.82169E-02
 -1      1316 1.26685E+01 1.67813E+02 7.97516E+00-2.66079E+00 1.36668E+00-5.95250E-02
 -1      1317 1.26734E+01 1.67287E+02 8.58115E+00-2.49828E+00 6.93605E-01 1.48309E-02
 -1      1318 1.14787E+01 1.75995E+02 5.45009E+00-2.38381E+00 1.10200E+00-3.33819E-02
 -1      1319 1.15872E+01 1.74032E+02 6.47764E+00-1.82103E+00 1.23645E+00-9.09114E-02
 -1      1320 1.16248E+01 1.72475E+02 7.35832E+00-1.55643E+00 9.16345E-01-8.37370E-02
 -1      1321 1.15934E+01 1.71502E+02 7.83203E+00-1.44608E+00 4.75154E-01 3.57339E-03
 -1      1322 5.57560E-01-3.00577E+01-5.87210E-01-1.21972E+01-1.49858E+00-9.70138E-01
 -1      1323 8.87970E-01-1.12763E+01-1.99906E-01-1.66975E+01-4.07537E-01-1.23816E+00
 -1      1324-1.34908E-01 8.93967E+00-2.82262E-02-1.60347E+01 5.38005E-01-1.29055E+00
 -1      1325 4.27607E-02 3.05541E+01 6.06287E-01-1.11066E+01 1.48677E+00-1.07333E+00
 -1      1326 1.90435E-01-3.30464E+01-5.54262E-01-1.21198E+01-1.79237E+00-1.19363E+00
 -1      1327 3.39789E-01-1.18921E+01-3.10788E-01-1.70987E+01-5.11602E-01-1.18348E+00
 -1      1328 3.16793E-01 1.07927E+01 1.75115E-01-1.67144E+01 5.64152E-01-1.19467E+00
 -1      1329 3.24345E-01 3.33771E+01 5.84868E-01-1.14557E+01 1.78933E+00-1.22434E+00
 -1      1330-5.93237E-02-3.66467E+01-4.66001E-01-1.20276E+01-1.76403E+00-1.44533E+00
 -1      1331 1.08134E-01-1.25836E+01-2.25603E-01-1.74401E+01-5.14072E-01-1.37635E+00
 -1      1332 2.79926E-01 1.21403E+01 1.54709E-01-1.72521E+01 5.47907E-01-1.37717E+00
 -1      1333 3.61193E-01 3.68470E+01 4.82286E-01-1.17009E+01 1.77607E+00-1.44652E+00
 -1      1334-1.41245E-01-4.09458E+01-3.58249E-01-1.19998E+01-1.60524E+00-1.64976E+00
 -1      1335 1.03525E-02-1.37850E+01-1.42623E-01-1.76180E+01-4.72743E-01-1.58017E+00
 -1      1336 1.71462E-01 1.36043E+01 1.05351E-01-1.75419E+01 5.02907E-01-1.57906E+00
 -1      1337 2.86017E-01 4.10205E+01 3.67005E-01-1.18708E+01 1.62572E+00-1.64558E+00
 -1      1338-1.58546E-01-4.58159E+01-2.71273E-01-1.19801E+01-1.45093E+00-1.86067E+00
 -1      1339-3.28838E-02-1.53386E+01-9.45366E-02-1.76824E+01-4.26291E-01-1.79810E+00
 -1      1340 9.90964E-02 1.52028E+01 7.00748E-02-1.76615E+01 4.54814E-01-1.79667E+00
 -1      1341 2.13717E-01 4.57659E+01 2.68195E-01-1.19474E+01 1.47640E+00-1.85638E+00
 -1      1342-1.54185E-01-5.10908E+01-1.97381E-01-1.19337E+01-1.33188E+00-2.07654E+00
 -1      1343-4.65496E-02-1.70962E+01-6.28441E-02-1.76627E+01-3.89215E-01-2.01903E+00
 -1      1344 5.97985E-02 1.69005E+01 3.82079E-02-1.76667E+01 4.13743E-01-2.01773E+00
 -1      1345 1.67625E-01 5.09272E+01 1.82720E-01-1.19437E+01 1.35722E+00-2.07337E+00
 -1      1346-1.48798E-01-5.66372E+01-1.42018E-01-1.18702E+01-1.25384E+00-2.29095E+00
 -1      1347-4.78117E-02-1.89734E+01-4.29532E-02-1.75987E+01-3.66920E-01-2.23321E+00
 -1      1348 4.42675E-02 1.86764E+01 1.18023E-02-1.76161E+01 3.81959E-01-2.23203E+00
 -1      1349 1.49315E-01 5.63790E+01 1.18741E-01-1.19030E+01 1.27177E+00-2.28864E+00
 -1      1350-1.45336E-01-6.23321E+01-1.00604E-01-1.17960E+01-1.21101E+00-2.50213E+00
 -1      1351-4.20473E-02-2.09124E+01-2.96671E-02-1.75132E+01-3.60033E-01-2.44037E+00
 -1      1352 4.50475E-02 2.05072E+01-8.75537E-03-1.75446E+01 3.54449E-01-2.43949E+00
 -1      1353 1.51829E-01 6.20149E+01 7.43103E-02-1.18530E+01 1.20961E+00-2.50098E+00
 -1      1354-1.41266E-01-6.80794E+01-6.54849E-02-1.17142E+01-1.19808E+00-2.70929E+00
 -1      1355-2.93624E-02-2.28704E+01-1.74777E-02-1.74191E+01-3.70043E-01-2.64209E+00
 -1      1356 5.84071E-02 2.23802E+01-2.24659E-02-1.74716E+01 3.23440E-01-2.64256E+00
 -1      1357 1.68306E-01 6.77711E+01 4.53132E-02-1.18093E+01 1.15654E+00-2.71185E+00
 -1      1358-1.38579E-01-7.38049E+01-2.98611E-02-1.16281E+01-1.21502E+00-2.91040E+00
 -1      1359-1.37304E-02-2.48037E+01 1.36349E-03-1.73239E+01-4.01457E-01-2.83922E+00
 -1      1360 7.73312E-02 2.43078E+01-2.44975E-02-1.74028E+01 2.79242E-01-2.84377E+00
 -1      1361 1.88999E-01 7.36276E+01 2.99425E-02-1.17736E+01 1.09706E+00-2.92386E+00
 -1      1362-1.59855E-01-7.94492E+01 1.05807E-02-1.15577E+01-1.26886E+00-3.10097E+00
 -1      1363-2.05718E-02-2.66334E+01 4.22450E-02-1.72417E+01-4.62223E-01-3.03078E+00
 -1      1364 7.15974E-02 2.63508E+01-1.86881E-03-1.73273E+01 2.10311E-01-3.04469E+00
 -1      1365 1.88073E-01 7.96037E+01 3.02623E-02-1.17255E+01 1.01311E+00-3.14020E+00
 -1      1366-2.75582E-01-8.49512E+01 6.14192E-02-1.15891E+01-1.37321E+00-3.27341E+00
 -1      1367-1.39540E-01-2.81808E+01 1.35775E-01-1.72291E+01-5.64185E-01-3.21498E+00
 -1      1368-4.90980E-02 2.86714E+01 7.40225E-02-1.72179E+01 1.05044E-01-3.24546E+00
 -1      1369 9.22615E-02 8.57394E+01 4.82804E-02-1.16093E+01 8.81501E-01-3.36202E+00
 -1      1370-6.38659E-01-9.01768E+01 1.44163E-01-1.18757E+01-1.56786E+00-3.37725E+00
 -1      1371-5.89751E-01-2.90372E+01 3.44482E-01-1.73396E+01-7.10221E-01-3.34032E+00
 -1      1372-5.05040E-01 3.16249E+01 2.53724E-01-1.69222E+01-3.47263E-02-3.39148E+00
 -1      1373-2.68686E-01 9.20511E+01 8.51584E-02-1.12118E+01 7.04720E-01-3.53519E+00
 -1      1374-1.54260E+00-9.47996E+01 2.66065E-01-1.26999E+01-1.81639E+00-3.63937E+00
 -1      1375-1.83265E+00-2.84289E+01 7.13145E-01-1.75849E+01-8.70020E-01-3.62992E+00
 -1      1376-1.77102E+00 3.58204E+01 5.88935E-01-1.60955E+01-1.89356E-01-3.66449E+00
 -1      1377-1.15936E+00 9.86419E+01 2.20771E-01-1.00872E+01 4.53103E-01-3.80787E+00
 -1      1378-3.31739E+00-9.76280E+01 7.13299E-01-1.45306E+01-2.05349E+00-4.12849E+00
 -1      1379-4.69259E+00-2.53810E+01 1.22080E+00-1.79486E+01-1.00384E+00-4.02333E+00
 -1      1380-4.51726E+00 4.19391E+01 9.90741E-01-1.44053E+01-3.23079E-01-3.94480E+00
 -1      1381-2.86081E+00 1.05854E+02 4.68628E-01-7.73667E+00 2.22882E-01-3.99964E+00
 -1      1382 1.29955E+00-6.54566E+00-2.50714E+00-3.70086E+00 1.22113E-01 8.65343E-02
 -1      1383 6.59285E-01-2.10651E+00-7.93093E-01-6.31493E+00 4.60572E-02 9.10280E-02
 -1      1384-2.68632E-01 2.33453E+00 5.39362E-01-6.26908E+00-4.09172E-02 8.86122E-02
 -1      1385-1.14179E+00 6.29327E+00 2.47568E+00-3.61101E+00-1.30758E-01 8.28148E-02
 -1      1386 8.62512E-01-1.69980E+01-2.76889E+00-6.19183E+00 1.28476E-01-3.71314E-02
 -1      1387 4.59777E-01-5.63819E+00-8.26908E-01-9.77113E+00 4.42086E-02-5.02135E-02
 -1      1388-2.03605E-01 5.46499E+00 7.16361E-01-9.70204E+00-4.63158E-02-5.19236E-02
 -1      1389-7.30241E-01 1.68515E+01 2.78730E+00-6.07982E+00-1.40280E-01-4.05642E-02
 -1      1390-1.70673E-01-3.01774E+01 1.03530E+00-9.69569E+00 2.20041E-02-4.37185E-01
 -1      1391-1.90519E-02-2.76637E+01 6.76805E-01-9.59590E+00 1.40462E-02-4.08599E-01
 -1      1392 1.37541E-02-2.52041E+01 4.02829E-01-9.55866E+00 9.32401E-03-3.78578E-01
 -1      1393 1.26913E-02-2.28837E+01 1.92157E-01-9.54722E+00 6.87210E-03-3.47503E-01
 -1      1394 1.10030E-02-2.06567E+01 2.97239E-02-9.54674E+00 5.96671E-03-3.15690E-01
 -1      1395 1.70869E-02-1.84633E+01-1.06667E-01-9.56474E+00 6.21852E-03-2.83206E-01
 -1      1396 3.42926E-02-1.62458E+01-2.40959E-01-9.61778E+00 7.56945E-03-2.49784E-01
 -1      1397 6.47964E-02-1.39523E+01-3.97599E-01-9.71735E+00 1.03743E-02-2.14345E-01
 -1      1398 1.48960E-01-1.14784E+01-5.72385E-01-9.83996E+00 1.57157E-02-1.73899E-01
 -1      1399-2.28867E-01-8.82165E+01 8.04031E-01-6.16389E+00 3.87772E-02-3.70755E-01
 -1      1400-5.18726E-02-8.13315E+01 5.18123E-01-6.08638E+00 3.05108E-02-3.46156E-01
 -1      1401-4.66518E-03-7.47466E+01 2.26367E-01-6.09215E+00 2.54659E-02-3.20641E-01
 -1      1402 9.98055E-03-6.83037E+01-2.70560E-02-6.10693E+00 2.29570E-02-2.94305E-01
 -1      1403 2.43725E-02-6.18943E+01-2.56083E-01-6.11794E+00 2.25329E-02-2.67298E-01
 -1      1404 4.92594E-02-5.54272E+01-4.97815E-01-6.13403E+00 2.42278E-02-2.39620E-01
 -1      1405 9.16111E-02-4.87938E+01-7.96373E-01-6.16986E+00 2.86763E-02-2.11012E-01
 -1      1406 1.67115E-01-4.18333E+01-1.19230E+00-6.24106E+00 3.73748E-02-1.80587E-01
 -1      1407 2.85628E-01-3.43269E+01-1.72258E+00-6.32405E+00 5.37303E-02-1.45867E-01
 -1      1408-2.35829E-01 3.43073E+01 1.72492E+00-6.27712E+00-5.99025E-02-1.46479E-01
 -1      1409-1.47656E-01 4.18580E+01 1.21169E+00-6.22441E+00-4.18844E-02-1.80847E-01
 -1      1410-8.76086E-02 4.88463E+01 8.64978E-01-6.16858E+00-3.22435E-02-2.11251E-01
 -1      1411-4.97290E-02 5.54811E+01 6.64682E-01-6.14330E+00-2.69720E-02-2.39972E-01
 -1      1412-2.11210E-02 6.18990E+01 5.98473E-01-6.14522E+00-2.39015E-02-2.67811E-01
 -1      1413 2.03002E-03 6.81647E+01 6.60974E-01-6.17159E+00-2.15008E-02-2.94974E-01
 -1      1414 1.44190E-02 7.42953E+01 8.56236E-01-6.21734E+00-1.84410E-02-3.21405E-01
 -1      1415-1.48809E-02 8.02769E+01 1.18889E+00-6.25926E+00-1.34434E-02-3.46872E-01
 -1      1416-1.61836E-01 8.60887E+01 1.64977E+00-6.21721E+00-5.48018E-03-3.71168E-01
 -1      1417-1.50891E+00 9.57394E+01 2.23433E+00-5.32346E+00 1.80007E-02-4.06510E-01
 -1      1418-1.97836E+00 3.18552E+01 2.09792E+00-9.32798E+00 3.05518E-02-4.80016E-01
 -1      1419-2.05853E+00-3.38397E+01 1.79390E+00-1.06910E+01 4.85145E-02-4.81072E-01
 -1      1420-1.61490E+00-1.01712E+02 1.10737E+00-7.67845E+00 6.25160E-02-4.09701E-01
 -1      1421-2.86528E+00 9.99366E+01 2.17004E+00-3.78662E+00 6.44877E-04-4.20388E-01
 -1      1422-4.26085E+00 3.49834E+01 2.31605E+00-8.48992E+00 3.30301E-02-4.99586E-01
 -1      1423-4.43717E+00-3.37084E+01 2.10380E+00-1.15929E+01 7.16124E-02-5.02119E-01
 -1      1424-3.06211E+00-1.07395E+02 1.05920E+00-9.79113E+00 1.06472E-01-4.27240E-01
 -1      1425-3.34789E+01-2.33874E+02-1.96173E+01 2.41223E+01-2.92317E+00 3.89639E-01
 -1      1426-3.30611E+01-2.31227E+02-1.82476E+01 2.38396E+01-5.57300E+00 7.64386E-01
 -1      1427-3.23432E+01-2.26647E+02-1.57965E+01 2.35415E+01-7.39425E+00 1.01455E+00
 -1      1428-3.13716E+01-2.19957E+02-1.23161E+01 2.34397E+01-6.61210E+00 7.23885E-01
 -1      1429-4.30192E+01-2.48642E+02-2.34932E+01 4.12580E+01-2.80108E+00 6.46248E-01
 -1      1430-4.23785E+01-2.45442E+02-2.16803E+01 4.06447E+01-5.31577E+00 1.24541E+00
 -1      1431-4.13512E+01-2.39924E+02-1.84900E+01 3.98462E+01-6.97878E+00 1.64412E+00
 -1      1432-4.00819E+01-2.31767E+02-1.41913E+01 3.90913E+01-6.15597E+00 1.23911E+00
 -1      1433-5.43840E+01-2.56099E+02-2.55691E+01 6.00843E+01-2.57961E+00 8.67333E-01
 -1      1434-5.34675E+01-2.52531E+02-2.34515E+01 5.90778E+01-4.87577E+00 1.65872E+00
 -1      1435-5.20797E+01-2.46346E+02-1.98402E+01 5.76754E+01-6.34177E+00 2.16742E+00
 -1      1436-5.03983E+01-2.37062E+02-1.51188E+01 5.60457E+01-5.54219E+00 1.65120E+00
 -1      1437-6.87654E+01-2.58210E+02-2.69827E+01 7.92949E+01-2.31963E+00 1.04870E+00
 -1      1438-6.74960E+01-2.54445E+02-2.46616E+01 7.78758E+01-4.37681E+00 1.99634E+00
 -1      1439-6.56276E+01-2.47851E+02-2.07761E+01 7.58211E+01-5.67414E+00 2.59139E+00
 -1      1440-6.33455E+01-2.37910E+02-1.57691E+01 7.32229E+01-4.97398E+00 1.99346E+00
 -1      1441-8.66040E+01-2.55804E+02-2.82122E+01 9.78928E+01-2.05245E+00 1.19280E+00
 -1      1442-8.48881E+01-2.52008E+02-2.57368E+01 9.60796E+01-3.87713E+00 2.26661E+00
 -1      1443-8.23988E+01-2.45278E+02-2.16316E+01 9.33854E+01-5.03739E+00 2.93719E+00
 -1      1444-7.93270E+01-2.35129E+02-1.63788E+01 8.98419E+01-4.46496E+00 2.28579E+00
 -1      1445-1.07881E+02-2.49252E+02-2.94039E+01 1.15004E+02-1.79214E+00 1.30362E+00
 -1      1446-1.05633E+02-2.45587E+02-2.67959E+01 1.12853E+02-3.39626E+00 2.47829E+00
 -1      1447-1.02394E+02-2.38982E+02-2.24901E+01 1.09589E+02-4.43467E+00 3.21535E+00
 -1      1448-9.83603E+01-2.28994E+02-1.70005E+01 1.05195E+02-3.99058E+00 2.53067E+00
 -1      1449-1.32314E+02-2.38865E+02-3.05785E+01 1.29828E+02-1.54122E+00 1.38342E+00
 -1      1450-1.29464E+02-2.35470E+02-2.78490E+01 1.27424E+02-2.93316E+00 2.63459E+00
 -1      1451-1.25370E+02-2.29210E+02-2.33514E+01 1.23705E+02-3.85240E+00 3.42606E+00
 -1      1452-1.20223E+02-2.19677E+02-1.76294E+01 1.18602E+02-3.52802E+00 2.72246E+00
 -1      1453-1.59429E+02-2.25044E+02-3.17199E+01 1.41635E+02-1.29759E+00 1.43202E+00
 -1      1454-1.55930E+02-2.22029E+02-2.88763E+01 1.39088E+02-2.48144E+00 2.73402E+00
 -1      1455-1.50901E+02-2.16282E+02-2.41952E+01 1.35057E+02-3.27848E+00 3.56414E+00
 -1      1456-1.44517E+02-2.07430E+02-1.82486E+01 1.29425E+02-3.06496E+00 2.85343E+00
 -1      1457-1.88598E+02-2.08332E+02-3.28067E+01 1.49790E+02-1.05925E+00 1.44788E+00
 -1      1458-1.84428E+02-2.05769E+02-2.98569E+01 1.47225E+02-2.03701E+00 2.77290E+00
 -1      1459-1.78415E+02-2.00655E+02-2.50025E+01 1.43047E+02-2.70797E+00 3.62325E+00
 -1      1460-1.70704E+02-1.92647E+02-1.88427E+01 1.37094E+02-2.59855E+00 2.91701E+00
 -1      1461-2.19064E+02-1.89408E+02-3.38222E+01 1.53782E+02-8.26339E-01 1.42928E+00
 -1      1462-2.14228E+02-1.87332E+02-3.07744E+01 1.51331E+02-1.60034E+00 2.74762E+00
 -1      1463-2.07217E+02-1.82919E+02-2.57596E+01 1.47186E+02-2.14312E+00 3.59840E+00
 -1      1464-1.98132E+02-1.75862E+02-1.94009E+01 1.41142E+02-2.13270E+00 2.90888E+00
 -1      1465-2.49965E+02-1.69058E+02-3.47536E+01 1.53251E+02-6.01136E-01 1.37521E+00
 -1      1466-2.44501E+02-1.67471E+02-3.16179E+01 1.51048E+02-1.17604E+00 2.65623E+00
 -1      1467-2.36514E+02-1.63782E+02-2.64566E+01 1.47122E+02-1.59148E+00 3.48715E+00
 -1      1468-2.26056E+02-1.57728E+02-1.99164E+01 1.41229E+02-1.67532E+00 2.82730E+00
 -1      1469-2.80375E+02-1.48149E+02-3.55919E+01 1.48012E+02-3.87549E-01 1.28603E+00
 -1      1470-2.74344E+02-1.47015E+02-3.23782E+01 1.46186E+02-7.71683E-01 2.49916E+00
 -1      1471-2.65446E+02-1.44029E+02-2.70865E+01 1.42660E+02-1.06371E+00 3.29010E+00
 -1      1472-2.53670E+02-1.38974E+02-2.03833E+01 1.37165E+02-1.23639E+00 2.67292E+00
 -1      1473-3.09330E+02-1.27577E+02-3.63294E+01 1.38066E+02-1.90465E-01 1.16329E+00
 -1      1474-3.02828E+02-1.26834E+02-3.30490E+01 1.36733E+02-3.96410E-01 2.27924E+00
 -1      1475-2.93121E+02-1.24488E+02-2.76437E+01 1.33778E+02-5.71990E-01 3.01085E+00
 -1      1476-2.80134E+02-1.20375E+02-2.07979E+01 1.28921E+02-8.26579E-01 2.44893E+00
 -1      1477-3.35877E+02-1.08239E+02-3.69585E+01 1.23608E+02-1.48127E-02 1.00947E+00
 -1      1478-3.29027E+02-1.07796E+02-3.36240E+01 1.22865E+02-5.96513E-02 2.00117E+00
 -1      1479-3.18653E+02-1.05990E+02-2.81236E+01 1.20635E+02-1.28894E-01 2.65579E+00
 -1      1480-3.04614E+02-1.02713E+02-2.11566E+01 1.16633E+02-4.56690E-01 2.16091E+00
 -1      1481-3.59113E+02-9.09831E+01-3.74729E+01 1.05023E+02 1.34574E-01 8.28144E-01
 -1      1482-3.52061E+02-9.07280E+01-3.40975E+01 1.04945E+02 2.29676E-01 1.67115E+00
 -1      1483-3.41197E+02-8.93313E+01-2.85218E+01 1.03564E+02 2.53856E-01 2.23310E+00
 -1      1484-3.26316E+02-8.67387E+01-2.14571E+01 1.00606E+02-1.36830E-01 1.81604E+00
 -1      1485-3.78225E+02-7.65725E+01-3.78659E+01 8.28753E+01 2.53348E-01 6.23271E-01
 -1      1486-3.71136E+02-7.63776E+01-3.44638E+01 8.35043E+01 4.63415E-01 1.29621E+00
 -1      1487-3.59990E+02-7.52335E+01-2.88344E+01 8.30614E+01 5.65718E-01 1.75213E+00
 -1      1488-3.44518E+02-7.31348E+01-2.16965E+01 8.12957E+01 1.24151E-01 1.42274E+00
 -1      1489-3.92514E+02-6.56375E+01-3.81248E+01 5.78820E+01 3.37258E-01 3.98851E-01
 -1      1490-3.85569E+02-6.53686E+01-3.47127E+01 5.92282E+01 6.34068E-01 8.82679E-01
 -1      1491-3.74378E+02-6.43070E+01-2.90539E+01 5.97726E+01 7.97109E-01 1.22165E+00
 -1      1492-3.58606E+02-6.24883E+01-2.18721E+01 5.92974E+01 3.18243E-01 9.89656E-01
 -1      1493-4.01433E+02-5.86560E+01-3.82373E+01 3.08842E+01 3.81877E-01 1.57082E-01
 -1      1494-3.94830E+02-5.81825E+01-3.48365E+01 3.29219E+01 7.34509E-01 4.35214E-01
 -1      1495-3.83843E+02-5.70249E+01-2.91714E+01 3.44596E+01 9.39136E-01 6.47581E-01
 -1      1496-3.68098E+02-5.52594E+01-2.19773E+01 3.53215E+01 4.37588E-01 5.23142E-01
 -1      1497-4.05178E+02-5.61760E+01-3.84320E+01 2.53655E+00 3.55813E-01-1.03203E-01
 -1      1498-3.98978E+02-5.53087E+01-3.49998E+01 5.27307E+00 7.44929E-01-3.21738E-02
 -1      1499-3.88312E+02-5.38164E+01-2.92885E+01 7.83017E+00 9.80463E-01 5.11219E-02
 -1      1500-3.72786E+02-5.18070E+01-2.20472E+01 1.00852E+01 4.68124E-01 3.24492E-02
 -1      1501-4.03388E+02-5.79589E+01-3.85230E+01-2.42524E+01 3.44451E-01-3.12174E-01
 -1      1502-3.97673E+02-5.66402E+01-3.50753E+01-2.13301E+01 7.33877E-01-4.50155E-01
 -1      1503-3.87486E+02-5.46862E+01-2.93316E+01-1.82595E+01 9.63152E-01-5.02098E-01
 -1      1504-3.72433E+02-5.22293E+01-2.20649E+01-1.50987E+01 4.37732E-01-4.18862E-01
 -1      1505-3.95930E+02-6.35265E+01-3.83031E+01-5.05361E+01 2.78450E-01-5.11416E-01
 -1      1506-3.90826E+02-6.17962E+01-3.48976E+01-4.74489E+01 6.29715E-01-8.46260E-01
 -1      1507-3.81314E+02-5.93753E+01-2.92012E+01-4.38935E+01 8.40175E-01-1.03594E+00
 -1      1508-3.67005E+02-5.63987E+01-2.19912E+01-3.98582E+01 3.35139E-01-8.63541E-01
 -1      1509-3.83554E+02-7.28792E+01-3.79973E+01-7.52035E+01 1.87379E-01-7.08054E-01
 -1      1510-3.79029E+02-7.07366E+01-3.46385E+01-7.20336E+01 4.68872E-01-1.23562E+00
 -1      1511-3.70229E+02-6.77980E+01-2.90028E+01-6.80953E+01 6.39296E-01-1.55625E+00
 -1      1512-3.56776E+02-6.41830E+01-2.18628E+01-6.33086E+01 1.68526E-01-1.29202E+00
 -1      1513-3.66643E+02-8.56263E+01-3.76049E+01-9.74787E+01 6.90709E-02-8.93634E-01
 -1      1514-3.62660E+02-8.30840E+01-3.42949E+01-9.43046E+01 2.53058E-01-1.60299E+00
 -1      1515-3.54596E+02-7.95958E+01-2.87313E+01-9.00894E+01 3.63675E-01-2.04528E+00
 -1      1516-3.42101E+02-7.52511E+01-2.16753E+01-8.46937E+01-6.07996E-02-1.69125E+00
 -1      1517-3.45722E+02-1.01231E+02-3.71175E+01-1.16688E+02-7.47153E-02-1.05989E+00
 -1      1518-3.42247E+02-9.83168E+01-3.38624E+01-1.13578E+02-1.39495E-02-1.93446E+00
 -1      1519-3.34933E+02-9.42678E+01-2.83827E+01-1.09192E+02 1.90342E-02-2.48691E+00
 -1      1520-3.23477E+02-8.91334E+01-2.14275E+01-1.03342E+02-3.47817E-01-2.04963E+00
 -1      1521-3.21456E+02-1.19050E+02-3.65349E+01-1.32280E+02-2.40952E-01-1.20196E+00
 -1      1522-3.18449E+02-1.15803E+02-3.33414E+01-1.29292E+02-3.26069E-01-2.22015E+00
 -1      1523-3.11886E+02-1.11200E+02-2.79584E+01-1.24838E+02-3.86367E-01-2.86869E+00
 -1      1524-3.01523E+02-1.05244E+02-2.11211E+01-1.18694E+02-6.85461E-01-2.35760E+00
 -1      1525-2.94605E+02-1.38360E+02-3.58588E+01-1.43849E+02-4.25666E-01-1.31628E+00
 -1      1526-2.92020E+02-1.34822E+02-3.27337E+01-1.41028E+02-6.75777E-01-2.45307E+00
 -1      1527-2.86197E+02-1.29689E+02-2.74610E+01-1.36604E+02-8.42598E-01-3.18132E+00
 -1      1528-2.76955E+02-1.22908E+02-2.07585E+01-1.30329E+02-1.06522E+00-2.60735E+00
 -1      1529-2.65991E+02-1.58380E+02-3.50924E+01-1.51143E+02-6.24709E-01-1.40053E+00
 -1      1530-2.63784E+02-1.54599E+02-3.20428E+01-1.48526E+02-1.05474E+00-2.62824E+00
 -1      1531-2.58671E+02-1.48972E+02-2.68925E+01-1.44220E+02-1.33851E+00-3.41800E+00
 -1      1532-2.50551E+02-1.41391E+02-2.03415E+01-1.37973E+02-1.47757E+00-2.79313E+00
 -1      1533-2.36465E+02-1.78310E+02-3.42400E+01-1.54075E+02-8.33955E-01-1.45336E+00
 -1      1534-2.34586E+02-1.74335E+02-3.12723E+01-1.51688E+02-1.45486E+00-2.74262E+00
 -1      1535-2.30151E+02-1.68265E+02-2.62576E+01-1.47582E+02-1.86274E+00-3.57423E+00
 -1      1536-2.23120E+02-1.59933E+02-1.98731E+01-1.41514E+02-1.91243E+00-2.91089E+00
 -1      1537-2.06868E+02-1.97364E+02-3.33084E+01-1.52723E+02-1.04986E+00-1.47459E+00
 -1      1538-2.05274E+02-1.93246E+02-3.04292E+01-1.50582E+02-1.86869E+00-2.79548E+00
 -1      1539-2.01468E+02-1.86794E+02-2.55610E+01-1.46748E+02-2.40452E+00-3.64830E+00
 -1      1540-1.95478E+02-1.77787E+02-1.93580E+01-1.41000E+02-2.36011E+00-2.95887E+00
 -1      1541-1.78001E+02-2.14805E+02-3.23075E+01-1.47317E+02-1.26995E+00-1.46507E+00
 -1      1542-1.76649E+02-2.10595E+02-2.95214E+01-1.45434E+02-2.29037E+00-2.78782E+00
 -1      1543-1.73421E+02-2.03833E+02-2.48100E+01-1.41935E+02-2.95482E+00-3.64103E+00
 -1      1544-1.68399E+02-1.94249E+02-1.88010E+01-1.36630E+02-2.81190E+00-2.93750E+00
 -1      1545-1.50593E+02-2.29967E+02-3.12485E+01-1.38231E+02-1.49330E+00-1.42622E+00
 -1      1546-1.49447E+02-2.25719E+02-2.85604E+01-1.36610E+02-2.71731E+00-2.72233E+00
 -1      1547-1.46740E+02-2.18736E+02-2.40142E+01-1.33499E+02-3.50803E+00-3.55580E+00
 -1      1548-1.42598E+02-2.08697E+02-1.82096E+01-1.28747E+02-3.26133E+00-2.84939E+00
 -1      1549-1.25278E+02-2.42290E+02-3.01483E+01-1.25955E+02-1.72112E+00-1.35991E+00
 -1      1550-1.24305E+02-2.38065E+02-2.75617E+01-1.24600E+02-3.15078E+00-2.60280E+00
 -1      1551-1.22061E+02-2.30967E+02-2.31874E+01-1.21921E+02-4.06391E+00-3.39801E+00
 -1      1552-1.18701E+02-2.20624E+02-1.75948E+01-1.17814E+02-3.70615E+00-2.69942E+00
 -1      1553-1.02573E+02-2.51332E+02-2.90256E+01-1.11079E+02-1.95597E+00-1.26737E+00
 -1      1554-1.01744E+02-2.47200E+02-2.65453E+01-1.09988E+02-3.59601E+00-2.43255E+00
 -1      1555-9.99036E+01-2.40118E+02-2.23479E+01-1.07777E+02-4.62886E+00-3.17383E+00
 -1      1556-9.72205E+01-2.29657E+02-1.69718E+01-1.04389E+02-4.15061E+00-2.49425E+00
 -1      1557-8.28566E+01-2.56767E+02-2.78915E+01-9.42660E+01-2.19971E+00-1.14822E+00
 -1      1558-8.21475E+01-2.52807E+02-2.55269E+01-9.34322E+01-4.05921E+00-2.21236E+00
 -1      1559-8.06469E+01-2.45901E+02-2.15139E+01-9.17105E+01-5.21538E+00-2.88768E+00
 -1      1560-7.85322E+01-2.35560E+02-1.63571E+01-8.90968E+01-4.60816E+00-2.24115E+00
 -1      1561-6.63389E+01-2.58332E+02-2.67148E+01-7.62383E+01-2.44868E+00-9.99844E-01
 -1      1562-6.57256E+01-2.54630E+02-2.44894E+01-7.56437E+01-4.53934E+00-1.93834E+00
 -1      1563-6.44995E+01-2.48085E+02-2.06809E+01-7.44090E+01-5.83570E+00-2.53847E+00
 -1      1564-6.28415E+01-2.38169E+02-1.57533E+01-7.25970E+01-5.10158E+00-1.94488E+00
 -1      1565-5.29865E+01-2.55674E+02-2.53376E+01-5.77831E+01-2.68747E+00-8.18602E-01
 -1      1566-5.24525E+01-2.52311E+02-2.33046E+01-5.73969E+01-5.01368E+00-1.60199E+00
 -1      1567-5.14359E+01-2.46318E+02-1.97590E+01-5.66120E+01-6.48310E+00-2.11529E+00
 -1      1568-5.01188E+01-2.37201E+02-1.51044E+01-5.55784E+01-5.65367E+00-1.60195E+00
 -1      1569-4.23470E+01-2.47990E+02-2.32863E+01-3.98072E+01-2.88451E+00-6.03098E-01
 -1      1570-4.18959E+01-2.45045E+02-2.15482E+01-3.95864E+01-5.42254E+00-1.19691E+00
 -1      1571-4.10478E+01-2.39768E+02-1.84148E+01-3.91784E+01-7.09186E+00-1.59835E+00
 -1      1572-3.99565E+01-2.31836E+02-1.41716E+01-3.88037E+01-6.24738E+00-1.19249E+00
 -1      1573-3.32669E+01-2.33416E+02-1.94748E+01-2.35060E+01-2.98962E+00-3.61204E-01
 -1      1574-3.29171E+01-2.30959E+02-1.81561E+01-2.33946E+01-5.65151E+00-7.33213E-01
 -1      1575-3.22564E+01-2.26553E+02-1.57408E+01-2.32656E+01-7.47782E+00-9.83908E-01
 -1      1576-3.13400E+01-2.20023E+02-1.22939E+01-2.33305E+01-6.68153E+00-6.87640E-01
 -1      1577 7.54555E+00 1.68241E+02 1.55357E+00-1.20712E+01 2.34459E-01 1.53132E-01
 -1      1578 7.55463E+00 1.69651E+02 1.37847E+00-1.20907E+01 4.74096E-01 2.24488E-01
 -1      1579 7.62781E+00 1.72127E+02 1.51134E+00-1.20861E+01 6.56147E-01 2.03750E-01
 -1      1580 7.68694E+00 1.75744E+02 2.27834E+00-1.19570E+01 6.23270E-01 2.14359E-01
 -1      1581 9.69549E+00 1.70046E+02 1.02469E+00-2.54594E+01 3.37299E-01 1.60944E-01
 -1      1582 9.66661E+00 1.71522E+02 8.71158E-01-2.55275E+01 6.77958E-01 2.21875E-01
 -1      1583 9.69573E+00 1.74227E+02 1.06796E+00-2.56862E+01 1.00344E+00 1.64264E-01
 -1      1584 9.67048E+00 1.78391E+02 1.85104E+00-2.58796E+01 1.02258E+00 1.67429E-01
 -1      1585 1.54083E+01 1.71812E+02 1.70185E+00-3.98202E+01 5.09643E-01 1.34857E-01
 -1      1586 1.53371E+01 1.73412E+02 1.43075E+00-3.99633E+01 9.99481E-01 1.55338E-01
 -1      1587 1.53381E+01 1.76378E+02 1.43551E+00-4.03287E+01 1.43359E+00 5.11328E-02
 -1      1588 1.53222E+01 1.81061E+02 2.03994E+00-4.08826E+01 1.41457E+00 5.37424E-02
 -1      1589 2.41020E+01 1.71372E+02 2.56038E+00-5.44448E+01 6.74516E-01 8.01117E-02
 -1      1590 2.39992E+01 1.73112E+02 2.11823E+00-5.46903E+01 1.28281E+00 4.46897E-02
 -1      1591 2.40236E+01 1.76314E+02 1.89255E+00-5.52952E+01 1.76008E+00-1.05946E-01
 -1      1592 2.40965E+01 1.81330E+02 2.31482E+00-5.62453E+01 1.66540E+00-8.93944E-02
 -1      1593 3.56211E+01 1.68099E+02 3.32012E+00-6.85991E+01 7.95398E-01 1.07213E-02
 -1      1594 3.55032E+01 1.69965E+02 2.71639E+00-6.89692E+01 1.47418E+00-8.48906E-02
 -1      1595 3.55961E+01 1.73323E+02 2.28822E+00-6.98345E+01 1.95105E+00-2.75881E-01
 -1      1596 3.58267E+01 1.78500E+02 2.56378E+00-7.12028E+01 1.79172E+00-2.37204E-01
 -1      1597 4.97978E+01 1.61896E+02 3.92516E+00-8.16336E+01 8.66234E-01-6.10877E-02
 -1      1598 4.96818E+01 1.63856E+02 3.18891E+00-8.21464E+01 1.57295E+00-2.13039E-01
 -1      1599 4.98858E+01 1.67287E+02 2.60118E+00-8.32819E+01 2.02673E+00-4.37000E-01
 -1      1600 5.03432E+01 1.72493E+02 2.77062E+00-8.50713E+01 1.82656E+00-3.74242E-01
 -1      1601 6.63918E+01 1.52910E+02 4.39403E+00-9.29569E+01 8.94844E-01-1.27370E-01
 -1      1602 6.62958E+01 1.54930E+02 3.55463E+00-9.36275E+01 1.59775E+00-3.27123E-01
 -1      1603 6.66523E+01 1.58363E+02 2.84631E+00-9.50343E+01 2.01687E+00-5.76434E-01
 -1      1604 6.74042E+01 1.63488E+02 2.94164E+00-9.72326E+01 1.79812E+00-4.92156E-01
 -1      1605 8.50604E+01 1.41439E+02 4.76010E+00-1.02033E+02 8.92454E-01-1.84100E-01
 -1      1606 8.50054E+01 1.43487E+02 3.84120E+00-1.02874E+02 1.56987E+00-4.20812E-01
 -1      1607 8.55559E+01 1.46858E+02 3.04213E+00-1.04547E+02 1.94822E+00-6.87818E-01
 -1      1608 8.66686E+01 1.51811E+02 3.08577E+00-1.07129E+02 1.72743E+00-5.86811E-01
 -1      1609 1.05352E+02 1.27896E+02 5.05204E+00-1.08393E+02 8.69130E-01-2.29867E-01
 -1      1610 1.05364E+02 1.29938E+02 4.07149E+00-1.09417E+02 1.50727E+00-4.91898E-01
 -1      1611 1.06151E+02 1.33191E+02 3.20292E+00-1.11344E+02 1.84163E+00-7.68846E-01
 -1      1612 1.07687E+02 1.37893E+02 3.20982E+00-1.14274E+02 1.62975E+00-6.56670E-01
 -1      1613 1.26715E+02 1.12791E+02 5.29071E+00-1.11657E+02 8.32630E-01-2.64564E-01
 -1      1614 1.26825E+02 1.14793E+02 4.26121E+00-1.12873E+02 1.42360E+00-5.40333E-01
 -1      1615 1.27891E+02 1.17877E+02 3.33817E+00-1.15036E+02 1.71275E+00-8.19582E-01
 -1      1616 1.29911E+02 1.22257E+02 3.31827E+00-1.18267E+02 1.51616E+00-7.01616E-01
 -1      1617 1.48517E+02 9.67155E+01 5.48921E+00-1.11559E+02 7.88456E-01-2.88764E-01
 -1      1618 1.48762E+02 9.86408E+01 4.42009E+00-1.12970E+02 1.32886E+00-5.67318E-01
 -1      1619 1.50150E+02 1.01506E+02 3.45349E+00-1.15343E+02 1.57310E+00-8.41366E-01
 -1      1620 1.52707E+02 1.05502E+02 3.41331E+00-1.18816E+02 1.39508E+00-7.22651E-01
 -1      1621 1.70073E+02 8.03159E+01 5.65523E+00-1.07957E+02 7.40513E-01-3.03238E-01
 -1      1622 1.70494E+02 8.21247E+01 4.55395E+00-1.09560E+02 1.23023E+00-5.74564E-01
 -1      1623 1.72245E+02 8.47272E+01 3.55188E+00-1.12111E+02 1.43105E+00-8.36213E-01
 -1      1624 1.75385E+02 8.82876E+01 3.49628E+00-1.15757E+02 1.27259E+00-7.21096E-01
 -1      1625 1.90672E+02 6.42675E+01 5.79354E+00-1.00853E+02 6.91659E-01-3.08875E-01
 -1      1626 1.91313E+02 6.59178E+01 4.66612E+00-1.02639E+02 1.13285E+00-5.63935E-01
 -1      1627 1.93466E+02 6.82164E+01 3.63531E+00-1.05325E+02 1.29293E+00-8.06400E-01
 -1      1628 1.97222E+02 7.12998E+01 3.56772E+00-1.09064E+02 1.15360E+00-6.98501E-01
 -1      1629 2.09613E+02 4.92426E+01 5.90627E+00-9.03942E+01 6.43985E-01-3.06801E-01
 -1      1630 2.10518E+02 5.06914E+01 4.75806E+00-9.23405E+01 1.04064E+00-5.37521E-01
 -1      1631 2.13106E+02 5.26507E+01 3.70427E+00-9.51107E+01 1.16377E+00-7.54629E-01
 -1      1632 2.17499E+02 5.52278E+01 3.62751E+00-9.88570E+01 1.04225E+00-6.57303E-01
 -1      1633 2.26233E+02 3.58780E+01 5.99367E+00-7.68666E+01 5.98869E-01-2.97950E-01
 -1      1634 2.27446E+02 3.70845E+01 4.83011E+00-7.89428E+01 9.56485E-01-4.97636E-01
 -1      1635 2.30493E+02 3.86762E+01 3.75912E+00-8.17378E+01 1.04736E+00-6.84198E-01
 -1      1636 2.35529E+02 4.07329E+01 3.67595E+00-8.53974E+01 9.41486E-01-5.99829E-01
 -1      1637 2.39940E+02 2.47465E+01 6.05590E+00-6.06883E+01 5.57454E-01-2.83170E-01
 -1      1638 2.41500E+02 2.56739E+01 4.88232E+00-6.28529E+01 8.82675E-01-4.46790E-01
 -1      1639 2.45020E+02 2.68790E+01 3.79974E+00-6.56067E+01 9.46861E-01-5.98365E-01
 -1      1640 2.50687E+02 2.84164E+01 3.71216E+00-6.90828E+01 8.54020E-01-5.28837E-01
 -1      1641 2.50219E+02 1.63148E+01 6.08276E+00-4.23900E+01 5.20000E-01-2.64131E-01
 -1      1642 2.52162E+02 1.69359E+01 4.90644E+00-4.45918E+01 8.19465E-01-3.87225E-01
 -1      1643 2.56168E+02 1.77515E+01 3.82152E+00-4.72340E+01 8.63415E-01-5.01035E-01
 -1      1644 2.62440E+02 1.87912E+01 3.73577E+00-5.04306E+01 7.81479E-01-4.48377E-01
 -1      1645 2.56622E+02 1.09341E+01 6.04964E+00-2.25669E+01 4.87857E-01-2.40398E-01
 -1      1646 2.58992E+02 1.12339E+01 4.88491E+00-2.47538E+01 7.66569E-01-3.14554E-01
 -1      1647 2.63498E+02 1.16725E+01 3.81173E+00-2.72161E+01 7.94259E-01-3.85182E-01
 -1      1648 2.70362E+02 1.22593E+01 3.74172E+00-3.00472E+01 7.24038E-01-3.54015E-01
 -1      1649 2.59322E+02 8.88235E+00 6.11782E+00-2.46439E+00 3.70102E-01-1.71136E-01
 -1      1650 2.62060E+02 8.86209E+00 4.95744E+00-4.44159E+00 6.46317E-01-1.82253E-01
 -1      1651 2.66965E+02 8.94092E+00 3.86611E+00-6.51944E+00 6.76191E-01-2.09512E-01
 -1      1652 2.74286E+02 9.12187E+00 3.77533E+00-8.76697E+00 6.11617E-01-2.14485E-01
 -1      1653 2.58077E+02 1.01163E+01 6.21111E+00 1.78762E+01 3.23709E-01-1.30498E-01
 -1      1654 2.61133E+02 9.79621E+00 5.00539E+00 1.61358E+01 6.11435E-01-1.01000E-01
 -1      1655 2.66355E+02 9.57687E+00 3.88306E+00 1.44728E+01 6.28988E-01-8.30460E-02
 -1      1656 2.74018E+02 9.45957E+00 3.78698E+00 1.28521E+01 5.43367E-01-1.00789E-01
 -1      1657 2.52706E+02 1.44129E+01 6.11412E+00 3.71329E+01 3.14327E-01-7.47438E-02
 -1      1658 2.56075E+02 1.38954E+01 4.94990E+00 3.58105E+01 6.02760E-01-5.60664E-03
 -1      1659 2.61575E+02 1.34990E+01 3.85745E+00 3.47412E+01 6.29291E-01 5.85513E-02
 -1      1660 2.69481E+02 1.32268E+01 3.78576E+00 3.39260E+01 5.45445E-01 2.96664E-02
 -1      1661 2.43846E+02 2.16523E+01 6.04044E+00 5.52108E+01 3.20497E-01-6.69756E-03
 -1      1662 2.47386E+02 2.10100E+01 4.89803E+00 5.43310E+01 6.25433E-01 1.09404E-01
 -1      1663 2.52997E+02 2.05447E+01 3.82956E+00 5.38708E+01 6.64983E-01 2.15533E-01
 -1      1664 2.60942E+02 2.02659E+01 3.77580E+00 5.38661E+01 5.74788E-01 1.66516E-01
 -1      1665 2.31730E+02 3.15308E+01 5.96237E+00 7.15147E+01 3.39108E-01 5.57592E-02
 -1      1666 2.35331E+02 3.08485E+01 4.83873E+00 7.10823E+01 6.69828E-01 2.16249E-01
 -1      1667 2.40908E+02 3.04261E+01 3.79185E+00 7.12242E+01 7.29592E-01 3.62996E-01
 -1      1668 2.48707E+02 3.02872E+01 3.75250E+00 7.20054E+01 6.28470E-01 2.95366E-01
 -1      1669 2.16744E+02 4.36394E+01 5.86754E+00 8.55369E+01 3.68363E-01 1.12123E-01
 -1      1670 2.20307E+02 4.30043E+01 4.76511E+00 8.55395E+01 7.32421E-01 3.11479E-01
 -1      1671 2.25718E+02 4.27349E+01 3.74149E+00 8.62501E+01 8.18911E-01 4.95377E-01
 -1      1672 2.33204E+02 4.28757E+01 3.71659E+00 8.77599E+01 7.04123E-01 4.11965E-01
 -1      1673 1.99386E+02 5.74980E+01 5.75459E+00 9.68642E+01 4.07036E-01 1.61114E-01
 -1      1674 2.02816E+02 5.69896E+01 4.67610E+00 9.72701E+01 8.10976E-01 3.92597E-01
 -1      1675 2.07944E+02 5.69719E+01 3.67858E+00 9.84930E+01 9.29924E-01 6.08916E-01
 -1      1676 2.14969E+02 5.75150E+01 3.66833E+00 1.00644E+02 7.99091E-01 5.12516E-01
 -1      1677 1.80221E+02 7.25630E+01 5.62234E+00 1.05193E+02 4.53621E-01 2.01363E-01
 -1      1678 1.83439E+02 7.22495E+01 4.57123E+00 1.05953E+02 9.02691E-01 4.57453E-01
 -1      1679 1.88182E+02 7.25658E+01 3.60343E+00 1.07611E+02 1.05896E+00 7.00451E-01
 -1      1680 1.94621E+02 7.36104E+01 3.60828E+00 1.10292E+02 9.10369E-01 5.94082E-01
 -1      1681 1.59864E+02 8.82503E+01 5.46944E+00 1.10336E+02 5.06083E-01 2.31414E-01
 -1      1682 1.62799E+02 8.81854E+01 4.44944E+00 1.11389E+02 1.00413E+00 5.03390E-01
 -1      1683 1.67077E+02 8.88970E+01 3.51523E+00 1.13388E+02 1.20174E+00 7.66756E-01
 -1      1684 1.72834E+02 9.05145E+01 3.53612E+00 1.16468E+02 1.03434E+00 6.54053E-01
 -1      1685 1.38941E+02 1.03959E+02 5.29173E+00 1.12230E+02 5.61808E-01 2.49741E-01
 -1      1686 1.41544E+02 1.04180E+02 4.30794E+00 1.13502E+02 1.11065E+00 5.28180E-01
 -1      1687 1.45300E+02 1.05325E+02 3.41290E+00 1.15739E+02 1.35259E+00 8.04975E-01
 -1      1688 1.50310E+02 1.07557E+02 3.45179E+00 1.19074E+02 1.16641E+00 6.89727E-01
 -1      1689 1.18078E+02 1.19099E+02 5.08380E+00 1.10931E+02 6.17341E-01 2.55185E-01
 -1      1690 1.20315E+02 1.19624E+02 4.14292E+00 1.12344E+02 1.21630E+00 5.29644E-01
 -1      1691 1.23515E+02 1.21218E+02 3.29425E+00 1.14709E+02 1.50436E+00 8.12432E-01
 -1      1692 1.27747E+02 1.24071E+02 3.35461E+00 1.18152E+02 1.30113E+00 6.99293E-01
 -1      1693 9.78633E+01 1.33117E+02 4.83663E+00 1.06614E+02 6.67928E-01 2.46424E-01
 -1      1694 9.97202E+01 1.33945E+02 3.94759E+00 1.08088E+02 1.31315E+00 5.05964E-01
 -1      1695 1.02358E+02 1.35975E+02 3.15576E+00 1.10472E+02 1.64795E+00 7.87144E-01
 -1      1696 1.05813E+02 1.39425E+02 3.24321E+00 1.13876E+02 1.43155E+00 6.80924E-01
 -1      1697 7.88338E+01 1.45512E+02 4.53621E+00 9.95553E+01 7.07311E-01 2.22916E-01
 -1      1698 8.03146E+01 1.46623E+02 3.71175E+00 1.01014E+02 1.39044E+00 4.56022E-01
 -1      1699 8.24047E+01 1.49050E+02 2.99138E+00 1.03311E+02 1.77113E+00 7.27668E-01
 -1      1700 8.51137E+01 1.53043E+02 3.11525E+00 1.06540E+02 1.54855E+00 6.33562E-01
 -1      1701 6.14490E+01 1.55862E+02 4.16221E+00 9.01217E+01 7.27269E-01 1.84726E-01
 -1      1702 6.25744E+01 1.57215E+02 3.41961E+00 9.14936E+01 1.43395E+00 3.79936E-01
 -1      1703 6.41542E+01 1.59976E+02 2.79180E+00 9.36086E+01 1.85754E+00 6.34032E-01
 -1      1704 6.61753E+01 1.64424E+02 2.96629E+00 9.65400E+01 1.64032E+00 5.57227E-01
 -1      1705 4.60800E+01 1.63830E+02 3.68769E+00 7.87480E+01 7.17701E-01 1.33541E-01
 -1      1706 4.68857E+01 1.65366E+02 3.04958E+00 7.99719E+01 1.42575E+00 2.80391E-01
 -1      1707 4.80114E+01 1.68372E+02 2.54310E+00 8.18247E+01 1.88603E+00 5.08794E-01
 -1      1708 4.94254E+01 1.73155E+02 2.78964E+00 8.43562E+01 1.69096E+00 4.53472E-01
 -1      1709 3.30048E+01 1.69182E+02 3.08484E+00 6.59223E+01 6.68166E-01 7.35315E-02
 -1      1710 3.35392E+01 1.70827E+02 2.57723E+00 6.69507E+01 1.34562E+00 1.63988E-01
 -1      1711 3.42826E+01 1.73962E+02 2.22821E+00 6.84791E+01 1.83032E+00 3.58570E-01
 -1      1712 3.51884E+01 1.78930E+02 2.57685E+00 7.05328E+01 1.67915E+00 3.26625E-01
 -1      1713 2.24175E+01 1.71821E+02 2.34521E+00 5.21788E+01 5.72590E-01 1.24501E-02
 -1      1714 2.27390E+01 1.73491E+02 1.99011E+00 5.29808E+01 1.17733E+00 4.34315E-02
 -1      1715 2.31842E+01 1.76620E+02 1.83561E+00 5.41455E+01 1.66242E+00 1.96402E-01
 -1      1716 2.36940E+01 1.81581E+02 2.32277E+00 5.56734E+01 1.57730E+00 1.85148E-01
 -1      1717 1.44577E+01 1.71887E+02 1.53947E+00 3.81034E+01 4.39281E-01-3.84265E-02
 -1      1718 1.46308E+01 1.73504E+02 1.33443E+00 3.86677E+01 9.25422E-01-6.16235E-02
 -1      1719 1.48720E+01 1.76485E+02 1.39216E+00 3.94558E+01 1.36557E+00 4.34904E-02
 -1      1720 1.51048E+01 1.81199E+02 2.04627E+00 4.04450E+01 1.35396E+00 4.40850E-02
 -1      1721 9.27536E+00 1.70026E+02 9.63930E-01 2.43608E+01 3.05034E-01-6.70996E-02
 -1      1722 9.36001E+00 1.71540E+02 8.39899E-01 2.46970E+01 6.47174E-01-1.28149E-01
 -1      1723 9.49878E+00 1.74281E+02 1.05742E+00 2.51246E+01 9.76476E-01-7.07086E-02
 -1      1724 9.58604E+00 1.78489E+02 1.86292E+00 2.55936E+01 9.95796E-01-7.29787E-02
 -1      1725 7.43899E+00 1.68363E+02 1.62673E+00 1.16005E+01 2.39105E-01-6.80726E-02
 -1      1726 7.48394E+00 1.69773E+02 1.43727E+00 1.17335E+01 4.82776E-01-1.39521E-01
 -1      1727 7.58588E+00 1.72241E+02 1.54557E+00 1.18417E+01 6.66965E-01-1.19020E-01
 -1      1728 7.67611E+00 1.75854E+02 2.30005E+00 1.18257E+01 6.28459E-01-1.27108E-01
 -1      1729-1.04754E+01-1.16442E+02-4.98655E-01 1.97817E+01 1.47983E-01 4.84395E-01
 -1      1730-1.48958E+01-3.13602E+01 8.37877E-01 1.31263E+01 1.27290E-01 4.92316E-01
 -1      1731-1.24515E+01 4.28069E+01 1.34529E+00 3.40210E+00 1.08366E-01 4.90634E-01
 -1      1732-5.60841E+00 1.08788E+02 1.35317E+00-6.08560E+00 8.97880E-02 4.77018E-01
 -1      1733-1.57506E+01-1.20065E+02-9.29677E-01 2.77133E+01 1.73941E-01 4.97523E-01
 -1      1734-1.96549E+01-3.02835E+01 8.51549E-01 1.35343E+01 1.54797E-01 5.06667E-01
 -1      1735-1.49564E+01 4.58319E+01 1.55036E+00-1.31564E+00 1.36497E-01 5.05760E-01
 -1      1736-5.33493E+00 1.11426E+02 1.30994E+00-1.53237E+01 1.18225E-01 4.92497E-01
 -1      1737-2.22188E+01-1.22554E+02-1.16558E+00 3.67641E+01 2.04647E-01 5.06667E-01
 -1      1738-2.34415E+01-3.01573E+01 1.08332E+00 1.39409E+01 1.87797E-01 5.16607E-01
 -1      1739-1.56897E+01 4.68080E+01 1.88354E+00-6.89531E+00 1.70826E-01 5.16577E-01
 -1      1740-2.73046E+00 1.12266E+02 1.63742E+00-2.56847E+01 1.52543E-01 5.04118E-01
 -1      1741-3.01897E+01-1.22962E+02-1.21772E+00 4.62358E+01 2.40132E-01 5.11789E-01
 -1      1742-2.68240E+01-3.04243E+01 1.34393E+00 1.44108E+01 2.25615E-01 5.22220E-01
 -1      1743-1.47879E+01 4.62434E+01 2.26788E+00-1.28038E+01 2.10010E-01 5.22832E-01
 -1      1744 2.25804E+00 1.11241E+02 2.12538E+00-3.64199E+01 1.91551E-01 5.11092E-01
 -1      1745-3.98508E+01-1.21129E+02-1.20301E+00 5.54382E+01 2.79940E-01 5.12582E-01
 -1      1746-3.00899E+01-3.06295E+01 1.58293E+00 1.48362E+01 2.67679E-01 5.23280E-01
 -1      1747-1.24861E+01 4.44293E+01 2.63257E+00-1.86477E+01 2.53370E-01 5.24328E-01
 -1      1748 9.50722E+00 1.08192E+02 2.61325E+00-4.68959E+01 2.34705E-01 5.13231E-01
 -1      1749-5.11940E+01-1.17142E+02-1.19088E+00 6.38268E+01 3.23121E-01 5.08532E-01
 -1      1750-3.33316E+01-3.06223E+01 1.78109E+00 1.51048E+01 3.12916E-01 5.19333E-01
 -1      1751-8.94681E+00 4.14970E+01 2.94629E+00-2.41460E+01 2.99743E-01 5.20706E-01
 -1      1752 1.88344E+01 1.03072E+02 3.02915E+00-5.65904E+01 2.80805E-01 5.10228E-01
 -1      1753-6.40693E+01-1.11190E+02-1.20417E+00 7.09631E+01 3.68495E-01 4.99247E-01
 -1      1754-3.65463E+01-3.04063E+01 1.93510E+00 1.51540E+01 3.60138E-01 5.10000E-01
 -1      1755-4.29837E+00 3.75171E+01 3.20131E+00-2.90574E+01 3.47916E-01 5.11606E-01
 -1      1756 3.00296E+01 9.59685E+01 3.36169E+00-6.50512E+01 3.28614E-01 5.01780E-01
 -1      1757-7.82293E+01-1.03524E+02-1.24289E+00 7.64814E+01 4.14851E-01 4.84448E-01
 -1      1758-3.96985E+01-3.00329E+01 2.04994E+00 1.49608E+01 4.08152E-01 4.95046E-01
 -1      1759 1.32273E+00 3.25795E+01 3.40351E+00-3.31565E+01 3.96706E-01 4.96823E-01
 -1      1760 4.28270E+01 8.70766E+01 3.62193E+00-7.18733E+01 3.76938E-01 4.87631E-01
 -1      1761-9.33488E+01-9.44561E+01-1.29835E+00 8.00769E+01 4.61077E-01 4.64068E-01
 -1      1762-4.27453E+01-2.95556E+01 2.13407E+00 1.45227E+01 4.55842E-01 4.74357E-01
 -1      1763 7.74473E+00 2.68247E+01 3.56323E+00-3.62375E+01 4.44999E-01 4.76263E-01
 -1      1764 5.68894E+01 7.66891E+01 3.82621E+00-7.67031E+01 4.24701E-01 4.67758E-01
 -1      1765-1.09040E+02-8.43530E+01-1.36165E+00 8.15110E+01 5.06140E-01 4.38102E-01
 -1      1766-4.56442E+01-2.90183E+01 2.19652E+00 1.38470E+01 5.02193E-01 4.47982E-01
 -1      1767 1.47545E+01 2.04457E+01 3.69058E+00-3.81286E+01 4.91810E-01 4.49946E-01
 -1      1768 7.18076E+01 6.51814E+01 3.98815E+00-7.92539E+01 4.70910E-01 4.42172E-01
 -1      1769-1.24864E+02-7.36244E+01-1.42471E+00 8.06212E+01 5.49105E-01 4.06743E-01
 -1      1770-4.83555E+01-2.84563E+01 2.24412E+00 1.29457E+01 5.46281E-01 4.16069E-01
 -1      1771 2.21019E+01 1.36797E+01 3.79372E+00-3.87040E+01 5.36243E-01 4.18081E-01
 -1      1772 8.71128E+01 5.29950E+01 4.11863E+00-7.93235E+01 5.14698E-01 4.11094E-01
 -1      1773-1.40353E+02-6.27119E+01-1.48224E+00 7.73318E+01 5.89135E-01 3.70258E-01
 -1      1774-5.08424E+01-2.78981E+01 2.28213E+00 1.18344E+01 5.87268E-01 3.78915E-01
 -1      1775 2.95114E+01 6.79435E+00 3.87805E+00-3.78929E+01 5.77439E-01 3.80933E-01
 -1      1776 1.02296E+02 4.06153E+01 4.22369E+00-7.68072E+01 5.55253E-01 3.74827E-01
 -1      1777-1.55022E+02-5.20700E+01-1.53021E+00 7.16607E+01 6.25472E-01 3.29005E-01
 -1      1778-5.30709E+01-2.73668E+01 2.31402E+00 1.05320E+01 6.24401E-01 3.36900E-01
 -1      1779 3.66939E+01 7.26974E-02 3.94697E+00-3.56844E+01 6.14716E-01 3.38945E-01
 -1      1780 1.16828E+02 2.85503E+01 4.30751E+00-7.17067E+01 5.91861E-01 3.33790E-01
 -1      1781-1.68397E+02-4.21478E+01-1.56656E+00 6.37225E+01 6.57502E-01 2.83505E-01
 -1      1782-5.50115E+01-2.68824E+01 2.34160E+00 9.06052E+00 6.57024E-01 2.90568E-01
 -1      1783 4.33615E+01-6.20111E+00 4.00265E+00-3.21303E+01 6.47373E-01 2.92619E-01
 -1      1784 1.30188E+02 1.73049E+01 4.37194E+00-6.41334E+01 6.23905E-01 2.88503E-01
 -1      1785-1.80030E+02-3.33675E+01-1.58928E+00 5.37253E+01 6.84677E-01 2.34348E-01
 -1      1786-5.66389E+01-2.64609E+01 2.36595E+00 7.44472E+00 6.84634E-01 2.40496E-01
 -1      1787 4.92406E+01-1.17572E+01 4.04554E+00-2.73432E+01 6.74924E-01 2.42536E-01
 -1      1788 1.41883E+02 7.35659E+00 4.41803E+00-5.43054E+01 6.50859E-01 2.39557E-01
 -1      1789-1.89529E+02-2.61076E+01-1.59926E+00 4.19648E+01 7.06512E-01 1.82165E-01
 -1      1790-5.79330E+01-2.61158E+01 2.38713E+00 5.71010E+00 7.06701E-01 1.87321E-01
 -1      1791 5.40880E+01-1.63544E+01 4.07654E+00-2.14930E+01 6.96904E-01 1.89380E-01
 -1      1792 1.51474E+02-8.69633E-01 4.44464E+00-4.25388E+01 6.72327E-01 1.87606E-01
 -1      1793-1.96578E+02-2.06857E+01-1.60224E+00 2.88109E+01 7.22658E-01 1.27675E-01
 -1      1794-5.88792E+01-2.58620E+01 2.40392E+00 3.87853E+00 7.22954E-01 1.31797E-01
 -1      1795 5.77138E+01-1.97935E+01 4.09949E+00-1.48008E+01 7.13012E-01 1.33809E-01
 -1      1796 1.58594E+02-7.02725E+00 4.44959E+00-2.92305E+01 6.88002E-01 1.33249E-01
 -1      1797-2.00962E+02-1.73506E+01-1.61168E+00 1.46832E+01 7.32856E-01 7.16153E-02
 -1      1798-5.94428E+01-2.57139E+01 2.42106E+00 1.97734E+00 7.33033E-01 7.45979E-02
 -1      1799 5.99495E+01-2.19705E+01 4.09847E+00-7.52008E+00 7.22957E-01 7.65431E-02
 -1      1800 1.63026E+02-1.08343E+01 4.45776E+00-1.48476E+01 6.97725E-01 7.71075E-02
 -1      1801-2.00945E+02-1.73233E+01-1.52519E+00-1.38195E+01 7.34435E-01-4.06896E-02
 -1      1802-5.93059E+01-2.58369E+01 2.45439E+00-1.74880E+00 7.34808E-01-3.99796E-02
 -1      1803 6.02259E+01-2.21022E+01 4.12975E+00 7.29673E+00 7.24828E-01-3.83826E-02
 -1      1804 1.63377E+02-1.10970E+01 4.44042E+00 1.42735E+01 6.99628E-01-3.57790E-02
 -1      1805-1.97091E+02-2.03601E+01-1.50112E+00-2.73082E+01 7.30141E-01-9.59868E-02
 -1      1806-5.87899E+01-2.59691E+01 2.46877E+00-3.55517E+00 7.31031E-01-9.65568E-02
 -1      1807 5.82009E+01-2.02190E+01 4.10537E+00 1.42306E+01 7.21827E-01-9.54002E-02
 -1      1808 1.59442E+02-7.65513E+00 4.42829E+00 2.79645E+01 6.97638E-01-9.20928E-02
 -1      1809-1.90732E+02-2.52680E+01-1.45788E+00-3.99616E+01 7.19701E-01-1.50225E-01
 -1      1810-5.79713E+01-2.61841E+01 2.47020E+00-5.29883E+00 7.20579E-01-1.52078E-01
 -1      1811 5.49048E+01-1.70864E+01 4.08527E+00 2.06846E+01 7.11675E-01-1.51384E-01
 -1      1812 1.52942E+02-2.08190E+00 4.37530E+00 4.07683E+01 6.88078E-01-1.47409E-01
 -1      1813-1.82097E+02-3.18632E+01-1.40368E+00-5.14045E+01 7.03220E-01-2.02726E-01
 -1      1814-5.68259E+01-2.64748E+01 2.46841E+00-6.96723E+00 7.03870E-01-2.05948E-01
 -1      1815 5.04553E+01-1.28777E+01 4.05070E+00 2.64078E+01 6.95081E-01-2.05730E-01
 -1      1816 1.44176E+02 5.42781E+00 4.31801E+00 5.22522E+01 6.71944E-01-2.01212E-01
 -1      1817-1.71469E+02-3.98915E+01-1.34468E+00-6.13120E+01 6.80925E-01-2.52807E-01
 -1      1818-5.53718E+01-2.68376E+01 2.46111E+00-8.53240E+00 6.81106E-01-2.57347E-01
 -1      1819 4.50359E+01-7.76017E+00 4.00696E+00 3.12065E+01 6.72295E-01-2.57618E-01
 -1      1820 1.33440E+02 1.45690E+01 4.25231E+00 6.20506E+01 6.49608E-01-2.52551E-01
 -1      1821-1.59180E+02-4.90412E+01-1.28252E+00-6.94178E+01 6.53255E-01-2.99830E-01
 -1      1822-5.36275E+01-2.72609E+01 2.44836E+00-9.97141E+00 6.52767E-01-3.05639E-01
 -1      1823 3.88495E+01-1.93668E+00 3.95398E+00 3.49240E+01 6.43804E-01-3.06362E-01
 -1      1824 1.21098E+02 2.49854E+01 4.17709E+00 6.98723E+01 6.21542E-01-3.00765E-01
 -1      1825-1.45601E+02-5.89595E+01-1.21818E+00-7.55238E+01 6.20670E-01-3.43239E-01
 -1      1826-5.16158E+01-2.77320E+01 2.42895E+00-1.12642E+01 6.19288E-01-3.50153E-01
 -1      1827 3.21239E+01 4.36610E+00 3.89062E+00 3.74490E+01 6.10076E-01-3.51247E-01
 -1      1828 1.07561E+02 3.62759E+01 4.09097E+00 7.55057E+01 5.88265E-01-3.45112E-01
 -1      1829-1.31132E+02-6.92662E+01-1.15202E+00-7.95064E+01 5.83743E-01-3.82493E-01
 -1      1830-4.93607E+01-2.82345E+01 2.40187E+00-1.23924E+01 5.81338E-01-3.90351E-01
 -1      1831 2.51035E+01 1.09076E+01 3.81595E+00 3.87193E+01 5.71775E-01-3.91753E-01
 -1      1832 9.32720E+01 4.80124E+01 3.99216E+00 7.88250E+01 5.50375E-01-3.85045E-01
 -1      1833-1.16187E+02-7.95724E+01-1.08670E+00-8.13204E+01 5.43151E-01-4.17193E-01
 -1      1834-4.68903E+01-2.87502E+01 2.36476E+00-1.33397E+01 5.39545E-01-4.25786E-01
 -1      1835 1.80368E+01 1.74420E+01 3.72691E+00 3.87235E+01 5.29542E-01-4.27347E-01
 -1      1836 7.86847E+01 5.97571E+01 3.87747E+00 7.97934E+01 5.08575E-01-4.20087E-01
 -1      1837-1.01176E+02-8.94927E+01-1.02543E+00-8.09970E+01 4.99577E-01-4.46980E-01
 -1      1838-4.42344E+01-2.92572E+01 2.31413E+00-1.40919E+01 4.94681E-01-4.56087E-01
 -1      1839 1.11674E+01 2.37324E+01 3.61976E+00 3.75010E+01 4.84185E-01-4.57714E-01
 -1      1840 6.42465E+01 7.10821E+01 3.74197E+00 7.84631E+01 4.63652E-01-4.49836E-01
 -1      1841-8.64864E+01-9.86605E+01-9.72749E-01-7.86412E+01 4.53827E-01-4.71654E-01
 -1      1842-4.14252E+01-2.97287E+01 2.24525E+00-1.46369E+01 4.47578E-01-4.81034E-01
 -1      1843 4.72228E+00 2.95604E+01 3.48866E+00 3.51381E+01 4.36528E-01-4.82564E-01
 -1      1844 5.03789E+01 8.15873E+01 3.57815E+00 7.49691E+01 4.16453E-01-4.74044E-01
 -1      1845-7.24767E+01-1.06742E+02-9.35747E-01-7.44246E+01 4.06797E-01-4.91038E-01
 -1      1846-3.84980E+01-3.01324E+01 2.15105E+00-1.49661E+01 3.99144E-01-5.00493E-01
 -1      1847-1.09774E+00 3.47386E+01 3.32572E+00 3.17632E+01 3.87516E-01-5.01824E-01
 -1      1848 3.74623E+01 9.09185E+01 3.37554E+00 6.95220E+01 3.67936E-01-4.92609E-01
 -1      1849-5.94576E+01-1.13442E+02-9.22352E-01-6.85765E+01 3.59493E-01-5.05177E-01
 -1      1850-3.54887E+01-3.04265E+01 2.02427E+00-1.50752E+01 3.50403E-01-5.14488E-01
 -1      1851-6.12457E+00 3.91193E+01 3.12141E+00 2.75381E+01 3.38163E-01-5.15493E-01
 -1      1852 2.58224E+01 9.87812E+01 3.12026E+00 6.23945E+01 3.19134E-01-5.05559E-01
 -1      1853-4.76840E+01-1.18512E+02-9.38203E-01-6.13772E+01 3.13016E-01-5.14208E-01
 -1      1854-3.24334E+01-3.05640E+01 1.85784E+00-1.49706E+01 3.02474E-01-5.23218E-01
 -1      1855-1.02235E+01 4.25994E+01 2.86734E+00 2.26478E+01 2.89603E-01-5.23798E-01
 -1      1856 1.57247E+01 1.04954E+02 2.79840E+00 5.39085E+01 2.71197E-01-5.13133E-01
 -1      1857-3.73438E+01-1.21753E+02-9.79849E-01-5.31574E+01 2.68530E-01-5.18442E-01
 -1      1858-2.93566E+01-3.05059E+01 1.64884E+00-1.46799E+01 2.56535E-01-5.27014E-01
 -1      1859-1.32837E+01 4.51126E+01 2.56025E+00 1.72908E+01 2.43026E-01-5.27107E-01
 -1      1860 7.37863E+00 1.09297E+02 2.40254E+00 4.44247E+01 2.25352E-01-5.15732E-01
 -1      1861-2.85373E+01-1.23020E+02-1.01936E+00-4.43128E+01 2.27147E-01-5.18336E-01
 -1      1862-2.62457E+01-3.02686E+01 1.40314E+00-1.42669E+01 2.13723E-01-5.26387E-01
 -1      1863-1.51919E+01 4.65965E+01 2.21070E+00 1.16799E+01 1.99610E-01-5.25934E-01
 -1      1864 9.53945E-01 1.11765E+02 1.95016E+00 3.43441E+01 1.82794E-01-5.13905E-01
 -1      1865-2.12374E+01-1.22266E+02-9.85581E-01-3.53346E+01 1.89730E-01-5.14484E-01
 -1      1866-2.29929E+01-3.00211E+01 1.14176E+00-1.38350E+01 1.74981E-01-5.21935E-01
 -1      1867-1.57963E+01 4.69189E+01 1.85088E+00 6.07103E+00 1.60320E-01-5.20872E-01
 -1      1868-3.39746E+00 1.12422E+02 1.51708E+00 2.41339E+01 1.44478E-01-5.08297E-01
 -1      1869-1.52473E+01-1.19674E+02-7.68271E-01-2.68369E+01 1.56641E-01-5.07408E-01
 -1      1870-1.93131E+01-3.01991E+01 9.17433E-01-1.34710E+01 1.40669E-01-5.14167E-01
 -1      1871-1.48879E+01 4.57937E+01 1.54500E+00 8.24885E-01 1.25461E-01-5.12447E-01
 -1      1872-5.57661E+00 1.11421E+02 1.25901E+00 1.43639E+01 1.10442E-01-4.99448E-01
 -1      1873-1.02888E+01-1.16146E+02-3.67691E-01-1.94239E+01 1.27822E-01-4.97614E-01
 -1      1874-1.47066E+01-3.13157E+01 9.01509E-01-1.30923E+01 1.10811E-01-5.03298E-01
 -1      1875-1.23481E+01 4.27614E+01 1.36795E+00-3.58044E+00 9.53906E-02-5.01012E-01
 -1      1876-5.67532E+00 1.08755E+02 1.33807E+00 5.70787E+00 8.04386E-02-4.88389E-01
 -1      1877-1.24015E+01-9.74147E+01 1.67441E+00 2.26594E+01-1.79829E+00 5.98655E+00
 -1      1878-1.68771E+01-1.45322E+01 1.48776E+00 1.72050E+01-7.25540E-01 5.02031E+00
 -1      1879-1.44024E+01 5.76145E+01 1.24185E+00 6.71726E+00-6.99681E-02 4.52366E+00
 -1      1880-6.98879E+00 1.22153E+02 1.24449E+00-4.43793E+00 3.70469E-01 3.89230E+00
 -1      1881-1.79541E+01-9.67411E+01 2.19296E+00 2.80922E+01-1.10552E+00 6.61782E+00
 -1      1882-2.21662E+01-9.56986E+00 1.91819E+00 1.56429E+01-1.75862E-01 5.40900E+00
 -1      1883-1.75741E+01 6.40577E+01 1.60731E+00 4.80700E-01 4.16007E-01 4.73519E+00
 -1      1884-7.09964E+00 1.27822E+02 1.49890E+00-1.47980E+01 8.16088E-01 3.95612E+00
 -1      1885-2.39961E+01-9.61098E+01 2.53438E+00 3.40629E+01-3.19319E-01 7.02174E+00
 -1      1886-2.60530E+01-6.47355E+00 2.34094E+00 1.35927E+01 4.26545E-01 5.70823E+00
 -1      1887-1.85737E+01 6.76585E+01 1.93312E+00-6.98653E+00 9.34650E-01 4.93961E+00
 -1      1888-4.64858E+00 1.30706E+02 1.64482E+00-2.65732E+01 1.30889E+00 4.07829E+00
 -1      1889-3.08573E+01-9.47551E+01 2.77555E+00 4.02353E+01 4.95818E-01 7.29519E+00
 -1      1890-2.89783E+01-4.83088E+00 2.64139E+00 1.13331E+01 1.06713E+00 5.91894E+00
 -1      1891-1.75422E+01 6.87745E+01 2.14677E+00-1.50654E+01 1.48878E+00 5.09257E+00
 -1      1892 4.39767E-01 1.30946E+02 1.74316E+00-3.89686E+01 1.79424E+00 4.16141E+00
 -1      1893-3.87297E+01-9.23966E+01 2.96755E+00 4.61603E+01 1.31143E+00 7.47802E+00
 -1      1894-3.12241E+01-4.17623E+00 2.84740E+00 8.92994E+00 1.71906E+00 6.05130E+00
 -1      1895-1.46684E+01 6.77806E+01 2.29470E+00-2.32415E+01 2.04428E+00 5.18184E+00
 -1      1896 8.09576E+00 1.28536E+02 1.83772E+00-5.12545E+01 2.25097E+00 4.19504E+00
 -1      1897-4.76266E+01-8.89698E+01 3.12946E+00 5.14726E+01 2.12893E+00 7.57745E+00
 -1      1898-3.28882E+01-4.24456E+00 2.99981E+00 6.42385E+00 2.37132E+00 6.11008E+00
 -1      1899-1.01011E+01 6.49190E+01 2.40731E+00-3.11024E+01 2.59214E+00 5.20750E+00
 -1      1900 1.81556E+01 1.23523E+02 1.92352E+00-6.28112E+01 2.68461E+00 4.18020E+00
 -1      1901-5.74438E+01-8.45072E+01 3.27193E+00 5.58952E+01 2.94931E+00 7.58960E+00
 -1      1902-3.39848E+01-4.91122E+00 3.12546E+00 3.89006E+00 3.01987E+00 6.09597E+00
 -1      1903-3.97217E+00 6.03643E+01 2.50163E+00-3.82899E+01 3.13034E+00 5.17139E+00
 -1      1904 3.04127E+01 1.16065E+02 2.00006E+00-7.31057E+01 3.10053E+00 4.11988E+00
 -1      1905-6.80109E+01-7.91038E+01 3.40010E+00 5.92103E+01 3.76928E+00 7.50892E+00
 -1      1906-3.45186E+01-6.10607E+00 3.23684E+00 1.43335E+00 3.66160E+00 6.00804E+00
 -1      1907 3.56098E+00 5.42953E+01 2.58569E+00-4.44746E+01 3.65779E+00 5.07457E+00
 -1      1908 4.45957E+01 1.06413E+02 2.06881E+00-8.16644E+01 3.50147E+00 4.01604E+00
 -1      1909-7.91133E+01-7.29057E+01 3.51683E+00 6.12417E+01 4.58156E+00 7.33131E+00
 -1      1910-3.45136E+01-7.76336E+00 3.33889E+00-8.32478E-01 4.29177E+00 5.84540E+00
 -1      1911 1.22879E+01 4.69327E+01 2.66323E+00-4.93571E+01 4.17175E+00 4.91766E+00
 -1      1912 6.03540E+01 9.49044E+01 2.13194E+00-8.80713E+01 3.88736E+00 3.86980E+00
 -1      1913-9.05038E+01-6.61046E+01 3.62290E+00 6.18529E+01 5.37619E+00 7.05514E+00
 -1      1914-3.40222E+01-9.80349E+00 3.43340E+00-2.80099E+00 4.90388E+00 5.60804E+00
 -1      1915 2.19373E+01 3.85497E+01 2.73561E+00-5.26819E+01 4.66774E+00 4.70138E+00
 -1      1916 7.72544E+01 8.19570E+01 2.19110E+00-9.19810E+01 4.25606E+00 3.68196E+00
 -1      1917-1.01909E+02-5.89282E+01 3.71890E+00 6.09508E+01 6.14165E+00 6.68114E+00
 -1      1918-3.31219E+01-1.21306E+01 3.52040E+00-4.38300E+00 5.49015E+00 5.29725E+00
 -1      1919 3.21842E+01 2.94692E+01 2.80344E+00-5.42528E+01 5.14007E+00 4.42735E+00
 -1      1920 9.47934E+01 6.80553E+01 2.24753E+00-9.31356E+01 4.60418E+00 3.45384E+00
 -1      1921-1.13041E+02-5.16310E+01 3.80473E+00 5.84920E+01 6.86556E+00 6.21211E+00
 -1      1922-3.19095E+01-1.46339E+01 3.59976E+00-5.51269E+00 6.04193E+00 4.91569E+00
 -1      1923 4.26627E+01 2.00522E+01 2.86672E+00-5.39439E+01 5.58229E+00 4.09798E+00
 -1      1924 1.12414E+02 5.37349E+01 2.30149E+00-9.13800E+01 4.92770E+00 3.18727E+00
 -1      1925-1.23602E+02-4.44801E+01 3.88013E+00 5.44865E+01 7.53560E+00 5.65319E+00
 -1      1926-3.04958E+01-1.71936E+01 3.67100E+00-6.15013E+00 6.55047E+00 4.46747E+00
 -1      1927 5.29824E+01 1.06820E+01 2.92519E+00-5.17083E+01 5.98775E+00 3.71675E+00
 -1      1928 1.29532E+02 3.95607E+01 2.35315E+00-8.66733E+01 5.22232E+00 2.88483E+00
 -1      1929-1.33303E+02-3.77434E+01 3.94452E+00 4.89993E+01 8.13973E+00 5.01140E+00
 -1      1930-2.89977E+01-1.96848E+01 3.73361E+00-6.28404E+00 7.00719E+00 3.95813E+00
 -1      1931 6.27477E+01 1.74815E+00 2.97876E+00-4.75828E+01 6.35002E+00 3.28834E+00
 -1      1932 1.45558E+02 2.61017E+01 2.40227E+00-7.90939E+01 5.48378E+00 2.54990E+00
 -1      1933-1.41869E+02-3.16778E+01 3.99732E+00 4.21493E+01 8.66684E+00 4.29554E+00
 -1      1934-2.75327E+01-2.19856E+01 3.78732E+00-5.93203E+00 7.40395E+00 3.39446E+00
 -1      1935 7.15750E+01-6.37282E+00 3.02674E+00-4.16866E+01 6.66294E+00 2.81823E+00
 -1      1936 1.59925E+02 1.39067E+01 2.44864E+00-6.88390E+01 5.70818E+00 2.18640E+00
 -1      1937-1.49054E+02-2.65164E+01 4.03820E+00 3.41047E+01 9.10669E+00 3.51604E+00
 -1      1938-2.62100E+01-2.39816E+01 3.83181E+00-5.14041E+00 7.73346E+00 2.78458E+00
 -1      1939 7.91144E+01-1.33343E+01 3.06954E+00-3.42193E+01 6.92124E+00 2.31308E+00
 -1      1940 1.72117E+02 3.47832E+00 2.49213E+00-5.62192E+01 5.89206E+00 1.79909E+00
 -1      1941-1.54650E+02-2.24607E+01 4.06643E+00 2.50766E+01 9.45032E+00 2.68470E+00
 -1      1942-2.51246E+01-2.55749E+01 3.86721E+00-3.98253E+00 7.98923E+00 2.13716E+00
 -1      1943 8.50648E+01-1.88389E+01 3.10681E+00-2.54516E+01 7.11979E+00 1.78009E+00
 -1      1944 1.81691E+02-4.75036E+00 2.53234E+00-4.16448E+01 6.03226E+00 1.39314E+00
 -1      1945-1.58492E+02-1.96710E+01 4.08249E+00 1.53015E+01 9.68962E+00 1.81327E+00
 -1      1946-2.43578E+01-2.66925E+01 3.89027E+00-2.56371E+00 8.16649E+00 1.46124E+00
 -1      1947 8.91787E+01-2.26541E+01 3.13460E+00-1.57251E+01 7.25476E+00 1.22398E+00
 -1      1948 1.88296E+02-1.04344E+01 2.56869E+00-2.56216E+01 6.12552E+00 9.74613E-01
 -1      1949-1.60440E+02-1.82564E+01 4.08688E+00 5.07759E+00 9.80152E+00 9.17289E-01
 -1      1950-2.39468E+01-2.72781E+01 3.90487E+00-9.68343E-01 8.22994E+00 7.61924E-01
 -1      1951 9.13011E+01-2.46094E+01 3.15847E+00-5.39489E+00 7.28360E+00 6.50112E-01
 -1      1952 1.91695E+02-1.33405E+01 2.60065E+00-8.69615E+00 6.12162E+00 5.38603E-01
 -1      1953-1.60445E+02-1.82695E+01 4.06849E+00-5.25031E+00 9.84446E+00-3.23790E-02
 -1      1954-2.39295E+01-2.72963E+01 3.89694E+00 7.47075E-01 8.26099E+00 2.69823E-02
 -1      1955 9.13344E+01-2.46185E+01 3.16237E+00 5.19877E+00 7.30502E+00 4.91067E-02
 -1      1956 1.91747E+02-1.33473E+01 2.61289E+00 8.57735E+00 6.13037E+00 8.65037E-02
 -1      1957-1.58527E+02-1.97114E+01 4.03531E+00-1.54069E+01 9.78997E+00-9.82755E-01
 -1      1958-2.43267E+01-2.67475E+01 3.87121E+00 2.43180E+00 8.23556E+00-7.13795E-01
 -1      1959 8.92594E+01-2.26862E+01 3.14904E+00 1.56157E+01 7.29582E+00-5.56653E-01
 -1      1960 1.88431E+02-1.04480E+01 2.60886E+00 2.55672E+01 6.13817E+00-3.75106E-01
 -1      1961-1.54729E+02-2.25172E+01 3.99102E+00-2.51365E+01 9.61794E+00-1.91779E+00
 -1      1962-2.50995E+01-2.56438E+01 3.83791E+00 3.91949E+00 8.11860E+00-1.44477E+00
 -1      1963 8.51701E+01-1.88775E+01 3.12973E+00 2.54077E+01 7.21372E+00-1.15820E+00
 -1      1964 1.81871E+02-4.75513E+00 2.59949E+00 4.16397E+01 6.09265E+00-8.33746E-01
 -1      1965-1.49161E+02-2.65814E+01 3.93787E+00-3.41481E+01 9.33280E+00-2.82064E+00
 -1      1966-2.61942E+01-2.40490E+01 3.79512E+00 5.11413E+00 7.91445E+00-2.15405E+00
 -1      1967 7.92302E+01-1.33629E+01 3.10203E+00 3.42148E+01 7.06128E+00-1.74442E+00
 -1      1968 1.72314E+02 3.48809E+00 2.58106E+00 5.62474E+01 5.99469E+00-1.28353E+00
 -1      1969-1.41990E+02-3.17476E+01 3.87657E+00-4.21866E+01 8.94014E+00-3.67619E+00
 -1      1970-2.75295E+01-2.20464E+01 3.74371E+00 5.92778E+00 7.62707E+00-2.82965E+00
 -1      1971 7.16869E+01-6.38587E+00 3.06618E+00 4.17098E+01 6.84091E+00-2.30577E+00
 -1      1972 1.60123E+02 1.39358E+01 2.55539E+00 6.88946E+01 5.84553E+00-1.71767E+00
 -1      1973-1.33431E+02-3.78166E+01 3.80781E+00-4.90351E+01 8.44781E+00-4.47027E+00
 -1      1974-2.90070E+01-1.97375E+01 3.68433E+00 6.29321E+00 7.26196E+00-3.46073E+00
 -1      1975 6.28493E+01 1.75196E+00 3.02326E+00 4.76250E+01 6.55668E+00-2.83345E+00
 -1      1976 1.45748E+02 2.61522E+01 2.52313E+00 7.91701E+01 5.64769E+00-2.12972E+00
 -1      1977-1.23732E+02-4.45561E+01 3.73182E+00-5.45230E+01 7.86567E+00-5.19016E+00
 -1      1978-3.05167E+01-1.72376E+01 3.61721E+00 6.16733E+00 6.82599E+00-4.03751E+00
 -1      1979 5.30712E+01 1.07027E+01 2.97334E+00 5.17631E+01 6.21376E+00-3.31955E+00
 -1      1980 1.29709E+02 3.96329E+01 2.48425E+00 8.67642E+01 5.40464E+00-2.51375E+00
 -1      1981-1.13171E+02-5.17100E+01 3.64922E+00-5.85304E+01 7.20524E+00-5.82500E+00
 -1      1982-3.19408E+01-1.46692E+01 3.54339E+00 5.53397E+00 6.32753E+00-4.55141E+00
 -1      1983 4.27372E+01 2.00891E+01 2.91724E+00 5.40058E+01 5.81847E+00-3.75711E+00
 -1      1984 1.12575E+02 5.38282E+01 2.43928E+00 9.14799E+01 5.12054E+00-2.86449E+00
 -1      1985-1.02037E+02-5.90101E+01 3.56039E+00-6.09917E+01 6.47927E+00-6.36564E+00
 -1      1986-3.31624E+01-1.21574E+01 3.46293E+00 4.40513E+00 5.77574E+00-4.99520E+00
 -1      1987 3.22436E+01 2.95212E+01 2.85508E+00 5.43174E+01 5.37785E+00-4.14008E+00
 -1      1988 9.49340E+01 6.81681E+01 2.38837E+00 9.32393E+01 4.80017E+00-3.17729E+00
 -1      1989-9.06272E+01-6.61896E+01 3.46530E+00-6.18967E+01 5.70138E+00-6.80552E+00
 -1      1990-3.40708E+01-9.82246E+00 3.37664E+00 2.82118E+00 5.18041E+00-5.36333E+00
 -1      1991 2.19815E+01 3.86151E+01 2.78724E+00 5.27451E+01 4.89933E+00-4.46371E+00
 -1      1992 7.73744E+01 8.20874E+01 2.33169E+00 9.20838E+01 4.44849E+00-3.44848E+00
 -1      1993-7.92308E+01-7.29940E+01 3.36423E+00-6.12883E+01 4.88535E+00-7.14032E+00
 -1      1994-3.45688E+01-7.77556E+00 3.28429E+00 8.48215E-01 4.55137E+00-5.65197E+00
 -1      1995 1.23174E+01 4.70094E+01 2.71381E+00 4.94152E+01 4.39041E+00-4.72453E+00
 -1      1996 6.04529E+01 9.50497E+01 2.26905E+00 8.81688E+01 4.07045E+00-3.67532E+00
 -1      1997-6.81211E+01-7.91953E+01 3.25655E+00-5.92598E+01 4.04426E+00-7.36835E+00
 -1      1998-3.45787E+01-6.11295E+00 3.18577E+00-1.42424E+00 3.89780E+00-5.85891E+00
 -1      1999 3.57689E+00 5.43807E+01 2.63438E+00 4.45243E+01 3.85791E+00-4.92017E+00
 -1      2000 4.46742E+01 1.06570E+02 2.19955E+00 8.17525E+01 3.67032E+00-3.85579E+00
 -1      2001-5.75456E+01-8.46017E+01 3.14077E+00-5.59475E+01 3.18976E+00-7.49075E+00
 -1      2002-3.40481E+01-4.91438E+00 3.07941E+00-3.88951E+00 3.22763E+00-5.98364E+00
 -1      2003-3.96828E+00 6.04550E+01 2.54758E+00 3.83284E+01 3.30746E+00-5.04941E+00
 -1      2004 3.04721E+01 1.16229E+02 2.12184E+00 7.31810E+01 3.25124E+00-3.98857E+00
 -1      2005-4.77189E+01-8.90672E+01 3.01378E+00-5.15276E+01 2.33080E+00-7.51137E+00
 -1      2006-3.29526E+01-4.24572E+00 2.96007E+00-6.43365E+00 2.54688E+00-6.02687E+00
 -1      2007-1.01074E+01 6.50115E+01 2.44982E+00 3.11269E+01 2.74291E+00-5.11135E+00
 -1      2008 1.81978E+01 1.23689E+02 2.03394E+00 6.28706E+01 2.81422E+00-4.07222E+00
 -1      2009-3.88118E+01-9.24967E+01 2.86961E+00-4.62180E+01 1.47222E+00-7.43605E+00
 -1      2010-3.12878E+01-4.17717E+00 2.81506E+00-8.95176E+00 1.85982E+00-5.98970E+00
 -1      2011-1.46830E+01 6.78709E+01 2.33309E+00 2.32497E+01 2.16634E+00-5.10497E+00
 -1      2012 8.12271E+00 1.28698E+02 1.93442E+00 5.12953E+01 2.35757E+00-4.10467E+00
 -1      2013-3.09286E+01-9.48571E+01 2.69675E+00-4.02960E+01 6.14496E-01-7.26922E+00
 -1      2014-2.90395E+01-4.83355E+00 2.61735E+00-1.13688E+01 1.17149E+00-5.87183E+00
 -1      2015-1.75632E+01 6.88581E+01 2.18050E+00 1.50545E+01 1.58064E+00-5.02858E+00
 -1      2016 4.53716E-01 1.31097E+02 1.82391E+00 3.89884E+01 1.87693E+00-4.08293E+00
 -1      2017-2.40561E+01-9.62118E+01 2.47547E+00-3.41277E+01-2.42259E-01-7.00418E+00
 -1      2018-2.61108E+01-6.48145E+00 2.32550E+00-1.36451E+01 4.94443E-01-5.66890E+00
 -1      2019-1.85993E+01 6.77290E+01 1.96180E+00 6.95375E+00 9.95975E-01-4.88243E+00
 -1      2020-4.64432E+00 1.30839E+02 1.70789E+00 2.65701E+01 1.36791E+00-4.00643E+00
 -1      2021-1.80025E+01-9.68413E+01 2.15468E+00-2.81653E+01-1.06727E+00-6.60105E+00
 -1      2022-2.22184E+01-9.59019E+00 1.91070E+00-1.57165E+01-1.40598E-01-5.37113E+00
 -1      2023-1.76003E+01 6.41045E+01 1.63064E+00-5.37202E-01 4.49408E-01-4.67990E+00
 -1      2024-7.10069E+00 1.27927E+02 1.54402E+00 1.47726E+01 8.52477E-01-3.88726E+00
 -1      2025-1.24349E+01-9.75154E+01 1.65658E+00-2.27516E+01-1.79018E+00-5.96240E+00
 -1      2026-1.69134E+01-1.45683E+01 1.48795E+00-1.73092E+01-7.12948E-01-4.97717E+00
 -1      2027-1.44193E+01 5.76325E+01 1.25900E+00-6.80442E+00-5.46406E-02-4.46688E+00
 -1      2028-6.98950E+00 1.22219E+02 1.27207E+00 4.38757E+00 3.87587E-01-3.82347E+00
 -1      2029 7.55202E+00 1.68597E+02 1.93265E+00-1.20862E+01-3.12434E-01-1.84103E-01
 -1      2030 9.69598E+00 1.70414E+02 1.37901E+00-2.54835E+01-4.19290E-01-1.89093E-01
 -1      2031 1.53965E+01 1.72194E+02 2.01381E+00-3.98595E+01-6.22950E-01-1.51512E-01
 -1      2032 2.40757E+01 1.71767E+02 2.82270E+00-5.45041E+01-8.16852E-01-8.12641E-02
 -1      2033 3.55836E+01 1.68511E+02 3.54214E+00-6.86831E+01-9.57739E-01 4.91417E-03
 -1      2034 4.97534E+01 1.62322E+02 4.11910E+00-8.17470E+01-1.03918E+00 9.26986E-02
 -1      2035 6.63447E+01 1.53346E+02 4.57022E+00-9.31038E+01-1.07094E+00 1.73177E-01
 -1      2036 8.50161E+01 1.41881E+02 4.92643E+00-1.02217E+02-1.06624E+00 2.41863E-01
 -1      2037 1.05317E+02 1.28338E+02 5.21387E+00-1.08619E+02-1.03680E+00 2.97142E-01
 -1      2038 1.26697E+02 1.13226E+02 5.45112E+00-1.11929E+02-9.91691E-01 3.39008E-01
 -1      2039 1.48525E+02 9.71352E+01 5.64961E+00-1.11877E+02-9.37407E-01 3.68206E-01
 -1      2040 1.70117E+02 8.07111E+01 5.81668E+00-1.08323E+02-8.78487E-01 3.85578E-01
 -1      2041 1.90763E+02 6.46276E+01 5.95565E+00-1.01266E+02-8.18340E-01 3.92235E-01
 -1      2042 2.09763E+02 4.95565E+01 6.06851E+00-9.08490E+01-7.59371E-01 3.89454E-01
 -1      2043 2.26453E+02 3.61355E+01 6.15540E+00-7.73569E+01-7.03279E-01 3.78232E-01
 -1      2044 2.40240E+02 2.49376E+01 6.21558E+00-6.12046E+01-6.51543E-01 3.59758E-01
 -1      2045 2.50611E+02 1.64319E+01 6.23972E+00-4.29202E+01-6.04180E-01 3.35315E-01
 -1      2046 2.57116E+02 1.09721E+01 6.20431E+00-2.30989E+01-5.62451E-01 3.02644E-01
 -1      2047 2.59905E+02 8.84058E+00 6.26723E+00-2.95181E+00-4.39526E-01 2.17768E-01
 -1      2048 2.58740E+02 1.00006E+01 6.34439E+00 1.74413E+01-3.89806E-01 1.64660E-01
 -1      2049 2.53448E+02 1.42467E+01 6.25214E+00 3.67970E+01-3.78610E-01 9.63618E-02
 -1      2050 2.44631E+02 2.14533E+01 6.17959E+00 5.49790E+01-3.85920E-01 1.30220E-02
 -1      2051 2.32535E+02 3.13196E+01 6.10256E+00 7.13890E+01-4.08683E-01-6.43364E-02
 -1      2052 2.17544E+02 4.34367E+01 6.00846E+00 8.55148E+01-4.44527E-01-1.34060E-01
 -1      2053 2.00159E+02 5.73234E+01 5.89647E+00 9.69393E+01-4.91993E-01-1.94574E-01
 -1      2054 1.80949E+02 7.24331E+01 5.76550E+00 1.05354E+02-5.49158E-01-2.44327E-01
 -1      2055 1.60528E+02 8.81779E+01 5.61376E+00 1.10569E+02-6.13688E-01-2.81503E-01
 -1      2056 1.39531E+02 1.03954E+02 5.43804E+00 1.12517E+02-6.82360E-01-3.04342E-01
 -1      2057 1.18584E+02 1.19167E+02 5.23322E+00 1.11254E+02-7.50962E-01-3.11239E-01
 -1      2058 9.82824E+01 1.33257E+02 4.99100E+00 1.06954E+02-8.13859E-01-3.00791E-01
 -1      2059 7.91670E+01 1.45721E+02 4.69865E+00 9.98951E+01-8.63530E-01-2.72155E-01
 -1      2060 6.17011E+01 1.56132E+02 4.33734E+00 9.04438E+01-8.90037E-01-2.25407E-01
 -1      2061 4.62599E+01 1.64149E+02 3.88201E+00 7.90382E+01-8.81258E-01-1.62443E-01
 -1      2062 3.31247E+01 1.69535E+02 3.30604E+00 6.61693E+01-8.24348E-01-8.81516E-02
 -1      2063 2.24918E+01 1.72193E+02 2.60030E+00 5.23749E+01-7.11085E-01-1.17204E-02
 -1      2064 1.45016E+01 1.72263E+02 1.82914E+00 3.82456E+01-5.50090E-01 5.29796E-02
 -1      2065 9.29998E+00 1.70394E+02 1.26925E+00 2.44508E+01-3.85659E-01 9.06791E-02
 -1      2066 7.45430E+00 1.68725E+02 1.91658E+00 1.16460E+01-3.03484E-01 9.10860E-02
 -1      2067 7.67057E+00 1.70889E+02 1.93563E+00-1.21062E+01-6.00715E-01-2.08187E-01
 -1      2068 9.75999E+00 1.72840E+02 1.44166E+00-2.56110E+01-8.47696E-01-1.91060E-01
 -1      2069 1.54129E+01 1.74830E+02 1.90097E+00-4.01375E+01-1.21481E+00-1.00508E-01
 -1      2070 2.40826E+01 1.74631E+02 2.48204E+00-5.49704E+01-1.52103E+00 3.66818E-02
 -1      2071 3.56154E+01 1.71557E+02 2.99386E+00-6.93649E+01-1.71586E+00 1.90536E-01
 -1      2072 4.98420E+01 1.65487E+02 3.40357E+00-8.26629E+01-1.80658E+00 3.39363E-01
 -1      2073 6.65223E+01 1.56569E+02 3.72618E+00-9.42664E+01-1.81661E+00 4.70163E-01
 -1      2074 8.53171E+01 1.45105E+02 3.98411E+00-1.03635E+02-1.76980E+00 5.76497E-01
 -1      2075 1.05780E+02 1.31510E+02 4.19545E+00-1.10295E+02-1.68582E+00 6.56225E-01
 -1      2076 1.27364E+02 1.16296E+02 4.37255E+00-1.13863E+02-1.57944E+00 7.09343E-01
 -1      2077 1.49446E+02 1.00051E+02 4.52279E+00-1.14061E+02-1.46138E+00 7.37229E-01
 -1      2078 1.71342E+02 8.34199E+01 4.65061E+00-1.10740E+02-1.33953E+00 7.41540E-01
 -1      2079 1.92344E+02 6.70773E+01 4.75797E+00-1.03889E+02-1.21971E+00 7.24516E-01
 -1      2080 2.11750E+02 5.16969E+01 4.84616E+00-9.36385E+01-1.10639E+00 6.88465E-01
 -1      2081 2.28891E+02 3.79206E+01 4.91512E+00-8.02624E+01-1.00298E+00 6.36194E-01
 -1      2082 2.43168E+02 2.63289E+01 4.96451E+00-6.41637E+01-9.12202E-01 5.70591E-01
 -1      2083 2.54064E+02 1.74061E+01 4.98788E+00-4.58608E+01-8.34723E-01 4.94492E-01
 -1      2084 2.61139E+02 1.15228E+01 4.96969E+00-2.59486E+01-7.68378E-01 4.01104E-01
 -1      2085 2.64403E+02 8.97540E+00 5.02772E+00-5.46142E+00-6.43394E-01 2.43676E-01
 -1      2086 2.63634E+02 9.76142E+00 5.05402E+00 1.53051E+01-5.97980E-01 1.34444E-01
 -1      2087 2.58718E+02 1.37709E+01 5.01029E+00 3.52588E+01-5.89294E-01 9.50871E-03
 -1      2088 2.50090E+02 2.08463E+01 4.96692E+00 5.40674E+01-6.16318E-01-1.34029E-01
 -1      2089 2.38028E+02 3.06985E+01 4.91449E+00 7.11044E+01-6.69596E-01-2.68155E-01
 -1      2090 2.22932E+02 4.29200E+01 4.84713E+00 8.58326E+01-7.45273E-01-3.88643E-01
 -1      2091 2.05314E+02 5.70182E+01 4.76442E+00 9.78087E+01-8.40764E-01-4.92405E-01
 -1      2092 1.85760E+02 7.24308E+01 4.66639E+00 1.06702E+02-9.52781E-01-5.76362E-01
 -1      2093 1.64905E+02 8.85486E+01 4.55168E+00 1.12303E+02-1.07728E+00-6.37720E-01
 -1      2094 1.43405E+02 1.04744E+02 4.41863E+00 1.14534E+02-1.20896E+00-6.73643E-01
 -1      2095 1.21915E+02 1.20396E+02 4.26425E+00 1.13442E+02-1.34120E+00-6.81744E-01
 -1      2096 1.01055E+02 1.34919E+02 4.08341E+00 1.09200E+02-1.46513E+00-6.59889E-01
 -1      2097 8.13890E+01 1.47781E+02 3.86811E+00 1.02090E+02-1.56894E+00-6.06658E-01
 -1      2098 6.34055E+01 1.58528E+02 3.60588E+00 9.24886E+01-1.63708E+00-5.22117E-01
 -1      2099 4.74993E+01 1.66792E+02 3.27917E+00 8.08477E+01-1.64950E+00-4.08702E-01
 -1      2100 3.39693E+01 1.72313E+02 2.86792E+00 6.76778E+01-1.58262E+00-2.73154E-01
 -1      2101 2.30261E+01 1.74978E+02 2.36141E+00 5.35405E+01-1.41465E+00-1.28696E-01
 -1      2102 1.48209E+01 1.74934E+02 1.79917E+00 3.90535E+01-1.14120E+00 3.46472E-03
 -1      2103 9.50379E+00 1.72886E+02 1.38098E+00 2.49169E+01-8.14488E-01 9.49802E-02
 -1      2104 7.60754E+00 1.71022E+02 1.92243E+00 1.18094E+01-5.94055E-01 1.22320E-01
 -1      2105 7.93096E+00 1.74929E+02 2.79603E+00-1.20133E+01-6.57986E-01-2.40661E-01
 -1      2106 9.94890E+00 1.77373E+02 2.35095E+00-2.58517E+01-1.01281E+00-2.06524E-01
 -1      2107 1.56185E+01 1.79903E+02 2.61957E+00-4.07528E+01-1.40771E+00-9.51208E-02
 -1      2108 2.43909E+01 1.80104E+02 2.98911E+00-5.59982E+01-1.68188E+00 5.17644E-02
 -1      2109 3.60973E+01 1.77258E+02 3.32316E+00-7.08302E+01-1.83197E+00 2.06507E-01
 -1      2110 5.05660E+01 1.71269E+02 3.60024E+00-8.45716E+01-1.88495E+00 3.51648E-01
 -1      2111 6.75557E+01 1.62311E+02 3.82849E+00-9.66094E+01-1.86852E+00 4.77596E-01
 -1      2112 8.67259E+01 1.50704E+02 4.01989E+00-1.06391E+02-1.80508E+00 5.79698E-01
 -1      2113 1.07629E+02 1.36878E+02 4.18391E+00-1.13431E+02-1.71135E+00 6.56344E-01
 -1      2114 1.29718E+02 1.21354E+02 4.32639E+00-1.17336E+02-1.59954E+00 7.07502E-01
 -1      2115 1.52363E+02 1.04728E+02 4.45073E+00-1.17815E+02-1.47870E+00 7.34224E-01
 -1      2116 1.74875E+02 8.76547E+01 4.55884E+00-1.14710E+02-1.35553E+00 7.38014E-01
 -1      2117 1.96536E+02 7.08180E+01 4.65125E+00-1.07995E+02-1.23511E+00 7.20566E-01
 -1      2118 2.16633E+02 5.49029E+01 4.72822E+00-9.77929E+01-1.12168E+00 6.84169E-01
 -1      2119 2.34481E+02 4.05654E+01 4.78968E+00-8.43670E+01-1.01844E+00 6.31458E-01
 -1      2120 2.49463E+02 2.84021E+01 4.83479E+00-6.81147E+01-9.28063E-01 5.65360E-01
 -1      2121 2.61052E+02 1.89209E+01 4.86277E+00-4.95532E+01-8.51981E-01 4.89602E-01
 -1      2122 2.68821E+02 1.25167E+01 4.86592E+00-2.92849E+01-7.89196E-01 3.98263E-01
 -1      2123 2.72630E+02 9.49142E+00 4.90299E+00-8.17696E+00-6.70293E-01 2.55702E-01
 -1      2124 2.72279E+02 9.90905E+00 4.91573E+00 1.32576E+01-6.01833E-01 1.40642E-01
 -1      2125 2.67688E+02 1.37138E+01 4.90968E+00 3.41039E+01-5.99105E-01 7.48405E-03
 -1      2126 2.59150E+02 2.07465E+01 4.89409E+00 5.38169E+01-6.26112E-01-1.34022E-01
 -1      2127 2.46965E+02 3.07184E+01 4.86257E+00 7.17378E+01-6.78605E-01-2.67047E-01
 -1      2128 2.31557E+02 4.32173E+01 4.81516E+00 8.72917E+01-7.53794E-01-3.87265E-01
 -1      2129 2.13456E+02 5.77317E+01 4.75209E+00 1.00001E+02-8.49006E-01-4.91108E-01
 -1      2130 1.93275E+02 7.36738E+01 4.67371E+00 1.09507E+02-9.61163E-01-5.75459E-01
 -1      2131 1.71678E+02 9.04043E+01 4.57972E+00 1.15579E+02-1.08641E+00-6.37498E-01
 -1      2132 1.49360E+02 1.07261E+02 4.46964E+00 1.18122E+02-1.21990E+00-6.74492E-01
 -1      2133 1.27009E+02 1.23588E+02 4.34260E+00 1.17179E+02-1.35577E+00-6.84390E-01
 -1      2134 1.05281E+02 1.38761E+02 4.19631E+00 1.12924E+02-1.48650E+00-6.65222E-01
 -1      2135 8.47771E+01 1.52212E+02 4.02738E+00 1.05646E+02-1.60211E+00-6.15753E-01
 -1      2136 6.60137E+01 1.63449E+02 3.82986E+00 9.57384E+01-1.68946E+00-5.35877E-01
 -1      2137 4.94121E+01 1.72067E+02 3.59435E+00 8.36745E+01-1.73112E+00-4.27309E-01
 -1      2138 3.52923E+01 1.77768E+02 3.30981E+00 6.99919E+01-1.70437E+00-2.94813E-01
 -1      2139 2.38802E+01 1.80396E+02 2.96955E+00 5.52851E+01-1.58179E+00-1.48012E-01
 -1      2140 1.53386E+01 1.80062E+02 2.59804E+00 4.02108E+01-1.33756E+00-3.95602E-03
 -1      2141 9.83413E+00 1.77491E+02 2.33561E+00 2.55026E+01-9.76984E-01 1.10966E-01
 -1      2142 7.90739E+00 1.75076E+02 2.79344E+00 1.18612E+01-6.48647E-01 1.53752E-01
 -1      2143-3.34418E+01-2.33632E+02-1.99171E+01 2.40689E+01 3.64376E+00-4.90141E-01
 -1      2144-4.29284E+01-2.48286E+02-2.37119E+01 4.11558E+01 3.48383E+00-8.01216E-01
 -1      2145-5.42368E+01-2.55673E+02-2.57365E+01 5.99196E+01 3.20121E+00-1.06890E+00
 -1      2146-6.85515E+01-2.57748E+02-2.71241E+01 7.90647E+01 2.87339E+00-1.28792E+00
 -1      2147-8.63078E+01-2.55335E+02-2.83398E+01 9.76013E+01 2.53884E+00-1.46114E+00
 -1      2148-1.07488E+02-2.48806E+02-2.95225E+01 1.14662E+02 2.21468E+00-1.59382E+00
 -1      2149-1.31811E+02-2.38466E+02-3.06904E+01 1.29452E+02 1.90345E+00-1.68889E+00
 -1      2150-1.58809E+02-2.24711E+02-3.18256E+01 1.41246E+02 1.60233E+00-1.74623E+00
 -1      2151-1.87859E+02-2.08078E+02-3.29074E+01 1.49413E+02 1.30877E+00-1.76399E+00
 -1      2152-2.18209E+02-1.89238E+02-3.39185E+01 1.53442E+02 1.02278E+00-1.74018E+00
 -1      2153-2.49006E+02-1.68970E+02-3.48461E+01 1.52974E+02 7.46978E-01-1.67365E+00
 -1      2154-2.79326E+02-1.48133E+02-3.56813E+01 1.47822E+02 4.86007E-01-1.56484E+00
 -1      2155-3.08212E+02-1.27619E+02-3.64157E+01 1.37983E+02 2.45650E-01-1.41563E+00
 -1      2156-3.34719E+02-1.08318E+02-3.70426E+01 1.23649E+02 3.17839E-02-1.22906E+00
 -1      2157-3.57945E+02-9.10745E+01-3.75550E+01 1.05200E+02-1.49975E-01-1.00935E+00
 -1      2158-3.77082E+02-7.66493E+01-3.79461E+01 8.31907E+01-2.94338E-01-7.61217E-01
 -1      2159-3.91432E+02-6.56721E+01-3.82041E+01 5.83336E+01-3.96302E-01-4.89022E-01
 -1      2160-4.00451E+02-5.86218E+01-3.83173E+01 3.14610E+01-4.51076E-01-1.95186E-01
 -1      2161-4.04304E+02-5.60346E+01-3.85010E+01 3.23807E+00-4.29397E-01 1.16550E-01
 -1      2162-4.02637E+02-5.77066E+01-3.85851E+01-2.35536E+01-4.13805E-01 3.75596E-01
 -1      2163-3.95321E+02-6.31805E+01-3.83699E+01-4.98438E+01-3.34992E-01 6.21031E-01
 -1      2164-3.83066E+02-7.24462E+01-3.80675E+01-7.45360E+01-2.23623E-01 8.62599E-01
 -1      2165-3.66261E+02-8.51165E+01-3.76778E+01-9.68512E+01-7.85774E-02 1.09041E+00
 -1      2166-3.45429E+02-1.00657E+02-3.71935E+01-1.16112E+02 9.78822E-02 1.29464E+00
 -1      2167-3.21236E+02-1.18426E+02-3.66141E+01-1.31763E+02 3.01808E-01 1.46910E+00
 -1      2168-2.94443E+02-1.37699E+02-3.59413E+01-1.43393E+02 5.28339E-01 1.60948E+00
 -1      2169-2.65873E+02-1.57697E+02-3.51784E+01-1.50751E+02 7.72284E-01 1.71292E+00
 -1      2170-2.36376E+02-1.77616E+02-3.43294E+01-1.53745E+02 1.02860E+00 1.77775E+00
 -1      2171-2.06799E+02-1.96672E+02-3.34017E+01-1.52451E+02 1.29282E+00 1.80382E+00
 -1      2172-1.77942E+02-2.14122E+02-3.24033E+01-1.47098E+02 1.56173E+00 1.79205E+00
 -1      2173-1.50539E+02-2.29303E+02-3.13466E+01-1.38059E+02 1.83417E+00 1.74431E+00
 -1      2174-1.25223E+02-2.41653E+02-3.02474E+01-1.25825E+02 2.11147E+00 1.66293E+00
 -1      2175-1.02515E+02-2.50731E+02-2.91248E+01-1.10985E+02 2.39691E+00 1.54961E+00
 -1      2176-8.27947E+01-2.56211E+02-2.79906E+01-9.42029E+01 2.69321E+00 1.40408E+00
 -1      2177-6.62732E+01-2.57831E+02-2.68174E+01-7.61993E+01 2.99666E+00 1.22324E+00
 -1      2178-5.29201E+01-2.55236E+02-2.54553E+01-5.77611E+01 3.28869E+00 1.00232E+00
 -1      2179-4.22905E+01-2.47631E+02-2.34450E+01-3.97944E+01 3.53082E+00 7.39919E-01
 -1      2180-3.32355E+01-2.33157E+02-1.97013E+01-2.34893E+01 3.65436E+00 4.44574E-01
 -1      2181-3.28322E+01-2.29537E+02-1.77601E+01 2.37054E+01 6.59679E+00-8.44558E-01
 -1      2182-4.20079E+01-2.43352E+02-2.08837E+01 4.02957E+01 6.26677E+00-1.39732E+00
 -1      2183-5.29405E+01-2.50165E+02-2.24965E+01 5.84760E+01 5.73026E+00-1.86737E+00
 -1      2184-6.67623E+01-2.51904E+02-2.36127E+01 7.70028E+01 5.14122E+00-2.24917E+00
 -1      2185-8.38855E+01-2.49404E+02-2.46147E+01 9.49401E+01 4.56463E+00-2.55664E+00
 -1      2186-1.04304E+02-2.43030E+02-2.56065E+01 1.11476E+02 4.01513E+00-2.79991E+00
 -1      2187-1.27763E+02-2.33058E+02-2.65945E+01 1.25861E+02 3.48690E+00-2.98140E+00
 -1      2188-1.53823E+02-2.19835E+02-2.75594E+01 1.37403E+02 2.97089E+00-3.09834E+00
 -1      2189-1.81895E+02-2.03847E+02-2.84813E+01 1.45490E+02 2.46227E+00-3.14603E+00
 -1      2190-2.11267E+02-1.85711E+02-2.93450E+01 1.49628E+02 1.96195E+00-3.12033E+00
 -1      2191-2.41125E+02-1.66159E+02-3.01396E+01 1.49459E+02 1.47560E+00-3.01905E+00
 -1      2192-2.70585E+02-1.45999E+02-3.08565E+01 1.44789E+02 1.01212E+00-2.84274E+00
 -1      2193-2.98736E+02-1.26084E+02-3.14897E+01 1.35604E+02 5.81872E-01-2.59453E+00
 -1      2194-3.24668E+02-1.07265E+02-3.20336E+01 1.22070E+02 1.95657E-01-2.27991E+00
 -1      2195-3.47518E+02-9.03541E+01-3.24825E+01 1.04534E+02-1.36369E-01-1.90610E+00
 -1      2196-3.66503E+02-7.60887E+01-3.28312E+01 8.35129E+01-4.04971E-01-1.48114E+00
 -1      2197-3.80955E+02-6.50882E+01-3.30718E+01 5.96739E+01-6.01562E-01-1.01219E+00
 -1      2198-3.90347E+02-5.78302E+01-3.31952E+01 3.38008E+01-7.17840E-01-5.03705E-01
 -1      2199-3.94669E+02-5.47739E+01-3.33330E+01 6.59448E+00-7.38840E-01 2.58651E-02
 -1      2200-3.93604E+02-5.58740E+01-3.33885E+01-1.98208E+01-7.20428E-01 5.06387E-01
 -1      2201-3.87084E+02-6.08074E+01-3.32290E+01-4.57660E+01-6.02504E-01 9.64704E-01
 -1      2202-3.75615E+02-6.95104E+01-3.29924E+01-7.02246E+01-4.18394E-01 1.41339E+00
 -1      2203-3.59572E+02-8.16130E+01-3.26740E+01-9.24154E+01-1.70538E-01 1.83506E+00
 -1      2204-3.39481E+02-9.66045E+01-3.22710E+01-1.11653E+02 1.36560E-01 2.21453E+00
 -1      2205-3.15996E+02-1.13858E+02-3.17829E+01-1.27374E+02 4.95670E-01 2.54088E+00
 -1      2206-2.89867E+02-1.32661E+02-3.12124E+01-1.39154E+02 8.97898E-01 2.80610E+00
 -1      2207-2.61913E+02-1.52243E+02-3.05622E+01-1.46728E+02 1.33359E+00 3.00444E+00
 -1      2208-2.32978E+02-1.71808E+02-2.98368E+01-1.49996E+02 1.79305E+00 3.13248E+00
 -1      2209-2.03905E+02-1.90577E+02-2.90419E+01-1.49021E+02 2.26732E+00 3.18912E+00
 -1      2210-1.75496E+02-2.07815E+02-2.81854E+01-1.44023E+02 2.74922E+00 3.17554E+00
 -1      2211-1.48486E+02-2.22867E+02-2.72780E+01-1.35367E+02 3.23494E+00 3.09496E+00
 -1      2212-1.23513E+02-2.35185E+02-2.63344E+01-1.23538E+02 3.72537E+00 2.95207E+00
 -1      2213-1.01098E+02-2.44346E+02-2.53734E+01-1.09118E+02 4.22663E+00 2.75152E+00
 -1      2214-8.16224E+01-2.50044E+02-2.44110E+01-9.27583E+01 4.74791E+00 2.49555E+00
 -1      2215-6.52958E+01-2.52031E+02-2.34347E+01-7.51606E+01 5.29369E+00 2.18123E+00
 -1      2216-5.20935E+01-2.49945E+02-2.23330E+01-5.70855E+01 5.84633E+00 1.79875E+00
 -1      2217-4.15973E+01-2.42969E+02-2.07265E+01-3.94171E+01 6.33846E+00 1.33632E+00
 -1      2218-3.27004E+01-2.29244E+02-1.76337E+01-2.33328E+01 6.62578E+00 8.03088E-01
 -1      2219-3.18742E+01-2.22544E+02-1.43326E+01 2.33006E+01 6.79046E+00-6.80375E-01
 -1      2220-4.06719E+01-2.34876E+02-1.65510E+01 3.91922E+01 6.38859E+00-1.20623E+00
 -1      2221-5.11130E+01-2.40532E+02-1.76710E+01 5.64540E+01 5.79000E+00-1.63968E+00
 -1      2222-6.42405E+01-2.41575E+02-1.84547E+01 7.39567E+01 5.20482E+00-1.99708E+00
 -1      2223-8.04591E+01-2.38848E+02-1.91796E+01 9.08886E+01 4.66825E+00-2.29690E+00
 -1      2224-9.97836E+01-2.32657E+02-1.99126E+01 1.06525E+02 4.16752E+00-2.54429E+00
 -1      2225-1.21988E+02-2.23199E+02-2.06518E+01 1.20175E+02 3.68362E+00-2.73611E+00
 -1      2226-1.46667E+02-2.10743E+02-2.13788E+01 1.31187E+02 3.20414E+00-2.86603E+00
 -1      2227-1.73273E+02-1.95700E+02-2.20763E+01 1.38984E+02 2.72509E+00-2.92788E+00
 -1      2228-2.01141E+02-1.78621E+02-2.27320E+01 1.43090E+02 2.24920E+00-2.91728E+00
 -1      2229-2.29510E+02-1.60170E+02-2.33370E+01 1.43160E+02 1.78365E+00-2.83233E+00
 -1      2230-2.57558E+02-1.41097E+02-2.38849E+01 1.39001E+02 1.33814E+00-2.67363E+00
 -1      2231-2.84428E+02-1.22191E+02-2.43709E+01 1.30585E+02 9.23258E-01-2.44446E+00
 -1      2232-3.09270E+02-1.04250E+02-2.47910E+01 1.18054E+02 5.49873E-01-2.15048E+00
 -1      2233-3.31273E+02-8.80378E+01-2.51418E+01 1.01720E+02 2.28190E-01-1.79900E+00
 -1      2234-3.49699E+02-7.42523E+01-2.54201E+01 8.20503E+01-3.28236E-02-1.39842E+00
 -1      2235-3.63927E+02-6.34892E+01-2.56227E+01 5.96561E+01-2.25136E-01-9.56863E-01
 -1      2236-3.73459E+02-5.62131E+01-2.57413E+01 3.52643E+01-3.40578E-01-4.80295E-01
 -1      2237-3.78119E+02-5.28015E+01-2.58293E+01 9.59163E+00-3.64506E-01 1.90083E-02
 -1      2238-3.77654E+02-5.33347E+01-2.58572E+01-1.59137E+01-3.29775E-01 4.75865E-01
 -1      2239-3.72025E+02-5.76499E+01-2.57673E+01-4.09865E+01-2.18739E-01 9.21763E-01
 -1      2240-3.61544E+02-6.56250E+01-2.56136E+01-6.47123E+01-4.36442E-02 1.35139E+00
 -1      2241-3.46568E+02-7.69188E+01-2.53903E+01-8.63268E+01 1.94133E-01 1.75113E+00
 -1      2242-3.27606E+02-9.10530E+01-2.50971E+01-1.05152E+02 4.89342E-01 2.10861E+00
 -1      2243-3.05288E+02-1.07432E+02-2.47359E+01-1.20628E+02 8.34865E-01 2.41407E+00
 -1      2244-2.80337E+02-1.25370E+02-2.43083E+01-1.32327E+02 1.22201E+00 2.65996E+00
 -1      2245-2.53543E+02-1.44121E+02-2.38171E+01-1.39978E+02 1.64107E+00 2.84058E+00
 -1      2246-2.25732E+02-1.62917E+02-2.32661E+01-1.43471E+02 2.08207E+00 2.95230E+00
 -1      2247-1.97722E+02-1.80999E+02-2.26602E+01-1.42855E+02 2.53550E+00 2.99365E+00
 -1      2248-1.70300E+02-1.97656E+02-2.20054E+01-1.38338E+02 2.99305E+00 2.96546E+00
 -1      2249-1.44187E+02-2.12258E+02-2.13105E+01-1.30268E+02 3.44916E+00 2.87073E+00
 -1      2250-1.20015E+02-2.24289E+02-2.05883E+01-1.19114E+02 3.90282E+00 2.71451E+00
 -1      2251-9.82980E+01-2.33366E+02-1.98559E+01-1.05443E+02 4.35961E+00 2.50318E+00
 -1      2252-7.94137E+01-2.39239E+02-1.91305E+01-8.98849E+01 4.83297E+00 2.24272E+00
 -1      2253-6.35670E+01-2.41723E+02-1.84114E+01-7.31076E+01 5.34187E+00 1.93554E+00
 -1      2254-5.07270E+01-2.40508E+02-1.76272E+01-5.58119E+01 5.89745E+00 1.57587E+00
 -1      2255-4.04855E+01-2.34752E+02-1.64994E+01-3.87859E+01 6.46178E+00 1.14607E+00
 -1      2256-3.18129E+01-2.22422E+02-1.42808E+01-2.31290E+01 6.82948E+00 6.34614E-01
 -1      2257-4.23751E+00 1.05191E+02 1.91680E+00-1.13071E+00 1.80024E-01-1.69082E-01
 -1      2258-4.19033E+00 1.07106E+02 1.45641E+00-7.03027E-01 3.28370E-01-2.18754E-01
 -1      2259-4.28349E+00 1.10173E+02 9.01800E-01 2.64300E-01 3.15832E-01-1.16752E-01
 -1      2260-7.78529E+00 3.96260E+01 1.90064E+00 5.31493E+00 7.94004E-01-3.69314E-01
 -1      2261-7.69131E+00 4.16780E+01 1.47641E+00 5.87286E+00 1.26918E+00-5.72495E-01
 -1      2262-7.80756E+00 4.50814E+01 1.07706E+00 7.32904E+00 1.02784E+00-4.36161E-01
 -1      2263-8.66967E+00-3.17988E+01 1.54031E+00 1.15557E+01 1.53162E+00-5.17652E-01
 -1      2264-8.52536E+00-2.94792E+01 1.30092E+00 1.19981E+01 2.40295E+00-8.62311E-01
 -1      2265-8.62693E+00-2.56080E+01 1.09738E+00 1.34375E+01 1.92780E+00-7.30904E-01
 -1      2266-5.60164E+00-1.11058E+02 5.00255E-01 1.31733E+01 2.49218E+00-4.53782E-01
 -1      2267-5.54540E+00-1.08387E+02 6.80995E-01 1.33705E+01 4.10911E+00-7.88489E-01
 -1      2268-5.66244E+00-1.04003E+02 7.92014E-01 1.40432E+01 3.46926E+00-7.03481E-01
 -1      2269-4.29250E+00 1.05202E+02 1.83181E+00 8.63636E-01 1.93640E-01 1.22157E-01
 -1      2270-4.22810E+00 1.07145E+02 1.40910E+00 5.17907E-01 3.39086E-01 1.73665E-01
 -1      2271-4.30353E+00 1.10249E+02 8.82311E-01-3.68329E-01 3.20857E-01 7.28738E-02
 -1      2272-7.83623E+00 3.96075E+01 1.85399E+00-5.59623E+00 8.01579E-01 3.17693E-01
 -1      2273-7.72252E+00 4.16940E+01 1.45076E+00-6.07209E+00 1.27862E+00 5.19706E-01
 -1      2274-7.82653E+00 4.51360E+01 1.06568E+00-7.44837E+00 1.03228E+00 3.85208E-01
 -1      2275-8.70915E+00-3.18097E+01 1.53973E+00-1.18231E+01 1.53266E+00 4.67113E-01
 -1      2276-8.55112E+00-2.94654E+01 1.30237E+00-1.21884E+01 2.41042E+00 8.09283E-01
 -1      2277-8.64094E+00-2.55653E+01 1.09988E+00-1.35539E+01 1.93205E+00 6.79423E-01
 -1      2278-5.63797E+00-1.11018E+02 5.59800E-01-1.33911E+01 2.48727E+00 4.11284E-01
 -1      2279-5.56772E+00-1.08345E+02 7.21531E-01-1.35249E+01 4.11715E+00 7.45123E-01
 -1      2280-5.67296E+00-1.03957E+02 8.13032E-01-1.41337E+01 3.47696E+00 6.61058E-01
 -1      2281-7.12907E+00 1.21922E+02 1.41009E+00-4.45707E+00-4.51138E-01-4.81519E+00
 -1      2282-7.21369E+00 1.27578E+02 1.71677E+00-1.48322E+01-1.00636E+00-4.89911E+00
 -1      2283-4.74710E+00 1.30475E+02 1.90538E+00-2.66167E+01-1.61454E+00-5.03846E+00
 -1      2284 3.56807E-01 1.30732E+02 2.04655E+00-3.90135E+01-2.21038E+00-5.13433E+00
 -1      2285 8.02420E+00 1.28332E+02 2.17613E+00-5.12954E+01-2.77238E+00-5.17196E+00
 -1      2286 1.80915E+01 1.23325E+02 2.29004E+00-6.28450E+01-3.30649E+00-5.15140E+00
 -1      2287 3.03521E+01 1.15870E+02 2.38911E+00-7.31308E+01-3.81890E+00-5.07557E+00
 -1      2288 4.45355E+01 1.06220E+02 2.47652E+00-8.16799E+01-4.31275E+00-4.94660E+00
 -1      2289 6.02913E+01 9.47137E+01 2.55567E+00-8.80773E+01-4.78788E+00-4.76560E+00
 -1      2290 7.71871E+01 8.17701E+01 2.62921E+00-9.19783E+01-5.24173E+00-4.53366E+00
 -1      2291 9.47197E+01 6.78737E+01 2.69869E+00-9.31255E+01-5.67021E+00-4.25232E+00
 -1      2292 1.12334E+02 5.35600E+01 2.76485E+00-9.13644E+01-6.06834E+00-3.92381E+00
 -1      2293 1.29444E+02 3.93933E+01 2.82784E+00-8.66543E+01-6.43083E+00-3.55125E+00
 -1      2294 1.45463E+02 2.59423E+01 2.88758E+00-7.90736E+01-6.75255E+00-3.13878E+00
 -1      2295 1.59824E+02 1.37554E+01 2.94389E+00-6.88197E+01-7.02866E+00-2.69122E+00
 -1      2296 1.72012E+02 3.33464E+00 2.99619E+00-5.62028E+01-7.25491E+00-2.21423E+00
 -1      2297 1.81584E+02-4.88714E+00 3.04398E+00-4.16334E+01-7.42750E+00-1.71437E+00
 -1      2298 1.88190E+02-1.05649E+01 3.08727E+00-2.56168E+01-7.54042E+00-1.19771E+00
 -1      2299 1.91590E+02-1.34699E+01 3.11865E+00-8.69721E+00-7.54813E+00-6.62501E-01
 -1      2300 1.91644E+02-1.34797E+01 3.12635E+00 8.57383E+00-7.57206E+00-1.04212E-01
 -1      2301 1.88334E+02-1.05818E+01 3.12263E+00 2.55635E+01-7.57908E+00 4.64693E-01
 -1      2302 1.81780E+02-4.89167E+00 3.11104E+00 4.16360E+01-7.52236E+00 1.03088E+00
 -1      2303 1.72229E+02 3.34817E+00 3.08901E+00 5.62440E+01-7.40086E+00 1.58604E+00
 -1      2304 1.60044E+02 1.37922E+01 3.05819E+00 6.88923E+01-7.21637E+00 2.12191E+00
 -1      2305 1.45675E+02 2.60050E+01 3.01915E+00 7.91700E+01-6.97189E+00 2.63056E+00
 -1      2306 1.29641E+02 3.94824E+01 2.97217E+00 8.67675E+01-6.67165E+00 3.10464E+00
 -1      2307 1.12512E+02 5.36749E+01 2.91749E+00 9.14878E+01-6.32085E+00 3.53770E+00
 -1      2308 9.48756E+01 6.80131E+01 2.85549E+00 9.32530E+01-5.92531E+00 3.92403E+00
 -1      2309 7.73192E+01 8.19318E+01 2.78607E+00 9.21042E+01-5.49116E+00 4.25907E+00
 -1      2310 6.03994E+01 9.48946E+01 2.70871E+00 8.81966E+01-5.02445E+00 4.53950E+00
 -1      2311 4.46208E+01 1.06416E+02 2.62239E+00 8.17882E+01-4.53045E+00 4.76284E+00
 -1      2312 3.04167E+01 1.16077E+02 2.52458E+00 7.32245E+01-4.01294E+00 4.92743E+00
 -1      2313 1.81380E+01 1.23540E+02 2.41245E+00 6.29217E+01-3.47332E+00 5.03175E+00
 -1      2314 8.05577E+00 1.28550E+02 2.28288E+00 5.13531E+01-2.90963E+00 5.07352E+00
 -1      2315 3.76396E-01 1.30947E+02 2.13507E+00 3.90511E+01-2.31684E+00 5.04996E+00
 -1      2316-4.73604E+00 1.30684E+02 1.97332E+00 2.66337E+01-1.69012E+00 4.96160E+00
 -1      2317-7.20751E+00 1.27774E+02 1.76328E+00 1.48300E+01-1.05145E+00 4.82509E+00
 -1      2318-7.12338E+00 1.22092E+02 1.43666E+00 4.43311E+00-4.69428E-01 4.74175E+00
 -1      2319-1.43655E+01 5.74429E+01 1.43688E+00 6.69992E+00 7.97600E-02-5.68809E+00
 -1      2320-1.74927E+01 6.38851E+01 1.86728E+00 4.65173E-01-5.18147E-01-5.95396E+00
 -1      2321-1.84649E+01 6.74997E+01 2.23850E+00-6.99494E+00-1.16902E+00-6.20274E+00
 -1      2322-1.74145E+01 6.86370E+01 2.49376E+00-1.50615E+01-1.86212E+00-6.38854E+00
 -1      2323-1.45295E+01 6.76650E+01 2.67620E+00-2.32218E+01-2.55747E+00-6.49634E+00
 -1      2324-9.95724E+00 6.48242E+01 2.81732E+00-3.10651E+01-3.24364E+00-6.52563E+00
 -1      2325-3.82934E+00 6.02897E+01 2.93500E+00-3.82346E+01-3.91801E+00-6.47817E+00
 -1      2326 3.69722E+00 5.42417E+01 3.03870E+00-4.44021E+01-4.57895E+00-6.35500E+00
 -1      2327 1.24127E+01 4.69017E+01 3.13319E+00-4.92695E+01-5.22293E+00-6.15671E+00
 -1      2328 2.20468E+01 3.85432E+01 3.22061E+00-5.25826E+01-5.84427E+00-5.88427E+00
 -1      2329 3.22756E+01 2.94890E+01 3.30207E+00-5.41457E+01-6.43581E+00-5.53958E+00
 -1      2330 4.27344E+01 2.00991E+01 3.37782E+00-5.38338E+01-6.98942E+00-5.12568E+00
 -1      2331 5.30340E+01 1.07561E+01 3.44776E+00-5.16004E+01-7.49681E+00-4.64697E+00
 -1      2332 6.27801E+01 1.84841E+00 3.51162E+00-4.74821E+01-7.94986E+00-4.10920E+00
 -1      2333 7.15905E+01-6.24860E+00 3.56893E+00-4.15982E+01-8.34097E+00-3.51935E+00
 -1      2334 7.91162E+01-1.31892E+01 3.61988E+00-3.41477E+01-8.66340E+00-2.88565E+00
 -1      2335 8.50564E+01-1.86770E+01 3.66381E+00-2.54009E+01-8.91091E+00-2.21709E+00
 -1      2336 8.91646E+01-2.24798E+01 3.69663E+00-1.56985E+01-9.07676E+00-1.51882E+00
 -1      2337 9.12849E+01-2.44312E+01 3.71876E+00-5.39126E+00-9.12281E+00-8.00515E-01
 -1      2338 9.13202E+01-2.44438E+01 3.71648E+00 5.18298E+00-9.15946E+00-4.69616E-02
 -1      2339 8.92529E+01-2.25169E+01 3.70035E+00 1.55836E+01-9.14441E+00 7.11738E-01
 -1      2340 8.51741E+01-1.87181E+01 3.67656E+00 2.53600E+01-9.04012E+00 1.46546E+00
 -1      2341 7.92472E+01-1.32171E+01 3.64326E+00 3.41529E+01-8.84773E+00 2.19979E+00
 -1      2342 7.17189E+01-6.25680E+00 3.60050E+00 4.16362E+01-8.57043E+00 2.90279E+00
 -1      2343 6.28977E+01 1.86186E+00 3.54914E+00 4.75429E+01-8.21327E+00 3.56361E+00
 -1      2344 5.31368E+01 1.07917E+01 3.48961E+00 5.16762E+01-7.78279E+00 4.17232E+00
 -1      2345 4.28203E+01 2.01565E+01 3.42268E+00 5.39181E+01-7.28685E+00 4.72015E+00
 -1      2346 3.23437E+01 2.95671E+01 3.34862E+00 5.42331E+01-6.73425E+00 5.19967E+00
 -1      2347 2.20969E+01 3.86404E+01 3.26769E+00 5.26679E+01-6.13432E+00 5.60495E+00
 -1      2348 1.24457E+01 4.70158E+01 3.17970E+00 4.93486E+01-5.49640E+00 5.93161E+00
 -1      2349 3.71500E+00 5.43699E+01 3.08357E+00 4.44714E+01-4.82907E+00 6.17688E+00
 -1      2350-3.82425E+00 6.04291E+01 2.97743E+00 3.82912E+01-4.13945E+00 6.33907E+00
 -1      2351-9.96187E+00 6.49719E+01 2.85663E+00 3.11070E+01-3.43248E+00 6.41735E+00
 -1      2352-1.45408E+01 6.78185E+01 2.71187E+00 2.32479E+01-2.71098E+00 6.41058E+00
 -1      2353-1.74300E+01 6.87940E+01 2.52537E+00 1.50710E+01-1.97863E+00 6.31733E+00
 -1      2354-1.84825E+01 6.76563E+01 2.26552E+00 6.98703E+00-1.24811E+00 6.13870E+00
 -1      2355-1.75095E+01 6.40324E+01 1.88954E+00-4.90748E-01-5.62282E-01 5.89116E+00
 -1      2356-1.43737E+01 5.75747E+01 1.45412E+00-6.74944E+00 5.95582E-02 5.62391E+00
 -1      2357-1.66222E+01-1.46615E+01 1.70404E+00 1.71558E+01 8.72670E-01-6.31077E+00
 -1      2358-2.18571E+01-9.70780E+00 2.19162E+00 1.56220E+01 1.98046E-01-6.78914E+00
 -1      2359-2.57099E+01-6.59545E+00 2.66325E+00 1.36054E+01-5.55138E-01-7.15642E+00
 -1      2360-2.86150E+01-4.92447E+00 3.00719E+00 1.13791E+01-1.35683E+00-7.41515E+00
 -1      2361-3.08507E+01-4.23652E+00 3.24906E+00 9.00929E+00-2.17275E+00-7.57646E+00
 -1      2362-3.25133E+01-4.26901E+00 3.43073E+00 6.53639E+00-2.98888E+00-7.64608E+00
 -1      2363-3.36176E+01-4.89727E+00 3.58019E+00 4.03481E+00-3.80018E+00-7.62477E+00
 -1      2364-3.41676E+01-6.05025E+00 3.71124E+00 1.60763E+00-4.60269E+00-7.51142E+00
 -1      2365-3.41868E+01-7.66176E+00 3.83013E+00-6.33341E-01-5.39045E+00-7.30487E+00
 -1      2366-3.37259E+01-9.65266E+00 3.93932E+00-2.58345E+00-6.15532E+00-7.00517E+00
 -1      2367-3.28608E+01-1.19281E+01 4.03921E+00-4.15483E+00-6.88750E+00-6.61389E+00
 -1      2368-3.16863E+01-1.43786E+01 4.13035E+00-5.28268E+00-7.57625E+00-6.13442E+00
 -1      2369-3.03113E+01-1.68864E+01 4.21176E+00-5.92755E+00-8.21059E+00-5.57188E+00
 -1      2370-2.88503E+01-1.93285E+01 4.28350E+00-6.07816E+00-8.77980E+00-4.93319E+00
 -1      2371-2.74190E+01-2.15846E+01 4.34504E+00-5.75165E+00-9.27382E+00-4.22690E+00
 -1      2372-2.61248E+01-2.35425E+01 4.39610E+00-4.99349E+00-9.68346E+00-3.46306E+00
 -1      2373-2.50615E+01-2.51056E+01 4.43650E+00-3.87612E+00-1.00008E+01-2.65256E+00
 -1      2374-2.43089E+01-2.62025E+01 4.46246E+00-2.50301E+00-1.02185E+01-1.80546E+00
 -1      2375-2.39048E+01-2.67809E+01 4.47240E+00-9.53622E-01-1.03042E+01-9.31668E-01
 -1      2376-2.38865E+01-2.68040E+01 4.45530E+00 7.19324E-01-1.03495E+01-1.30886E-02
 -1      2377-2.42725E+01-2.62655E+01 4.42507E+00 2.36520E+00-1.03141E+01 9.11387E-01
 -1      2378-2.50277E+01-2.51808E+01 4.38596E+00 3.81606E+00-1.01663E+01 1.82433E+00
 -1      2379-2.60989E+01-2.36128E+01 4.33628E+00 4.97713E+00-9.90978E+00 2.70995E+00
 -1      2380-2.74056E+01-2.16440E+01 4.27675E+00 5.76243E+00-9.54970E+00 3.55340E+00
 -1      2381-2.88506E+01-1.93746E+01 4.20824E+00 6.10610E+00-9.09278E+00 4.34122E+00
 -1      2382-3.03249E+01-1.69182E+01 4.13139E+00 5.96600E+00-8.54773E+00 5.06130E+00
 -1      2383-3.17126E+01-1.43956E+01 4.04688E+00 5.32656E+00-7.92479E+00 5.70289E+00
 -1      2384-3.28987E+01-1.19303E+01 3.95489E+00 4.19995E+00-7.23547E+00 6.25721E+00
 -1      2385-3.37740E+01-9.64063E+00 3.85603E+00 2.62622E+00-6.49195E+00 6.71727E+00
 -1      2386-3.42431E+01-7.63632E+00 3.75003E+00 6.70816E-01-5.70643E+00 7.07832E+00
 -1      2387-3.42298E+01-6.01253E+00 3.63616E+00-1.57789E+00-4.89036E+00 7.33767E+00
 -1      2388-3.36827E+01-4.84844E+00 3.51204E+00-4.01453E+00-4.05362E+00 7.49466E+00
 -1      2389-3.25783E+01-4.21003E+00 3.37125E+00-6.52661E+00-3.20379E+00 7.55017E+00
 -1      2390-3.09126E+01-4.16787E+00 3.19979E+00-9.01044E+00-2.34626E+00 7.50552E+00
 -1      2391-2.86718E+01-4.84642E+00 2.96942E+00-1.13913E+01-1.48729E+00 7.36044E+00
 -1      2392-2.57606E+01-6.50980E+00 2.63771E+00-1.36295E+01-6.42642E-01 7.10991E+00
 -1      2393-2.19006E+01-9.62067E+00 2.17818E+00-1.56609E+01 1.49290E-01 6.74354E+00
 -1      2394-1.66504E+01-1.45775E+01 1.70266E+00-1.72187E+01 8.51213E-01 6.25962E+00
 -1      2395-1.18278E+01-9.74547E+01 2.11538E+00 2.25424E+01 2.25578E+00-7.20130E+00
 -1      2396-1.73063E+01-9.68056E+01 2.70342E+00 2.80404E+01 1.42171E+00-7.95077E+00
 -1      2397-2.33102E+01-9.61529E+01 3.10399E+00 3.40790E+01 4.68003E-01-8.44244E+00
 -1      2398-3.01463E+01-9.47528E+01 3.40357E+00 4.03118E+01-5.18902E-01-8.77820E+00
 -1      2399-3.80047E+01-9.23418E+01 3.64564E+00 4.62931E+01-1.50619E+00-9.00225E+00
 -1      2400-4.68998E+01-8.88584E+01 3.84921E+00 5.16600E+01-2.49478E+00-9.12379E+00
 -1      2401-5.67283E+01-8.43339E+01 4.02646E+00 5.61347E+01-3.48594E+00-9.13913E+00
 -1      2402-6.73198E+01-7.88621E+01 4.18421E+00 5.94967E+01-4.47588E+00-9.04210E+00
 -1      2403-7.84586E+01-7.25889E+01 4.32645E+00 6.15674E+01-5.45601E+00-8.82813E+00
 -1      2404-8.98956E+01-6.57070E+01 4.45508E+00 6.22074E+01-6.41450E+00-8.49529E+00
 -1      2405-1.01355E+02-5.84461E+01 4.57125E+00 6.13217E+01-7.33747E+00-8.04438E+00
 -1      2406-1.12545E+02-5.10632E+01 4.67471E+00 5.88655E+01-8.21006E+00-7.47901E+00
 -1      2407-1.23167E+02-4.38282E+01 4.76549E+00 5.48480E+01-9.01739E+00-6.80525E+00
 -1      2408-1.32926E+02-3.70122E+01 4.84300E+00 4.93344E+01-9.74502E+00-6.03163E+00
 -1      2409-1.41546E+02-3.08748E+01 4.90650E+00 4.24442E+01-1.03794E+01-5.16877E+00
 -1      2410-1.48778E+02-2.56523E+01 4.95576E+00 3.43471E+01-1.09083E+01-4.22929E+00
 -1      2411-1.54410E+02-2.15486E+01 4.98947E+00 2.52558E+01-1.13210E+01-3.22739E+00
 -1      2412-1.58277E+02-1.87260E+01 5.00818E+00 1.54094E+01-1.16070E+01-2.17639E+00
 -1      2413-1.60238E+02-1.72961E+01 5.00793E+00 5.11162E+00-1.17460E+01-1.09671E+00
 -1      2414-1.60243E+02-1.73118E+01 4.97914E+00-5.28794E+00-1.18029E+01 4.76810E-02
 -1      2415-1.58310E+02-1.87699E+01 4.93817E+00-1.55129E+01-1.17353E+01 1.19254E+00
 -1      2416-1.54485E+02-2.16069E+01 4.88431E+00-2.53072E+01-1.15270E+01 2.31937E+00
 -1      2417-1.48879E+02-2.57160E+01 4.81991E+00-3.43772E+01-1.11821E+01 3.40706E+00
 -1      2418-1.41663E+02-3.09395E+01 4.74554E+00-4.24650E+01-1.07077E+01 4.43737E+00
 -1      2419-1.33050E+02-3.70759E+01 4.66225E+00-4.93513E+01-1.01134E+01 5.39340E+00
 -1      2420-1.23294E+02-4.38899E+01 4.57044E+00-5.48641E+01-9.41100E+00 6.25978E+00
 -1      2421-1.12673E+02-5.11225E+01 4.47097E+00-5.88825E+01-8.61434E+00 7.02329E+00
 -1      2422-1.01482E+02-5.85026E+01 4.36390E+00-6.13407E+01-7.73893E+00 7.67333E+00
 -1      2423-9.00185E+01-6.57602E+01 4.24932E+00-6.22290E+01-6.80111E+00 8.20182E+00
 -1      2424-7.85758E+01-7.26382E+01 4.12733E+00-6.15917E+01-5.81738E+00 8.60365E+00
 -1      2425-6.74294E+01-7.89066E+01 3.99660E+00-5.95236E+01-4.80352E+00 8.87682E+00
 -1      2426-5.68287E+01-8.43724E+01 3.85486E+00-5.61638E+01-3.77337E+00 9.02262E+00
 -1      2427-4.69896E+01-8.88892E+01 3.69761E+00-5.16910E+01-2.73747E+00 9.04543E+00
 -1      2428-3.80828E+01-9.23631E+01 3.51709E+00-4.63253E+01-1.70147E+00 8.95169E+00
 -1      2429-3.02121E+01-9.47622E+01 3.30019E+00-4.03447E+01-6.65815E-01 8.74582E+00
 -1      2430-2.33637E+01-9.61479E+01 3.02703E+00-3.41134E+01 3.68508E-01 8.41936E+00
 -1      2431-1.73479E+01-9.67847E+01 2.65428E+00-2.80803E+01 1.36611E+00 7.92843E+00
 -1      2432-1.18553E+01-9.74220E+01 2.09491E+00-2.25994E+01 2.23405E+00 7.17162E+00
 -1      2433-3.11849E+00 1.05708E+02 5.21167E-01 7.66131E+00-2.74913E-01-4.88652E+00
 -1      2434-4.54381E+00 4.18758E+01 1.14396E+00 1.43121E+01 4.00023E-01-5.00318E+00
 -1      2435-4.52240E+00-2.53539E+01 1.40507E+00 1.78167E+01 1.23138E+00-5.11657E+00
 -1      2436-2.94322E+00-9.74471E+01 1.04221E+00 1.43470E+01 2.56001E+00-5.09899E+00
 -1      2437-1.42282E+00 9.85361E+01 2.34866E-01 1.00161E+01-5.67071E-01-4.64730E+00
 -1      2438-1.82899E+00 3.57781E+01 6.96181E-01 1.60347E+01 2.40239E-01-4.64566E+00
 -1      2439-1.70893E+00-2.83971E+01 8.48836E-01 1.75064E+01 1.07288E+00-4.61952E+00
 -1      2440-1.22579E+00-9.46384E+01 5.33318E-01 1.25815E+01 2.25858E+00-4.50180E+00
 -1      2441-5.24174E-01 9.19447E+01 5.54034E-02 1.11357E+01-8.78930E-01-4.31149E+00
 -1      2442-5.76029E-01 3.15841E+01 3.20647E-01 1.68736E+01 4.90190E-02-4.29054E+00
 -1      2443-4.86537E-01-2.90140E+01 4.44731E-01 1.72880E+01 8.75969E-01-4.23798E+00
 -1      2444-3.46359E-01-9.00498E+01 3.71407E-01 1.17897E+01 1.95109E+00-4.15194E+00
 -1      2445-1.49799E-01 8.56225E+01-5.89442E-03 1.15270E+01-1.10077E+00-4.09334E+00
 -1      2446-1.21901E-01 2.86232E+01 1.10947E-01 1.71701E+01-1.24264E-01-4.09092E+00
 -1      2447-4.92277E-02-2.81742E+01 2.00793E-01 1.71834E+01 6.96188E-01-4.05775E+00
 -1      2448-9.67535E-03-8.48618E+01 2.33521E-01 1.15101E+01 1.71459E+00-3.99917E+00
 -1      2449-4.19811E-02 7.94762E+01-3.85803E-02 1.16373E+01-1.26386E+00-3.82814E+00
 -1      2450-4.62217E-05 2.62923E+01 1.47197E-02 1.72746E+01-2.54468E-01-3.83998E+00
 -1      2451 6.05973E-02-2.66423E+01 8.13083E-02 1.71916E+01 5.70545E-01-3.82422E+00
 -1      2452 8.49707E-02-7.93846E+01 1.42923E-01 1.14747E+01 1.58580E+00-3.78443E+00
 -1      2453-2.68504E-02 7.34954E+01-4.17692E-02 1.16813E+01-1.36867E+00-3.56478E+00
 -1      2454 8.81777E-03 2.42412E+01-1.99175E-02 1.73452E+01-3.40129E-01-3.58549E+00
 -1      2455 5.90437E-02-2.48251E+01 2.22139E-02 1.72680E+01 4.94989E-01-3.58010E+00
 -1      2456 8.53048E-02-7.37594E+01 7.08104E-02 1.15397E+01 1.51894E+00-3.54886E+00
 -1      2457-3.11891E-02 6.76412E+01-1.98631E-02 1.17137E+01-1.44274E+00-3.30500E+00
 -1      2458-5.70180E-03 2.23098E+01-2.30676E-02 1.74094E+01-3.95177E-01-3.32976E+00
 -1      2459 3.55307E-02-2.29008E+01-9.29824E-03 1.73577E+01 4.55527E-01-3.32908E+00
 -1      2460 6.15671E-02-6.80500E+01 8.68664E-03 1.16207E+01 1.49709E+00-3.30139E+00
 -1      2461-2.93996E-02 6.18930E+01 2.34903E-02 1.17536E+01-1.50838E+00-3.04555E+00
 -1      2462-1.36031E-02 2.04369E+01-9.23679E-03 1.74775E+01-4.33657E-01-3.07096E+00
 -1      2463 1.53082E-02-2.09489E+01-3.08974E-02 1.74463E+01 4.42372E-01-3.07190E+00
 -1      2464 3.63169E-02-6.23175E+01-5.10890E-02 1.16973E+01 1.51192E+00-3.04637E+00
 -1      2465-1.18995E-02 5.62688E+01 8.94992E-02 1.17991E+01-1.58456E+00-2.78360E+00
 -1      2466-7.94365E-03 1.86091E+01 1.56161E-02 1.75436E+01-4.67424E-01-2.80628E+00
 -1      2467 2.29597E-03-1.90141E+01-5.23810E-02 1.75259E+01 4.49978E-01-2.80761E+00
 -1      2468 1.14661E-02-5.66363E+01-1.18440E-01 1.17661E+01 1.56341E+00-2.78591E+00
 -1      2469 2.81279E-02 5.08304E+01 1.82361E-01 1.18348E+01-1.68838E+00-2.51772E+00
 -1      2470 1.50411E-02 1.68375E+01 4.97399E-02 1.75886E+01-5.05894E-01-2.53323E+00
 -1      2471-3.18746E-03-1.71401E+01-8.10318E-02 1.75844E+01 4.76470E-01-2.53467E+00
 -1      2472-1.54103E-02-5.11026E+01-2.03779E-01 1.18244E+01 1.65783E+00-2.52102E+00
 -1      2473 9.74024E-02 4.56804E+01 3.02632E-01 1.18329E+01-1.83203E+00-2.25039E+00
 -1      2474 6.28790E-02 1.51423E+01 9.14101E-02 1.75781E+01-5.55076E-01-2.25327E+00
 -1      2475 5.13775E-03-1.53851E+01-1.22951E-01 1.75998E+01 5.21123E-01-2.25476E+00
 -1      2476-4.04187E-02-4.58365E+01-3.12295E-01 1.18664E+01 1.80195E+00-2.25473E+00
 -1      2477 1.94170E-01 4.09361E+01 4.35764E-01 1.17504E+01-2.00907E+00-1.99269E+00
 -1      2478 1.45807E-01 1.35390E+01 1.35907E-01 1.74550E+01-6.11892E-01-1.98081E+00
 -1      2479 4.57130E-02-1.38340E+01-1.82521E-01 1.75350E+01 5.77034E-01-1.98161E+00
 -1      2480-4.12110E-02-4.09646E+01-4.34005E-01 1.18853E+01 1.98711E+00-1.99620E+00
 -1      2481 2.88112E-01 3.67235E+01 5.55288E-01 1.15728E+01-2.18661E+00-1.76474E+00
 -1      2482 2.65082E-01 1.20461E+01 1.82877E-01 1.71656E+01-6.66529E-01-1.74369E+00
 -1      2483 1.50156E-01-1.26276E+01-2.67740E-01 1.73660E+01 6.29004E-01-1.74111E+00
 -1      2484 3.42974E-02-3.66250E+01-5.48777E-01 1.19180E+01 2.17895E+00-1.75974E+00
 -1      2485 2.82747E-01 3.31633E+01 6.35684E-01 1.13202E+01-2.19913E+00-1.52037E+00
 -1      2486 3.25231E-01 1.06323E+01 1.95999E-01 1.66552E+01-6.84441E-01-1.53473E+00
 -1      2487 3.90295E-01-1.19188E+01-3.54294E-01 1.70635E+01 6.23662E-01-1.51614E+00
 -1      2488 2.70255E-01-3.29425E+01-6.22412E-01 1.20288E+01 2.21364E+00-1.47547E+00
 -1      2489 9.53570E-02 3.01374E+01 6.07955E-01 1.09769E+01-1.85969E+00-1.41845E+00
 -1      2490-6.39331E-02 8.66696E+00-4.14942E-02 1.60358E+01-6.75968E-01-1.66495E+00
 -1      2491 9.17456E-01-1.12513E+01-2.14940E-01 1.67496E+01 5.11879E-01-1.58856E+00
 -1      2492 5.63076E-01-2.97825E+01-6.16221E-01 1.21310E+01 1.89528E+00-1.26640E+00
 -1      2493 1.17594E+01 1.75826E+02 6.52795E+00 2.18761E+00-1.15824E+00-2.36343E-02
 -1      2494 1.27797E+01 1.69879E+02 6.89987E+00 3.35619E+00-1.85981E+00 2.82629E-03
 -1      2495 1.25001E+01 1.60253E+02 6.36982E+00 4.06515E+00-2.49644E+00-2.63965E-02
 -1      2496 1.17789E+01 1.49451E+02 5.73164E+00 4.02729E+00-3.06607E+00-6.84598E-02
 -1      2497 1.09536E+01 1.38651E+02 5.16513E+00 4.07033E+00-3.46854E+00-6.25482E-02
 -1      2498 1.01012E+01 1.28030E+02 4.68277E+00 4.06806E+00-3.73869E+00-5.16220E-02
 -1      2499 9.27185E+00 1.17632E+02 4.29190E+00 4.05992E+00-3.94642E+00-3.89065E-02
 -1      2500 8.47266E+00 1.07423E+02 3.97900E+00 4.05328E+00-4.14704E+00-2.30289E-02
 -1      2501 7.70310E+00 9.73921E+01 3.73716E+00 4.04558E+00-4.39219E+00-1.48842E-03
 -1      2502 6.96786E+00 8.75819E+01 3.56531E+00 4.03139E+00-4.73530E+00 2.78961E-02
 -1      2503 6.27899E+00 7.80995E+01 3.45213E+00 4.00584E+00-5.22723E+00 6.44763E-02
 -1      2504 5.65255E+00 6.91154E+01 3.33642E+00 3.98252E+00-5.89165E+00 9.71649E-02
 -1      2505 5.05715E+00 6.08868E+01 3.06307E+00 3.91242E+00-6.67760E+00 1.06913E-01
 -1      2506 4.17439E+00 5.29175E+01 2.02248E+00 4.18659E+00-7.15102E+00-2.70665E-02
 -1      2507 2.29819E+00 4.36470E+01-2.44944E-01 4.80025E+00-6.70381E+00-4.15132E-01
 -1      2508 1.16941E+01 1.73353E+02 7.43967E+00 1.67519E+00-1.13452E+00-8.51136E-02
 -1      2509 1.27206E+01 1.68391E+02 7.95914E+00 2.79523E+00-1.69806E+00-5.61728E-02
 -1      2510 1.24385E+01 1.59606E+02 7.23146E+00 3.67597E+00-2.28014E+00-4.91711E-02
 -1      2511 1.17203E+01 1.49270E+02 6.35336E+00 3.39786E+00-2.90544E+00-8.63878E-02
 -1      2512 1.09327E+01 1.38758E+02 5.62699E+00 3.42036E+00-3.38909E+00-7.93485E-02
 -1      2513 1.00875E+01 1.28185E+02 5.02894E+00 3.40220E+00-3.73462E+00-6.51084E-02
 -1      2514 9.24670E+00 1.17673E+02 4.57239E+00 3.38024E+00-4.00688E+00-4.77886E-02
 -1      2515 8.42441E+00 1.07227E+02 4.24424E+00 3.36374E+00-4.26761E+00-2.62757E-02
 -1      2516 7.61957E+00 9.68219E+01 4.03517E+00 3.35115E+00-4.58398E+00 3.07683E-03
 -1      2517 6.83542E+00 8.64554E+01 3.94970E+00 3.33950E+00-5.03769E+00 4.44151E-02
 -1      2518 6.08489E+00 7.61716E+01 3.99646E+00 3.32694E+00-5.73598E+00 9.99154E-02
 -1      2519 5.41471E+00 6.61305E+01 4.16667E+00 3.33476E+00-6.81402E+00 1.58200E-01
 -1      2520 4.92378E+00 5.70427E+01 4.47823E+00 3.24526E+00-8.42686E+00 1.84613E-01
 -1      2521 4.35485E+00 4.91051E+01 4.06887E+00 3.64305E+00-1.01262E+01-2.22072E-02
 -1      2522 2.72738E+00 4.03338E+01 1.68619E+00 4.25118E+00-1.11540E+01-8.16921E-01
 -1      2523 1.17290E+01 1.71922E+02 8.35232E+00 1.47362E+00-6.30790E-01-5.22513E-02
 -1      2524 1.27816E+01 1.67557E+02 9.00958E+00 2.53691E+00-8.99350E-01-3.87207E-02
 -1      2525 1.24655E+01 1.59201E+02 8.12124E+00 3.60561E+00-1.19343E+00-4.31879E-02
 -1      2526 1.17232E+01 1.49102E+02 7.02581E+00 3.11138E+00-1.56664E+00-1.01939E-01
 -1      2527 1.09590E+01 1.38796E+02 6.15442E+00 3.13152E+00-1.87004E+00-9.12387E-02
 -1      2528 1.01121E+01 1.28251E+02 5.43674E+00 3.10750E+00-2.09787E+00-7.63031E-02
 -1      2529 9.25750E+00 1.17638E+02 4.90674E+00 3.08042E+00-2.28176E+00-5.92794E-02
 -1      2530 8.41177E+00 1.06968E+02 4.55156E+00 3.06270E+00-2.45841E+00-3.90334E-02
 -1      2531 7.56825E+00 9.61891E+01 4.35883E+00 3.05448E+00-2.67418E+00-1.27996E-02
 -1      2532 6.71754E+00 8.52134E+01 4.33645E+00 3.05371E+00-2.99410E+00 2.29821E-02
 -1      2533 5.84454E+00 7.39098E+01 4.51206E+00 3.05454E+00-3.52255E+00 7.20271E-02
 -1      2534 4.97259E+00 6.21461E+01 4.95546E+00 3.06938E+00-4.44247E+00 1.29975E-01
 -1      2535 4.24533E+00 5.05654E+01 6.00112E+00 2.86267E+00-6.14187E+00 1.91628E-01
 -1      2536 3.75541E+00 3.99034E+01 7.12291E+00 2.98982E+00-8.67544E+00 6.29942E-02
 -1      2537 3.29413E+00 3.08018E+01 8.24343E+00 3.42989E+00-1.08106E+01-6.52437E-01
 -1      2538-1.68399E+01-1.80816E+02-6.33675E+00 6.13781E+00 6.16643E+00-6.19711E-02
 -1      2539-1.37366E+01-1.66554E+02-4.92948E+00 4.64072E+00 5.46158E+00-4.20813E-02
 -1      2540-1.22285E+01-1.56020E+02-4.52472E+00 4.34443E+00 4.83167E+00-6.28687E-02
 -1      2541-1.13174E+01-1.46414E+02-4.47802E+00 4.00294E+00 4.43192E+00-1.03505E-01
 -1      2542-1.06062E+01-1.36931E+02-4.41963E+00 3.99510E+00 4.20094E+00-9.74268E-02
 -1      2543-9.89788E+00-1.27227E+02-4.27714E+00 4.01384E+00 4.08734E+00-8.25932E-02
 -1      2544-9.16991E+00-1.17355E+02-4.08739E+00 4.03105E+00 4.07575E+00-6.38507E-02
 -1      2545-8.42933E+00-1.07411E+02-3.88598E+00 4.03934E+00 4.15881E+00-4.13861E-02
 -1      2546-7.69001E+00-9.75010E+01-3.70463E+00 4.03859E+00 4.34753E+00-1.35684E-02
 -1      2547-6.96572E+00-8.77338E+01-3.56662E+00 4.03065E+00 4.67124E+00 2.14619E-02
 -1      2548-6.26414E+00-7.82246E+01-3.47096E+00 4.02172E+00 5.16741E+00 6.27153E-02
 -1      2549-5.57649E+00-6.90684E+01-3.34964E+00 4.04339E+00 5.84970E+00 9.77425E-02
 -1      2550-4.82729E+00-6.03350E+01-3.02267E+00 4.07214E+00 6.65476E+00 1.04550E-01
 -1      2551-3.65902E+00-5.12338E+01-1.83594E+00 4.48690E+00 7.12819E+00-3.91300E-02
 -1      2552-1.62185E+00-4.01642E+01 5.64657E-01 5.21847E+00 6.66207E+00-4.35022E-01
 -1      2553-1.72061E+01-1.85280E+02-6.82143E+00 5.84417E+00 6.19333E+00-1.22649E-01
 -1      2554-1.40343E+01-1.69965E+02-4.88203E+00 4.11081E+00 5.66191E+00-7.85895E-02
 -1      2555-1.24391E+01-1.58341E+02-4.29331E+00 3.90520E+00 5.12647E+00-6.58773E-02
 -1      2556-1.14301E+01-1.47808E+02-4.28396E+00 3.32711E+00 4.71781E+00-9.89734E-02
 -1      2557-1.06913E+01-1.37765E+02-4.34863E+00 3.31881E+00 4.44359E+00-9.46014E-02
 -1      2558-9.94886E+00-1.27644E+02-4.30825E+00 3.33970E+00 4.28632E+00-8.06170E-02
 -1      2559-9.18261E+00-1.17421E+02-4.19582E+00 3.35278E+00 4.25055E+00-6.15885E-02
 -1      2560-8.40128E+00-1.07136E+02-4.06455E+00 3.35499E+00 4.33602E+00-3.70853E-02
 -1      2561-7.61548E+00-9.68198E+01-3.96375E+00 3.34982E+00 4.56141E+00-4.17561E-03
 -1      2562-6.83585E+00-8.65004E+01-3.93722E+00 3.34294E+00 4.97473E+00 4.07473E-02
 -1      2563-6.07088E+00-7.62105E+01-4.01281E+00 3.34331E+00 5.65891E+00 9.87261E-02
 -1      2564-5.34601E+00-6.60348E+01-4.17701E+00 3.38903E+00 6.72340E+00 1.54675E-01
 -1      2565-4.72335E+00-5.65303E+01-4.41831E+00 3.38754E+00 8.28240E+00 1.64804E-01
 -1      2566-3.92893E+00-4.76769E+01-3.83229E+00 3.91617E+00 9.84235E+00-7.94689E-02
 -1      2567-2.16601E+00-3.74714E+01-1.25104E+00 4.67683E+00 1.05680E+01-9.06452E-01
 -1      2568-1.75360E+01-1.88252E+02-7.48787E+00 5.81172E+00 3.49746E+00-5.43967E-02
 -1      2569-1.42791E+01-1.72554E+02-5.02471E+00 3.96519E+00 3.26342E+00-4.05175E-02
 -1      2570-1.26113E+01-1.60375E+02-4.16531E+00 3.87233E+00 3.00765E+00-4.68995E-02
 -1      2571-1.15402E+01-1.49201E+02-4.15223E+00 3.03724E+00 2.78700E+00-1.03008E-01
 -1      2572-1.07992E+01-1.38696E+02-4.33043E+00 3.01613E+00 2.61816E+00-9.57601E-02
 -1      2573-1.00322E+01-1.28168E+02-4.38398E+00 3.03667E+00 2.51026E+00-8.23828E-02
 -1      2574-9.23273E+00-1.17579E+02-4.34442E+00 3.05028E+00 2.47857E+00-6.55012E-02
 -1      2575-8.41246E+00-1.06924E+02-4.27607E+00 3.05472E+00 2.52785E+00-4.43457E-02
 -1      2576-7.57723E+00-9.61641E+01-4.24278E+00 3.05547E+00 2.67455E+00-1.65921E-02
 -1      2577-6.72557E+00-8.52148E+01-4.30644E+00 3.05950E+00 2.96021E+00 2.08878E-02
 -1      2578-5.84073E+00-7.39259E+01-4.52443E+00 3.07064E+00 3.46982E+00 7.06389E-02
 -1      2579-4.93462E+00-6.21198E+01-4.97066E+00 3.11375E+00 4.36258E+00 1.24288E-01
 -1      2580-4.13117E+00-5.03714E+01-5.95528E+00 2.96845E+00 5.98385E+00 1.64208E-01
 -1      2581-3.52586E+00-3.93428E+01-6.91749E+00 3.18427E+00 8.33032E+00-1.70110E-02
 -1      2582-2.96275E+00-2.96677E+01-7.78820E+00 3.67662E+00 1.01622E+01-8.22821E-01
 -1      2583 6.89905E-01 2.41297E+01 1.01864E-01 9.71562E+00-3.33546E+00-1.69865E+00
 -1      2584-7.51850E-01 5.56074E+00-3.43329E-01 1.35164E+01-1.15138E+00-2.14222E+00
 -1      2585-1.07632E-01-8.79310E+00 5.01003E-02 1.40741E+01 9.92703E-01-2.07406E+00
 -1      2586-1.28740E+00-2.34307E+01-3.20334E-01 1.07268E+01 3.15424E+00-1.60281E+00
 -1      2587 1.10636E+00 2.16495E+01 2.68500E+00 8.86420E+00-6.57410E+00-3.89523E+00
 -1      2588-5.54045E-01 4.48040E+00 7.13352E-03 1.28009E+01-1.95585E+00-4.89746E+00
 -1      2589-4.58537E-02-7.55483E+00-6.33863E-01 1.32534E+01 2.21347E+00-4.97361E+00
 -1      2590-1.44017E+00-2.09316E+01-2.68782E+00 9.90161E+00 6.27172E+00-4.01500E+00
 -1      2591 9.25423E-01 1.54727E+01 4.09875E+00 9.29547E+00-7.29837E+00-6.05351E+00
 -1      2592-2.05781E-01 3.01394E+00 1.65792E-01 1.29064E+01-1.80280E+00-7.70805E+00
 -1      2593-7.42915E-02-5.53077E+00-1.43992E+00 1.30094E+01 2.59134E+00-7.87181E+00
 -1      2594-1.14247E+00-1.55490E+01-4.33431E+00 9.89261E+00 7.05373E+00-6.34448E+00
 -1      2595-9.76712E+00-8.77258E+00-1.68496E+00 1.00626E+01 6.28473E-01-5.12632E-01
 -1      2596-1.94885E+01-3.07428E+00-1.96253E+00 1.25691E+01 2.29708E-01-4.04429E-01
 -1      2597-3.72365E+01-4.61689E-01-4.24644E+00 1.26499E+01-1.77905E-01 2.47829E-01
 -1      2598-7.12915E+01-6.53883E+00-1.06618E+01 9.62074E+00-4.57177E-01-2.39002E-02
 -1      2599-1.02433E+01-1.01157E+01-2.17850E+00 1.02251E+01 1.02929E+00-1.43790E+00
 -1      2600-2.09866E+01-4.48497E+00-2.52552E+00 1.27173E+01 4.00686E-01-1.95054E+00
 -1      2601-3.90122E+01-1.36197E+00-4.21133E+00 1.27478E+01-3.04882E-01-1.78957E+00
 -1      2602-7.14292E+01-6.97280E+00-1.22240E+01 9.55264E+00-8.06767E-01-1.34428E+00
 -1      2603-1.01656E+01-1.22753E+01-1.30888E+00 1.17162E+01 1.29560E+00-2.03730E+00
 -1      2604-2.09404E+01-5.48905E+00-2.08297E+00 1.45853E+01 4.49771E-01-3.06803E+00
 -1      2605-3.97047E+01-1.26376E+00-4.60066E+00 1.44420E+01-3.74135E-01-3.69835E+00
 -1      2606-7.19517E+01-4.37928E+00-1.10310E+01 1.06140E+01-1.16182E+00-3.56271E+00
 -1      2607-8.41492E+00-2.73427E+01-1.10756E+00 1.20498E+01 1.91292E+00-1.09337E+00
 -1      2608-8.57278E+00-2.94107E+01-2.04055E+00 1.22567E+01 3.69074E+00-2.65862E+00
 -1      2609-9.32227E+00-3.27249E+01-5.04114E+00 1.33913E+01 8.11099E+00-5.39522E+00
 -1      2610-4.62932E+00-2.89301E+01 1.12355E+00 1.11824E+01 2.98847E+00-1.49706E+00
 -1      2611-4.70464E+00-3.02178E+01-6.30778E-01 1.04969E+01 6.80832E+00-3.71311E+00
 -1      2612-5.86530E+00-2.98979E+01-8.01877E+00 1.02720E+01 1.04791E+01-5.97916E+00
 -1      2613 2.20572E+01 4.31066E+01 9.93454E+00 2.19849E+01-2.95870E+00-5.44585E-01
 -1      2614 2.42140E+01 4.64101E+01 1.35386E+01 2.08560E+01-4.02639E+00-2.21808E+00
 -1      2615 2.65092E+01 5.00286E+01 1.41607E+01 2.02285E+01-9.08797E+00-5.36350E+00
 -1      2616 3.85007E+00 3.84310E+01-7.53959E-01 1.18349E+01-3.27398E+00-1.69520E+00
 -1      2617 4.25049E+00 3.93584E+01 1.56995E+00 1.06278E+01-7.67793E+00-4.05148E+00
 -1      2618 5.86884E+00 3.72953E+01 9.87879E+00 1.02329E+01-1.19839E+01-5.86211E+00
 -1      2619-7.66226E+00-1.16665E+01 1.15466E-02 1.54097E+01 5.24237E-01-1.19604E+00
 -1      2620-9.90138E+00-2.22860E+00 1.50237E-01 1.98283E+01-1.51539E-01-1.20407E+00
 -1      2621-6.91008E+00 7.59343E+00 2.22648E+00 2.30966E+01-1.03398E+00-1.82621E+00
 -1      2622 6.29893E+00 2.02106E+01 4.44890E+00 2.18056E+01-2.66678E+00-2.58173E+00
 -1      2623-3.69361E+00-1.89023E+01 4.11507E-01 1.49416E+01 8.15468E-01-1.29493E+00
 -1      2624-2.41224E+00-6.80101E+00 4.18123E-01 1.86208E+01 7.81736E-03-1.56070E+00
 -1      2625 6.52117E-01 4.66603E+00 4.77885E-01 1.88951E+01-8.76075E-01-1.76062E+00
 -1      2626 8.51805E-01 1.49548E+01-1.69389E+00 1.59713E+01-1.40753E+00-1.96981E+00
 -1      2627-6.35636E+00-1.79411E+01-4.01774E+00 2.03112E+01 8.62661E+00-8.36017E+00
 -1      2628-5.51952E+00-5.39375E+00-9.10191E-01 2.43573E+01 3.55526E+00-1.04586E+01
 -1      2629-8.02217E-01 8.35177E+00 3.67635E+00 2.62836E+01-5.28193E-01-1.06911E+01
 -1      2630 1.31504E+01 2.47305E+01 9.18782E+00 2.41514E+01-6.69671E+00-8.13748E+00
 -1      2631 2.35961E+00-4.15745E+00-3.58232E+00 9.01310E+00 4.84226E+00-9.94464E+00
 -1      2632 9.20370E-01-1.95872E+00-1.16085E+00 1.05657E+01 2.27200E+00-1.20834E+01
 -1      2633-7.98929E-01 4.08359E-01 3.38678E-01 1.05703E+01-3.37890E-01-1.20914E+01
 -1      2634-3.91365E+00 1.28963E+00 2.75587E+00 9.25520E+00-3.97939E+00-9.76941E+00
 -1      2635 5.39986E-02 3.06226E+01 7.05341E-01-1.10389E+01-1.89497E+00 1.42687E+00
 -1      2636-1.40052E-01 8.99357E+00 1.23033E-02-1.59947E+01-6.65984E-01 1.69385E+00
 -1      2637 8.84940E-01-1.12915E+01-2.29043E-01-1.66465E+01 5.14406E-01 1.62696E+00
 -1      2638 5.46968E-01-3.01008E+01-6.68709E-01-1.21071E+01 1.90838E+00 1.29456E+00
 -1      2639 2.54244E-01 3.34006E+01 6.70422E-01-1.13493E+01-2.23913E+00 1.52424E+00
 -1      2640 2.95454E-01 1.08109E+01 2.22438E-01-1.66377E+01-6.93218E-01 1.54026E+00
 -1      2641 3.52704E-01-1.19102E+01-3.60612E-01-1.70184E+01 6.33909E-01 1.52418E+00
 -1      2642 2.52313E-01-3.30783E+01-6.47509E-01-1.20041E+01 2.24425E+00 1.48357E+00
 -1      2643 2.81220E-01 3.68686E+01 5.74867E-01-1.15742E+01-2.21128E+00 1.76556E+00
 -1      2644 2.51948E-01 1.21491E+01 1.94917E-01-1.71507E+01-6.72698E-01 1.74263E+00
 -1      2645 1.32219E-01-1.25940E+01-2.68562E-01-1.73374E+01 6.36128E-01 1.74030E+00
 -1      2646 1.78992E-02-3.66729E+01-5.64094E-01-1.18971E+01 2.20089E+00 1.76059E+00
 -1      2647 1.93564E-01 4.10326E+01 4.47184E-01-1.17426E+01-2.02081E+00 1.99224E+00
 -1      2648 1.42111E-01 1.36126E+01 1.42512E-01-1.74380E+01-6.15111E-01 1.97897E+00
 -1      2649 3.83262E-02-1.37909E+01-1.82526E-01-1.75137E+01 5.81346E-01 1.97962E+00
 -1      2650-4.94297E-02-4.09569E+01-4.42373E-01-1.18702E+01 1.99869E+00 1.99513E+00
 -1      2651 9.85874E-02 4.57528E+01 3.09514E-01-1.18212E+01-1.83543E+00 2.24997E+00
 -1      2652 6.28043E-02 1.52044E+01 9.54576E-02-1.75597E+01-5.55849E-01 2.25217E+00
 -1      2653 3.33647E-03-1.53337E+01-1.22034E-01-1.75806E+01 5.23024E-01 2.25350E+00
 -1      2654-4.32354E-02-4.57970E+01-3.15594E-01-1.18537E+01 1.80616E+00 2.25383E+00
 -1      2655 2.95008E-02 5.08920E+01 1.86816E-01-1.18211E+01-1.68700E+00 2.51753E+00
 -1      2656 1.61669E-02 1.68964E+01 5.27658E-02-1.75688E+01-5.05232E-01 2.53283E+00
 -1      2657-2.75956E-03-1.70830E+01-7.93633E-02-1.75650E+01 4.76793E-01 2.53417E+00
 -1      2658-1.55544E-02-5.10468E+01-2.03942E-01-1.18115E+01 1.65744E+00 2.52058E+00
 -1      2659-1.06790E-02 5.63266E+01 9.27873E-02-1.17843E+01-1.58073E+00 2.78353E+00
 -1      2660-6.60186E-03 1.86679E+01 1.83118E-02-1.75226E+01-4.66028E-01 2.80620E+00
 -1      2661 3.44113E-03-1.89534E+01-5.01399E-02-1.75054E+01 4.49381E-01 2.80748E+00
 -1      2662 1.23480E-02-5.65732E+01-1.16850E-01-1.17522E+01 1.56047E+00 2.78573E+00
 -1      2663-2.82809E-02 6.19503E+01 2.62680E-02-1.17383E+01-1.50347E+00 3.04547E+00
 -1      2664-1.22990E-02 2.04966E+01-6.57900E-03-1.74557E+01-4.31933E-01 3.07089E+00
 -1      2665 1.65738E-02-2.08863E+01-2.82676E-02-1.74248E+01 4.41317E-01 3.07180E+00
 -1      2666 3.74570E-02-6.22515E+01-4.85504E-02-1.16825E+01 1.50776E+00 3.04625E+00
 -1      2667-3.00115E-02 6.76992E+01-1.73054E-02-1.16984E+01-1.43748E+00 3.30478E+00
 -1      2668-4.39444E-03 2.23704E+01-2.03456E-02-1.73875E+01-3.93308E-01 3.32947E+00
 -1      2669 3.67527E-02-2.28374E+01-6.39696E-03-1.73360E+01 4.54341E-01 3.32877E+00
 -1      2670 6.26730E-02-6.79833E+01 1.18074E-02-1.16056E+01 1.49255E+00 3.30115E+00
 -1      2671-2.53975E-02 7.35543E+01-3.93050E-02-1.16669E+01-1.36346E+00 3.56429E+00
 -1      2672 1.03111E-02 2.43026E+01-1.70852E-02-1.73243E+01-3.38147E-01 3.58476E+00
 -1      2673 6.02514E-02-2.47614E+01 2.53489E-02-1.72469E+01 4.93936E-01 3.57934E+00
 -1      2674 8.62955E-02-7.36924E+01 7.44164E-02-1.15251E+01 1.51463E+00 3.54834E+00
 -1      2675-3.99553E-02 7.95364E+01-3.61278E-02-1.16247E+01-1.25886E+00 3.82718E+00
 -1      2676 1.94108E-03 2.63546E+01 1.77340E-02-1.72560E+01-2.52267E-01 3.83849E+00
 -1      2677 6.19141E-02-2.65785E+01 8.47115E-02-1.71727E+01 5.69878E-01 3.82264E+00
 -1      2678 8.58247E-02-7.93172E+01 1.47070E-01-1.14614E+01 1.58216E+00 3.78334E+00
 -1      2679-1.46808E-01 8.56852E+01-3.37107E-03-1.15176E+01-1.09597E+00 4.09159E+00
 -1      2680-1.18988E-01 2.86874E+01 1.14305E-01-1.71559E+01-1.21613E-01 4.08812E+00
 -1      2681-4.76680E-02-2.81103E+01 2.04545E-01-1.71686E+01 6.96171E-01 4.05474E+00
 -1      2682-9.06094E-03-8.47941E+01 2.38310E-01-1.14994E+01 1.71200E+00 3.99701E+00
 -1      2683-5.19868E-01 9.20127E+01 5.79352E-02-1.11314E+01-8.74154E-01 4.30835E+00
 -1      2684-5.71818E-01 3.16526E+01 3.24561E-01-1.68673E+01 5.24682E-02 4.28551E+00
 -1      2685-4.84803E-01-2.89500E+01 4.48889E-01-1.72808E+01 8.76867E-01 4.23248E+00
 -1      2686-3.46412E-01-8.99833E+01 3.76845E-01-1.17838E+01 1.94978E+00 4.14789E+00
 -1      2687-1.41666E+00 9.86167E+01 2.37933E-01-1.00205E+01-5.62090E-01 4.64171E+00
 -1      2688-1.82425E+00 3.58551E+01 7.00866E-01-1.60421E+01 2.44469E-01 4.63673E+00
 -1      2689-1.70739E+00-2.83323E+01 8.53676E-01-1.75137E+01 1.07460E+00 4.60982E+00
 -1      2690-1.22790E+00-9.45784E+01 5.38830E-01-1.25853E+01 2.25839E+00 4.49431E+00
 -1      2691-3.11104E+00 1.05811E+02 5.25099E-01-7.68678E+00-2.69022E-01 4.87464E+00
 -1      2692-4.54063E+00 4.19660E+01 1.14935E+00-1.43494E+01 4.04664E-01 4.98677E+00
 -1      2693-4.52422E+00-2.52873E+01 1.41045E+00-1.78557E+01 1.23420E+00 5.09933E+00
 -1      2694-2.95008E+00-9.74013E+01 1.04749E+00-1.43756E+01 2.56014E+00 5.08485E+00
 -1      2695 3.15830E+00 3.01589E+01 8.38594E+00-3.39283E+00-1.07304E+01 6.54279E-01
 -1      2696 3.71251E+00 3.95654E+01 7.26104E+00-2.98964E+00-8.67625E+00-7.23640E-02
 -1      2697 4.22349E+00 5.03975E+01 6.10178E+00-2.86139E+00-6.13775E+00-2.01176E-01
 -1      2698 4.96349E+00 6.20722E+01 5.01950E+00-3.06767E+00-4.42691E+00-1.36115E-01
 -1      2699 5.84067E+00 7.38836E+01 4.55117E+00-3.05253E+00-3.49733E+00-7.52951E-02
 -1      2700 6.71606E+00 8.52097E+01 4.35889E+00-3.05167E+00-2.96246E+00-2.42947E-02
 -1      2701 7.56759E+00 9.61956E+01 4.36999E+00-3.05245E+00-2.63913E+00 1.26611E-02
 -1      2702 8.41132E+00 1.06979E+02 4.55463E+00-3.06065E+00-2.42221E+00 3.95370E-02
 -1      2703 9.25700E+00 1.17651E+02 4.90325E+00-3.07826E+00-2.24610E+00 6.00986E-02
 -1      2704 1.01115E+01 1.28265E+02 5.42711E+00-3.10514E+00-2.06402E+00 7.72416E-02
 -1      2705 1.09584E+01 1.38811E+02 6.13819E+00-3.12878E+00-1.83909E+00 9.21458E-02
 -1      2706 1.17223E+01 1.49117E+02 7.00144E+00-3.10779E+00-1.53948E+00 1.02582E-01
 -1      2707 1.24624E+01 1.59211E+02 8.08475E+00-3.59958E+00-1.17016E+00 4.28923E-02
 -1      2708 1.27660E+01 1.67543E+02 8.95050E+00-2.52454E+00-8.76432E-01 3.59095E-02
 -1      2709 1.16959E+01 1.71858E+02 8.25648E+00-1.43859E+00-6.00692E-01 4.19044E-02
 -1      2710 2.62320E+00 4.00308E+01 1.84434E+00-4.34619E+00-1.14060E+01 8.26833E-01
 -1      2711 4.33011E+00 4.90386E+01 4.22093E+00-3.64294E+00-1.02832E+01 1.20739E-02
 -1      2712 4.92326E+00 5.70384E+01 4.58633E+00-3.24011E+00-8.51250E+00-1.95827E-01
 -1      2713 5.41529E+00 6.61471E+01 4.23110E+00-3.32841E+00-6.84733E+00-1.65349E-01
 -1      2714 6.08590E+00 7.61971E+01 4.03380E+00-3.32174E+00-5.73824E+00-1.03703E-01
 -1      2715 6.83614E+00 8.64834E+01 3.97025E+00-3.33529E+00-5.02277E+00-4.59709E-02
 -1      2716 7.61985E+00 9.68500E+01 4.04524E+00-3.34765E+00-4.56037E+00-3.36427E-03
 -1      2717 8.42424E+00 1.07254E+02 4.24738E+00-3.36063E+00-4.24038E+00 2.66293E-02
 -1      2718 9.24612E+00 1.17700E+02 4.57040E+00-3.37730E+00-3.97913E+00 4.84026E-02
 -1      2719 1.00866E+01 1.28210E+02 5.02250E+00-3.39932E+00-3.70840E+00 6.57463E-02
 -1      2720 1.09315E+01 1.38783E+02 5.61612E+00-3.41747E+00-3.36593E+00 7.98130E-02
 -1      2721 1.17186E+01 1.49293E+02 6.33741E+00-3.39490E+00-2.88652E+00 8.63634E-02
 -1      2722 1.24358E+01 1.59627E+02 7.20863E+00-3.67226E+00-2.26556E+00 4.79076E-02
 -1      2723 1.27113E+01 1.68404E+02 7.92364E+00-2.78937E+00-1.68648E+00 5.15269E-02
 -1      2724 1.16722E+01 1.73335E+02 7.37496E+00-1.65482E+00-1.11582E+00 7.24942E-02
 -1      2725 2.27148E+00 4.38475E+01-1.35302E-01-4.90821E+00-6.92703E+00 4.18652E-01
 -1      2726 4.17739E+00 5.31344E+01 2.11903E+00-4.19341E+00-7.30387E+00 2.09724E-02
 -1      2727 5.07804E+00 6.10657E+01 3.14131E+00-3.90629E+00-6.76483E+00-1.14056E-01
 -1      2728 5.66599E+00 6.92365E+01 3.38427E+00-3.97465E+00-5.93108E+00-1.01900E-01
 -1      2729 6.28680E+00 7.81829E+01 3.47945E+00-3.99912E+00-5.23766E+00-6.69054E-02
 -1      2730 6.97192E+00 8.76435E+01 3.57994E+00-4.02578E+00-4.72978E+00-2.87740E-02
 -1      2731 7.70490E+00 9.74421E+01 3.74421E+00-4.04073E+00-4.37863E+00 1.49708E-03
 -1      2732 8.47305E+00 1.07466E+02 3.98139E+00-4.04886E+00-4.13003E+00 2.34777E-02
 -1      2733 9.27131E+00 1.17672E+02 4.29115E+00-4.05577E+00-3.92869E+00 3.95235E-02
 -1      2734 1.01000E+01 1.28067E+02 4.67958E+00-4.06416E+00-3.72195E+00 5.22374E-02
 -1      2735 1.09517E+01 1.38687E+02 5.15971E+00-4.06682E+00-3.45402E+00 6.30218E-02
 -1      2736 1.17763E+01 1.49485E+02 5.72391E+00-4.02448E+00-3.05473E+00 6.85877E-02
 -1      2737 1.24965E+01 1.60286E+02 6.35935E+00-4.06328E+00-2.48897E+00 2.57372E-02
 -1      2738 1.27726E+01 1.69913E+02 6.88431E+00-3.35573E+00-1.85610E+00-5.37956E-03
 -1      2739 1.17466E+01 1.75858E+02 6.50154E+00-2.18226E+00-1.15134E+00 1.62741E-02
 -1      2740-2.88734E+00-2.91396E+01-7.97322E+00-3.62009E+00 1.01587E+01 8.05253E-01
 -1      2741-3.50013E+00-3.90195E+01-7.06250E+00-3.15651E+00 8.35458E+00-1.85069E-03
 -1      2742-4.11861E+00-5.01766E+01-6.05552E+00-2.95800E+00 5.98701E+00-1.77682E-01
 -1      2743-4.92636E+00-6.20033E+01-5.03269E+00-3.10937E+00 4.34879E+00-1.32030E-01
 -1      2744-5.83606E+00-7.38565E+01-4.56342E+00-3.06841E+00 3.44527E+00-7.50016E-02
 -1      2745-6.72321E+00-8.51709E+01-4.33030E+00-3.05771E+00 2.92931E+00-2.33415E-02
 -1      2746-7.57606E+00-9.61336E+01-4.25590E+00-3.05366E+00 2.64030E+00 1.51792E-02
 -1      2747-8.41177E+00-1.06900E+02-4.28078E+00-3.05278E+00 2.49240E+00 4.34801E-02
 -1      2748-9.23211E+00-1.17559E+02-4.34156E+00-3.04809E+00 2.44355E+00 6.48969E-02
 -1      2749-1.00313E+01-1.28149E+02-4.37313E+00-3.03400E+00 2.47705E+00 8.18515E-02
 -1      2750-1.07976E+01-1.38677E+02-4.30984E+00-3.01252E+00 2.58804E+00 9.51046E-02
 -1      2751-1.15368E+01-1.49179E+02-4.11837E+00-3.03175E+00 2.76106E+00 1.01870E-01
 -1      2752-1.26026E+01-1.60341E+02-4.11138E+00-3.86306E+00 2.98631E+00 4.43927E-02
 -1      2753-1.42569E+01-1.72487E+02-4.94125E+00-3.94842E+00 3.24253E+00 3.49816E-02
 -1      2754-1.74807E+01-1.88109E+02-7.35506E+00-5.79363E+00 3.46859E+00 3.99575E-02
 -1      2755-2.13270E+00-3.74215E+01-1.44965E+00-4.69603E+00 1.08583E+01 9.16535E-01
 -1      2756-3.94760E+00-4.76637E+01-3.99729E+00-3.88867E+00 1.00090E+01 6.70235E-02
 -1      2757-4.73621E+00-5.64894E+01-4.52554E+00-3.37061E+00 8.37117E+00-1.77097E-01
 -1      2758-5.34950E+00-6.59858E+01-4.23934E+00-3.37964E+00 6.75845E+00-1.62750E-01
 -1      2759-6.07124E+00-7.61648E+01-4.04923E+00-3.33785E+00 5.66318E+00-1.03430E-01
 -1      2760-6.83555E+00-8.64591E+01-3.95829E+00-3.33911E+00 4.96201E+00-4.33821E-02
 -1      2761-7.61508E+00-9.67813E+01-3.97495E+00-3.34666E+00 4.53982E+00 2.66708E-03
 -1      2762-8.40076E+00-1.07098E+02-4.06872E+00-3.35208E+00 4.31047E+00 3.61268E-02
 -1      2763-9.18183E+00-1.17384E+02-4.19416E+00-3.34989E+00 4.22424E+00 6.08377E-02
 -1      2764-9.94759E+00-1.27605E+02-4.30086E+00-3.33663E+00 4.26167E+00 7.98337E-02
 -1      2765-1.06892E+01-1.37724E+02-4.33462E+00-3.31533E+00 4.42265E+00 9.35103E-02
 -1      2766-1.14264E+01-1.47763E+02-4.26140E+00-3.32282E+00 4.70231E+00 9.70645E-02
 -1      2767-1.24320E+01-1.58287E+02-4.25852E+00-3.89925E+00 5.11705E+00 6.20319E-02
 -1      2768-1.40198E+01-1.69893E+02-4.82955E+00-4.10144E+00 5.65571E+00 7.04000E-02
 -1      2769-1.71694E+01-1.85165E+02-6.73284E+00-5.83534E+00 6.18022E+00 1.04993E-01
 -1      2770-1.63958E+00-4.05241E+01 4.65435E-01-5.26615E+00 6.84601E+00 4.45432E-01
 -1      2771-3.70723E+00-5.14677E+01-1.93721E+00-4.47279E+00 7.26627E+00 3.51648E-02
 -1      2772-4.85961E+00-6.04441E+01-3.09616E+00-4.05528E+00 6.73666E+00-1.11420E-01
 -1      2773-5.59230E+00-6.90959E+01-3.39429E+00-4.03260E+00 5.88887E+00-1.03039E-01
 -1      2774-6.27102E+00-7.82101E+01-3.49665E+00-4.01475E+00 5.17962E+00-6.60734E-02
 -1      2775-6.96863E+00-8.76993E+01-3.58094E+00-4.02551E+00 4.66797E+00-2.35052E-02
 -1      2776-7.69106E+00-9.74567E+01-3.71198E+00-4.03419E+00 4.33595E+00 1.22664E-02
 -1      2777-8.42933E+00-1.07361E+02-3.88872E+00-4.03521E+00 4.14334E+00 4.04469E-02
 -1      2778-9.16908E+00-1.17301E+02-4.08666E+00-4.02701E+00 4.05923E+00 6.30448E-02
 -1      2779-9.89618E+00-1.27170E+02-4.27326E+00-4.00988E+00 4.07186E+00 8.17541E-02
 -1      2780-1.06034E+01-1.36869E+02-4.41238E+00-3.99127E+00 4.18818E+00 9.63531E-02
 -1      2781-1.13130E+01-1.46346E+02-4.46673E+00-3.99945E+00 4.42334E+00 1.01835E-01
 -1      2782-1.22215E+01-1.55945E+02-4.50822E+00-4.34155E+00 4.82823E+00 5.98415E-02
 -1      2783-1.37258E+01-1.66470E+02-4.90560E+00-4.63903E+00 5.46222E+00 3.63078E-02
 -1      2784-1.68187E+01-1.80719E+02-6.29617E+00-6.13854E+00 6.16552E+00 4.92934E-02
 -1      2785 1.18552E+00 1.65517E+01 4.63312E+00-8.99294E+00-7.36151E+00 6.05449E+00
 -1      2786-2.69245E-01 3.75106E+00 4.26937E-01-1.18055E+01-1.85733E+00 7.57692E+00
 -1      2787-2.56735E-01-6.03365E+00-1.67498E+00-1.21760E+01 2.61502E+00 7.74190E+00
 -1      2788-1.20239E+00-1.62514E+01-4.68220E+00-9.38566E+00 7.18476E+00 6.28134E+00
 -1      2789 1.27122E+00 2.30426E+01 3.38721E+00-8.75043E+00-6.82886E+00 3.99612E+00
 -1      2790-5.15354E-01 5.36436E+00 3.44925E-01-1.20034E+01-1.95582E+00 5.05187E+00
 -1      2791-2.23244E-01-8.19731E+00-9.44906E-01-1.26627E+01 2.29882E+00 5.14736E+00
 -1      2792-1.60058E+00-2.21459E+01-3.27954E+00-9.59119E+00 6.51317E+00 4.14697E+00
 -1      2793 9.09715E-01 2.55841E+01 5.96011E-01-9.51592E+00-3.37510E+00 1.76927E+00
 -1      2794-6.96609E-01 6.36561E+00-1.36002E-01-1.28529E+01-1.10719E+00 2.26178E+00
 -1      2795-2.45770E-01-9.31322E+00-1.14234E-01-1.35691E+01 1.03665E+00 2.22344E+00
 -1      2796-1.37652E+00-2.44673E+01-5.88611E-01-1.04024E+01 3.24920E+00 1.71813E+00
 -1      2797-9.93049E+00-1.09402E+01-1.39639E+00-1.21622E+01 1.21651E+00 1.70293E+00
 -1      2798-2.05948E+01-4.50989E+00-2.00234E+00-1.51376E+01 4.12907E-01 2.64735E+00
 -1      2799-4.06957E+01-8.95280E-01-4.80873E+00-1.50773E+01-4.13010E-01 3.23246E+00
 -1      2800-7.77682E+01-5.80352E+00-1.22557E+01-1.21546E+01-1.19287E+00 3.08871E+00
 -1      2801-9.86603E+00-8.87212E+00-1.84962E+00-1.06591E+01 1.13132E+00 1.34816E+00
 -1      2802-2.06075E+01-3.55283E+00-2.28222E+00-1.32241E+01 4.16317E-01 1.82397E+00
 -1      2803-4.00768E+01-8.64630E-01-4.50603E+00-1.32607E+01-4.14500E-01 1.59528E+00
 -1      2804-7.75084E+01-8.10361E+00-1.42553E+01-1.09552E+01-1.05365E+00 1.11486E+00
 -1      2805-9.41452E+00-7.67698E+00-1.42578E+00-1.04527E+01 7.25775E-01 4.52227E-01
 -1      2806-1.90713E+01-2.18671E+00-1.72414E+00-1.30000E+01 2.63549E-01 3.17651E-01
 -1      2807-3.80016E+01 2.52046E-01-4.54417E+00-1.30132E+01-2.52699E-01-4.43010E-01
 -1      2808-7.73509E+01-7.24622E+00-1.26844E+01-1.08170E+01-6.84781E-01-2.76102E-01
 -1      2809-1.02193E+01-3.31784E+01-4.01474E+00-1.41560E+01 6.34727E+00 4.55826E+00
 -1      2810-9.49144E+00-2.87665E+01-2.80842E+00-1.25217E+01 2.92120E+00 2.32104E+00
 -1      2811-9.29723E+00-2.64986E+01-1.93122E+00-1.20303E+01 1.79133E+00 1.02731E+00
 -1      2812-8.18806E+00-3.49035E+01-7.94265E+00-1.29729E+01 1.06280E+01 6.32116E+00
 -1      2813-7.16705E+00-3.28692E+01-1.58880E+00-1.23929E+01 5.55981E+00 3.29471E+00
 -1      2814-7.32703E+00-3.13295E+01-5.52015E-01-1.25350E+01 2.44488E+00 1.26843E+00
 -1      2815-5.24382E+00-2.94251E+01-8.70839E+00-9.70376E+00 1.09001E+01 5.84306E+00
 -1      2816-3.72189E+00-3.01962E+01-6.16600E-01-9.75920E+00 7.71554E+00 3.88051E+00
 -1      2817-3.64830E+00-2.93723E+01 1.75589E+00-1.04366E+01 3.44483E+00 1.60259E+00
 -1      2818 2.46267E+01 4.94757E+01 1.30632E+01-2.63138E+01-6.40107E+00 4.60334E+00
 -1      2819 2.21298E+01 4.32576E+01 1.49475E+01-2.67556E+01-2.99279E+00 1.77248E+00
 -1      2820 1.95765E+01 3.91545E+01 1.16743E+01-2.80222E+01-3.27073E+00 5.46316E-01
 -1      2821 8.53012E+00 4.54301E+01 1.05861E+01-1.37287E+01-1.22435E+01 6.33968E+00
 -1      2822 6.62900E+00 4.42012E+01 3.32055E+00-1.35476E+01-6.34909E+00 3.73565E+00
 -1      2823 6.59406E+00 4.35907E+01 1.78858E+00-1.43494E+01-3.01498E+00 1.52071E+00
 -1      2824 6.51776E+00 3.53106E+01 1.08514E+01-1.01010E+01-1.24271E+01 5.78764E+00
 -1      2825 5.19381E+00 3.92901E+01 2.68542E+00-1.04208E+01-8.62057E+00 3.90994E+00
 -1      2826 4.69878E+00 3.85858E+01-6.30547E-01-1.13359E+01-3.44295E+00 1.62421E+00
 -1      2827-9.28839E+00-2.15634E+01-3.38515E+00-2.31283E+01 7.25981E+00 6.75584E+00
 -1      2828-9.03583E+00-6.46326E+00-7.06043E-01-2.77913E+01 2.99277E+00 8.72537E+00
 -1      2829-3.49984E+00 9.76477E+00 4.01059E+00-3.08610E+01-1.18479E-01 9.06603E+00
 -1      2830 1.27766E+01 2.94737E+01 9.69992E+00-2.92560E+01-4.56377E+00 6.81056E+00
 -1      2831-2.26236E+00-1.38858E+01-5.74960E+00-1.58472E+01 9.34678E+00 1.05501E+01
 -1      2832-1.47570E+00-5.20922E+00-1.75761E+00-1.87675E+01 3.89918E+00 1.28592E+01
 -1      2833 4.91660E-01 3.31721E+00 1.91753E+00-1.89945E+01-1.04556E+00 1.29766E+01
 -1      2834-5.14221E-01 9.49790E+00 4.77132E+00-1.70629E+01-8.34437E+00 1.04649E+01
 -1      2835 4.56070E+00 3.00945E-01-1.52843E+00-5.20224E+00 3.01257E+00 9.58823E+00
 -1      2836 1.92343E+00-6.28207E-01-5.57393E-01-6.12638E+00 1.53980E+00 1.13260E+01
 -1      2837-2.23377E+00-7.17331E-01-5.24433E-01-6.03208E+00-1.10234E-01 1.12059E+01
 -1      2838-4.93642E+00-1.23994E+00 1.11670E+00-4.98577E+00-2.65250E+00 9.46659E+00
 -1      2839-8.69784E+00-9.61092E+00-8.46613E-02-1.56940E+01 5.67271E-01 1.09397E+00
 -1      2840-1.27825E+01-8.84597E-01-5.94815E-02-2.03715E+01-1.56723E-01 8.74331E-01
 -1      2841-1.24163E+01 8.14468E+00 2.24803E+00-2.47104E+01-1.24575E+00 1.42959E+00
 -1      2842 1.94507E+00 2.01192E+01 5.77441E+00-2.50565E+01-3.52210E+00 2.45375E+00
 -1      2843-5.53103E+00-1.49453E+01 4.81200E-01-1.59177E+01 6.77022E-01 1.34023E+00
 -1      2844-5.50948E+00-4.50419E+00 4.86792E-01-2.04057E+01-1.11460E-01 1.54030E+00
 -1      2845-8.97618E-01 4.35507E+00 1.01031E+00-2.20232E+01-1.05074E+00 1.77921E+00
 -1      2846 2.14049E-01 9.90866E+00-1.69185E+00-1.96529E+01-1.74716E+00 2.21279E+00
 -1      2847-2.92933E+00-2.11890E+01 2.97043E-01-1.45312E+01 8.38732E-01 1.40422E+00
 -1      2848-1.38420E+00-8.21174E+00 2.15938E-01-1.81982E+01 2.60057E-02 1.77436E+00
 -1      2849-4.40944E-01 3.39373E+00-4.22096E-01-1.79078E+01-7.42140E-01 2.05915E+00
 -1      2850 8.58749E-01 1.90750E+01-1.47030E+00-1.37319E+01-1.34818E+00 2.00111E+00
 -1      2851 4.96796E+00 3.87010E+01-3.99761E-01 1.16803E+01 2.37498E+00 1.12175E+00
 -1      2852 4.68479E+00 3.90028E+01 6.66712E-02 1.07732E+01 6.42945E+00 2.96127E+00
 -1      2853 5.34296E+00 3.77864E+01 4.33097E+00 1.01882E+01 1.10227E+01 4.89605E+00
 -1      2854 5.32644E+00 3.01077E+01 1.08320E+01 9.20369E+00 1.29418E+01 6.43655E+00
 -1      2855 6.81510E+00 4.31582E+01 1.49670E+00 1.47251E+01 2.45028E+00 1.12085E+00
 -1      2856 6.61595E+00 4.33623E+01 2.73897E+00 1.39247E+01 4.59682E+00 2.69387E+00
 -1      2857 7.01703E+00 4.46602E+01 4.33036E+00 1.36709E+01 8.38797E+00 4.67009E+00
 -1      2858 7.93026E+00 4.22927E+01 1.05530E+01 1.35511E+01 1.39430E+01 7.18708E+00
 -1      2859 1.73278E+01 3.64010E+01 9.48709E+00 2.78598E+01 3.63230E+00 4.53748E-01
 -1      2860 1.94789E+01 3.90969E+01 1.36650E+01 2.64411E+01 3.41933E+00 1.15586E+00
 -1      2861 2.14610E+01 4.41026E+01 1.38398E+01 2.58137E+01 3.02638E+00 2.41208E+00
 -1      2862 2.30786E+01 4.82066E+01 1.12398E+01 2.60035E+01 7.63951E+00 5.21051E+00
 -1      2863-4.00184E+00-2.99361E+01 1.25246E+00 1.07891E+01-2.56647E+00 1.12833E+00
 -1      2864-3.55662E+00-3.00949E+01 1.33366E+00 1.00531E+01-5.88643E+00 2.82943E+00
 -1      2865-3.92981E+00-3.00674E+01-2.27195E+00 9.68240E+00-9.73949E+00 4.86135E+00
 -1      2866-4.36034E+00-2.57619E+01-9.04659E+00 8.93477E+00-1.14712E+01 6.45051E+00
 -1      2867-7.49971E+00-3.13653E+01-6.77240E-01 1.27243E+01-1.90025E+00 9.18241E-01
 -1      2868-7.21848E+00-3.22648E+01-1.12729E+00 1.24369E+01-3.98790E+00 2.27192E+00
 -1      2869-7.29950E+00-3.40766E+01-2.61249E+00 1.26689E+01-7.25281E+00 4.27146E+00
 -1      2870-7.78821E+00-3.34755E+01-8.40113E+00 1.29112E+01-1.19854E+01 7.15248E+00
 -1      2871-9.20677E+00-2.59774E+01-1.67082E+00 1.21167E+01-1.71417E+00 7.94693E-01
 -1      2872-9.26828E+00-2.73822E+01-2.62751E+00 1.22475E+01-2.47229E+00 1.69861E+00
 -1      2873-9.66536E+00-3.03125E+01-3.43167E+00 1.30683E+01-3.60129E+00 2.87811E+00
 -1      2874-1.01153E+01-3.37907E+01-3.98804E+00 1.48465E+01-7.34726E+00 5.00687E+00
 -1      2875 1.03498E+00 1.92797E+01-1.17297E+00 1.39013E+01 1.09721E+00 1.54206E+00
 -1      2876 5.80277E-01 1.01784E+01-1.23552E+00 1.96878E+01 1.31419E+00 1.84016E+00
 -1      2877 1.73363E+00 1.98753E+01 4.87012E+00 2.55852E+01 2.95239E+00 2.08704E+00
 -1      2878-3.43603E-01 3.64487E+00-2.65146E-01 1.80594E+01 5.55893E-01 1.61022E+00
 -1      2879-8.77364E-01 4.36617E+00 9.84889E-01 2.21681E+01 8.16514E-01 1.44526E+00
 -1      2880-1.16798E+01 8.46194E+00 2.31828E+00 2.51167E+01 1.09276E+00 1.27114E+00
 -1      2881-1.40663E+00-8.13781E+00 1.79459E-01 1.83196E+01-2.48609E-02 1.39015E+00
 -1      2882-5.41280E+00-4.45323E+00 5.05297E-01 2.05652E+01 8.28311E-02 1.26139E+00
 -1      2883-1.24681E+01-6.80886E-01-3.52114E-02 2.06791E+01 1.56675E-01 7.21928E-01
 -1      2884-3.00234E+00-2.12266E+01 1.41661E-01 1.46320E+01-6.80360E-01 1.08802E+00
 -1      2885-5.55463E+00-1.48604E+01 3.84623E-01 1.60376E+01-5.58866E-01 1.09397E+00
 -1      2886-8.70241E+00-9.51926E+00-1.16058E-01 1.59402E+01-4.39080E-01 9.20460E-01
 -1      2887-6.14255E+00-4.43165E+00 6.50288E-02 3.86121E+00 1.61227E+00 9.62995E+00
 -1      2888-7.14927E-01 8.17002E+00 5.18458E+00 1.63818E+01 8.46800E+00 1.10722E+01
 -1      2889 1.16943E+01 2.83356E+01 8.24165E+00 2.89185E+01 5.30918E+00 7.47665E+00
 -1      2890-2.54520E+00-1.60960E+00-9.46157E-01 4.95064E+00-4.33548E-02 1.13879E+01
 -1      2891 2.93336E-01 2.84301E+00 1.73432E+00 1.82032E+01 1.18708E+00 1.36848E+01
 -1      2892-3.23320E+00 9.59861E+00 3.55284E+00 3.06447E+01 3.75591E-01 9.59380E+00
 -1      2893 2.40672E+00 6.54617E-01-1.66372E-01 4.87534E+00-1.24623E+00 1.15257E+01
 -1      2894-1.26855E+00-4.63360E+00-1.92890E+00 1.80311E+01-3.90459E+00 1.35539E+01
 -1      2895-8.60411E+00-6.40363E+00-7.16032E-01 2.77394E+01-3.05999E+00 9.14115E+00
 -1      2896 5.73849E+00 3.34804E+00-6.59585E-01 3.95472E+00-1.98495E+00 9.77186E+00
 -1      2897-1.84451E+00-1.22012E+01-6.06420E+00 1.52603E+01-9.49029E+00 1.11260E+01
 -1      2898-8.99354E+00-2.13234E+01-3.19268E+00 2.31179E+01-7.64857E+00 7.20146E+00
 -1      2899-7.14280E+01-6.62638E+00-9.78286E+00 1.12439E+01 7.60720E-01-5.99967E-01
 -1      2900-7.17537E+01-8.31797E+00-1.25017E+01 1.12392E+01 1.05752E+00 4.02219E-01
 -1      2901-7.15589E+01-7.71470E+00-1.21189E+01 1.17426E+01 1.18076E+00 1.86866E+00
 -1      2902-7.09600E+01-4.49420E+00-9.59983E+00 1.29657E+01 1.12766E+00 3.49748E+00
 -1      2903-3.70364E+01-1.71346E-01-4.19115E+00 1.26190E+01 2.52105E-01-8.74103E-01
 -1      2904-3.86825E+01-1.48820E+00-4.33688E+00 1.24601E+01 3.74957E-01 4.86029E-01
 -1      2905-3.93047E+01-1.69726E+00-4.09184E+00 1.31917E+01 5.28687E-01 2.41743E+00
 -1      2906-3.91105E+01-1.34783E+00-4.31301E+00 1.49226E+01 3.62112E-01 3.14827E+00
 -1      2907-1.89018E+01-2.34134E+00-1.68545E+00 1.26808E+01-2.24972E-01-9.67312E-02
 -1      2908-2.01251E+01-3.49310E+00-2.12650E+00 1.24279E+01-3.56883E-01 9.53582E-01
 -1      2909-2.07698E+01-4.38294E+00-2.35023E+00 1.31364E+01-4.25040E-01 2.23140E+00
 -1      2910-2.03843E+01-5.08788E+00-1.98799E+00 1.49155E+01-3.41656E-01 2.26089E+00
 -1      2911-9.31254E+00-7.27774E+00-1.31170E+00 1.01316E+01-6.24384E-01 1.44706E-01
 -1      2912-9.73859E+00-8.11036E+00-1.69012E+00 9.95201E+00-1.02835E+00 8.05418E-01
 -1      2913-1.00303E+01-9.33406E+00-1.99376E+00 1.05012E+01-1.20868E+00 1.47044E+00
 -1      2914-1.01796E+01-1.14123E+01-1.62916E+00 1.19578E+01-1.11056E+00 1.30425E+00
 -1      2915-3.39937E-01-1.54594E-01 2.00706E-01-1.06112E-01 7.90002E-03 1.34836E-01
 -1      2916-1.99034E-01-3.42497E-01-2.46858E-01-2.93518E-01 7.89875E-01 2.72147E-01
 -1      2917 3.65923E-01-1.02234E+00-7.18083E-01-2.67811E-01 9.80460E-01 2.70217E-01
 -1      2918-1.08662E+00-2.45250E+00-7.95270E-01-3.11710E-01 9.83304E-01-5.43365E-02
 -1      2919-2.57582E+00-1.88073E+00-4.20749E-01 2.17716E+00 1.46493E-01-2.53391E-01
 -1      2920-3.70144E+00-1.59295E-01 4.00079E-01 1.75149E+00 1.03563E+00-2.39256E-01
 -1      2921-2.80833E+00 2.78778E+00 1.88210E+00-1.51229E-01 1.88698E+00 1.51745E-01
 -1      2922 8.90604E+00 7.79837E+00 4.84197E+00-1.49673E+00 1.45598E+00-4.25236E-01
 -1      2923-1.28810E+00-8.23927E-01-4.85223E-01 3.72418E-01-2.59555E-01-1.92017E-01
 -1      2924-1.34206E+00-1.04109E+00 2.80293E-01 1.97904E-01-3.13025E-01-3.99184E-04
 -1      2925-1.87326E-01-7.60370E-01 7.24398E-01-4.00662E-02-3.88997E-01 1.67808E-01
 -1      2926-1.34954E+00-2.84490E+00-6.16384E-01-6.19524E-01-2.27286E-01 3.50557E-01
 -1      2927-3.26999E+00-1.83120E+00-5.60881E-01 3.77465E+00-4.04118E-01-3.01535E-01
 -1      2928-7.41276E+00 8.01807E-01 2.80794E-01 4.01387E+00-3.54300E-01-1.12346E-01
 -1      2929-9.24562E+00 4.83160E+00 2.08493E+00 6.77853E-01-5.52926E-01 5.11974E-01
 -1      2930 1.94571E+00 1.06418E+01 4.47226E+00-2.67841E+00-1.05352E+00 1.19786E+00
 -1      2931 2.78410E-01 2.89440E+00 1.21093E+00 3.59705E-01-9.42123E-01 1.06633E-02
 -1      2932-3.92219E-01 1.88369E+00 4.66473E-02 1.73675E+00-1.07669E+00-2.95001E-01
 -1      2933 3.63296E-01 3.83669E+00 1.04924E+00 4.72168E-01-7.32691E-01-1.15327E-01
 -1      2934-3.13884E-01 2.49561E+00 5.18629E-01 1.97143E+00-7.95777E-01-2.01546E-01
 -1      2935 2.44778E-01 4.04141E+00 6.91085E-01 6.37604E-01-4.09161E-01-1.32365E-01
 -1      2936-4.80483E-01 2.55673E+00 4.90904E-01 2.16743E+00-7.95346E-01-1.27174E-01
 -1      2937 1.30447E-01 3.82586E+00 2.73537E-01 7.32300E-01-1.53619E-01-2.54595E-02
 -1      2938-5.76663E-01 2.54586E+00 3.40660E-02 2.38157E+00-7.00041E-01-5.95449E-02
 -1      2939-7.36454E-01 2.73991E+00 2.38038E-01 4.99392E-01-8.06676E-01-1.16648E-01
 -1      2940 1.78147E+01 1.41490E+01 8.23257E+00-4.80839E+00-4.11765E-01-3.58118E-01
 -1      2941-5.82515E-01 4.62616E+00 1.73352E-01 5.19061E-01-6.47672E-01 1.96301E-01
 -1      2942 1.67846E+01 1.56554E+01 1.03946E+01-6.11392E+00 3.00912E-01-5.72619E-01
 -1      2943-7.77642E-01 5.49078E+00 3.10663E-02 2.66944E-01-2.62319E-01 2.91151E-01
 -1      2944 1.56247E+01 1.52472E+01 1.06840E+01-7.19123E+00-2.74668E-01-6.40949E-01
 -1      2945-8.13661E-01 5.89573E+00-1.77149E-01-5.32160E-02-4.37014E-02 1.09539E-01
 -1      2946 1.39959E+01 1.46427E+01 7.70354E+00-8.17175E+00-6.00819E-01-4.56388E-01
 -1      2947-6.60357E-02 1.93261E-01 1.71531E-01-1.15838E-01-2.29065E-01 1.60053E-01
 -1      2948-1.72983E-02-6.55217E-01-4.16505E-01-2.82321E-01 3.09365E-01 2.14897E-01
 -1      2949-1.14186E-01-1.40018E+00-8.51490E-01-2.95592E-01 5.27806E-01 6.07215E-02
 -1      2950-8.72314E-02-3.83011E-01-3.93633E-01 3.02100E-01 1.55343E-02-1.20909E-01
 -1      2951-2.71873E-01 3.70756E-01 1.89617E-01-3.17513E-01-2.67732E-01 9.72573E-02
 -1      2952-1.73188E-01-9.39118E-01-1.66862E-01-4.47586E-01 1.63717E-01 1.24468E-01
 -1      2953-1.96736E-01-1.80517E+00-5.80817E-01-1.27230E-01 2.84985E-01 1.51869E-03
 -1      2954 1.40544E-01 1.40377E-01-7.99545E-02 5.83177E-01-6.36015E-02-9.17679E-02
 -1      2955-3.32187E-01 5.35826E-01 1.19654E-01-3.70231E-01-2.53340E-01-3.96422E-02
 -1      2956-3.11194E-01-1.07008E+00-7.28330E-04-4.31469E-01-6.67217E-02-8.70752E-03
 -1      2957-4.40371E-01-1.92988E+00-3.72593E-01 8.41062E-02-2.28911E-02-1.15958E-03
 -1      2958-1.31669E-01 3.41268E-01-2.01811E-01 7.03199E-01-1.74062E-01 1.05479E-02
 -1      2959-2.86802E-01 4.50675E-01 9.92184E-03-3.21945E-01-1.31683E-01-6.03717E-02
 -1      2960-2.73055E-01-1.15511E+00 2.18802E-02-3.47452E-01-1.24505E-01-3.19269E-02
 -1      2961-4.61786E-01-1.91857E+00-2.51165E-01 2.26693E-01-1.03011E-01 4.14121E-02
 -1      2962-2.45531E-01 2.67319E-01-2.74465E-01 6.72420E-01-5.23797E-02 4.32977E-02
 -1      2963 1.04456E+00 1.92760E+01-1.18511E+00-1.38223E+01 1.11594E+00-1.56525E+00
 -1      2964-3.15004E-01 3.46264E+00-2.64845E-01-1.80528E+01 5.82607E-01-1.62096E+00
 -1      2965-1.36906E+00-8.25583E+00 2.03530E-01-1.83484E+01-1.25052E-02-1.38768E+00
 -1      2966-3.02368E+00-2.13965E+01 1.33275E-01-1.46573E+01-6.72748E-01-1.08396E+00
 -1      2967 5.23516E-01 9.95452E+00-1.31960E+00-1.97328E+01 1.37452E+00-1.87200E+00
 -1      2968-8.19004E-01 4.35040E+00 1.05615E+00-2.21838E+01 8.43337E-01-1.45596E+00
 -1      2969-5.49016E+00-4.49445E+00 5.32770E-01-2.05550E+01 8.77122E-02-1.25816E+00
 -1      2970-5.61867E+00-1.50175E+01 3.77997E-01-1.60120E+01-5.49814E-01-1.08908E+00
 -1      2971 1.83707E+00 1.99438E+01 5.25710E+00-2.53182E+01 2.88344E+00-2.22499E+00
 -1      2972-1.23020E+01 8.28125E+00 2.34541E+00-2.49549E+01 9.79842E-01-1.25785E+00
 -1      2973-1.28163E+01-8.70348E-01-9.74341E-02-2.05478E+01 1.17837E-01-7.01230E-01
 -1      2974-8.77161E+00-9.59815E+00-1.13305E-01-1.58221E+01-4.26949E-01-9.17202E-01
 -1      2975-5.93614E+00-3.97139E+00 3.78113E-01-3.91669E+00 1.69991E+00-9.69220E+00
 -1      2976-2.45228E+00-1.35827E+00-7.99774E-01-4.88067E+00-6.85592E-02-1.15218E+01
 -1      2977 2.28247E+00 4.27575E-01-3.13483E-01-4.91258E+00-1.25134E+00-1.16692E+01
 -1      2978 5.56070E+00 3.04736E+00-8.70657E-01-4.00923E+00-2.04692E+00-9.86147E+00
 -1      2979-7.75439E-01 8.11684E+00 5.19392E+00-1.65640E+01 8.48370E+00-1.11470E+01
 -1      2980 3.68481E-01 2.89626E+00 1.78157E+00-1.83737E+01 1.12552E+00-1.38334E+01
 -1      2981-1.33510E+00-4.68568E+00-1.95378E+00-1.81948E+01-3.95776E+00-1.36945E+01
 -1      2982-1.92929E+00-1.23398E+01-6.13450E+00-1.53720E+01-9.54736E+00-1.12204E+01
 -1      2983 1.24214E+01 2.85900E+01 8.72571E+00-2.90452E+01 5.25436E+00-7.47538E+00
 -1      2984-3.56477E+00 9.50190E+00 3.71369E+00-3.07436E+01 3.53572E-01-9.65591E+00
 -1      2985-8.99763E+00-6.47499E+00-7.42707E-01-2.77400E+01-3.05684E+00-9.17374E+00
 -1      2986-9.25182E+00-2.12976E+01-3.27349E+00-2.30463E+01-7.66935E+00-7.19874E+00
 -1      2987 5.05002E+00 3.90566E+01-3.63269E-01-1.16946E+01 2.34799E+00-1.13078E+00
 -1      2988 6.84057E+00 4.37656E+01 1.53184E+00-1.46786E+01 2.42472E+00-1.15155E+00
 -1      2989 1.90278E+01 3.87550E+01 1.04477E+01-2.86996E+01 3.59346E+00-3.97176E-01
 -1      2990 4.77124E+00 3.93736E+01 1.21678E-01-1.07885E+01 6.43767E+00-2.97865E+00
 -1      2991 6.62052E+00 4.38838E+01 2.79090E+00-1.38558E+01 4.57793E+00-2.73246E+00
 -1      2992 2.13862E+01 4.14056E+01 1.49614E+01-2.72517E+01 3.37526E+00-1.11423E+00
 -1      2993 5.43538E+00 3.81306E+01 4.43381E+00-1.02196E+01 1.10918E+01-4.92285E+00
 -1      2994 7.01087E+00 4.51329E+01 4.37806E+00-1.36056E+01 8.41730E+00-4.71136E+00
 -1      2995 2.34256E+01 4.63323E+01 1.50957E+01-2.65726E+01 2.97521E+00-2.38376E+00
 -1      2996 5.39653E+00 3.03425E+01 1.09415E+01-9.28022E+00 1.30663E+01-6.48461E+00
 -1      2997 7.94472E+00 4.27195E+01 1.06932E+01-1.35335E+01 1.40551E+01-7.20844E+00
 -1      2998 2.50325E+01 5.02369E+01 1.21562E+01-2.66853E+01 7.68651E+00-5.21350E+00
 -1      2999-4.01259E+00-2.99984E+01 1.27410E+00-1.08158E+01-2.55714E+00-1.13118E+00
 -1      3000-7.52785E+00-3.14521E+01-6.47150E-01-1.27395E+01-1.86784E+00-9.17628E-01
 -1      3001-9.34126E+00-2.62836E+01-1.68493E+00-1.21367E+01-1.62190E+00-7.93611E-01
 -1      3002-3.56979E+00-3.01359E+01 1.36632E+00-1.00792E+01-5.88674E+00-2.84077E+00
 -1      3003-7.26139E+00-3.23475E+01-1.10033E+00-1.24565E+01-3.97351E+00-2.27843E+00
 -1      3004-9.41375E+00-2.76789E+01-2.59960E+00-1.22709E+01-2.38629E+00-1.70332E+00
 -1      3005-3.93761E+00-3.00936E+01-2.24215E+00-9.70517E+00-9.76245E+00-4.89735E+00
 -1      3006-7.34869E+00-3.41333E+01-2.61545E+00-1.26856E+01-7.26374E+00-4.29041E+00
 -1      3007-9.83830E+00-3.05987E+01-3.43158E+00-1.30921E+01-3.57752E+00-2.89812E+00
 -1      3008-4.38033E+00-2.58130E+01-9.04104E+00-8.97936E+00-1.15347E+01-6.51836E+00
 -1      3009-7.83802E+00-3.35074E+01-8.44103E+00-1.29296E+01-1.20225E+01-7.19732E+00
 -1      3010-1.03644E+01-3.41103E+01-4.14431E+00-1.48740E+01-7.36719E+00-5.01007E+00
 -1      3011-7.69923E+01-6.10942E+00-1.14478E+01-1.09615E+01 5.85763E-01 7.79095E-01
 -1      3012-3.74653E+01 8.39314E-01-4.39155E+00-1.32406E+01 2.25725E-01 8.69311E-01
 -1      3013-1.87574E+01-1.84584E+00-1.59372E+00-1.32374E+01-2.32946E-01-3.44841E-02
 -1      3014-9.32091E+00-7.50750E+00-1.31539E+00-1.06505E+01-6.44234E-01-2.62131E-01
 -1      3015-7.75403E+01-8.05229E+00-1.43181E+01-1.08254E+01 1.00852E+00-3.22521E-01
 -1      3016-3.94212E+01-5.60428E-01-4.48036E+00-1.30562E+01 3.44920E-01-5.39490E-01
 -1      3017-2.00715E+01-3.04703E+00-2.04080E+00-1.30184E+01-3.64850E-01-1.10388E+00
 -1      3018-9.72088E+00-8.36778E+00-1.70732E+00-1.04946E+01-1.02471E+00-9.46522E-01
 -1      3019-7.75375E+01-7.66363E+00-1.38082E+01-1.12984E+01 1.07790E+00-1.93349E+00
 -1      3020-4.02755E+01-8.61490E-01-4.26233E+00-1.37965E+01 4.55245E-01-2.54995E+00
 -1      3021-2.08024E+01-3.97538E+00-2.30561E+00-1.37817E+01-4.57108E-01-2.42291E+00
 -1      3022-9.99972E+00-9.60600E+00-2.01185E+00-1.10977E+01-1.21635E+00-1.65741E+00
 -1      3023-7.71504E+01-4.50026E+00-1.09554E+01-1.25658E+01 1.19852E+00-3.65484E+00
 -1      3024-4.02613E+01-5.65421E-01-4.57520E+00-1.56479E+01 3.79456E-01-3.44323E+00
 -1      3025-2.04787E+01-4.70863E+00-1.95097E+00-1.57175E+01-3.91044E-01-2.62308E+00
 -1      3026-1.00882E+01-1.16774E+01-1.49891E+00-1.26836E+01-1.19524E+00-1.63818E+00
 -1      3027 2.22182E-01 3.52545E+00 3.97391E-01-4.49934E-01 9.59070E-02-3.61118E-02
 -1      3028 3.53509E-01 3.52879E+00 8.27312E-01-3.56375E-01 5.21795E-01-5.54572E-02
 -1      3029 4.04478E-01 2.60307E+00 1.08935E+00-1.95613E-01 7.82142E-01-9.24121E-03
 -1      3030 1.18601E-01 4.75840E+00 5.39373E-01-1.21249E+00 2.36021E-01-4.26288E-02
 -1      3031 2.93687E-01 4.80487E+00 9.39149E-01-1.04064E+00 5.40763E-01-1.51680E-01
 -1      3032 3.90122E-01 4.30262E+00 1.27109E+00-8.26816E-01 1.03231E+00-5.97699E-02
 -1      3033-8.35787E-01 2.05718E+00 4.17315E-01-3.03293E+00 7.97960E-01-6.36048E-02
 -1      3034-7.41957E-01 1.92265E+00 6.11446E-01-2.83720E+00 6.86582E-01-1.09018E-01
 -1      3035-5.88897E-01 1.70380E+00 4.89764E-03-2.67019E+00 7.39081E-01-3.08368E-01
 -1      3036 8.62189E-01 5.82397E+00 7.58915E-01 4.87152E-01-5.20133E-02 3.87821E-03
 -1      3037 1.13885E+00 5.51119E+00 1.26530E+00 3.01013E-01 4.52493E-01 5.87432E-03
 -1      3038 8.54050E-01 3.16966E+00 1.07501E+00 1.65054E-01 7.48720E-01-6.52214E-02
 -1      3039-7.24433E-01 8.00300E+00 7.02756E-01 6.68631E-01 3.39695E-01 2.00017E-01
 -1      3040-6.66152E-01 6.84551E+00 9.10509E-01 1.64043E-01 3.95769E-01 3.18493E-01
 -1      3041-8.79887E-02 5.82668E+00 1.25181E+00-1.37843E-01 7.01145E-01 3.27560E-03
 -1      3042 1.15313E+01 1.29121E+01 9.57327E+00 1.30267E+01 5.50444E-01-4.61108E-01
 -1      3043 1.34806E+01 1.38784E+01 1.13002E+01 1.14247E+01-2.66125E-01-6.60031E-01
 -1      3044 1.51420E+01 1.42257E+01 9.17525E+00 9.57911E+00-3.74114E-01-3.52944E-01
 -1      3045-9.07697E-01-3.05823E-01-3.54364E-01 2.07997E-01 1.94049E-01-2.23516E-01
 -1      3046-2.39763E+00-1.48964E+00-7.57223E-01-1.32537E+00 4.17876E-01-3.04768E-01
 -1      3047-4.28979E+00-2.50031E+00-5.92087E-01-5.24180E+00 6.12376E-01-4.03467E-01
 -1      3048-8.28439E-01-1.72619E+00-5.61408E-03 2.85684E-01 3.58845E-01-9.58835E-02
 -1      3049-3.72464E+00-6.43547E-01 2.54993E-01-1.08791E+00 4.84398E-01-2.34023E-02
 -1      3050-1.02400E+01 1.14153E+00 1.24841E-01-5.75331E+00 5.30995E-01-3.07510E-01
 -1      3051-9.12992E-01-2.92784E+00-2.03692E-01-3.32127E-02 3.93051E-01 1.88560E-01
 -1      3052-2.52026E+00 6.66465E-01 1.22294E+00 4.84346E-01 6.93233E-01 2.53256E-01
 -1      3053-1.49021E+01 6.13589E+00 1.97303E+00-1.40340E+00 9.25400E-01 2.81646E-01
 -1      3054-1.11687E+00-1.55843E+00-8.34439E-01-6.28537E-01 3.29775E-01 3.75461E-01
 -1      3055-2.92472E+00-3.49672E+00-6.26361E-01 2.37688E+00 6.32877E-01 5.66875E-01
 -1      3056-2.29952E+00 1.32639E+01 6.15537E+00 4.10560E+00 2.12023E+00 1.20113E+00
 -1      3057-1.12092E-01-6.90566E-02 1.77234E-01 1.56451E-01 6.01448E-03 4.83659E-02
 -1      3058-1.04137E+00-6.13702E-01 2.17731E-02-1.55155E-01 1.84141E-02-9.57320E-03
 -1      3059-3.72545E+00-3.40374E+00-5.24299E-01-3.98864E+00-2.22415E-01-1.45304E-01
 -1      3060-4.41495E-02-3.70492E-01-2.95964E-01 2.27603E-01-5.89327E-01 1.51946E-01
 -1      3061-1.05281E+00-9.03873E-01 8.33527E-02 3.00765E-01-1.13693E+00 1.14867E-01
 -1      3062-6.31903E+00-6.74779E-01 5.63792E-01-3.88480E+00-9.68155E-01-7.12431E-02
 -1      3063-2.84323E-01-1.04702E+00-7.40276E-01 1.21730E-01-7.90993E-01 3.99874E-02
 -1      3064 5.32074E-02-1.06996E+00 1.01233E-01 5.63416E-01-1.69531E+00 2.22788E-01
 -1      3065-6.60736E+00 3.71106E+00 2.63474E+00-6.22606E-01-1.95030E+00 2.83406E-01
 -1      3066-2.79664E-01-9.16099E-01-5.44213E-01-7.76514E-02-3.24745E-01-7.76301E-02
 -1      3067-1.92836E+00-4.33917E+00-1.10903E+00 1.07967E+00-1.05016E+00-6.08805E-02
 -1      3068 7.30365E+00 1.08607E+01 6.98803E+00 2.30023E+00-2.23815E+00-2.44743E-01
 -1      3069-2.47100E-01 5.74166E-01 8.11129E-02 3.59859E-01 1.25046E-01-3.44666E-02
 -1      3070-2.38948E-01 5.09060E-01 1.81388E-01 3.72970E-01 2.29793E-01 6.24215E-02
 -1      3071-4.38403E-02 2.98275E-01 2.12596E-01 1.96808E-01 1.92049E-01 1.13818E-01
 -1      3072-4.27782E-01-1.22478E+00-3.81813E-02 3.81541E-01 7.89692E-02-1.16630E-02
 -1      3073-3.67729E-01-1.18183E+00-1.72427E-01 4.55694E-01-1.00019E-01 7.76514E-02
 -1      3074-2.23683E-01-9.23067E-01-4.32323E-01 3.34053E-01-3.05632E-01 1.45852E-01
 -1      3075-4.84522E-01-1.61448E+00-1.71338E-01-3.38626E-01 5.66900E-02 2.36322E-02
 -1      3076-3.51191E-01-1.61269E+00-3.50169E-01-1.97113E-01-1.86370E-01-1.54636E-02
 -1      3077-2.83509E-01-1.35843E+00-7.17688E-01-3.17306E-02-4.38119E-01-1.46384E-02
 -1      3078-1.83097E-01 6.11056E-01-3.22259E-02-5.33246E-01 7.31353E-02 2.18021E-02
 -1      3079-7.78702E-02 3.12739E-01-2.55219E-02-4.75330E-01 1.43430E-01-7.89548E-02
 -1      3080 1.61290E-02-8.46604E-02-2.04222E-01-2.12333E-01-8.53526E-03-1.11830E-01
 -1      3081 4.22427E-03 5.47097E-03 1.00480E-01 1.21634E-02 6.80627E-03-1.33855E-02
 -1      3082 9.69636E-03-1.18789E-02 8.71743E-02 1.26539E-02 7.22536E-03-2.03056E-02
 -1      3083 1.37649E-02-1.25826E-02 7.80434E-02 5.21384E-03 8.91181E-03-2.08204E-02
 -1      3084 1.23002E-02 2.86905E-03 6.28706E-02 9.03146E-04 1.06741E-02-1.38529E-02
 -1      3085 9.65665E-03 1.00436E-02 6.38565E-02 9.73286E-03 7.83002E-03-2.19628E-02
 -1      3086 1.15211E-02-1.43206E-02 5.00455E-02 7.76259E-03 9.63516E-03-3.31057E-02
 -1      3087 1.25708E-02-1.35122E-02 4.26393E-02-1.75044E-03 1.25872E-02-3.33790E-02
 -1      3088 1.14180E-02 1.08159E-02 3.55724E-02-4.78814E-03 1.44763E-02-2.13927E-02
 -1      3089 1.95151E-02 9.54097E-03 2.91196E-02 6.37468E-03 4.34712E-03-1.80137E-02
 -1      3090 2.03874E-02-1.86640E-02 1.50455E-02 7.67707E-04 6.94828E-03-2.82799E-02
 -1      3091 1.48835E-02-1.52191E-02 9.95708E-03-1.15055E-02 9.95635E-03-2.91620E-02
 -1      3092 9.71509E-03 1.72108E-02 1.20650E-02-1.26341E-02 1.08364E-02-1.81792E-02
 -1      3093 1.35233E-01 5.44387E-01 3.73429E-01 1.06001E-01 2.64591E-01 6.51919E-02
 -1      3094 2.15975E-01 1.17463E+00 3.06953E-01 1.51782E-01 2.63261E-01 3.77930E-02
 -1      3095 2.71624E-01 1.39659E+00 2.11855E-01 1.45054E-01 7.42615E-02 1.00743E-02
 -1      3096 9.97563E-02 2.71138E-01 2.12934E-01 7.82015E-02 1.26601E-01 2.06641E-02
 -1      3097 1.72239E-01 5.75014E-01 1.90468E-01 1.02384E-01 1.19177E-01 1.52176E-02
 -1      3098 2.13588E-01 6.69893E-01 1.29881E-01 1.07640E-01 3.33107E-02 2.74689E-03
 -1      3099 4.30494E-02 9.41179E-02 1.23831E-01 4.16635E-02 4.86824E-02 1.80576E-03
 -1      3100 7.32783E-02 1.95173E-01 9.41546E-02 4.87226E-02 4.85523E-02-7.08010E-04
 -1      3101 9.35293E-02 2.22236E-01 5.58375E-02 4.96540E-02 1.18807E-02-2.76463E-03
 -1      3102 1.75700E-02 2.18706E-02 1.05478E-01 1.70484E-02 1.74174E-02-3.36136E-03
 -1      3103 2.63913E-02 4.76389E-02 6.82197E-02 1.67203E-02 1.64127E-02-5.85912E-03
 -1      3104 3.41962E-02 5.06744E-02 3.14730E-02 1.54161E-02 3.57354E-03-4.95183E-03
 -1      3105 1.32118E-01 3.70234E-01 6.39288E-02-1.08666E-01 2.47498E-01-8.25700E-02
 -1      3106 2.73180E-01 1.21857E+00 1.13996E-01-1.72679E-01 2.58296E-01-5.01503E-02
 -1      3107 3.56746E-01 1.75122E+00 1.44615E-01-1.88281E-01 3.69135E-02-1.68644E-02
 -1      3108 7.94531E-02 1.38746E-01-1.49236E-02-5.94801E-02 1.24735E-01-3.11451E-02
 -1      3109 1.67210E-01 5.45771E-01 3.90268E-02-1.00977E-01 1.15964E-01-3.11397E-02
 -1      3110 2.24388E-01 7.90563E-01 6.58196E-02-1.31683E-01 1.65913E-02-1.27930E-02
 -1      3111 2.53756E-02 2.53862E-02-4.65839E-02-2.64864E-02 5.24094E-02-1.10913E-02
 -1      3112 6.34783E-02 1.72708E-01-1.49587E-02-4.41355E-02 5.37575E-02-1.28529E-02
 -1      3113 8.73340E-02 2.60763E-01 8.85713E-03-6.32399E-02 1.10818E-02-6.49507E-03
 -1      3114 3.14526E-03-4.45999E-03-3.04712E-02-9.60081E-03 2.32306E-02-6.07926E-03
 -1      3115 1.78808E-02 3.73180E-02-1.44508E-02-1.44372E-02 2.56363E-02-8.30485E-03
 -1      3116 2.82447E-02 5.98501E-02-4.28028E-04-2.17585E-02 9.57241E-03-5.43731E-03
 -1      3117 5.60557E-02-8.53190E-02 1.29181E-01 8.73023E-02 3.40774E-03-3.14344E-03
 -1      3118 1.65959E-01 5.38494E-02-4.32280E-02 7.17295E-02-2.99843E-03-6.16218E-03
 -1      3119 2.03778E-01 1.00186E-01-9.98572E-02 1.16189E-02-1.63164E-03-8.78773E-03
 -1      3120 9.81777E-02-1.29193E-01-6.18706E-02-2.43749E-02 6.16912E-03-7.08740E-03
 -1      3121 5.54272E-02-1.63886E-02 1.11611E-01 8.37046E-02 4.51607E-03-1.58627E-03
 -1      3122 1.09968E-01-8.32259E-02 1.96146E-02 8.02181E-02 1.05109E-03-3.83937E-03
 -1      3123 1.14767E-01-1.13002E-01-2.30126E-02 1.42440E-02 1.77038E-03-5.51068E-03
 -1      3124 6.52747E-02-1.04513E-01-2.09176E-02-2.39195E-02 5.92999E-03-4.89113E-03
 -1      3125 3.52494E-02-2.81013E-03 9.09479E-02 5.65490E-02 3.67696E-03-1.31019E-03
 -1      3126 5.42053E-02-7.58243E-02 3.84480E-02 5.49770E-02 2.54429E-03-2.30325E-03
 -1      3127 5.41959E-02-9.78601E-02 7.65696E-03 1.28311E-02 2.93328E-03-3.01581E-03
 -1      3128 3.62665E-02-6.02889E-02-6.87770E-03-1.30483E-02 3.96685E-03-2.62023E-03
 -1      3129 1.65424E-02-9.04159E-04 9.14845E-02 2.58616E-02 2.33995E-03-8.53333E-04
 -1      3130 2.26360E-02-3.54721E-02 6.23315E-02 2.74340E-02 1.98696E-03-1.20403E-03
 -1      3131 2.17073E-02-4.53390E-02 4.05621E-02 9.79425E-03 2.14236E-03-1.49273E-03
 -1      3132 1.53235E-02-2.67132E-02 1.77385E-02-2.50476E-03 2.37791E-03-1.40405E-03
 -1      3133 2.93326E-01 2.08774E-01 5.54220E-02 4.03372E-01 2.16871E-02-6.81847E-02
 -1      3134 3.94328E-01-1.01273E+00-7.30488E-02 2.11850E-01 8.87609E-02-4.45121E-02
 -1      3135 3.69919E-01-1.09856E+00-1.30735E-01-4.08976E-01 9.06962E-02 1.90782E-02
 -1      3136 3.32581E-01 4.16020E-01 2.08855E-02-6.10834E-01-1.06716E-03 5.88489E-02
 -1      3137 2.29850E-01 6.41505E-02 2.12412E-02 2.27638E-01 5.99864E-03-2.82634E-02
 -1      3138 3.04353E-01-5.07126E-01-5.91601E-02 8.48650E-02 3.50004E-02-2.32062E-02
 -1      3139 3.07658E-01-4.60663E-01-6.62096E-02-2.58606E-01 3.81160E-02-8.49405E-03
 -1      3140 2.57381E-01 2.71567E-01 2.53602E-02-3.61505E-01 4.76527E-03 9.19687E-03
 -1      3141 1.23718E-01 2.83784E-02 1.27681E-02 9.43838E-02 3.02997E-03-1.10327E-02
 -1      3142 1.64123E-01-2.03716E-01-2.78535E-02 1.90146E-02 1.65284E-02-1.46519E-02
 -1      3143 1.70573E-01-1.61300E-01-2.67790E-02-1.37719E-01 1.94133E-02-1.18423E-02
 -1      3144 1.42364E-01 1.53446E-01 1.81318E-02-1.75262E-01 7.22138E-03-5.70357E-03
 -1      3145 5.37123E-02 1.36473E-02 1.37002E-02 2.59152E-02 1.08415E-03-6.63527E-03
 -1      3146 7.08306E-02-6.56414E-02-6.02500E-03-4.59832E-03 7.13434E-03-1.17668E-02
 -1      3147 7.89522E-02-4.51101E-02-4.74221E-03-6.01960E-02 8.79578E-03-1.21814E-02
 -1      3148 7.05069E-02 6.80033E-02 1.53328E-02-6.69579E-02 4.32963E-03-8.63989E-03
 -1      3149 3.03630E-02-4.81342E-02-1.83056E-01 1.99400E-01 4.79490E-03 1.17073E-01
 -1      3150-2.45467E-01-1.27368E+00-6.66128E-01 6.27063E-02-4.19149E-01 1.54527E-02
 -1      3151-2.16001E-01-9.29626E-01-4.41683E-01-3.02007E-01-2.91838E-01-1.19619E-01
 -1      3152-2.96715E-02 2.63265E-01 1.74187E-01-1.89780E-01 1.70320E-01-9.37983E-02
 -1      3153-8.08411E-02 3.43374E-01-8.12879E-03 4.60461E-01 1.61389E-01 7.48705E-02
 -1      3154-3.42969E-01-1.50996E+00-3.22808E-01 2.14246E-01-1.68118E-01 2.21201E-02
 -1      3155-3.58397E-01-1.15313E+00-1.69937E-01-4.03676E-01-9.68888E-02-6.69163E-02
 -1      3156-2.31557E-01 4.51246E-01 1.54989E-01-3.50765E-01 2.11152E-01-5.54474E-02
 -1      3157-1.85288E-01 6.48703E-01-2.07814E-02 5.07433E-01 8.75373E-02-2.29341E-02
 -1      3158-4.77379E-01-1.50153E+00-1.55480E-01 3.41224E-01 5.98617E-02-2.47962E-02
 -1      3159-4.21384E-01-1.18235E+00-3.66279E-02-3.41360E-01 7.57001E-02 8.76574E-03
 -1      3160-2.42665E-01 5.17035E-01 6.79104E-02-3.38351E-01 1.11279E-01 3.13692E-02
 -1      3161 1.16541E-02 3.29920E-03 7.05235E-02-8.04886E-04 1.33178E-02 2.16340E-02
 -1      3162 1.29215E-02-1.17295E-02 8.68321E-02-4.80638E-03 1.00347E-02 3.13145E-02
 -1      3163 9.06046E-03-1.12900E-02 9.73005E-02-1.18983E-02 6.97024E-03 2.98385E-02
 -1      3164 3.99836E-03 5.27957E-03 1.11591E-01-1.14766E-02 5.60551E-03 1.92478E-02
 -1      3165 1.04083E-02 1.17180E-02 3.86630E-02 5.48279E-03 1.68972E-02 2.74518E-02
 -1      3166 1.16711E-02-1.21160E-02 4.74026E-02 3.01441E-03 1.37103E-02 4.13990E-02
 -1      3167 1.12137E-02-1.34484E-02 5.67149E-02-6.12092E-03 9.77626E-03 4.01937E-02
 -1      3168 9.85838E-03 9.59114E-03 7.13686E-02-8.42709E-03 7.33633E-03 2.61800E-02
 -1      3169 8.66167E-03 1.87507E-02 1.24029E-02 1.33176E-02 1.22524E-02 2.12637E-02
 -1      3170 1.39099E-02-1.33327E-02 1.17589E-02 1.27343E-02 1.05969E-02 3.32443E-02
 -1      3171 2.01788E-02-1.73594E-02 1.83127E-02 8.66270E-04 7.11161E-03 3.18100E-02
 -1      3172 1.98115E-02 9.21226E-03 3.27065E-02-5.08352E-03 4.25859E-03 1.99918E-02
 -1      3173 1.31063E-01 3.52782E-01 6.65151E-02 1.02468E-01 2.61052E-01 8.77882E-02
 -1      3174 2.58567E-01 1.18869E+00 1.10966E-01 1.68563E-01 2.76401E-01 5.05742E-02
 -1      3175 3.40438E-01 1.72443E+00 1.43611E-01 1.81371E-01 5.71737E-02 1.71693E-02
 -1      3176 7.28518E-02 1.24136E-01-1.85641E-02 5.88189E-02 1.40895E-01 3.18765E-02
 -1      3177 1.61471E-01 5.39645E-01 4.14663E-02 9.91328E-02 1.33713E-01 3.29609E-02
 -1      3178 2.17754E-01 7.91871E-01 6.79113E-02 1.28816E-01 3.20705E-02 1.37516E-02
 -1      3179 2.38204E-02 2.11186E-02-4.58338E-02 2.61967E-02 6.57579E-02 1.33027E-02
 -1      3180 6.12373E-02 1.73200E-01-1.16761E-02 4.40365E-02 6.78639E-02 1.45594E-02
 -1      3181 8.58219E-02 2.68257E-01 1.26735E-02 6.25610E-02 2.15658E-02 7.57532E-03
 -1      3182 2.32216E-03-5.92065E-03-2.66601E-02 9.74702E-03 3.22718E-02 8.62459E-03
 -1      3183 1.76237E-02 3.89053E-02-9.15284E-03 1.46478E-02 3.42442E-02 1.03742E-02
 -1      3184 2.84586E-02 6.48093E-02 4.02679E-03 2.17623E-02 1.52454E-02 6.62390E-03
 -1      3185 1.39560E-01 5.19068E-01 3.60585E-01-1.00172E-01 2.55596E-01-6.08586E-02
 -1      3186 2.12364E-01 1.12871E+00 2.78277E-01-1.42057E-01 2.47568E-01-3.43715E-02
 -1      3187 2.61462E-01 1.32890E+00 1.90672E-01-1.36064E-01 5.89102E-02-8.62208E-03
 -1      3188 9.63788E-02 2.47802E-01 2.05550E-01-7.42167E-02 1.20530E-01-1.57495E-02
 -1      3189 1.67024E-01 5.47306E-01 1.78313E-01-9.56952E-02 1.11587E-01-1.29740E-02
 -1      3190 2.04438E-01 6.32807E-01 1.18088E-01-1.00952E-01 2.68324E-02-1.68704E-03
 -1      3191 4.11340E-02 8.37834E-02 1.23723E-01-3.97145E-02 4.39026E-02 9.49540E-04
 -1      3192 7.03245E-02 1.82524E-01 9.03923E-02-4.52162E-02 4.52179E-02 2.38594E-03
 -1      3193 8.92502E-02 2.07886E-01 5.16034E-02-4.60229E-02 9.88801E-03 3.46460E-03
 -1      3194 1.65554E-02 1.84054E-02 1.10476E-01-1.64638E-02 1.47424E-02 5.57290E-03
 -1      3195 2.49059E-02 4.35967E-02 6.92676E-02-1.54469E-02 1.49462E-02 7.36032E-03
 -1      3196 3.24278E-02 4.67535E-02 3.07470E-02-1.39964E-02 3.15633E-03 5.63668E-03
 -1      3197 1.15673E-01-1.06081E-01-5.17520E-02 2.49328E-02 1.61160E-02 6.49282E-03
 -1      3198 2.35492E-01 1.11550E-01-9.80031E-02 9.26986E-03 8.14961E-03 1.74685E-02
 -1      3199 1.76477E-01 2.25293E-02-5.42549E-02-7.72641E-02 4.29439E-03 3.64629E-02
 -1      3200 7.32946E-02-7.55720E-02 1.36168E-01-9.75431E-02-4.43352E-03 2.93818E-02
 -1      3201 7.22272E-02-1.07328E-01-2.19915E-02 2.68937E-02 1.33378E-02 7.89730E-03
 -1      3202 1.21136E-01-1.21579E-01-2.50282E-02-1.50029E-02 1.17933E-02 1.53447E-02
 -1      3203 1.17469E-01-9.03487E-02 1.88678E-02-8.40654E-02 2.54575E-03 1.89984E-02
 -1      3204 6.04272E-02-1.79159E-02 1.15712E-01-8.88855E-02-6.40866E-03 1.47850E-02
 -1      3205 3.77801E-02-6.47821E-02-6.53980E-03 1.17433E-02 1.08645E-02 7.08375E-03
 -1      3206 5.62523E-02-1.02114E-01 9.07622E-03-1.44076E-02 6.45793E-03 1.07067E-02
 -1      3207 5.59387E-02-7.93736E-02 4.11186E-02-5.78692E-02 1.18717E-03 1.16444E-02
 -1      3208 3.67390E-02-3.95933E-03 9.60046E-02-5.87005E-02-3.37731E-03 7.98265E-03
 -1      3209 1.52089E-02-2.93044E-02 2.17938E-02 1.51645E-03 6.50637E-03 6.12961E-03
 -1      3210 2.15683E-02-4.71835E-02 4.59358E-02-1.12947E-02 3.71657E-03 8.84956E-03
 -1      3211 2.25691E-02-3.66629E-02 6.86771E-02-2.87642E-02 7.62035E-04 8.59165E-03
 -1      3212 1.64947E-02-1.57683E-03 9.92718E-02-2.66540E-02-1.25169E-03 5.57035E-03
 -1      3213 3.14506E-01 4.44036E-01 2.36409E-02 5.85853E-01 4.87510E-03-5.66518E-02
 -1      3214 3.50552E-01-1.02946E+00-1.22827E-01 4.00104E-01 8.90885E-02-1.90585E-02
 -1      3215 3.73947E-01-9.81505E-01-7.27107E-02-1.94947E-01 8.55000E-02 4.18588E-02
 -1      3216 2.79629E-01 1.75668E-01 4.70446E-02-3.86439E-01 1.80372E-02 6.54871E-02
 -1      3217 2.46692E-01 2.84959E-01 2.58261E-02 3.49963E-01 9.05911E-03-8.62780E-03
 -1      3218 2.94965E-01-4.29492E-01-6.21859E-02 2.54702E-01 3.87611E-02 8.65009E-03
 -1      3219 2.90984E-01-4.88141E-01-5.72091E-02-7.54009E-02 3.44282E-02 2.26086E-02
 -1      3220 2.20007E-01 5.41141E-02 1.87285E-02-2.16352E-01 5.03108E-03 2.73095E-02
 -1      3221 1.37309E-01 1.58695E-01 1.82129E-02 1.71157E-01 1.00555E-02 6.04035E-03
 -1      3222 1.64024E-01-1.49132E-01-2.49006E-02 1.37090E-01 2.03671E-02 1.23003E-02
 -1      3223 1.57054E-01-1.95026E-01-2.61869E-02-1.37156E-02 1.68317E-02 1.48740E-02
 -1      3224 1.18322E-01 2.55289E-02 1.25848E-02-8.82782E-02 3.15275E-03 1.10151E-02
 -1      3225 6.88426E-02 6.95301E-02 1.58649E-02 6.61490E-02 5.75835E-03 9.32607E-03
 -1      3226 7.62538E-02-4.12039E-02-3.48936E-03 6.08799E-02 9.41038E-03 1.32407E-02
 -1      3227 6.73933E-02-6.26008E-02-4.57982E-03 7.33445E-03 7.51877E-03 1.27015E-02
 -1      3228 5.08102E-02 1.27879E-02 1.43742E-02-2.32556E-02 1.45987E-03 7.17780E-03
 -1      3229-1.00142E+00 1.60309E+00 3.68753E-01 2.91109E+00 7.95435E-01 4.27815E-02
 -1      3230-9.18514E-01 1.45235E+00 5.63988E-01 2.73372E+00 6.38863E-01 6.40215E-02
 -1      3231-7.91782E-01 1.18275E+00-1.95528E-01 2.56171E+00 6.14224E-01 3.08493E-01
 -1      3232 8.73078E-02 4.49937E+00 5.18699E-01 1.16384E+00 2.00538E-01 2.82898E-02
 -1      3233 2.69512E-01 4.56120E+00 8.68129E-01 1.00861E+00 4.62605E-01 1.40646E-01
 -1      3234 4.02765E-01 4.14320E+00 1.20358E+00 8.16207E-01 9.35553E-01 5.55365E-02
 -1      3235 2.05173E-01 3.34850E+00 3.62574E-01 4.27663E-01 5.89415E-02 2.89569E-02
 -1      3236 3.49560E-01 3.39885E+00 7.69141E-01 3.42779E-01 4.68170E-01 5.15839E-02
 -1      3237 4.10122E-01 2.52992E+00 1.03075E+00 1.82422E-01 7.40114E-01 1.31429E-02
 -1      3238 1.00054E+01 1.11692E+01 8.55383E+00-1.22852E+01 5.03441E-01 3.67385E-01
 -1      3239 1.18535E+01 1.23251E+01 1.00812E+01-1.07425E+01-2.80422E-01 5.56737E-01
 -1      3240 1.36324E+01 1.29485E+01 8.55200E+00-9.04710E+00-3.44521E-01 2.91289E-01
 -1      3241-6.69697E-01 7.70648E+00 6.69975E-01-7.59428E-01 3.48924E-01-1.91513E-01
 -1      3242-5.83835E-01 6.66931E+00 9.52496E-01-2.67951E-01 4.43430E-01-3.13144E-01
 -1      3243-4.88211E-02 5.58647E+00 1.22620E+00 9.03064E-02 7.40112E-01-2.57090E-02
 -1      3244 8.13521E-01 5.65330E+00 7.37281E-01-4.99124E-01-1.33755E-02-1.06723E-02
 -1      3245 1.06798E+00 5.29593E+00 1.21685E+00-2.99414E-01 4.78196E-01-1.81511E-02
 -1      3246 7.80124E-01 3.00818E+00 1.02366E+00-1.31934E-01 7.42945E-01 5.17117E-02
 -1      3247-4.20574E+00-2.32410E+00-5.30236E-01 5.07736E+00 6.65608E-01 3.76335E-01
 -1      3248-2.33062E+00-1.53800E+00-7.27686E-01 1.26479E+00 4.14674E-01 2.79941E-01
 -1      3249-8.95097E-01-4.03756E-01-3.65213E-01-2.09240E-01 1.88418E-01 2.06647E-01
 -1      3250-9.88281E+00 1.31912E+00 2.20079E-01 5.46788E+00 6.02651E-01 2.52420E-01
 -1      3251-3.62283E+00-6.76617E-01 2.37790E-01 1.04328E+00 4.90280E-01-1.55378E-03
 -1      3252-8.38493E-01-1.72620E+00-2.91718E-02-2.57240E-01 3.51498E-01 7.77825E-02
 -1      3253-1.41971E+01 6.22334E+00 1.95463E+00 1.10219E+00 1.04334E+00-3.42628E-01
 -1      3254-2.54237E+00 6.45322E-01 1.13881E+00-4.85996E-01 6.73804E-01-2.67276E-01
 -1      3255-9.23450E-01-2.75761E+00-2.02035E-01 4.25679E-02 3.75158E-01-1.94458E-01
 -1      3256-2.39588E+00 1.29148E+01 5.71385E+00-4.37388E+00 2.14464E+00-1.10726E+00
 -1      3257-2.84157E+00-3.17262E+00-5.66786E-01-2.32216E+00 5.70481E-01-5.57211E-01
 -1      3258-1.09808E+00-1.39902E+00-7.99754E-01 5.58669E-01 3.15046E-01-3.66841E-01
 -1      3259-3.79259E+00-3.77249E+00-7.14779E-01 4.11113E+00-3.27724E-01 1.44099E-01
 -1      3260-1.02580E+00-7.43983E-01-1.12964E-02 1.96389E-01-3.40202E-02 2.15913E-02
 -1      3261-1.02539E-01-1.30520E-01 1.23829E-01-1.07127E-01-2.89477E-02-3.25867E-02
 -1      3262-6.12024E+00-7.27707E-01 5.20396E-01 4.06680E+00-1.02061E+00 7.34270E-02
 -1      3263-1.02056E+00-9.33922E-01 7.82629E-02-2.24444E-01-1.11929E+00-8.05583E-02
 -1      3264 4.41587E-03-3.35241E-01-2.69124E-01-1.84528E-01-5.95683E-01-1.25736E-01
 -1      3265-6.31773E+00 3.82971E+00 2.59376E+00 8.27404E-01-1.92904E+00-2.66336E-01
 -1      3266 1.70693E-02-1.04798E+00 1.01346E-01-4.95638E-01-1.61363E+00-1.83907E-01
 -1      3267-2.71093E-01-1.05688E+00-7.22917E-01-1.69232E-01-7.51707E-01-2.19245E-02
 -1      3268 7.02122E+00 1.08548E+01 6.87531E+00-2.11427E+00-2.04526E+00 2.50081E-01
 -1      3269-1.84647E+00-4.12416E+00-1.02977E+00-9.95652E-01-9.85004E-01 4.58720E-02
 -1      3270-2.81953E-01-9.51975E-01-5.43003E-01 1.24106E-01-3.17139E-01 7.28341E-02
 -1      3271 3.18929E-01 1.72540E-01 4.23348E-02-4.16907E-01-2.02649E-02-6.34084E-02
 -1      3272 4.45065E-01-1.09187E+00-8.69411E-02-2.06138E-01-8.00360E-02-4.43878E-02
 -1      3273 4.14665E-01-1.18541E+00-1.64998E-01 4.78902E-01-8.52197E-02 1.02766E-02
 -1      3274 3.58510E-01 4.18967E-01-1.11912E-02 6.89587E-01 1.82024E-02 4.60925E-02
 -1      3275 2.46164E-01 4.90188E-02 1.76087E-02-2.32689E-01-5.02374E-03-2.80407E-02
 -1      3276 3.31879E-01-5.37544E-01-6.75134E-02-7.07488E-02-3.33548E-02-2.52172E-02
 -1      3277 3.38124E-01-4.68972E-01-7.20132E-02 2.96329E-01-3.50834E-02-1.34176E-02
 -1      3278 2.84523E-01 3.24046E-01 2.77122E-02 4.04795E-01-3.12266E-03 3.08508E-03
 -1      3279 1.29048E-01 2.31721E-02 9.66406E-03-9.29965E-02-3.73175E-03-1.04790E-02
 -1      3280 1.74563E-01-2.12636E-01-3.20400E-02-9.66232E-03-1.64908E-02-1.54551E-02
 -1      3281 1.84240E-01-1.55055E-01-2.81778E-02 1.56677E-01-2.00198E-02-1.38827E-02
 -1      3282 1.55428E-01 1.86890E-01 2.27848E-02 1.93079E-01-8.61952E-03-8.60722E-03
 -1      3283 5.31140E-02 1.13384E-02 1.12922E-02-2.34684E-02-1.64193E-03-6.19905E-03
 -1      3284 7.19835E-02-6.79568E-02-8.58205E-03 1.02849E-02-7.34889E-03-1.15595E-02
 -1      3285 8.26975E-02-4.12884E-02-5.21891E-03 6.80913E-02-9.21089E-03-1.23042E-02
 -1      3286 7.53436E-02 8.10224E-02 1.77775E-02 7.33440E-02-5.44286E-03-9.21628E-03
 -1      3287 2.85525E-01 1.42840E+00 1.73998E-01-1.67181E-01-3.03044E-02-1.29998E-03
 -1      3288 2.31083E-01 6.88781E-01 1.16279E-01-1.18367E-01-1.50742E-02-2.50870E-03
 -1      3289 9.93612E-02 2.21530E-01 4.86779E-02-5.36557E-02-6.84820E-03-4.25563E-03
 -1      3290 3.53843E-02 4.78607E-02 2.69826E-02-1.59537E-02-3.09915E-03-5.06179E-03
 -1      3291 2.59974E-01 1.45539E+00 3.03576E-01-1.73169E-01-2.11134E-01 1.14865E-02
 -1      3292 2.10814E-01 6.97534E-01 1.83304E-01-1.17621E-01-1.00906E-01 4.03209E-03
 -1      3293 8.76566E-02 2.32175E-01 8.59806E-02-5.50472E-02-4.32632E-02-4.02909E-03
 -1      3294 3.10159E-02 5.47807E-02 5.99840E-02-1.75799E-02-1.57517E-02-7.20008E-03
 -1      3295 2.09889E-01 1.09336E+00 3.99190E-01-1.79214E-01-3.34373E-01 5.37905E-02
 -1      3296 1.68143E-01 5.27716E-01 2.43594E-01-1.11637E-01-1.57713E-01 2.11995E-02
 -1      3297 6.77366E-02 1.71427E-01 1.27449E-01-5.37509E-02-6.55045E-02 1.00502E-03
 -1      3298 2.45605E-02 3.95632E-02 1.00411E-01-1.93711E-02-2.37103E-02-5.30834E-03
 -1      3299 1.34871E-01 4.70186E-01 4.44076E-01-1.16435E-01-2.79562E-01 7.61135E-02
 -1      3300 9.87922E-02 2.36225E-01 2.49978E-01-8.53971E-02-1.27121E-01 2.60823E-02
 -1      3301 4.32390E-02 8.18826E-02 1.50242E-01-4.52940E-02-4.83501E-02 4.53980E-03
 -1      3302 1.83122E-02 1.78057E-02 1.30170E-01-1.89039E-02-1.79034E-02-1.58826E-03
 -1      3303 3.48949E-01 1.81023E+00 4.19072E-02 2.47766E-01 6.05519E-02-6.15152E-03
 -1      3304 2.40592E-01 8.33616E-01 4.56875E-02 1.52748E-01 2.23415E-02-7.98651E-03
 -1      3305 9.00527E-02 2.69272E-01 4.83071E-03 7.38857E-02 2.65536E-04-5.16389E-03
 -1      3306 2.99904E-02 6.17087E-02 2.46224E-03 2.53479E-02-7.79552E-03-5.61979E-03
 -1      3307 3.52116E-01 1.65168E+00 8.89564E-02 2.04074E-01-1.81119E-01-2.20038E-02
 -1      3308 2.09969E-01 6.95634E-01 2.67016E-02 1.15891E-01-8.01791E-02-2.25471E-02
 -1      3309 7.64962E-02 2.15134E-01-1.59484E-02 5.23513E-02-4.02898E-02-1.13083E-02
 -1      3310 2.23634E-02 4.55970E-02-1.04759E-02 1.66196E-02-2.35219E-02-9.15537E-03
 -1      3311 2.40090E-01 8.84898E-01 4.75309E-02 1.80743E-01-3.37525E-01-5.90928E-02
 -1      3312 1.36600E-01 3.68323E-01-7.71474E-03 9.11356E-02-1.45485E-01-3.39795E-02
 -1      3313 4.76723E-02 9.80600E-02-4.25033E-02 3.68552E-02-6.38199E-02-1.31822E-02
 -1      3314 9.33832E-03 1.20783E-02-2.72990E-02 1.19074E-02-2.93803E-02-8.56999E-03
 -1      3315 1.62782E-01 1.99915E-01 6.31948E-02 7.62079E-02-2.43582E-01-8.05679E-02
 -1      3316 5.50622E-02 3.02455E-02-4.16069E-02 5.89260E-02-1.07582E-01-2.65068E-02
 -1      3317 1.95224E-02-1.48279E-02-5.95799E-02 2.26037E-02-4.04621E-02-8.25527E-03
 -1      3318-2.18173E-03-1.95881E-02-3.73382E-02 8.74503E-03-1.70116E-02-4.04023E-03
 -1      3319 1.98036E-02 8.29647E-03 2.48267E-02-5.48221E-03-4.12480E-03-1.86806E-02
 -1      3320 1.96102E-02-2.15129E-02 9.81943E-03 1.55305E-03-7.23849E-03-3.01268E-02
 -1      3321 1.30062E-02-1.64679E-02 6.46657E-03 1.49894E-02-1.07391E-02-3.15597E-02
 -1      3322 8.18128E-03 1.96295E-02 1.17861E-02 1.52934E-02-1.15642E-02-2.00206E-02
 -1      3323 1.10108E-02 1.10760E-02 5.48769E-02-9.29086E-03-8.31578E-03-2.55379E-02
 -1      3324 1.07700E-02-1.68338E-02 3.99448E-02-6.43153E-03-1.11402E-02-3.86656E-02
 -1      3325 1.02970E-02-1.53066E-02 3.48050E-02 4.11128E-03-1.48524E-02-3.91636E-02
 -1      3326 9.65886E-03 1.28928E-02 3.24033E-02 6.58340E-03-1.63256E-02-2.53171E-02
 -1      3327 6.00028E-03 1.01508E-02 9.26838E-02-1.27249E-02-1.03649E-02-2.05797E-02
 -1      3328 8.87817E-03-1.27074E-02 7.84944E-02-1.25918E-02-1.15684E-02-3.02516E-02
 -1      3329 1.21043E-02-1.32993E-02 7.16450E-02-3.88472E-03-1.39084E-02-3.04723E-02
 -1      3330 1.22847E-02 7.39969E-03 6.14113E-02 4.29985E-04-1.55871E-02-2.03052E-02
 -1      3331 3.40005E-03 6.35365E-03 1.23948E-01-1.39508E-02-7.88876E-03-8.77518E-03
 -1      3332 9.55203E-03-1.04763E-02 1.09618E-01-1.53523E-02-7.66774E-03-1.24463E-02
 -1      3333 1.45554E-02-1.17571E-02 1.01559E-01-8.29953E-03-8.16748E-03-1.23916E-02
 -1      3334 1.37322E-02 2.32860E-03 8.58261E-02-3.32372E-03-8.74886E-03-8.19977E-03
 -1      3335 7.12622E-02 7.17045E-02 1.51691E-02-6.93836E-02-4.52119E-03 8.35733E-03
 -1      3336 7.88439E-02-4.37950E-02-6.29270E-03-6.32162E-02-8.23922E-03 1.11977E-02
 -1      3337 6.92078E-02-6.63251E-02-8.49193E-03-7.26247E-03-6.71781E-03 1.04851E-02
 -1      3338 5.13138E-02 1.15713E-02 1.06564E-02 2.45213E-02-1.35617E-03 5.57810E-03
 -1      3339 1.44239E-01 1.63663E-01 1.87204E-02-1.80408E-01-8.08469E-03 6.84652E-03
 -1      3340 1.72101E-01-1.56580E-01-2.74188E-02-1.43137E-01-1.81672E-02 1.15809E-02
 -1      3341 1.63948E-01-2.03994E-01-2.96790E-02 1.46859E-02-1.53364E-02 1.30620E-02
 -1      3342 1.22138E-01 2.49886E-02 1.04050E-02 9.24152E-02-3.45323E-03 8.92184E-03
 -1      3343 2.63027E-01 2.89565E-01 2.81586E-02-3.71925E-01-4.79370E-03-4.82720E-03
 -1      3344 3.11832E-01-4.54771E-01-6.65874E-02-2.68374E-01-3.39913E-02 1.01600E-02
 -1      3345 3.06399E-01-5.09573E-01-6.05292E-02 7.85286E-02-3.09344E-02 2.04751E-02
 -1      3346 2.30603E-01 5.78829E-02 1.99850E-02 2.25931E-01-5.53443E-03 2.38533E-02
 -1      3347 3.30014E-01 4.10987E-01 3.43100E-03-6.31796E-01 1.49534E-03-4.46962E-02
 -1      3348 3.72643E-01-1.11466E+00-1.39168E-01-4.27216E-01-7.84867E-02-1.25980E-02
 -1      3349 3.97135E-01-1.03339E+00-8.16285E-02 2.04590E-01-7.71791E-02 3.76913E-02
 -1      3350 2.92671E-01 1.89602E-01 4.54392E-02 4.04683E-01-1.93647E-02 5.52997E-02
 -1      3351-1.31171E-04-1.29148E-02-3.46706E-02-8.88712E-03-2.17868E-02 5.84994E-03
 -1      3352 1.83642E-02-2.99779E-03-5.18662E-02-2.32892E-02-4.70414E-02 9.67634E-03
 -1      3353 6.22559E-02 5.30862E-02-2.37541E-02-5.06608E-02-1.11937E-01 2.68717E-02
 -1      3354 1.06980E-01 1.90802E-01 6.17883E-02-9.02633E-02-2.24575E-01 7.61363E-02
 -1      3355 1.06955E-02 1.83008E-02-2.37127E-02-1.23076E-02-3.13007E-02 9.38997E-03
 -1      3356 4.73865E-02 1.08790E-01-3.22437E-02-3.64558E-02-6.62008E-02 1.40518E-02
 -1      3357 1.30819E-01 3.76121E-01 1.11281E-02-8.58508E-02-1.45259E-01 3.38484E-02
 -1      3358 2.12346E-01 8.35658E-01 6.45697E-02-1.56005E-01-3.05100E-01 6.22862E-02
 -1      3359 2.30730E-02 4.99110E-02-7.79478E-03-1.68316E-02-2.34247E-02 9.19942E-03
 -1      3360 7.50417E-02 2.19103E-01-7.71956E-03-5.11659E-02-4.18061E-02 1.15595E-02
 -1      3361 1.95250E-01 6.73353E-01 3.95613E-02-1.11799E-01-8.32688E-02 2.24991E-02
 -1      3362 3.17986E-01 1.52620E+00 1.10542E-01-1.75415E-01-1.88829E-01 2.64563E-02
 -1      3363 3.02543E-02 6.31699E-02 3.70036E-03-2.47473E-02-7.12118E-03 5.47809E-03
 -1      3364 8.91853E-02 2.68252E-01 1.01739E-02-7.04376E-02-1.57387E-03 5.31421E-03
 -1      3365 2.25427E-01 8.03510E-01 5.37614E-02-1.45514E-01 1.07430E-02 8.50749E-03
 -1      3366 3.53360E-01 1.75249E+00 8.99220E-02-2.12214E-01 3.09848E-02 9.76824E-03
 -1      3367 1.74261E-02 1.72768E-02 1.17746E-01 1.72732E-02-1.23087E-02 3.41359E-03
 -1      3368 3.93714E-02 7.43212E-02 1.37127E-01 4.05843E-02-3.77928E-02-1.88585E-03
 -1      3369 8.59852E-02 2.01928E-01 2.26592E-01 7.36705E-02-1.08122E-01-2.00980E-02
 -1      3370 1.20517E-01 3.93131E-01 4.03646E-01 9.66396E-02-2.39707E-01-6.31798E-02
 -1      3371 2.27105E-02 3.63506E-02 8.85836E-02 1.74940E-02-1.78835E-02 6.17865E-03
 -1      3372 6.19476E-02 1.54699E-01 1.13752E-01 4.74299E-02-5.45060E-02-1.00703E-04
 -1      3373 1.46141E-01 4.62719E-01 2.14135E-01 9.73598E-02-1.39765E-01-1.94258E-02
 -1      3374 1.80095E-01 9.23282E-01 3.39261E-01 1.47620E-01-3.06171E-01-5.07340E-02
 -1      3375 2.88851E-02 5.05732E-02 5.17616E-02 1.62362E-02-1.12010E-02 7.19380E-03
 -1      3376 8.12335E-02 2.13503E-01 7.65409E-02 4.99137E-02-3.52093E-02 3.44864E-03
 -1      3377 1.89669E-01 6.32839E-01 1.62246E-01 1.05979E-01-9.04692E-02-5.88730E-03
 -1      3378 2.39971E-01 1.32510E+00 2.70774E-01 1.50211E-01-2.03033E-01-1.73582E-02
 -1      3379 3.33793E-02 4.51254E-02 2.30835E-02 1.55020E-02-7.41815E-04 4.80620E-03
 -1      3380 9.34350E-02 2.09376E-01 4.44662E-02 5.07568E-02-3.33106E-03 3.43221E-03
 -1      3381 2.12768E-01 6.45694E-01 1.06646E-01 1.11503E-01-1.27448E-02 4.00420E-04
 -1      3382 2.69515E-01 1.34678E+00 1.60103E-01 1.53681E-01-3.10055E-02-3.84445E-03
 -1      3383 1.33799E-02 2.50795E-03 7.32302E-02 1.99363E-03-9.79479E-03 1.37142E-02
 -1      3384 1.53362E-02-1.14830E-02 8.95297E-02 6.41042E-03-7.95748E-03 1.99331E-02
 -1      3385 1.11251E-02-1.06010E-02 9.86506E-02 1.35370E-02-6.31664E-03 1.95298E-02
 -1      3386 4.67737E-03 5.39526E-03 1.12244E-01 1.26805E-02-5.59625E-03 1.33325E-02
 -1      3387 1.21071E-02 7.71554E-03 5.04263E-02-1.96733E-03-1.53889E-02 2.29340E-02
 -1      3388 1.33127E-02-1.26814E-02 6.18676E-02 1.79226E-03-1.29480E-02 3.40473E-02
 -1      3389 1.09895E-02-1.26108E-02 7.04155E-02 1.04043E-02-1.00007E-02 3.35976E-02
 -1      3390 7.51143E-03 8.75199E-03 8.40627E-02 1.12031E-02-8.27927E-03 2.28049E-02
 -1      3391 1.01743E-02 1.29793E-02 2.50892E-02-7.62933E-03-1.52543E-02 2.53729E-02
 -1      3392 1.21989E-02-1.46787E-02 2.88324E-02-5.45406E-03-1.34321E-02 3.90633E-02
 -1      3393 1.32017E-02-1.64969E-02 3.55590E-02 4.94888E-03-9.79024E-03 3.85196E-02
 -1      3394 1.24307E-02 9.83094E-03 5.00710E-02 8.23875E-03-6.88156E-03 2.55483E-02
 -1      3395 9.43079E-03 1.84216E-02 8.38258E-03-1.52563E-02-1.03655E-02 1.90246E-02
 -1      3396 1.54562E-02-1.65036E-02 4.06001E-03-1.47551E-02-9.56449E-03 2.99473E-02
 -1      3397 2.18704E-02-2.10189E-02 8.37332E-03-1.55998E-03-6.41330E-03 2.85371E-02
 -1      3398 2.06906E-02 7.68644E-03 2.29614E-02 5.37728E-03-3.48770E-03 1.77624E-02
 -1      3399 4.25861E-02-1.03861E-01-2.64247E-01-1.19968E-01 4.26539E-02 8.50060E-02
 -1      3400-2.60350E-01-1.19680E+00-7.94539E-01 4.42976E-03 4.54762E-01-1.12423E-02
 -1      3401-1.72772E-01-7.95277E-01-4.88347E-01 2.79106E-01 3.13896E-01-1.64100E-01
 -1      3402 2.60396E-02 2.71178E-01 2.14177E-01 1.27746E-01-1.82969E-01-1.16846E-01
 -1      3403-8.94742E-03 1.06406E-01-7.23693E-02-3.66942E-01-1.08075E-01 1.00886E-01
 -1      3404-2.62335E-01-1.53416E+00-4.78482E-01-1.03488E-01 3.20012E-01 6.98566E-03
 -1      3405-2.88858E-01-1.09779E+00-2.64294E-01 4.52991E-01 2.00577E-01-1.27122E-01
 -1      3406-1.74838E-01 4.19371E-01 2.22059E-01 3.26997E-01-2.38854E-01-1.03403E-01
 -1      3407-1.17669E-01 5.17588E-01-2.18460E-02-5.29845E-01-1.53738E-01 8.12098E-03
 -1      3408-4.23640E-01-1.61994E+00-2.37800E-01-2.62952E-01 3.13143E-02-2.45456E-03
 -1      3409-4.08987E-01-1.19773E+00-6.92023E-02 4.39887E-01-1.72430E-02-1.58695E-02
 -1      3410-2.58433E-01 5.75710E-01 1.47978E-01 3.87952E-01-2.19736E-01 1.09956E-02
 -1      3411-2.01833E-01 5.03107E-01-1.15931E-01-5.56335E-01-3.09275E-02-3.52640E-02
 -1      3412-4.57164E-01-1.68171E+00-1.76632E-01-3.62369E-01-7.18901E-02-3.43309E-02
 -1      3413-3.88492E-01-1.27880E+00-3.83897E-02 3.74171E-01-9.02101E-02 1.97586E-02
 -1      3414-2.27745E-01 5.11774E-01 4.25085E-02 3.66473E-01-9.42159E-02 4.38419E-02
 -1      3415-2.45274E+00 1.32286E+01 5.68089E+00 4.16070E+00-1.73829E+00-1.17335E+00
 -1      3416-1.48255E+01 6.25420E+00 2.06610E+00-1.38767E+00-7.48510E-01-2.76882E-01
 -1      3417-1.02298E+01 1.15229E+00 1.03553E-01-5.81441E+00-4.03942E-01 3.01665E-01
 -1      3418-4.26024E+00-2.55097E+00-5.81388E-01-5.31713E+00-4.59394E-01 3.93764E-01
 -1      3419-2.76364E+00-3.53406E+00-4.07311E-01 2.33744E+00-4.62486E-01-5.08273E-01
 -1      3420-2.47991E+00 6.44285E-01 1.23324E+00 4.64475E-01-5.59107E-01-2.29309E-01
 -1      3421-3.65940E+00-6.28140E-01 3.38480E-01-1.11584E+00-3.81196E-01 6.76154E-03
 -1      3422-2.33705E+00-1.51035E+00-6.84256E-01-1.34642E+00-3.41041E-01 2.65582E-01
 -1      3423-1.06645E+00-1.56546E+00-7.58432E-01-6.70906E-01-2.85850E-01-3.03394E-01
 -1      3424-8.31953E-01-2.91713E+00-1.13764E-01-5.57595E-02-3.07053E-01-1.59725E-01
 -1      3425-7.69737E-01-1.72582E+00 4.18071E-02 2.70220E-01-2.92602E-01 7.26838E-02
 -1      3426-8.73166E-01-3.20560E-01-3.19439E-01 2.06325E-01-1.66843E-01 1.79054E-01
 -1      3427 7.05364E+00 1.01994E+01 6.24945E+00 2.30730E+00 1.96888E+00 1.69445E-01
 -1      3428-6.57111E+00 3.46243E+00 2.46004E+00-4.25831E-01 1.81392E+00-2.10404E-01
 -1      3429-6.31470E+00-6.44283E-01 4.45593E-01-3.59707E+00 9.34858E-01 3.04211E-01
 -1      3430-3.76426E+00-3.20563E+00-6.04122E-01-3.81978E+00 2.51821E-01 3.20915E-01
 -1      3431-1.85590E+00-4.11970E+00-1.04804E+00 1.05902E+00 1.15065E+00 4.59441E-03
 -1      3432 4.10202E-02-1.03651E+00-1.29675E-01 5.29006E-01 1.68376E+00-3.17904E-01
 -1      3433-1.00449E+00-7.82198E-01-4.32807E-03 3.28253E-01 1.12311E+00-1.82151E-01
 -1      3434-9.88123E-01-4.93675E-01 5.57582E-02-1.40116E-01-4.32599E-02-2.87068E-02
 -1      3435-2.37303E-01-7.81646E-01-5.67224E-01 1.82970E-02 2.97078E-01 9.01097E-02
 -1      3436-1.64144E-01-7.11022E-01-7.03515E-01 1.03781E-01 7.39574E-01-6.38734E-02
 -1      3437 4.41928E-03-2.22839E-01-3.27951E-01 1.48556E-01 5.25628E-01-2.03051E-01
 -1      3438-1.23210E-01-1.08486E-01 1.55105E-01 1.17002E-01-2.89855E-03-8.51198E-02
 -1      3439 1.09038E+01 1.25200E+01 8.69482E+00 1.35025E+01-9.11711E-01 3.80234E-01
 -1      3440-6.99000E-01 8.05139E+00 4.48000E-01 7.65323E-01-3.08080E-01-1.85280E-01
 -1      3441 8.48152E-01 5.72890E+00 6.12863E-01 4.73001E-01 2.01221E-01 8.78045E-03
 -1      3442 1.29069E+01 1.34973E+01 1.14691E+01 1.20982E+01-2.77561E-01 6.57054E-01
 -1      3443-7.05643E-01 7.18879E+00 9.27264E-01 3.48411E-01-2.92068E-01-3.40146E-01
 -1      3444 9.50843E-01 5.70335E+00 9.20033E-01 3.44349E-01-2.54514E-01-7.12115E-02
 -1      3445 1.42570E+01 1.44095E+01 1.09328E+01 1.07414E+01 7.82310E-01 6.60811E-01
 -1      3446-5.65371E-01 6.38589E+00 8.17810E-01 4.84250E-03-5.41725E-01-2.80651E-01
 -1      3447 1.13098E+00 4.72639E+00 1.24770E+00 2.23392E-01-6.59636E-01 6.54006E-03
 -1      3448 1.54870E+01 1.38736E+01 8.43867E+00 9.24556E+00 2.92688E-01 2.39720E-01
 -1      3449-2.57140E-01 4.93269E+00 9.11427E-01-2.03979E-01-9.06376E-01 2.64350E-02
 -1      3450 6.72911E-01 2.36377E+00 8.84666E-01 1.39671E-01-7.28573E-01 4.94144E-02
 -1      3451-8.22035E-01 1.98493E+00 2.51713E-01-3.13365E+00-8.65126E-01 8.48166E-02
 -1      3452 1.04053E-01 4.67264E+00 3.92007E-01-1.22691E+00-2.15767E-01 3.19383E-02
 -1      3453 2.12422E-01 3.46979E+00 2.98104E-01-4.37322E-01-2.67257E-02 2.19349E-02
 -1      3454-7.67045E-01 1.96596E+00 6.93839E-01-2.91044E+00-8.60088E-01 9.44314E-02
 -1      3455 2.11483E-01 4.80469E+00 7.95658E-01-1.11185E+00-4.36946E-01 1.36171E-01
 -1      3456 2.87818E-01 3.58899E+00 6.16921E-01-3.86167E-01-3.67174E-01 9.41380E-02
 -1      3457-6.43447E-01 1.92423E+00 4.92485E-01-2.78473E+00-6.79901E-01 1.26619E-01
 -1      3458 3.48108E-01 4.68302E+00 1.04299E+00-9.30055E-01-7.62989E-01 1.73891E-01
 -1      3459 3.68937E-01 3.20367E+00 9.60720E-01-2.69035E-01-7.17628E-01 5.67074E-02
 -1      3460-6.95662E-01 1.47022E+00-3.00794E-01-2.62291E+00-8.47772E-01 3.64689E-01
 -1      3461 2.92591E-01 3.88996E+00 1.22596E+00-7.38944E-01-1.20418E+00 7.06578E-02
 -1      3462 3.27662E-01 2.10065E+00 1.04743E+00-1.37832E-01-8.03899E-01 9.79571E-03
 -1      3463-7.32747E-02-1.60905E+01-3.78465E+00 6.17537E+00-4.64327E+00 1.10498E+00
 -1      3464-8.48643E-04-5.79299E+00-1.35768E+00 9.23145E+00-1.73761E+00 1.47452E+00
 -1      3465 1.94399E-01 4.99374E+00 8.84976E-01 9.03723E+00 1.42434E+00 1.35205E+00
 -1      3466 2.88661E-01 1.61786E+01 3.82609E+00 5.88357E+00 4.73444E+00 8.85285E-01
 -1      3467 1.31262E-01-2.15549E+01-3.22428E+00 6.24471E+00-3.75636E+00-6.80222E-03
 -1      3468 9.50640E-02-7.45961E+00-1.10820E+00 9.70426E+00-1.27117E+00 7.78599E-02
 -1      3469 1.13649E-01 7.00225E+00 9.13521E-01 9.57744E+00 1.18512E+00 2.77002E-02
 -1      3470 3.36127E-02 2.15268E+01 3.24773E+00 6.03230E+00 3.86171E+00-9.94416E-02
 -1      3471 1.33047E-01-2.84631E+01-2.61616E+00 6.18533E+00-2.74195E+00-2.21944E-01
 -1      3472 8.71580E-02-9.62179E+00-8.89284E-01 9.71144E+00-8.77643E-01-2.35881E-01
 -1      3473 6.28921E-02 9.38806E+00 8.15740E-01 9.63958E+00 8.93097E-01-2.54048E-01
 -1      3474-2.15482E-02 2.84528E+01 2.62609E+00 6.06480E+00 2.82341E+00-2.53536E-01
 -1      3475 1.24151E-01-3.55602E+01-1.80040E+00 6.33638E+00-1.99961E+00-1.93392E-01
 -1      3476 8.61239E-02-1.18940E+01-6.04188E-01 9.86474E+00-6.28189E-01-2.37395E-01
 -1      3477-1.40124E-02 1.18124E+01 5.84441E-01 9.83282E+00 6.68116E-01-2.41853E-01
 -1      3478-6.78281E-02 3.55797E+01 1.80421E+00 6.28382E+00 2.05778E+00-2.00581E-01
 -1      3479 8.26769E-02-4.25158E+01-1.22054E+00 6.28124E+00-1.56785E+00-1.13712E-01
 -1      3480 4.01839E-02-1.41734E+01-4.06871E-01 9.79016E+00-4.89893E-01-1.46164E-01
 -1      3481-1.42321E-02 1.41889E+01 4.26219E-01 9.77946E+00 5.28342E-01-1.46831E-01
 -1      3482-6.08231E-02 4.25649E+01 1.24006E+00 6.26429E+00 1.61085E+00-1.14509E-01
 -1      3483 4.66947E-02-4.91695E+01-7.94793E-01 6.23450E+00-1.30969E+00-4.51047E-02
 -1      3484 2.62926E-02-1.63640E+01-2.41362E-01 9.72665E+00-4.08646E-01-5.56243E-02
 -1      3485-2.04868E-02 1.64267E+01 3.13494E-01 9.72595E+00 4.33191E-01-5.56353E-02
 -1      3486-4.10935E-02 4.92427E+01 8.59771E-01 6.23374E+00 1.33606E+00-4.49995E-02
 -1      3487 2.77590E-02-5.56016E+01-4.72142E-01 6.21321E+00-1.16297E+00 5.06577E-03
 -1      3488 2.07706E-02-1.85105E+01-1.01017E-01 9.69538E+00-3.68539E-01 1.26453E-02
 -1      3489-1.71240E-02 1.85738E+01 2.64149E-01 9.70121E+00 3.64600E-01 1.25000E-02
 -1      3490-2.50455E-02 5.56832E+01 6.28728E-01 6.22287E+00 1.16019E+00 4.80609E-03
 -1      3491 2.04032E-02-6.19124E+01-2.07843E-01 6.20489E+00-1.09273E+00 3.99182E-02
 -1      3492 2.46685E-02-2.06435E+01 3.99437E-02 9.68867E+00-3.61902E-01 6.01991E-02
 -1      3493-8.53583E-03 2.06413E+01 2.79824E-01 9.70487E+00 3.04626E-01 5.98156E-02
 -1      3494-9.94389E-03 6.19666E+01 5.29838E-01 6.23211E+00 1.03488E+00 3.91250E-02
 -1      3495 2.17207E-02-6.81801E+01 4.29181E-02 6.19749E+00-1.08169E+00 6.49422E-02
 -1      3496 3.67451E-02-2.28069E+01 2.05977E-01 9.69391E+00-3.88293E-01 9.37852E-02
 -1      3497 5.89222E-03 2.26265E+01 3.68863E-01 9.73064E+00 2.37462E-01 9.31663E-02
 -1      3498 4.83848E-03 6.81361E+01 5.56651E-01 6.26116E+00 9.25597E-01 6.35944E-02
 -1      3499 2.34461E-02-7.44760E+01 3.17669E-01 6.18395E+00-1.12441E+00 8.48622E-02
 -1      3500 5.00706E-02-2.50501E+01 4.19818E-01 9.70606E+00-4.51828E-01 1.19975E-01
 -1      3501 2.04597E-02 2.45130E+01 5.44170E-01 9.77435E+00 1.48420E-01 1.18945E-01
 -1      3502 1.32277E-02 7.42015E+01 7.13394E-01 6.30703E+00 8.05599E-01 8.26304E-02
 -1      3503-4.42998E-03-8.08932E+01 6.32299E-01 6.17666E+00-1.22125E+00 1.03156E-01
 -1      3504 3.38858E-02-2.74113E+01 6.97852E-01 9.73977E+00-5.58306E-01 1.44288E-01
 -1      3505 1.58934E-03 2.62987E+01 8.19950E-01 9.82929E+00 2.54051E-02 1.41879E-01
 -1      3506-1.38222E-02 8.01480E+01 1.00656E+00 6.34982E+00 6.53987E-01 9.86696E-02
 -1      3507-1.53686E-01-8.75759E+01 9.50264E-01 6.25627E+00-1.37078E+00 1.20637E-01
 -1      3508-9.35751E-02-2.98159E+01 1.06076E+00 9.84275E+00-7.11891E-01 1.71777E-01
 -1      3509-1.75187E-01 2.80169E+01 1.18506E+00 9.85867E+00-1.36158E-01 1.65228E-01
 -1      3510-1.48809E-01 8.59504E+01 1.42882E+00 6.32964E+00 4.59544E-01 1.09327E-01
 -1      3511-5.63359E-01-9.42854E+01 1.29964E+00 7.42558E+00-1.59598E+00 7.23472E-02
 -1      3512-6.43074E-01-3.19918E+01 1.48368E+00 1.09908E+01-9.10024E-01 1.35370E-01
 -1      3513-7.28943E-01 2.98169E+01 1.59750E+00 1.06351E+01-3.25612E-01 1.20940E-01
 -1      3514-6.20065E-01 9.11915E+01 1.77207E+00 6.90208E+00 2.55679E-01 4.55800E-02
 -1      3515-1.49163E+00-1.00898E+02 1.26082E+00 7.70731E+00-1.78742E+00 1.18587E-01
 -1      3516-1.88237E+00-3.33544E+01 1.80960E+00 1.07948E+01-1.08457E+00 2.04883E-01
 -1      3517-1.87018E+00 3.20678E+01 1.98831E+00 9.50916E+00-4.98047E-01 1.73056E-01
 -1      3518-1.43414E+00 9.58180E+01 2.02942E+00 5.49731E+00 4.95587E-02 6.17269E-02
 -1      3519-2.95489E+00-1.06644E+02 1.18867E+00 9.73785E+00-1.93771E+00 1.86121E-01
 -1      3520-4.27139E+00-3.32021E+01 2.10132E+00 1.16049E+01-1.20545E+00 2.87309E-01
 -1      3521-4.12536E+00 3.53166E+01 2.22180E+00 8.58096E+00-6.34661E-01 2.23494E-01
 -1      3522-2.78896E+00 1.00167E+02 1.99984E+00 3.90305E+00-1.23398E-01 8.01995E-02
 -1      3523-3.38929E-02-2.20962E+01-1.95118E+00 7.47726E+00-6.00498E+00 1.69496E+00
 -1      3524 3.15334E-01-8.01421E+00-6.51333E-01 1.06627E+01-2.08599E+00 2.25654E+00
 -1      3525-2.19144E-01 6.56659E+00 2.77020E-01 1.03074E+01 1.81452E+00 2.15435E+00
 -1      3526 2.32169E-01 2.25065E+01 1.97903E+00 6.92878E+00 6.17736E+00 1.51156E+00
 -1      3527-6.71799E-02-2.63408E+01-2.05113E+00 6.95876E+00-5.14184E+00 1.68885E-01
 -1      3528 4.48615E-02-9.27953E+00-7.92667E-01 1.03693E+01-1.66084E+00 3.11453E-01
 -1      3529 1.77615E-01 8.60290E+00 6.02276E-01 1.01719E+01 1.61861E+00 2.56332E-01
 -1      3530 2.79937E-01 2.65545E+01 2.05610E+00 6.62874E+00 5.29751E+00 6.89961E-02
 -1      3531-3.09314E-02-3.14233E+01-1.84129E+00 6.48428E+00-4.22358E+00-2.35940E-01
 -1      3532 3.92085E-02-1.06600E+01-6.60863E-01 1.00644E+01-1.31513E+00-2.58081E-01
 -1      3533 1.33399E-01 1.04015E+01 5.78796E-01 9.96464E+00 1.36107E+00-2.79852E-01
 -1      3534 1.77751E-01 3.15550E+01 1.84086E+00 6.31443E+00 4.34594E+00-2.73391E-01
 -1      3535 2.67304E-02-3.73109E+01-1.32635E+00 6.54962E+00-3.32457E+00-2.57207E-01
 -1      3536 4.81428E-02-1.24828E+01-4.57922E-01 1.01910E+01-1.01982E+00-3.29773E-01
 -1      3537 3.84715E-02 1.24264E+01 4.30397E-01 1.01506E+01 1.09178E+00-3.35326E-01
 -1      3538 4.78807E-02 3.74054E+01 1.32656E+00 6.48260E+00 3.41773E+00-2.65665E-01
 -1      3539 3.15775E-02-4.35187E+01-9.11450E-01 6.51595E+00-2.71068E+00-1.63387E-01
 -1      3540 1.93231E-02-1.45061E+01-3.12135E-01 1.01709E+01-8.24943E-01-2.22508E-01
 -1      3541 1.48111E-02 1.45474E+01 3.22753E-01 1.01583E+01 8.93454E-01-2.23187E-01
 -1      3542-7.27287E-04 4.36051E+01 9.25575E-01 6.49602E+00 2.78435E+00-1.63819E-01
 -1      3543 2.28684E-02-4.97256E+01-5.85235E-01 6.50510E+00-2.31173E+00-7.01561E-02
 -1      3544 1.06169E-02-1.65515E+01-1.86398E-01 1.01646E+01-7.00636E-01-9.94925E-02
 -1      3545 1.60256E-03 1.66355E+01 2.40508E-01 1.01640E+01 7.47831E-01-9.95122E-02
 -1      3546-1.09733E-02 4.98223E+01 6.34457E-01 6.50455E+00 2.36161E+00-6.98782E-02
 -1      3547 1.89308E-02-5.58727E+01-3.29353E-01 6.50832E+00-2.07455E+00-1.42617E-03
 -1      3548 8.76767E-03-1.85999E+01-7.83572E-02 1.01713E+01-6.36051E-01-6.25246E-03
 -1      3549 3.04058E-03 1.86943E+01 2.02660E-01 1.01776E+01 6.38686E-01-6.75521E-03
 -1      3550-8.32500E-03 5.59877E+01 4.48512E-01 6.51874E+00 2.07969E+00-2.26014E-03
 -1      3551 2.15599E-02-6.19755E+01-1.16732E-01 6.51286E+00-1.95713E+00 4.45834E-02
 -1      3552 1.55056E-02-2.06510E+01 3.02287E-02 1.01838E+01-6.24096E-01 5.58937E-02
 -1      3553 1.30456E-02 2.07191E+01 2.13238E-01 1.02003E+01 5.42213E-01 5.47326E-02
 -1      3554 1.31157E-03 6.21052E+01 3.62292E-01 6.54047E+00 1.87545E+00 4.23612E-02
 -1      3555 3.08350E-02-6.80599E+01 8.50244E-02 6.50968E+00-1.93578E+00 7.56710E-02
 -1      3556 3.03767E-02-2.27250E+01 1.57653E-01 1.01945E+01-6.65666E-01 9.66894E-02
 -1      3557 3.07202E-02 2.27026E+01 2.79683E-01 1.02311E+01 4.33710E-01 9.48726E-02
 -1      3558 1.50456E-02 6.81841E+01 3.73205E-01 6.57277E+00 1.69662E+00 7.19847E-02
 -1      3559 3.99361E-02-7.41591E+01 3.04770E-01 6.49422E+00-2.00368E+00 9.90506E-02
 -1      3560 4.68214E-02-2.48499E+01 3.21809E-01 1.02023E+01-7.68843E-01 1.26310E-01
 -1      3561 4.96539E-02 2.46323E+01 4.12786E-01 1.02702E+01 2.88466E-01 1.23585E-01
 -1      3562 2.53893E-02 7.42234E+01 4.85427E-01 6.61602E+00 1.49896E+00 9.32994E-02
 -1      3563 2.00863E-02-8.03329E+01 5.56085E-01 6.47887E+00-2.16520E+00 1.19995E-01
 -1      3564 3.50579E-02-2.70453E+01 5.37723E-01 1.02214E+01-9.45828E-01 1.53512E-01
 -1      3565 3.73487E-02 2.65100E+01 6.25788E-01 1.03133E+01 8.45473E-02 1.48354E-01
 -1      3566 3.74864E-03 8.02070E+01 7.05299E-01 6.65535E+00 1.24516E+00 1.09587E-01
 -1      3567-1.16669E-01-8.66969E+01 8.15783E-01 6.53404E+00-2.42814E+00 1.42676E-01
 -1      3568-8.59333E-02-2.92384E+01 8.28673E-01 1.02936E+01-1.20696E+00 1.88485E-01
 -1      3569-1.17736E-01 2.83736E+01 9.16859E-01 1.03263E+01-1.88787E-01 1.76327E-01
 -1      3570-1.21041E-01 8.61020E+01 1.02818E+00 6.63584E+00 9.13933E-01 1.19398E-01
 -1      3571-5.08665E-01-9.31045E+01 1.12001E+00 7.43917E+00-2.81888E+00 1.38812E-01
 -1      3572-5.95858E-01-3.11877E+01 1.18643E+00 1.11624E+01-1.54925E+00 2.03854E-01
 -1      3573-6.28647E-01 3.03665E+01 1.25980E+00 1.08611E+01-5.19258E-01 1.76546E-01
 -1      3574-5.62330E-01 9.15473E+01 1.28854E+00 7.00976E+00 5.38838E-01 8.57417E-02
 -1      3575-1.41875E+00-9.95038E+01 1.12529E+00 7.80556E+00-3.20059E+00 2.56752E-01
 -1      3576-1.78024E+00-3.23374E+01 1.51327E+00 1.10716E+01-1.87520E+00 3.56565E-01
 -1      3577-1.74330E+00 3.28562E+01 1.62763E+00 9.87883E+00-8.33536E-01 2.95091E-01
 -1      3578-1.36522E+00 9.64718E+01 1.52657E+00 5.76925E+00 1.57325E-01 1.43171E-01
 -1      3579-2.86630E+00-1.05078E+02 1.20456E+00 9.73422E+00-3.52087E+00 4.10443E-01
 -1      3580-4.15438E+00-3.19649E+01 1.84745E+00 1.17930E+01-2.12244E+00 5.35558E-01
 -1      3581-3.99371E+00 3.63725E+01 1.88057E+00 8.87159E+00-1.08797E+00 4.05252E-01
 -1      3582-2.73857E+00 1.01113E+02 1.52160E+00 4.11681E+00-1.71525E-01 1.83200E-01
 -1      3583-1.28711E-01-2.61196E+01-1.06766E+00 8.53073E+00-4.93937E+00 1.04100E+00
 -1      3584 3.16910E-01-9.61421E+00-4.34782E-01 1.19507E+01-1.60371E+00 1.52882E+00
 -1      3585-1.73386E-01 8.10096E+00 1.55010E-01 1.15427E+01 1.51916E+00 1.48929E+00
 -1      3586 4.03520E-01 2.70262E+01 1.15763E+00 7.90796E+00 5.08305E+00 9.66241E-01
 -1      3587 4.66325E-02-2.92160E+01-8.64604E-01 7.68476E+00-4.66893E+00 1.07094E-01
 -1      3588 1.12789E-01-1.03702E+01-4.55022E-01 1.13730E+01-1.43324E+00 2.26708E-01
 -1      3589 1.94787E-01 9.69627E+00 3.06889E-01 1.11320E+01 1.44928E+00 1.98098E-01
 -1      3590 2.35219E-01 2.96584E+01 8.68750E-01 7.28278E+00 4.78459E+00 5.67194E-02
 -1      3591-1.12660E-02-3.37397E+01-9.37117E-01 7.14502E+00-4.16719E+00-2.13944E-01
 -1      3592 5.52282E-02-1.14736E+01-3.87894E-01 1.10542E+01-1.24276E+00-2.50526E-01
 -1      3593 1.65196E-01 1.12312E+01 3.10641E-01 1.09346E+01 1.30548E+00-2.63935E-01
 -1      3594 1.98240E-01 3.39886E+01 9.32837E-01 6.94189E+00 4.26852E+00-2.35382E-01
 -1      3595-8.92874E-03-3.89607E+01-7.54447E-01 7.13945E+00-3.51222E+00-2.25756E-01
 -1      3596 3.78353E-02-1.30389E+01-2.78971E-01 1.11425E+01-1.03169E+00-3.04505E-01
 -1      3597 7.17442E-02 1.30031E+01 2.46570E-01 1.10946E+01 1.11189E+00-3.08116E-01
 -1      3598 1.03749E-01 3.91105E+01 7.53279E-01 7.06014E+00 3.60253E+00-2.30231E-01
 -1      3599-7.04698E-03-4.45749E+01-5.46683E-01 7.13335E+00-2.97026E+00-1.36836E-01
 -1      3600 1.07216E-02-1.48579E+01-1.96228E-01 1.11751E+01-8.60729E-01-2.00531E-01
 -1      3601 3.44236E-02 1.49087E+01 1.96360E-01 1.11608E+01 9.39398E-01-2.01130E-01
 -1      3602 4.76502E-02 4.46791E+01 5.55197E-01 7.11091E+00 3.05143E+00-1.36914E-01
 -1      3603-4.54411E-03-5.03521E+01-3.53914E-01 7.15694E+00-2.58371E+00-4.77074E-02
 -1      3604 4.93300E-03-1.67638E+01-1.19603E-01 1.12215E+01-7.40853E-01-8.32297E-02
 -1      3605 1.49940E-02 1.68445E+01 1.50765E-01 1.12213E+01 8.01400E-01-8.37293E-02
 -1      3606 2.33071E-02 5.04470E+01 3.84231E-01 7.15738E+00 2.64723E+00-4.81577E-02
 -1      3607 2.97770E-03-5.62028E+01-1.91641E-01 7.18143E+00-2.34177E+00 1.77912E-02
 -1      3608 8.33245E-03-1.87117E+01-5.21190E-02 1.12600E+01-6.74735E-01 3.84613E-03
 -1      3609 1.29585E-02 1.88033E+01 1.27677E-01 1.12674E+01 6.94180E-01 2.53213E-03
 -1      3610 1.64557E-02 5.63172E+01 2.65246E-01 7.19382E+00 2.36525E+00 1.55707E-02
 -1      3611 1.56483E-02-6.20865E+01-5.33790E-02 7.19390E+00-2.21692E+00 6.11991E-02
 -1      3612 2.08604E-02-2.06785E+01 1.56231E-02 1.12834E+01-6.60128E-01 5.98064E-02
 -1      3613 2.24547E-02 2.07755E+01 1.33000E-01 1.13011E+01 5.98850E-01 5.74991E-02
 -1      3614 2.15744E-02 6.22514E+01 2.05631E-01 7.22330E+00 2.15823E+00 5.69155E-02
 -1      3615 3.39134E-02-6.79783E+01 7.80861E-02 7.18956E+00-2.18941E+00 9.03138E-02
 -1      3616 4.20497E-02-2.26585E+01 9.46252E-02 1.12909E+01-6.99499E-01 9.50208E-02
 -1      3617 4.19202E-02 2.27545E+01 1.72782E-01 1.13279E+01 4.91422E-01 9.18475E-02
 -1      3618 3.52074E-02 6.82337E+01 2.07112E-01 7.25309E+00 1.97728E+00 8.40285E-02
 -1      3619 5.19984E-02-7.38651E+01 2.20536E-01 7.16758E+00-2.25430E+00 1.12078E-01
 -1      3620 6.55675E-02-2.46513E+01 1.96937E-01 1.12856E+01-8.02503E-01 1.19749E-01
 -1      3621 6.44744E-02 2.47364E+01 2.55064E-01 1.13528E+01 3.45666E-01 1.15974E-01
 -1      3622 4.94166E-02 7.42570E+01 2.73137E-01 7.28750E+00 1.77636E+00 1.03931E-01
 -1      3623 4.29996E-02-7.97570E+01 3.83553E-01 7.13935E+00-2.42049E+00 1.30793E-01
 -1      3624 6.19685E-02-2.66458E+01 3.35349E-01 1.12803E+01-9.84865E-01 1.42062E-01
 -1      3625 5.85706E-02 2.67367E+01 3.91441E-01 1.13721E+01 1.36190E-01 1.37349E-01
 -1      3626 3.59411E-02 8.03115E+01 4.07869E-01 7.31459E+00 1.51275E+00 1.19847E-01
 -1      3627-7.65204E-02-8.57149E+01 5.53675E-01 7.16076E+00-2.70726E+00 1.49409E-01
 -1      3628-5.07195E-02-2.85525E+01 5.33836E-01 1.13051E+01-1.26310E+00 1.70865E-01
 -1      3629-7.87032E-02 2.88121E+01 5.88485E-01 1.13475E+01-1.53531E-01 1.61991E-01
 -1      3630-7.73738E-02 8.63699E+01 6.08891E-01 7.27919E+00 1.15618E+00 1.29287E-01
 -1      3631-4.55127E-01-9.16632E+01 7.59051E-01 7.78669E+00-3.15581E+00 1.58899E-01
 -1      3632-5.27548E-01-3.01399E+01 8.01661E-01 1.18704E+01-1.64046E+00 1.98734E-01
 -1      3633-5.58104E-01 3.11191E+01 8.42189E-01 1.16132E+01-5.15640E-01 1.76235E-01
 -1      3634-4.88006E-01 9.21478E+01 7.64781E-01 7.43675E+00 7.28693E-01 1.09224E-01
 -1      3635-1.35002E+00-9.75968E+01 7.90746E-01 8.20022E+00-3.65684E+00 2.83641E-01
 -1      3636-1.67112E+00-3.08737E+01 1.10717E+00 1.18429E+01-2.03391E+00 3.55861E-01
 -1      3637-1.66583E+00 3.40203E+01 1.15433E+00 1.07408E+01-8.87235E-01 2.89679E-01
 -1      3638-1.29886E+00 9.75270E+01 9.21816E-01 6.34457E+00 2.53783E-01 1.50920E-01
 -1      3639-2.81547E+00-1.02727E+02 9.98284E-01 9.97230E+00-4.12041E+00 4.92445E-01
 -1      3640-4.04303E+00-3.00235E+01 1.46973E+00 1.24113E+01-2.35741E+00 5.78746E-01
 -1      3641-3.92082E+00 3.80398E+01 1.42408E+00 9.60934E+00-1.20802E+00 4.10848E-01
 -1      3642-2.69862E+00 1.02670E+02 9.60269E-01 4.61965E+00-1.84388E-01 1.78136E-01
 -1      3643 1.02147E-01-2.77419E+01-3.92288E-01 9.59626E+00-2.67150E+00 3.21589E-01
 -1      3644 4.44232E-01-1.03071E+01-1.96507E-01 1.36784E+01-8.01957E-01 5.84004E-01
 -1      3645-1.07738E-01 8.80591E+00 1.61548E-02 1.32399E+01 8.08686E-01 5.79341E-01
 -1      3646 2.88426E-01 2.87455E+01 4.85084E-01 8.92993E+00 2.69470E+00 3.10402E-01
 -1      3647 2.12735E-01-3.09778E+01-2.94078E-01 8.88479E+00-2.79111E+00-6.58840E-02
 -1      3648 2.15471E-01-1.10441E+01-2.55959E-01 1.33165E+01-8.13521E-01-2.94320E-02
 -1      3649 2.09336E-01 1.03344E+01 1.26563E-01 1.30435E+01 8.39305E-01-3.99161E-02
 -1      3650 1.42447E-01 3.14638E+01 2.98860E-01 8.43226E+00 2.83532E+00-8.12807E-02
 -1      3651 5.99248E-02-3.53301E+01-3.75479E-01 8.50435E+00-2.62799E+00-1.58761E-01
 -1      3652 1.14281E-01-1.20242E+01-1.92836E-01 1.31925E+01-7.56149E-01-2.07115E-01
 -1      3653 1.64539E-01 1.17756E+01 1.18004E-01 1.30548E+01 8.03494E-01-2.13454E-01
 -1      3654 1.64079E-01 3.56142E+01 3.69658E-01 8.27390E+00 2.68105E+00-1.66899E-01
 -1      3655-1.83559E-02-4.01893E+01-3.58967E-01 8.50881E+00-2.29209E+00-1.26692E-01
 -1      3656 5.45284E-02-1.34475E+01-1.37563E-01 1.33139E+01-6.50272E-01-1.86696E-01
 -1      3657 8.17314E-02 1.34141E+01 1.01645E-01 1.32580E+01 7.07905E-01-1.89042E-01
 -1      3658 1.30770E-01 4.03588E+01 3.57478E-01 8.41760E+00 2.34975E+00-1.29139E-01
 -1      3659-3.80371E-02-4.53900E+01-2.85149E-01 8.53477E+00-1.97636E+00-6.12245E-02
 -1      3660 1.94275E-02-1.51248E+01-9.63825E-02 1.33937E+01-5.51534E-01-1.06237E-01
 -1      3661 3.73068E-02 1.51612E+01 8.78899E-02 1.33777E+01 6.09706E-01-1.07293E-01
 -1      3662 8.62920E-02 4.54854E+01 2.89280E-01 8.50983E+00 2.03426E+00-6.22789E-02
 -1      3663-3.37373E-02-5.08456E+01-1.95668E-01 8.57003E+00-1.73602E+00-2.45611E-03
 -1      3664 1.22312E-02-1.69313E+01-5.65445E-02 1.34564E+01-4.76681E-01-2.88662E-02
 -1      3665 1.34316E-02 1.69678E+01 6.86725E-02 1.34575E+01 5.25700E-01-2.99928E-02
 -1      3666 5.64899E-02 5.08985E+01 2.10725E-01 8.57274E+00 1.78668E+00-4.06840E-03
 -1      3667-1.85170E-02-5.64721E+01-1.12805E-01 8.58878E+00-1.58053E+00 3.98040E-02
 -1      3668 1.94531E-02-1.88120E+01-2.06579E-02 1.34863E+01-4.33372E-01 2.51304E-02
 -1      3669 6.87636E-03 1.88297E+01 5.61958E-02 1.34967E+01 4.59606E-01 2.33083E-02
 -1      3670 4.20546E-02 5.65157E+01 1.49491E-01 8.60598E+00 1.60968E+00 3.67212E-02
 -1      3671 2.36790E-03-6.21955E+01-4.04754E-02 8.58634E+00-1.49808E+00 6.82756E-02
 -1      3672 3.74750E-02-2.07285E+01 1.48653E-02 1.34868E+01-4.21954E-01 5.86210E-02
 -1      3673 1.35606E-02 2.07382E+01 5.63242E-02 1.35081E+01 4.01477E-01 5.58693E-02
 -1      3674 4.19215E-02 6.22788E+01 1.16846E-01 8.62162E+00 1.48002E+00 6.33183E-02
 -1      3675 2.81033E-02-6.79511E+01 2.78677E-02 8.56362E+00-1.47732E+00 8.84281E-02
 -1      3676 6.49776E-02-2.26533E+01 5.55079E-02 1.34649E+01-4.44532E-01 7.96474E-02
 -1      3677 3.22187E-02 2.26882E+01 7.36165E-02 1.35051E+01 3.36285E-01 7.61803E-02
 -1      3678 5.41056E-02 6.81543E+01 1.16102E-01 8.63194E+00 1.36800E+00 8.18269E-02
 -1      3679 5.36312E-02-7.36850E+01 1.01099E-01 8.52395E+00-1.51573E+00 1.04218E-01
 -1      3680 9.57568E-02-2.45590E+01 1.08853E-01 1.34282E+01-5.07934E-01 9.48804E-02
 -1      3681 5.57931E-02 2.46868E+01 1.13731E-01 1.34961E+01 2.46509E-01 9.16784E-02
 -1      3682 7.12943E-02 7.41331E+01 1.49596E-01 8.64331E+00 1.24342E+00 9.74048E-02
 -1      3683 5.45771E-02-7.93570E+01 1.85628E-01 8.48277E+00-1.62070E+00 1.17140E-01
 -1      3684 1.00294E-01-2.63974E+01 1.86068E-01 1.33916E+01-6.23859E-01 1.08283E-01
 -1      3685 5.29724E-02 2.67715E+01 1.86577E-01 1.34782E+01 1.13769E-01 1.07237E-01
 -1      3686 6.58236E-02 8.02216E+01 2.18817E-01 8.64604E+00 1.07572E+00 1.13074E-01
 -1      3687-4.44906E-02-8.49476E+01 2.79417E-01 8.48807E+00-1.81040E+00 1.24587E-01
 -1      3688-7.50497E-03-2.80399E+01 3.10502E-01 1.33776E+01-8.07091E-01 1.22103E-01
 -1      3689-7.37450E-02 2.90399E+01 3.05211E-01 1.34070E+01-7.60753E-02 1.25060E-01
 -1      3690-3.71283E-02 8.64176E+01 3.19530E-01 8.58010E+00 8.39376E-01 1.25820E-01
 -1      3691-4.06349E-01-9.03879E+01 3.93483E-01 8.87037E+00-2.12602E+00 9.66508E-02
 -1      3692-4.66698E-01-2.92098E+01 5.06471E-01 1.36586E+01-1.06235E+00 1.07754E-01
 -1      3693-5.42185E-01 3.17091E+01 4.83519E-01 1.33855E+01-3.17512E-01 1.12752E-01
 -1      3694-4.21187E-01 9.25684E+01 3.94587E-01 8.49277E+00 5.48175E-01 9.58330E-02
 -1      3695-1.30414E+00-9.56234E+01 4.45537E-01 9.34749E+00-2.51277E+00 1.43433E-01
 -1      3696-1.62409E+00-2.93225E+01 7.92562E-01 1.37000E+01-1.34616E+00 1.77124E-01
 -1      3697-1.69279E+00 3.52039E+01 7.44857E-01 1.25777E+01-5.79595E-01 1.58308E-01
 -1      3698-1.26416E+00 9.85677E+01 4.71647E-01 7.50425E+00 1.95198E-01 9.22611E-02
 -1      3699-2.87144E+00-9.98858E+01 6.93559E-01 1.09252E+01-2.89754E+00 3.07105E-01
 -1      3700-4.10427E+00-2.76166E+01 1.15438E+00 1.40926E+01-1.59434E+00 3.40417E-01
 -1      3701-4.06216E+00 4.00548E+01 1.00598E+00 1.12427E+01-8.23006E-01 2.33214E-01
 -1      3702-2.75736E+00 1.04511E+02 5.16852E-01 5.66799E+00-1.52067E-01 8.89127E-02
 -1      3703 1.17323E-01-2.78532E+01-3.78586E-01-9.62313E+00-2.68433E+00-3.20232E-01
 -1      3704 4.63263E-01-1.04264E+01-1.95293E-01-1.37022E+01-8.02376E-01-5.83388E-01
 -1      3705-9.47669E-02 8.72253E+00 9.03701E-03-1.32385E+01 8.18107E-01-5.80432E-01
 -1      3706 3.02628E-01 2.87773E+01 4.81809E-01-8.91693E+00 2.71026E+00-3.11790E-01
 -1      3707-1.20696E-01-2.62037E+01-1.04649E+00-8.56329E+00-4.97405E+00-1.04589E+00
 -1      3708 3.27635E-01-9.71218E+00-4.32332E-01-1.19862E+01-1.61497E+00-1.53746E+00
 -1      3709-1.69013E-01 8.02379E+00 1.44798E-01-1.15544E+01 1.53088E+00-1.49786E+00
 -1      3710 4.14533E-01 2.70608E+01 1.15122E+00-7.90281E+00 5.12052E+00-9.70701E-01
 -1      3711-3.11501E-02-2.21374E+01-1.92790E+00-7.51669E+00-6.07204E+00-1.70854E+00
 -1      3712 3.20406E-01-8.07785E+00-6.46561E-01-1.07113E+01-2.11358E+00-2.27731E+00
 -1      3713-2.18310E-01 6.50970E+00 2.70135E-01-1.03357E+01 1.83286E+00-2.16922E+00
 -1      3714 2.39580E-01 2.25260E+01 1.97175E+00-6.93672E+00 6.24789E+00-1.51705E+00
 -1      3715-8.21247E-02-1.60379E+01-3.77726E+00-6.23249E+00-4.73857E+00-1.14509E+00
 -1      3716-5.98160E-03-5.78641E+00-1.35146E+00-9.30718E+00-1.77587E+00-1.52780E+00
 -1      3717 1.91176E-01 4.94400E+00 8.98298E-01-9.10209E+00 1.44862E+00-1.39487E+00
 -1      3718 2.87440E-01 1.61129E+01 3.82286E+00-5.92657E+00 4.83481E+00-9.08014E-01
 -1      3719 2.24608E-01-3.10849E+01-2.84219E-01-8.90185E+00-2.81218E+00 6.99717E-02
 -1      3720 2.29446E-01-1.11406E+01-2.55772E-01-1.33318E+01-8.19059E-01 3.48490E-02
 -1      3721 2.21880E-01 1.02773E+01 1.22538E-01-1.30447E+01 8.47541E-01 4.48320E-02
 -1      3722 1.52053E-01 3.14736E+01 2.93521E-01-8.42594E+00 2.85628E+00 8.43034E-02
 -1      3723 5.32994E-02-2.92932E+01-8.50722E-01-7.70514E+00-4.71351E+00-1.03787E-01
 -1      3724 1.21701E-01-1.04444E+01-4.53615E-01-1.13938E+01-1.44761E+00-2.22823E-01
 -1      3725 2.03459E-01 9.64945E+00 3.02489E-01-1.11399E+01 1.46420E+00-1.94106E-01
 -1      3726 2.43909E-01 2.96700E+01 8.61194E-01-7.28146E+00 4.82866E+00-5.35489E-02
 -1      3727-6.71014E-02-2.63762E+01-2.04416E+00-6.98681E+00-5.21332E+00-1.71797E-01
 -1      3728 4.87094E-02-9.32452E+00-7.92215E-01-1.04026E+01-1.68607E+00-3.15671E-01
 -1      3729 1.84279E-01 8.56592E+00 6.03414E-01-1.01945E+01 1.64063E+00-2.58351E-01
 -1      3730 2.88794E-01 2.65527E+01 2.05557E+00-6.63824E+00 5.36919E+00-6.86981E-02
 -1      3731 1.22366E-01-2.15123E+01-3.25032E+00-6.28427E+00-3.84517E+00-1.11014E-02
 -1      3732 9.26566E-02-7.45529E+00-1.11403E+00-9.75906E+00-1.30444E+00-1.00645E-01
 -1      3733 1.14041E-01 6.95862E+00 9.25028E-01-9.62800E+00 1.21107E+00-4.41014E-02
 -1      3734 4.17611E-02 2.14726E+01 3.27816E+00-6.06237E+00 3.95346E+00 9.06932E-02
 -1      3735 6.61866E-02-3.54270E+01-3.71283E-01-8.51598E+00-2.65273E+00 1.63191E-01
 -1      3736 1.22112E-01-1.21033E+01-1.93197E-01-1.32058E+01-7.63972E-01 2.13561E-01
 -1      3737 1.72114E-01 1.17274E+01 1.16008E-01-1.30614E+01 8.11231E-01 2.19672E-01
 -1      3738 1.70048E-01 3.56072E+01 3.67152E-01-8.27447E+00 2.70379E+00 1.70761E-01
 -1      3739-8.09980E-03-3.38061E+01-9.33848E-01-7.15745E+00-4.21402E+00 2.19169E-01
 -1      3740 6.04153E-02-1.15311E+01-3.88643E-01-1.10686E+01-1.25822E+00 2.57681E-01
 -1      3741 1.71431E-01 1.11937E+01 3.09741E-01-1.09429E+01 1.31989E+00 2.70909E-01
 -1      3742 2.04455E-01 3.39832E+01 9.31764E-01-6.94403E+00 4.31249E+00 2.40025E-01
 -1      3743-3.14651E-02-3.14493E+01-1.84861E+00-6.50178E+00-4.28834E+00 2.37574E-01
 -1      3744 4.18165E-02-1.06916E+01-6.64485E-01-1.00868E+01-1.33720E+00 2.60129E-01
 -1      3745 1.38161E-01 1.03706E+01 5.82107E-01-9.98180E+00 1.38106E+00 2.82628E-01
 -1      3746 1.84421E-01 3.15394E+01 1.85043E+00-6.32285E+00 4.40867E+00 2.75894E-01
 -1      3747 1.31571E-01-2.84251E+01-2.64325E+00-6.20615E+00-2.81226E+00 2.15435E-01
 -1      3748 8.69227E-02-9.61791E+00-8.98381E-01-9.74173E+00-9.01914E-01 2.26344E-01
 -1      3749 6.42520E-02 9.35659E+00 8.26390E-01-9.66701E+00 9.14063E-01 2.46666E-01
 -1      3750-1.86780E-02 2.84013E+01 2.65532E+00-6.08034E+00 2.89414E+00 2.50416E-01
 -1      3751-1.59911E-02-4.02745E+01-3.59065E-01-8.51879E+00-2.31615E+00 1.30189E-01
 -1      3752 5.79309E-02-1.35158E+01-1.38554E-01-1.33280E+01-6.58269E-01 1.91944E-01
 -1      3753 8.53800E-02 1.33681E+01 1.01143E-01-1.32695E+01 7.14787E-01 1.94121E-01
 -1      3754 1.34096E-01 4.03380E+01 3.57878E-01-8.42335E+00 2.37142E+00 1.32252E-01
 -1      3755-7.87448E-03-3.90177E+01-7.57615E-01-7.14747E+00-3.55471E+00 2.30438E-01
 -1      3756 4.00923E-02-1.30870E+01-2.81157E-01-1.11534E+01-1.04593E+00 3.11114E-01
 -1      3757 7.48771E-02 1.29678E+01 2.47236E-01-1.11031E+01 1.12435E+00 3.14447E-01
 -1      3758 1.07271E-01 3.90927E+01 7.56627E-01-7.06430E+00 3.64159E+00 2.34286E-01
 -1      3759 2.68556E-02-3.73326E+01-1.33749E+00-6.55929E+00-3.37755E+00 2.60248E-01
 -1      3760 4.95056E-02-1.25084E+01-4.62763E-01-1.02042E+01-1.03761E+00 3.33588E-01
 -1      3761 4.08615E-02 1.23990E+01 4.33891E-01-1.01618E+01 1.10789E+00 3.39078E-01
 -1      3762 5.10717E-02 3.73826E+01 1.33766E+00-6.48869E+00 3.46799E+00 2.68398E-01
 -1      3763 1.24704E-01-3.55385E+01-1.82383E+00-6.34691E+00-2.05161E+00 1.92076E-01
 -1      3764 8.69068E-02-1.18938E+01-6.12706E-01-9.88031E+00-6.45284E-01 2.34512E-01
 -1      3765-1.33119E-02 1.17898E+01 5.92244E-01-9.84711E+00 6.84423E-01 2.39344E-01
 -1      3766-6.69453E-02 3.55419E+01 1.82758E+00-6.29198E+00 2.10901E+00 1.99620E-01
 -1      3767-3.75386E-02-4.54650E+01-2.87038E-01-8.54480E+00-1.99783E+00 6.35682E-02
 -1      3768 2.05939E-02-1.51864E+01-9.75265E-02-1.34094E+01-5.58775E-01 1.09806E-01
 -1      3769 3.88301E-02 1.51146E+01 8.80598E-02-1.33925E+01 6.15545E-01 1.10757E-01
 -1      3770 8.79821E-02 4.54541E+01 2.90831E-01-8.51863E+00 2.05354E+00 6.43985E-02
 -1      3771-6.82075E-03-4.46256E+01-5.51554E-01-7.13921E+00-3.00690E+00 1.40240E-01
 -1      3772 1.15176E-02-1.49013E+01-1.98585E-01-1.11841E+01-8.73130E-01 2.05382E-01
 -1      3773 3.57275E-02 1.48735E+01 1.97391E-01-1.11691E+01 9.49690E-01 2.05752E-01
 -1      3774 4.92788E-02 4.46534E+01 5.59311E-01-7.11566E+00 3.08481E+00 1.39849E-01
 -1      3775 3.17934E-02-4.35410E+01-9.21963E-01-6.52123E+00-2.75408E+00 1.66040E-01
 -1      3776 1.99743E-02-1.45300E+01-3.16549E-01-1.01787E+01-8.39594E-01 2.25910E-01
 -1      3777 1.57901E-02 1.45219E+01 3.25471E-01-1.01655E+01 9.06277E-01 2.26356E-01
 -1      3778 5.53846E-04 4.35807E+01 9.34829E-01-6.50014E+00 2.82482E+00 1.65972E-01
 -1      3779 8.35586E-02-4.25075E+01-1.23825E+00-6.28629E+00-1.60924E+00 1.13848E-01
 -1      3780 4.08844E-02-1.41774E+01-4.13727E-01-9.79773E+00-5.03444E-01 1.45599E-01
 -1      3781-1.38808E-02 1.41720E+01 4.31313E-01-9.78646E+00 5.41187E-01 1.46093E-01
 -1      3782-6.07595E-02 4.25383E+01 1.25627E+00-6.26835E+00 1.65069E+00 1.14227E-01
 -1      3783-3.38989E-02-5.09129E+01-1.97704E-01-8.58073E+00-1.75467E+00 3.91376E-03
 -1      3784 1.24807E-02-1.69890E+01-5.75217E-02-1.34736E+01-4.82929E-01 3.11102E-02
 -1      3785 1.39965E-02 1.69200E+01 6.89598E-02-1.34746E+01 5.30663E-01 3.21787E-02
 -1      3786 5.73010E-02 5.08601E+01 2.12213E-01-8.58328E+00 1.80361E+00 5.40477E-03
 -1      3787-4.60494E-03-5.03989E+01-3.58226E-01-7.16206E+00-2.61516E+00 4.99734E-02
 -1      3788 5.12352E-03-1.68050E+01-1.21548E-01-1.12299E+01-7.51477E-01 8.65069E-02
 -1      3789 1.54509E-02 1.68088E+01 1.51547E-01-1.12296E+01 8.10054E-01 8.68596E-02
 -1      3790 2.39721E-02 5.04169E+01 3.87474E-01-7.16235E+00 2.67602E+00 5.01379E-02
 -1      3791 2.30465E-02-4.97495E+01-5.93199E-01-6.50820E+00-2.34835E+00 7.21122E-02
 -1      3792 1.08922E-02-1.65756E+01-1.89794E-01-1.01696E+01-7.13053E-01 1.02096E-01
 -1      3793 1.94379E-03 1.66110E+01 2.42178E-01-1.01688E+01 7.58427E-01 1.01924E-01
 -1      3794-1.05610E-02 4.97982E+01 6.40728E-01-6.50739E+00 2.39566E+00 7.14623E-02
 -1      3795 4.73835E-02-4.91705E+01-8.06904E-01-6.23657E+00-1.34476E+00 4.56578E-02
 -1      3796 2.67565E-02-1.63712E+01-2.46319E-01-9.72986E+00-4.20267E-01 5.59905E-02
 -1      3797-2.03409E-02 1.64127E+01 3.16326E-01-9.72894E+00 4.43880E-01 5.57964E-02
 -1      3798-4.12549E-02 4.92235E+01 8.69748E-01-6.23543E+00 1.36949E+00 4.51483E-02
 -1      3799-1.87887E-02-5.65341E+01-1.14268E-01-8.60025E+00-1.59693E+00-3.88535E-02
 -1      3800 1.94317E-02-1.88675E+01-2.13367E-02-1.35049E+01-4.38748E-01-2.36367E-02
 -1      3801 7.07257E-03 1.87810E+01 5.63495E-02-1.35153E+01 4.63985E-01-2.18416E-02
 -1      3802 4.24438E-02 5.64730E+01 1.50404E-01-8.61756E+00 1.62486E+00-3.58281E-02
 -1      3803 2.87342E-03-5.62471E+01-1.94488E-01-7.18647E+00-2.36941E+00-1.62247E-02
 -1      3804 8.33548E-03-1.87519E+01-5.34349E-02-1.12684E+01-6.83953E-01-1.52033E-03
 -1      3805 1.31003E-02 1.87671E+01 1.28018E-01-1.12758E+01 7.01798E-01-2.85791E-04
 -1      3806 1.67187E-02 5.62848E+01 2.67054E-01-7.19895E+00 2.39094E+00-1.41554E-02
 -1      3807 1.90499E-02-5.58980E+01-3.34284E-01-6.51039E+00-2.10671E+00 2.92194E-03
 -1      3808 8.88297E-03-1.86245E+01-8.05832E-02-1.01748E+01-6.46928E-01 8.35089E-03
 -1      3809 3.14947E-03 1.86702E+01 2.03352E-01-1.01811E+01 6.47964E-01 8.74008E-03
 -1      3810-8.21105E-03 5.59643E+01 4.51809E-01-6.52081E+00 2.10984E+00 3.54459E-03
 -1      3811 2.82019E-02-5.56082E+01-4.79279E-01-6.21365E+00-1.19434E+00-4.31411E-03
 -1      3812 2.10520E-02-1.85199E+01-1.04164E-01-9.69620E+00-3.79020E-01-1.17469E-02
 -1      3813-1.70575E-02 1.85613E+01 2.65314E-01-9.70195E+00 3.74078E-01-1.17335E-02
 -1      3814-2.51887E-02 5.56683E+01 6.33771E-01-6.22318E+00 1.19014E+00-4.29813E-03
 -1      3815 2.20823E-03-6.22543E+01-4.10997E-02-8.59852E+00-1.51296E+00-6.74958E-02
 -1      3816 3.74619E-02-2.07827E+01 1.45292E-02-1.35065E+01-4.26697E-01-5.73526E-02
 -1      3817 1.36582E-02 2.06888E+01 5.62703E-02-1.35279E+01 4.05535E-01-5.46082E-02
 -1      3818 4.21226E-02 6.22338E+01 1.17026E-01-8.63397E+00 1.49413E+00-6.25576E-02
 -1      3819 1.56036E-02-6.21293E+01-5.44595E-02-7.19910E+00-2.24212E+00-5.98853E-02
 -1      3820 2.08634E-02-2.07182E+01 1.50095E-02-1.12921E+01-6.68372E-01-5.77803E-02
 -1      3821 2.25334E-02 2.07390E+01 1.32893E-01-1.13098E+01 6.05897E-01-5.55107E-02
 -1      3822 2.17153E-02 6.22179E+01 2.05903E-01-7.22863E+00 2.18208E+00-5.56729E-02
 -1      3823 2.16499E-02-6.20017E+01-1.18570E-01-6.51444E+00-1.98658E+00-4.32093E-02
 -1      3824 1.55862E-02-2.06761E+01 2.92088E-02-1.01866E+01-6.33972E-01-5.38581E-02
 -1      3825 1.31227E-02 2.06951E+01 2.13130E-01-1.02031E+01 5.50765E-01-5.27550E-02
 -1      3826 1.38884E-03 6.20825E+01 3.62886E-01-6.54213E+00 1.90339E+00-4.10924E-02
 -1      3827 2.06624E-02-6.19223E+01-2.10527E-01-6.20439E+00-1.12190E+00-3.89468E-02
 -1      3828 2.48604E-02-2.06542E+01 3.85118E-02-9.68812E+00-3.71678E-01-5.88292E-02
 -1      3829-8.45857E-03 2.06295E+01 2.79813E-01-9.70432E+00 3.13433E-01-5.85149E-02
 -1      3830-9.97109E-03 6.19543E+01 5.30955E-01-6.23162E+00 1.06288E+00-3.82770E-02
 -1      3831 2.81477E-02-6.80080E+01 2.81986E-02-8.57648E+00-1.49142E+00-8.75556E-02
 -1      3832 6.51049E-02-2.27068E+01 5.55452E-02-1.34857E+01-4.48904E-01-7.81862E-02
 -1      3833 3.23553E-02 2.26385E+01 7.33493E-02-1.35261E+01 3.40199E-01-7.47166E-02
 -1      3834 5.42489E-02 6.81081E+01 1.15515E-01-8.64504E+00 1.38164E+00-8.09543E-02
 -1      3835 3.39897E-02-6.80202E+01 7.89439E-02-7.19498E+00-2.21335E+00-8.88739E-02
 -1      3836 4.21559E-02-2.26979E+01 9.47804E-02-1.12999E+01-7.07200E-01-9.27284E-02
 -1      3837 4.20710E-02 2.27179E+01 1.72271E-01-1.13371E+01 4.98175E-01-8.95759E-02
 -1      3838 3.53710E-02 6.81999E+01 2.05849E-01-7.25872E+00 2.00025E+00-8.26268E-02
 -1      3839 3.09497E-02-6.80867E+01 8.63855E-02-6.51095E+00-1.96381E+00-7.40970E-02
 -1      3840 3.05176E-02-2.27504E+01 1.57914E-01-1.01970E+01-6.75002E-01-9.42700E-02
 -1      3841 3.08872E-02 2.26787E+01 2.78934E-01-1.02337E+01 4.41840E-01-9.24877E-02
 -1      3842 1.52198E-02 6.81620E+01 3.71293E-01-6.57424E+00 1.72338E+00-7.04704E-02
 -1      3843 2.18933E-02-6.81920E+01 4.45720E-02-6.19627E+00-1.10961E+00-6.36552E-02
 -1      3844 3.69528E-02-2.28187E+01 2.06295E-01-9.69236E+00-3.97671E-01-9.18573E-02
 -1      3845 6.06650E-03 2.26149E+01 3.68007E-01-9.72920E+00 2.45826E-01-9.12768E-02
 -1      3846 4.98800E-03 6.81253E+01 5.54404E-01-6.26013E+00 9.52417E-01-6.23730E-02
 -1      3847 5.39422E-02-7.37411E+01 1.02514E-01-8.53758E+00-1.52967E+00-1.03031E-01
 -1      3848 9.61236E-02-2.46124E+01 1.09321E-01-1.34504E+01-5.12206E-01-9.28710E-02
 -1      3849 5.60792E-02 2.46372E+01 1.13271E-01-1.35185E+01 2.50350E-01-8.96728E-02
 -1      3850 7.14788E-02 7.40869E+01 1.48227E-01-8.65737E+00 1.25702E+00-9.62266E-02
 -1      3851 5.22601E-02-7.39066E+01 2.23603E-01-7.17325E+00-2.27797E+00-1.10162E-01
 -1      3852 6.58704E-02-2.46907E+01 1.97985E-01-1.12952E+01-8.10098E-01-1.16658E-01
 -1      3853 6.48113E-02 2.47000E+01 2.54199E-01-1.13627E+01 3.52212E-01-1.12920E-01
 -1      3854 4.97034E-02 7.42235E+01 2.70302E-01-7.29360E+00 1.79910E+00-1.02077E-01
 -1      3855 4.01570E-02-7.41864E+01 3.09714E-01-6.49514E+00-2.03130E+00-9.69441E-02
 -1      3856 4.71307E-02-2.48757E+01 3.23543E-01-1.02044E+01-7.78085E-01-1.23023E-01
 -1      3857 5.00309E-02 2.46084E+01 4.11510E-01-1.02726E+01 2.96236E-01-1.20346E-01
 -1      3858 2.57594E-02 7.42022E+01 4.81018E-01-6.61743E+00 1.52516E+00-9.12733E-02
 -1      3859 2.36540E-02-7.44893E+01 3.24068E-01-6.18186E+00-1.15174E+00-8.31000E-02
 -1      3860 5.04286E-02-2.50627E+01 4.22110E-01-9.70337E+00-4.61097E-01-1.17279E-01
 -1      3861 2.08509E-02 2.45012E+01 5.42678E-01-9.77200E+00 1.56348E-01-1.16290E-01
 -1      3862 1.36294E-02 7.41917E+01 7.07927E-01-6.30551E+00 8.31571E-01-8.09345E-02
 -1      3863 5.52066E-02-7.94130E+01 1.88317E-01-8.49741E+00-1.63507E+00-1.15385E-01
 -1      3864 1.00989E-01-2.64511E+01 1.87073E-01-1.34156E+01-6.28341E-01-1.05332E-01
 -1      3865 5.35195E-02 2.67222E+01 1.85995E-01-1.35027E+01 1.17462E-01-1.04335E-01
 -1      3866 6.61306E-02 8.01763E+01 2.16680E-01-8.66150E+00 1.08955E+00-1.11403E-01
 -1      3867 4.35118E-02-7.97985E+01 3.89279E-01-7.14528E+00-2.44481E+00-1.27972E-01
 -1      3868 6.25507E-02-2.66855E+01 3.37505E-01-1.12906E+01-9.92842E-01-1.37527E-01
 -1      3869 5.91990E-02 2.67005E+01 3.90314E-01-1.13829E+01 1.42391E-01-1.32925E-01
 -1      3870 3.64077E-02 8.02792E+01 4.03393E-01-7.32144E+00 1.53562E+00-1.17216E-01
 -1      3871 2.05073E-02-8.03607E+01 5.65354E-01-6.47918E+00-2.19329E+00-1.16902E-01
 -1      3872 3.56404E-02-2.70719E+01 5.41269E-01-1.02229E+01-9.55463E-01-1.48694E-01
 -1      3873 3.80636E-02 2.64859E+01 6.24123E-01-1.03155E+01 9.17890E-02-1.43662E-01
 -1      3874 4.36981E-03 8.01869E+01 6.98255E-01-6.65681E+00 1.27108E+00-1.06708E-01
 -1      3875-4.05522E-03-8.09075E+01 6.44397E-01-6.17313E+00-1.24853E+00-1.00643E-01
 -1      3876 3.45335E-02-2.74253E+01 7.02543E-01-9.73538E+00-5.67777E-01-1.40432E-01
 -1      3877 2.35303E-03 2.62861E+01 8.18006E-01-9.82569E+00 3.27384E-02-1.38114E-01
 -1      3878-1.31082E-02 8.01388E+01 9.97707E-01-6.34768E+00 6.79186E-01-9.63074E-02
 -1      3879-4.35755E-02-8.50043E+01 2.83579E-01-8.50430E+00-1.82571E+00-1.21857E-01
 -1      3880-6.50473E-03-2.80942E+01 3.12199E-01-1.34045E+01-8.12178E-01-1.17615E-01
 -1      3881-7.29059E-02 2.89916E+01 3.04747E-01-1.34347E+01-7.28607E-02-1.20745E-01
 -1      3882-3.67214E-02 8.63747E+01 3.16801E-01-8.59763E+00 8.53378E-01-1.23404E-01
 -1      3883-7.57699E-02-8.57571E+01 5.62616E-01-7.16711E+00-2.73301E+00-1.44972E-01
 -1      3884-4.99252E-02-2.85933E+01 5.37387E-01-1.13166E+01-1.27205E+00-1.63867E-01
 -1      3885-7.78049E-02 2.87765E+01 5.87400E-01-1.13600E+01-1.48131E-01-1.55290E-01
 -1      3886-7.68751E-02 8.63399E+01 6.02853E-01-7.28717E+00 1.17914E+00-1.25383E-01
 -1      3887-1.16040E-01-8.67259E+01 8.30352E-01-6.53333E+00-2.45746E+00-1.37825E-01
 -1      3888-8.51569E-02-2.92669E+01 8.34452E-01-1.02945E+01-1.21756E+00-1.81053E-01
 -1      3889-1.16697E-01 2.83493E+01 9.15189E-01-1.03283E+01-1.82503E-01-1.69204E-01
 -1      3890-1.20386E-01 8.60835E+01 1.01839E+00-6.63726E+00 9.39552E-01-1.15110E-01
 -1      3891-1.53128E-01-8.75916E+01 9.69355E-01-6.25029E+00-1.39846E+00-1.16855E-01
 -1      3892-9.27134E-02-2.98325E+01 1.06835E+00-9.83580E+00-7.21916E-01-1.66065E-01
 -1      3893-1.74017E-01 2.80030E+01 1.18310E+00-9.85317E+00-1.29693E-01-1.59737E-01
 -1      3894-1.48008E-01 8.59417E+01 1.41629E+00-6.32626E+00 4.83932E-01-1.05949E-01
 -1      3895-4.05520E-01-9.04474E+01 3.99051E-01-8.88934E+00-2.14248E+00-9.21621E-02
 -1      3896-4.65752E-01-2.92654E+01 5.09064E-01-1.36907E+01-1.06851E+00-1.00640E-01
 -1      3897-5.41527E-01 3.16637E+01 4.83732E-01-1.34182E+01-3.15426E-01-1.06091E-01
 -1      3898-4.21046E-01 9.25305E+01 3.91909E-01-8.51325E+00 5.61671E-01-9.21280E-02
 -1      3899-4.54477E-01-9.17083E+01 7.71419E-01-7.79382E+00-3.18338E+00-1.51529E-01
 -1      3900-5.27105E-01-3.01830E+01 8.06843E-01-1.18848E+01-1.65106E+00-1.87492E-01
 -1      3901-5.57661E-01 3.10851E+01 8.41930E-01-1.16286E+01-5.11854E-01-1.65633E-01
 -1      3902-4.88409E-01 9.21211E+01 7.57686E-01-7.44618E+00 7.50984E-01-1.03016E-01
 -1      3903-5.08185E-01-9.31369E+01 1.14034E+00-7.43689E+00-2.84983E+00-1.30783E-01
 -1      3904-5.95555E-01-3.12199E+01 1.19476E+00-1.11634E+01-1.56134E+00-1.91976E-01
 -1      3905-6.28182E-01 3.03430E+01 1.25924E+00-1.08633E+01-5.14350E-01-1.65290E-01
 -1      3906-5.62925E-01 9.15307E+01 1.27647E+00-7.01056E+00 5.63962E-01-7.88691E-02
 -1      3907-5.63088E-01-9.43048E+01 1.32639E+00-7.41575E+00-1.62429E+00-6.63714E-02
 -1      3908-6.42704E-01-3.20133E+01 1.49456E+00-1.09814E+01-9.20901E-01-1.26633E-01
 -1      3909-7.28427E-01 2.98029E+01 1.59681E+00-1.06271E+01-3.20144E-01-1.12674E-01
 -1      3910-6.20612E-01 9.11834E+01 1.75606E+00-6.89599E+00 2.79357E-01-4.04633E-02
 -1      3911-1.30446E+00-9.56904E+01 4.51863E-01-9.37185E+00-2.53032E+00-1.35673E-01
 -1      3912-1.62439E+00-2.93793E+01 7.96143E-01-1.37413E+01-1.35410E+00-1.65692E-01
 -1      3913-1.69379E+00 3.51654E+01 7.46692E-01-1.26189E+01-5.79741E-01-1.47546E-01
 -1      3914-1.26553E+00 9.85401E+01 4.69987E-01-7.52864E+00 2.06066E-01-8.61101E-02
 -1      3915-1.35083E+00-9.76509E+01 8.04703E-01-8.20880E+00-3.68633E+00-2.71071E-01
 -1      3916-1.67240E+00-3.09208E+01 1.11393E+00-1.18624E+01-2.04720E+00-3.38182E-01
 -1      3917-1.66762E+00 3.39921E+01 1.15712E+00-1.07604E+01-8.86238E-01-2.72771E-01
 -1      3918-1.30196E+00 9.75068E+01 9.16157E-01-6.35368E+00 2.72900E-01-1.40302E-01
 -1      3919-1.42010E+00-9.95472E+01 1.14848E+00-7.80217E+00-3.23363E+00-2.43701E-01
 -1      3920-1.78233E+00-3.23765E+01 1.52352E+00-1.10754E+01-1.88975E+00-3.38643E-01
 -1      3921-1.74676E+00 3.28370E+01 1.63031E+00-9.88282E+00-8.30616E-01-2.77755E-01
 -1      3922-1.37036E+00 9.64581E+01 1.51458E+00-5.76641E+00 1.80547E-01-1.31869E-01
 -1      3923-1.49375E+00-1.00931E+02 1.29119E+00-7.69283E+00-1.81757E+00-1.09237E-01
 -1      3924-1.88472E+00-3.33837E+01 1.82278E+00-1.07849E+01-1.09675E+00-1.92367E-01
 -1      3925-1.87354E+00 3.20607E+01 1.99194E+00-9.49907E+00-4.92766E-01-1.61007E-01
 -1      3926-1.43929E+00 9.58144E+01 2.01296E+00-5.48269E+00 7.37835E-02-5.38814E-02
 -1      3927-2.87493E+00-9.99664E+01 7.00069E-01-1.09569E+01-2.91599E+00-2.92208E-01
 -1      3928-4.10768E+00-2.76715E+01 1.15961E+00-1.41453E+01-1.60465E+00-3.21216E-01
 -1      3929-4.07089E+00 4.00247E+01 1.00797E+00-1.12930E+01-8.25572E-01-2.14508E-01
 -1      3930-2.76057E+00 1.04505E+02 5.18389E-01-5.69620E+00-1.45548E-01-7.54216E-02
 -1      3931-2.82145E+00-1.02801E+02 1.01001E+00-9.98335E+00-4.15199E+00-4.70704E-01
 -1      3932-4.04733E+00-3.00705E+01 1.47958E+00-1.24375E+01-2.37418E+00-5.51286E-01
 -1      3933-3.93488E+00 3.80160E+01 1.42814E+00-9.63326E+00-1.21023E+00-3.83474E-01
 -1      3934-2.70223E+00 1.02674E+02 9.64259E-01-4.62813E+00-1.70537E-01-1.57092E-01
 -1      3935-2.87453E+00-1.05146E+02 1.22308E+00-9.73114E+00-3.55621E+00-3.89079E-01
 -1      3936-4.15967E+00-3.20050E+01 1.86296E+00-1.18021E+01-2.14037E+00-5.09305E-01
 -1      3937-4.01448E+00 3.63535E+01 1.88677E+00-8.87774E+00-1.08726E+00-3.78733E-01
 -1      3938-2.74409E+00 1.01125E+02 1.52701E+00-4.11064E+00-1.51875E-01-1.61924E-01
 -1      3939-2.96594E+00-1.06705E+02 1.21376E+00-9.72268E+00-1.97062E+00-1.72097E-01
 -1      3940-4.27874E+00-3.32348E+01 2.11918E+00-1.15990E+01-1.21986E+00-2.70396E-01
 -1      3941-4.15566E+00 3.53018E+01 2.22264E+00-8.57092E+00-6.29695E-01-2.06216E-01
 -1      3942-2.79820E+00 1.00187E+02 1.99724E+00-3.88341E+00-9.86873E-02-6.62090E-02
 -1      3943-1.04003E+01-1.15662E+02-1.63209E-01 1.96467E+01-1.96825E+00 5.85921E-01
 -1      3944-1.47952E+01-3.07184E+01 9.15559E-01 1.30622E+01-1.20495E+00 6.20789E-01
 -1      3945-1.23740E+01 4.33528E+01 1.27170E+00 3.38692E+00-6.42857E-01 4.56718E-01
 -1      3946-5.55874E+00 1.09265E+02 1.18663E+00-6.07963E+00-1.84866E-01 2.41372E-01
 -1      3947-1.02505E+01-1.13549E+02 2.48343E-01 1.94304E+01-3.60291E+00 1.09432E+00
 -1      3948-1.46346E+01-2.89061E+01 8.48318E-01 1.30126E+01-2.14255E+00 1.08953E+00
 -1      3949-1.22432E+01 4.49804E+01 1.08350E+00 3.42416E+00-1.14382E+00 7.30501E-01
 -1      3950-5.48820E+00 1.10758E+02 1.04762E+00-6.06855E+00-3.38368E-01 3.35632E-01
 -1      3951-1.01734E+01-1.10062E+02 6.74860E-01 1.92847E+01-4.27143E+00 1.40398E+00
 -1      3952-1.44903E+01-2.57855E+01 7.19244E-01 1.32199E+01-2.41266E+00 1.27068E+00
 -1      3953-1.21705E+01 4.77922E+01 8.35882E-01 3.73369E+00-1.30219E+00 7.55072E-01
 -1      3954-5.48029E+00 1.13301E+02 8.93797E-01-5.92220E+00-4.11086E-01 2.63096E-01
 -1      3955-1.05035E+01-1.05054E+02 7.91695E-01 1.96650E+01-3.05968E+00 1.14617E+00
 -1      3956-1.48292E+01-2.11300E+01 7.37697E-01 1.42759E+01-1.66655E+00 9.48958E-01
 -1      3957-1.26116E+01 5.18972E+01 6.79564E-01 4.68603E+00-9.08077E-01 4.89349E-01
 -1      3958-5.80396E+00 1.16946E+02 6.97478E-01-5.45266E+00-3.12910E-01 1.05830E-01
 -1      3959-1.56120E+01-1.19169E+02-5.04387E-01 2.74787E+01-1.82040E+00 8.18629E-01
 -1      3960-1.95036E+01-2.95437E+01 9.79955E-01 1.34376E+01-1.05128E+00 8.03727E-01
 -1      3961-1.48638E+01 4.64520E+01 1.50532E+00-1.32584E+00-5.00136E-01 5.78576E-01
 -1      3962-5.29126E+00 1.11962E+02 1.17436E+00-1.52843E+01-6.80193E-02 2.96184E-01
 -1      3963-1.53634E+01-1.16748E+02 8.52703E-02 2.70250E+01-3.31238E+00 1.51781E+00
 -1      3964-1.92578E+01-2.74397E+01 9.81301E-01 1.32258E+01-1.86165E+00 1.40952E+00
 -1      3965-1.46942E+01 4.83462E+01 1.35055E+00-1.41288E+00-8.95749E-01 9.27717E-01
 -1      3966-5.19393E+00 1.13688E+02 1.09977E+00-1.53622E+01-1.25219E-01 4.11226E-01
 -1      3967-1.51959E+01-1.12674E+02 7.32219E-01 2.65020E+01-3.86577E+00 1.93070E+00
 -1      3968-1.90481E+01-2.37470E+01 9.13793E-01 1.31359E+01-2.05784E+00 1.64846E+00
 -1      3969-1.46139E+01 5.16804E+01 1.11340E+00-1.37223E+00-9.99875E-01 9.65239E-01
 -1      3970-5.18387E+00 1.16670E+02 9.88987E-01-1.54441E+01-1.28091E-01 3.18554E-01
 -1      3971-1.55831E+01-1.06612E+02 9.53877E-01 2.63298E+01-2.70152E+00 1.56459E+00
 -1      3972-1.95122E+01-1.80425E+01 9.50819E-01 1.36761E+01-1.37904E+00 1.23563E+00
 -1      3973-1.52341E+01 5.67172E+01 9.03238E-01-8.68653E-01-6.75545E-01 6.31146E-01
 -1      3974-5.60350E+00 1.21111E+02 7.65333E-01-1.53721E+01-8.99564E-02 1.27594E-01
 -1      3975-2.19877E+01-1.21574E+02-6.74271E-01 3.63953E+01-1.59049E+00 1.01493E+00
 -1      3976-2.32451E+01-2.93303E+01 1.23835E+00 1.37799E+01-8.32364E-01 9.62005E-01
 -1      3977-1.55875E+01 4.75167E+01 1.84413E+00-6.92703E+00-3.09431E-01 6.77991E-01
 -1      3978-2.71146E+00 1.12874E+02 1.48866E+00-2.56366E+01 9.79712E-02 3.25112E-01
 -1      3979-2.15977E+01-1.18890E+02 1.54832E-02 3.56650E+01-2.87798E+00 1.87389E+00
 -1      3980-2.29155E+01-2.69735E+01 1.25064E+00 1.33809E+01-1.46807E+00 1.68740E+00
 -1      3981-1.53773E+01 4.96499E+01 1.66417E+00-7.15661E+00-5.62211E-01 1.09409E+00
 -1      3982-2.60373E+00 1.14793E+02 1.36332E+00-2.58246E+01 1.70089E-01 4.48694E-01
 -1      3983-2.12697E+01-1.14313E+02 7.59694E-01 3.46895E+01-3.30136E+00 2.35288E+00
 -1      3984-2.26227E+01-2.27867E+01 1.17501E+00 1.29394E+01-1.58614E+00 1.96551E+00
 -1      3985-1.52609E+01 5.34415E+01 1.37438E+00-7.41967E+00-6.15316E-01 1.14721E+00
 -1      3986-2.56660E+00 1.18147E+02 1.16226E+00-2.61665E+01 2.22072E-01 3.45065E-01
 -1      3987-2.15539E+01-1.07385E+02 1.03980E+00 3.37916E+01-2.24600E+00 1.86948E+00
 -1      3988-2.31121E+01-1.62289E+01 1.20761E+00 1.28415E+01-1.02399E+00 1.46431E+00
 -1      3989-1.59396E+01 5.92393E+01 1.12157E+00-7.45117E+00-3.98121E-01 7.63352E-01
 -1      3990-2.98545E+00 1.23195E+02 8.56831E-01-2.65308E+01 1.65780E-01 1.46662E-01
 -1      3991-2.98318E+01-1.21949E+02-6.82588E-01 4.57283E+01-1.32464E+00 1.16699E+00
 -1      3992-2.65700E+01-2.95278E+01 1.51168E+00 1.41778E+01-5.86835E-01 1.08247E+00
 -1      3993-1.46820E+01 4.70363E+01 2.21840E+00-1.28665E+01-1.03176E-01 7.48441E-01
 -1      3994 2.24160E+00 1.11936E+02 1.94546E+00-3.63752E+01 2.67011E-01 3.29779E-01
 -1      3995-2.92376E+01-1.19100E+02 5.29814E-02 4.46943E+01-2.38969E+00 2.14675E+00
 -1      3996-2.61248E+01-2.69761E+01 1.50313E+00 1.35655E+01-1.03676E+00 1.89804E+00
 -1      3997-1.44159E+01 4.93640E+01 1.98184E+00-1.32617E+01-2.13416E-01 1.21403E+00
 -1      3998 2.37246E+00 1.14027E+02 1.72969E+00-3.66965E+01 4.52131E-01 4.50078E-01
 -1      3999-2.86418E+01-1.14186E+02 8.34121E-01 4.32089E+01-2.70079E+00 2.66718E+00
 -1      4000-2.56810E+01-2.24249E+01 1.39174E+00 1.27218E+01-1.08760E+00 2.20112E+00
 -1      4001-1.42142E+01 5.34935E+01 1.61233E+00-1.38655E+01-2.28902E-01 1.28003E+00
 -1      4002 2.48048E+00 1.17663E+02 1.40191E+00-3.73252E+01 5.28534E-01 3.38346E-01
 -1      4003-2.86393E+01-1.06735E+02 1.12866E+00 4.14854E+01-1.78784E+00 2.08688E+00
 -1      4004-2.60559E+01-1.53140E+01 1.39642E+00 1.18967E+01-6.62519E-01 1.62881E+00
 -1      4005-1.48426E+01 5.97720E+01 1.28999E+00-1.45046E+01-1.29115E-01 8.60771E-01
 -1      4006 2.14194E+00 1.23078E+02 9.80209E-01-3.81674E+01 3.74323E-01 1.43956E-01
 -1      4007-3.93300E+01-1.20139E+02-6.36209E-01 5.48034E+01-1.05620E+00 1.27698E+00
 -1      4008-2.97637E+01-2.96951E+01 1.75529E+00 1.45294E+01-3.43703E-01 1.16445E+00
 -1      4009-1.23757E+01 4.52929E+01 2.56722E+00-1.87517E+01 9.04029E-02 7.90172E-01
 -1      4010 9.44645E+00 1.08975E+02 2.39794E+00-4.68698E+01 4.08009E-01 3.16222E-01
 -1      4011-3.84594E+01-1.17240E+02 1.22854E-01 5.34670E+01-1.90697E+00 2.34474E+00
 -1      4012-2.91585E+01-2.70318E+01 1.71587E+00 1.36918E+01-6.16445E-01 2.04241E+00
 -1      4013-1.20255E+01 4.77535E+01 2.26978E+00-1.93292E+01 1.07247E-01 1.28721E+00
 -1      4014 9.61901E+00 1.11199E+02 2.09273E+00-4.73414E+01 6.76436E-01 4.24836E-01
 -1      4015-3.74782E+01-1.12198E+02 9.20325E-01 5.14612E+01-2.12576E+00 2.89417E+00
 -1      4016-2.84801E+01-2.22838E+01 1.55879E+00 1.24204E+01-6.12295E-01 2.36117E+00
 -1      4017-1.16756E+01 5.20808E+01 1.81606E+00-2.02990E+01 1.16682E-01 1.36178E+00
 -1      4018 9.84436E+00 1.15004E+02 1.64356E+00-4.82748E+01 7.55940E-01 3.06124E-01
 -1      4019-3.70071E+01-1.04568E+02 1.21568E+00 4.88998E+01-1.36039E+00 2.24264E+00
 -1      4020-2.85840E+01-1.49136E+01 1.53011E+00 1.08320E+01-3.22157E-01 1.73872E+00
 -1      4021-1.21274E+01 5.85920E+01 1.42255E+00-2.15864E+01 1.07832E-01 9.19839E-01
 -1      4022 9.67177E+00 1.20586E+02 1.11042E+00-4.96214E+01 5.21155E-01 1.22202E-01
 -1      4023-5.04777E+01-1.16228E+02-5.97797E-01 6.30887E+01-8.00466E-01 1.35043E+00
 -1      4024-3.29187E+01-2.96826E+01 1.95536E+00 1.47288E+01-1.16915E-01 1.21239E+00
 -1      4025-8.82911E+00 4.24145E+01 2.86479E+00-2.43000E+01 2.60685E-01 8.07302E-01
 -1      4026 1.87238E+01 1.03942E+02 2.78136E+00-5.66004E+01 5.14036E-01 2.91292E-01
 -1      4027-4.92614E+01-1.13399E+02 1.80857E-01 6.14780E+01-1.45174E+00 2.47977E+00
 -1      4028-3.21076E+01-2.69984E+01 1.88706E+00 1.36706E+01-2.27690E-01 2.12939E+00
 -1      4029-8.36285E+00 4.49390E+01 2.51363E+00-2.50667E+01 3.85264E-01 1.32072E+00
 -1      4030 1.89582E+01 1.06248E+02 2.40113E+00-5.72337E+01 8.37314E-01 3.83943E-01
 -1      4031-4.77827E+01-1.08433E+02 9.94806E-01 5.89864E+01-1.58990E+00 3.05043E+00
 -1      4032-3.11071E+01-2.22186E+01 1.68861E+00 1.19771E+01-1.76710E-01 2.45790E+00
 -1      4033-7.79537E+00 4.93298E+01 1.98623E+00-2.64082E+01 4.11851E-01 1.40065E+00
 -1      4034 1.93500E+01 1.10117E+02 1.85120E+00-5.84775E+01 9.08907E-01 2.59631E-01
 -1      4035-4.66742E+01-1.00925E+02 1.29132E+00 5.56352E+01-9.64970E-01 2.34967E+00
 -1      4036-3.07847E+01-1.48501E+01 1.63059E+00 9.63658E+00-1.14558E-02 1.80434E+00
 -1      4037-7.94128E+00 5.58579E+01 1.52993E+00-2.83489E+01 3.08291E-01 9.47820E-01
 -1      4038 1.94334E+01 1.15703E+02 1.22489E+00-6.03321E+01 6.14951E-01 9.03210E-02
 -1      4039-6.31320E+01-1.10397E+02-5.87020E-01 7.01566E+01-5.60803E-01 1.39203E+00
 -1      4040-3.60346E+01-2.94907E+01 2.11106E+00 1.47185E+01 9.07023E-02 1.23101E+00
 -1      4041-4.16871E+00 3.84720E+01 3.10590E+00-2.92693E+01 4.07620E-01 8.04365E-01
 -1      4042 2.98672E+01 9.69188E+01 3.08639E+00-6.51167E+01 5.89481E-01 2.60247E-01
 -1      4043-6.15108E+01-1.07745E+02 2.14592E-01 6.83230E+01-1.02566E+00 2.56001E+00
 -1      4044-3.49738E+01-2.68691E+01 2.02120E+00 1.34602E+01 1.27480E-01 2.16747E+00
 -1      4045-3.55343E+00 4.09958E+01 2.71189E+00-3.02223E+01 6.23163E-01 1.32238E+00
 -1      4046 3.01856E+01 9.92605E+01 2.64761E+00-6.59184E+01 9.45609E-01 3.35989E-01
 -1      4047-5.94366E+01-1.03031E+02 1.05142E+00 6.54160E+01-1.08794E+00 3.14451E+00
 -1      4048-3.35685E+01-2.22039E+01 1.79105E+00 1.13777E+01 2.20983E-01 2.50102E+00
 -1      4049-2.69925E+00 4.53303E+01 2.12527E+00-3.19214E+01 6.62784E-01 1.40569E+00
 -1      4050 3.07936E+01 1.03101E+02 2.01892E+00-6.74664E+01 1.00393E+00 2.08207E-01
 -1      4051-5.75363E+01-9.58951E+01 1.35454E+00 6.13673E+01-5.93393E-01 2.41249E+00
 -1      4052-3.26714E+01-1.50602E+01 1.71149E+00 8.33575E+00 2.73025E-01 1.83222E+00
 -1      4053-2.41283E+00 5.16917E+01 1.61810E+00-3.44871E+01 4.78552E-01 9.51803E-01
 -1      4054 3.12232E+01 1.08557E+02 1.31900E+00-6.98104E+01 6.69578E-01 5.52731E-02
 -1      4055-7.70549E+01-1.02889E+02-6.03270E-01 7.56499E+01-3.35338E-01 1.40432E+00
 -1      4056-3.90780E+01-2.91651E+01 2.22834E+00 1.44791E+01 2.81312E-01 1.22374E+00
 -1      4057 1.47081E+00 3.35567E+01 3.29692E+00-3.34329E+01 5.35299E-01 7.84785E-01
 -1      4058 4.26162E+01 8.81001E+01 3.32435E+00-7.20156E+01 6.41805E-01 2.26295E-01
 -1      4059-7.49835E+01-1.00500E+02 2.25596E-01 7.36628E+01-6.23303E-01 2.58926E+00
 -1      4060-3.77303E+01-2.66767E+01 2.12450E+00 1.30544E+01 4.54283E-01 2.16228E+00
 -1      4061 2.26678E+00 3.60232E+01 2.87034E+00-3.45606E+01 8.29188E-01 1.29795E+00
 -1      4062 4.30423E+01 9.04338E+01 2.84099E+00-7.29880E+01 1.01541E+00 2.86296E-01
 -1      4063-7.22338E+01-9.61784E+01 1.09172E+00 7.04381E+01-6.10877E-01 3.17911E+00
 -1      4064-3.58460E+01-2.22482E+01 1.87264E+00 1.06388E+01 5.88413E-01 2.49619E+00
 -1      4065 3.47309E+00 4.02001E+01 2.23813E+00-3.65857E+01 8.80047E-01 1.38316E+00
 -1      4066 4.39163E+01 9.41685E+01 2.15195E+00-7.48233E+01 1.05803E+00 1.57486E-01
 -1      4067-6.94078E+01-8.96149E+01 1.40698E+00 6.58208E+01-2.38134E-01 2.43155E+00
 -1      4068-3.42379E+01-1.55170E+01 1.77940E+00 6.98134E+00 5.37331E-01 1.82575E+00
 -1      4069 4.31095E+00 4.62377E+01 1.69138E+00-3.97186E+01 6.26556E-01 9.36281E-01
 -1      4070 4.47786E+01 9.93799E+01 1.39481E+00-7.76188E+01 6.97305E-01 2.10691E-02
 -1      4071-9.19319E+01-9.40007E+01-6.38127E-01 7.92697E+01-1.21495E-01 1.38813E+00
 -1      4072-4.20091E+01-2.87542E+01 2.31547E+00 1.40115E+01 4.57869E-01 1.19253E+00
 -1      4073 7.92011E+00 2.78094E+01 3.44817E+00-3.65845E+01 6.48077E-01 7.50685E-01
 -1      4074 5.66399E+01 7.77743E+01 3.51100E+00-7.69446E+01 6.77809E-01 1.91030E-01
 -1      4075-8.93823E+01-9.19373E+01 2.20564E-01 7.72118E+01-2.39492E-01 2.56828E+00
 -1      4076-4.03446E+01-2.64535E+01 2.20388E+00 1.24643E+01 7.58438E-01 2.11686E+00
 -1      4077 8.92648E+00 3.01710E+01 2.99725E+00-3.78679E+01 1.01139E+00 1.25082E+00
 -1      4078 5.72000E+01 8.00610E+01 2.99373E+00-7.80860E+01 1.05889E+00 2.37316E-01
 -1      4079-8.58988E+01-8.81124E+01 1.12005E+00 7.37872E+01-1.52528E-01 3.15404E+00
 -1      4080-3.79200E+01-2.23592E+01 1.93835E+00 9.79010E+00 9.32291E-01 2.44621E+00
 -1      4081 1.05436E+01 3.41054E+01 2.33032E+00-4.01720E+01 1.07277E+00 1.33651E+00
 -1      4082 5.83876E+01 8.36225E+01 2.25828E+00-8.01820E+01 1.08488E+00 1.10018E-01
 -1      4083-8.20401E+01-8.22766E+01 1.45113E+00 6.87613E+01 1.04925E-01 2.40587E+00
 -1      4084-3.54834E+01-1.61949E+01 1.83774E+00 5.63447E+00 7.86005E-01 1.78638E+00
 -1      4085 1.20400E+01 3.96872E+01 1.75320E+00-4.37880E+01 7.58614E-01 9.03641E-01
 -1      4086 5.97630E+01 8.84919E+01 1.45639E+00-8.33734E+01 7.07460E-01-1.05056E-02
 -1      4087-1.07387E+02-8.40853E+01-6.83530E-01 8.07807E+01 8.19684E-02 1.34347E+00
 -1      4088-4.47892E+01-2.82956E+01 2.38095E+00 1.33250E+01 6.22307E-01 1.13852E+00
 -1      4089 1.49682E+01 2.14224E+01 3.56912E+00-3.85504E+01 7.49055E-01 7.03214E-01
 -1      4090 7.15362E+01 6.63118E+01 3.65976E+00-7.96164E+01 7.02493E-01 1.55015E-01
 -1      4091-1.04350E+02-8.23831E+01 2.05915E-01 7.87423E+01 1.27817E-01 2.49672E+00
 -1      4092-4.27877E+01-2.62231E+01 2.26576E+00 1.17069E+01 1.04339E+00 2.03273E+00
 -1      4093 1.62114E+01 2.36394E+01 3.09984E+00-3.99642E+01 1.17529E+00 1.18277E+00
 -1      4094 7.22583E+01 6.85152E+01 3.11628E+00-8.09208E+01 1.08494E+00 1.89927E-01
 -1      4095-1.00100E+02-7.91239E+01 1.14000E+00 7.52503E+01 2.88748E-01 3.06832E+00
 -1      4096-3.97778E+01-2.25355E+01 1.99216E+00 8.86356E+00 1.25617E+00 2.35241E+00
 -1      4097 1.82888E+01 2.72630E+01 2.40642E+00-4.24875E+01 1.24701E+00 1.26758E+00
 -1      4098 7.38040E+01 7.18458E+01 2.34459E+00-8.32417E+01 1.09431E+00 6.66807E-02
 -1      4099-9.51350E+01-7.41269E+01 1.48869E+00 7.00000E+01 4.36209E-01 2.33447E+00
 -1      4100-3.64203E+01-1.70586E+01 1.88858E+00 4.35362E+00 1.02107E+00 1.71486E+00
 -1      4101 2.05328E+01 3.22804E+01 1.80574E+00-4.64792E+01 8.78535E-01 8.54999E-01
 -1      4102 7.57632E+01 7.62897E+01 1.50716E+00-8.67575E+01 7.06456E-01-3.89574E-02
 -1      4103-1.22996E+02-7.35382E+01-7.32099E-01 8.00203E+01 2.74369E-01 1.27041E+00
 -1      4104-4.73822E+01-2.78201E+01 2.43102E+00 1.24332E+01 7.74964E-01 1.06241E+00
 -1      4105 2.23681E+01 1.46324E+01 3.66787E+00-3.92032E+01 8.39811E-01 6.43187E-01
 -1      4106 8.68437E+01 5.41485E+01 3.78078E+00-7.98264E+01 7.19136E-01 1.18396E-01
 -1      4107-1.19481E+02-7.22095E+01 1.86895E-01 7.80956E+01 4.77320E-01 2.37446E+00
 -1      4108-4.50347E+01-2.60007E+01 2.31491E+00 1.08008E+01 1.30981E+00 1.91103E+00
 -1      4109 2.38704E+01 1.66723E+01 3.18452E+00-4.07160E+01 1.32386E+00 1.09490E+00
 -1      4110 8.77573E+01 5.62335E+01 3.21667E+00-8.12827E+01 1.09954E+00 1.44113E-01
 -1      4111-1.14461E+02-6.95493E+01 1.15489E+00 7.46766E+01 7.10507E-01 2.92158E+00
 -1      4112-4.14135E+01-2.27687E+01 2.03683E+00 7.88863E+00 1.56033E+00 2.21585E+00
 -1      4113 2.64455E+01 1.99319E+01 2.47029E+00-4.33879E+01 1.40572E+00 1.17734E+00
 -1      4114 8.97009E+01 5.92836E+01 2.41611E+00-8.37839E+01 1.09282E+00 2.73297E-02
 -1      4115-1.08357E+02-6.54575E+01 1.52128E+00 6.94037E+01 7.53227E-01 2.21705E+00
 -1      4116-3.70747E+01-1.80643E+01 1.93299E+00 3.18899E+00 1.24220E+00 1.61189E+00
 -1      4117 2.95041E+01 2.43023E+01 1.85102E+00-4.76285E+01 9.87991E-01 7.91073E-01
 -1      4118 9.23021E+01 6.32340E+01 1.54990E+00-8.75385E+01 6.98416E-01-6.43338E-02
 -1      4119-1.38301E+02-6.27882E+01-7.79305E-01 7.69100E+01 4.53707E-01 1.16962E+00
 -1      4120-4.97557E+01-2.73509E+01 2.47045E+00 1.13518E+01 9.14938E-01 9.65234E-01
 -1      4121 2.98453E+01 7.70518E+00 3.74909E+00-3.84688E+01 9.20700E-01 5.71294E-01
 -1      4122 1.02059E+02 4.17640E+01 3.87999E+00-7.74654E+01 7.29728E-01 8.11424E-02
 -1      4123-1.34340E+02-6.18209E+01 1.67130E-01 7.51914E+01 8.05116E-01 2.20241E+00
 -1      4124-4.70648E+01-2.57961E+01 2.35484E+00 9.76469E+00 1.55602E+00 1.75311E+00
 -1      4125 3.16234E+01 9.54239E+00 3.25479E+00-4.00447E+01 1.45781E+00 9.88077E-01
 -1      4126 1.03194E+02 4.36968E+01 3.29957E+00-7.90565E+01 1.10633E+00 9.95473E-02
 -1      4127-1.28577E+02-5.97603E+01 1.16650E+00 7.19883E+01 1.10741E+00 2.71486E+00
 -1      4128-4.28277E+01-2.30442E+01 2.07446E+00 6.89021E+00 1.84253E+00 2.03798E+00
 -1      4129 3.47201E+01 1.24012E+01 2.52417E+00-4.27862E+01 1.54954E+00 1.06668E+00
 -1      4130 1.05569E+02 4.64256E+01 2.47564E+00-8.16855E+01 1.08442E+00-8.58412E-03
 -1      4131-1.21342E+02-5.65935E+01 1.54974E+00 6.69031E+01 1.05145E+00 2.05447E+00
 -1      4132-3.74831E+01-1.91599E+01 1.97189E+00 2.17940E+00 1.44737E+00 1.47859E+00
 -1      4133 3.86337E+01 1.60696E+01 1.89015E+00-4.71348E+01 1.08709E+00 7.12536E-01
 -1      4134 1.08854E+02 4.98308E+01 1.58600E+00-8.55810E+01 6.85889E-01-8.70290E-02
 -1      4135-1.52831E+02-5.22771E+01-8.21641E-01 7.14613E+01 6.16814E-01 1.04231E+00
 -1      4136-5.18803E+01-2.69071E+01 2.50226E+00 1.00993E+01 1.04029E+00 8.48257E-01
 -1      4137 3.71123E+01 9.23155E-01 3.81616E+00-3.63332E+01 9.91168E-01 4.88405E-01
 -1      4138 1.16661E+02 2.96609E+01 3.96141E+00-7.25288E+01 7.35342E-01 4.32772E-02
 -1      4139-1.48477E+02-5.16384E+01 1.48932E-01 7.00360E+01 1.10563E+00 1.98270E+00
 -1      4140-4.88610E+01-2.56145E+01 2.38798E+00 8.61684E+00 1.77884E+00 1.56102E+00
 -1      4141 3.91771E+01 2.53926E+00 3.31332E+00-3.79323E+01 1.57641E+00 8.63504E-01
 -1      4142 1.18046E+02 3.14097E+01 3.36806E+00-7.42313E+01 1.10742E+00 5.58663E-02
 -1      4143-1.42027E+02-5.01452E+01 1.17637E+00 6.71869E+01 1.47248E+00 2.45089E+00
 -1      4144-4.40262E+01-2.33440E+01 2.10640E+00 5.88848E+00 2.09894E+00 1.82110E+00
 -1      4145 4.28030E+01 4.97648E+00 2.56952E+00-4.06589E+01 1.67758E+00 9.36834E-01
 -1      4146 1.20875E+02 3.37850E+01 2.52511E+00-7.69281E+01 1.07159E+00-4.15501E-02
 -1      4147-1.33719E+02-4.78779E+01 1.57456E+00 6.24990E+01 1.32542E+00 1.84899E+00
 -1      4148-3.76899E+01-2.02887E+01 2.00571E+00 1.35080E+00 1.63354E+00 1.31675E+00
 -1      4149 4.75823E+01 7.91685E+00 1.92362E+00-4.49656E+01 1.17495E+00 6.20316E-01
 -1      4150 1.24869E+02 3.66118E+01 1.61651E+00-8.08577E+01 6.70490E-01-1.07268E-01
 -1      4151-1.66123E+02-4.24434E+01-8.57224E-01 6.37799E+01 7.60135E-01 8.90705E-01
 -1      4152-5.37300E+01-2.65040E+01 2.52827E+00 8.69646E+00 1.14865E+00 7.13371E-01
 -1      4153 4.38819E+01-5.42981E+00 3.87104E+00-3.28440E+01 1.05015E+00 3.95757E-01
 -1      4154 1.30130E+02 1.83404E+01 4.02694E+00-6.51199E+01 7.36467E-01 4.99434E-03
 -1      4155-1.61446E+02-4.20804E+01 1.33897E-01 6.27241E+01 1.37238E+00 1.71896E+00
 -1      4156-5.04107E+01-2.54596E+01 2.41519E+00 7.37563E+00 1.97413E+00 1.33766E+00
 -1      4157 4.62365E+01-4.04633E+00 3.36155E+00-3.44233E+01 1.67799E+00 7.22844E-01
 -1      4158 1.31792E+02 1.98757E+01 3.42358E+00-6.69035E+01 1.10390E+00 1.29217E-02
 -1      4159-1.54397E+02-4.10928E+01 1.18531E+00 6.03562E+01 1.79786E+00 2.13391E+00
 -1      4160-4.50189E+01-2.36486E+01 2.13314E+00 4.89846E+00 2.32472E+00 1.56843E+00
 -1      4161 5.03830E+01-2.03463E+00 2.60742E+00-3.70484E+01 1.78793E+00 7.89531E-01
 -1      4162 1.35091E+02 2.18761E+01 2.56561E+00-6.96024E+01 1.05575E+00-7.19385E-02
 -1      4163-1.45117E+02-3.96547E+01 1.59619E+00 5.62645E+01 1.56920E+00 1.60394E+00
 -1      4164-3.77449E+01-2.13922E+01 2.03454E+00 7.15600E-01 1.79707E+00 1.12886E+00
 -1      4165 5.60082E+01 1.82416E-01 1.95207E+00-4.11609E+01 1.25014E+00 5.15843E-01
 -1      4166 1.39797E+02 2.41105E+01 1.64191E+00-7.34532E+01 6.53100E-01-1.25192E-01
 -1      4167-1.77737E+02-3.37014E+01-8.84580E-01 5.40626E+01 8.79970E-01 7.17625E-01
 -1      4168-5.52842E+01-2.61545E+01 2.54916E+00 7.16589E+00 1.23732E+00 5.62957E-01
 -1      4169 4.98788E+01-1.10839E+01 3.91388E+00-2.81092E+01 1.09627E+00 2.94876E-01
 -1      4170 1.41977E+02 8.27798E+00 4.07740E+00-5.54475E+01 7.33137E-01-3.34259E-02
 -1      4171-1.72827E+02-3.35445E+01 1.23139E-01 5.34383E+01 1.59871E+00 1.41599E+00
 -1      4172-5.17030E+01-2.53314E+01 2.43765E+00 6.05818E+00 2.13722E+00 1.08686E+00
 -1      4173 5.25199E+01-9.93602E+00 3.39975E+00-2.96244E+01 1.76035E+00 5.68411E-01
 -1      4174 1.43937E+02 9.57504E+00 3.46683E+00-5.72756E+01 1.09626E+00-2.91939E-02
 -1      4175-1.65294E+02-3.29743E+01 1.19382E+00 5.16610E+01 2.07556E+00 1.76970E+00
 -1      4176-4.58173E+01-2.39371E+01 2.15543E+00 3.92942E+00 2.51460E+00 1.28438E+00
 -1      4177 5.71614E+01-8.33731E+00 2.63782E+00-3.20624E+01 1.87818E+00 6.27235E-01
 -1      4178 1.47708E+02 1.11897E+01 2.59742E+00-5.99063E+01 1.03756E+00-9.99715E-02
 -1      4179-1.55187E+02-3.22539E+01 1.61465E+00 4.83437E+01 1.77683E+00 1.32374E+00
 -1      4180-3.76983E+01-2.24124E+01 2.05874E+00 2.71665E-01 1.93410E+00 9.18211E-01
 -1      4181 6.35804E+01-6.80912E+00 1.97518E+00-3.58324E+01 1.31081E+00 4.00844E-01
 -1      4182 1.53109E+02 1.28384E+01 1.66219E+00-6.35636E+01 6.34104E-01-1.41032E-01
 -1      4183-1.87286E+02-2.64236E+01-9.04376E-01 4.25916E+01 9.72759E-01 5.26391E-01
 -1      4184-5.65251E+01-2.58681E+01 2.56533E+00 5.53023E+00 1.30350E+00 4.00049E-01
 -1      4185 5.48596E+01-1.57949E+01 3.94620E+00-2.22944E+01 1.12799E+00 1.87886E-01
 -1      4186 1.51762E+02-1.00472E-01 4.11205E+00-4.38179E+01 7.25270E-01-7.13317E-02
 -1      4187-1.82246E+02-2.63907E+01 1.15705E-01 4.24424E+01 1.77825E+00 1.07950E+00
 -1      4188-5.27325E+01-2.52307E+01 2.45514E+00 4.68008E+00 2.26338E+00 8.13498E-01
 -1      4189 5.77737E+01-1.48786E+01 3.42881E+00-2.37007E+01 1.82085E+00 4.03186E-01
 -1      4190 1.54036E+02 9.39254E-01 3.49722E+00-4.56477E+01 1.08429E+00-6.99745E-02
 -1      4191-1.74365E+02-2.61264E+01 1.20159E+00 4.13417E+01 2.29794E+00 1.36512E+00
 -1      4192-4.64355E+01-2.41906E+01 2.17295E+00 2.98451E+00 2.66314E+00 9.74215E-01
 -1      4193 6.28676E+01-1.36639E+01 2.66138E+00-2.58706E+01 1.94552E+00 4.53049E-01
 -1      4194 1.58270E+02 2.17055E+00 2.62029E+00-4.81386E+01 1.01716E+00-1.25411E-01
 -1      4195-1.63612E+02-2.59756E+01 1.62987E+00 3.89471E+01 1.94264E+00 1.01375E+00
 -1      4196-3.75986E+01-2.32955E+01 2.07825E+00 2.88612E-03 2.04071E+00 6.88797E-01
 -1      4197 7.00001E+01-1.27604E+01 1.99362E+00-2.91603E+01 1.35516E+00 2.77764E-01
 -1      4198 1.64327E+02 3.26186E+00 1.67760E+00-5.14903E+01 6.13803E-01-1.54496E-01
 -1      4199-1.94455E+02-2.09249E+01-9.21347E-01 2.97222E+01 1.03506E+00 3.20859E-01
 -1      4200-5.74410E+01-2.56568E+01 2.57558E+00 3.80850E+00 1.34472E+00 2.28158E-01
 -1      4201 5.86286E+01-1.93610E+01 3.97121E+00-1.56162E+01 1.14349E+00 7.75691E-02
 -1      4202 1.59114E+02-6.44465E+00 4.12895E+00-3.06184E+01 7.12516E-01-1.07552E-01
 -1      4203-1.89392E+02-2.09233E+01 1.08442E-01 3.00703E+01 1.90469E+00 7.16319E-01
 -1      4204-5.34941E+01-2.51590E+01 2.46692E+00 3.25198E+00 2.34807E+00 5.23043E-01
 -1      4205 6.17933E+01-1.86625E+01 3.45135E+00-1.68701E+01 1.85629E+00 2.30936E-01
 -1      4206 1.61713E+02-5.67169E+00 3.51321E+00-3.24035E+01 1.06699E+00-1.08040E-01
 -1      4207-1.81319E+02-2.08372E+01 1.20607E+00 2.97050E+01 2.45756E+00 9.28196E-01
 -1      4208-4.68852E+01-2.43941E+01 2.18507E+00 2.05966E+00 2.76530E+00 6.43902E-01
 -1      4209 6.72783E+01-1.77872E+01 2.67969E+00-1.86977E+01 1.98649E+00 2.70579E-01
 -1      4210 1.66388E+02-4.80712E+00 2.63255E+00-3.46841E+01 9.93591E-01-1.47137E-01
 -1      4211-1.70130E+02-2.10785E+01 1.64031E+00 2.83428E+01 2.06121E+00 6.79892E-01
 -1      4212-3.74894E+01-2.39974E+01 2.09215E+00-1.21848E-01 2.11321E+00 4.44692E-01
 -1      4213 7.50113E+01-1.74183E+01 2.00748E+00-2.13870E+01 1.38068E+00 1.48930E-01
 -1      4214 1.73040E+02-4.22242E+00 1.68688E+00-3.76273E+01 5.91895E-01-1.64857E-01
 -1      4215-1.99021E+02-1.74511E+01-9.45486E-01 1.58556E+01 1.06275E+00 1.07087E-01
 -1      4216-5.79999E+01-2.55309E+01 2.58486E+00 2.02030E+00 1.35998E+00 5.20146E-02
 -1      4217 6.10197E+01-2.16666E+01 3.97513E+00-8.32772E+00 1.14156E+00-3.58912E-02
 -1      4218 1.63810E+02-1.04672E+01 4.15160E+00-1.63092E+01 6.91410E-01-1.38312E-01
 -1      4219-1.94044E+02-1.73832E+01 9.39971E-02 1.67034E+01 1.97292E+00 3.36140E-01
 -1      4220-5.39679E+01-2.51207E+01 2.47549E+00 1.78202E+00 2.39002E+00 2.22216E-01
 -1      4221 6.44054E+01-2.11562E+01 3.45441E+00-9.39002E+00 1.86451E+00 5.19641E-02
 -1      4222 1.66724E+02-9.96565E+00 3.53236E+00-1.80013E+01 1.03926E+00-1.40227E-01
 -1      4223-1.85934E+02-1.73330E+01 1.20305E+00 1.71061E+01 2.54798E+00 4.69778E-01
 -1      4224-4.71638E+01-2.45371E+01 2.19330E+00 1.14773E+00 2.81805E+00 2.99861E-01
 -1      4225 7.02095E+01-2.05516E+01 2.68298E+00-1.08098E+01 1.99661E+00 7.92363E-02
 -1      4226 1.71792E+02-9.44085E+00 2.64630E+00-2.00023E+01 9.59584E-01-1.63802E-01
 -1      4227-1.74533E+02-1.77666E+01 1.64520E+00 1.68493E+01 2.12690E+00 3.29625E-01
 -1      4228-3.73961E+01-2.44834E+01 2.10130E+00-1.37764E-01 2.14910E+00 1.90076E-01
 -1      4229 7.84106E+01-2.05943E+01 2.01174E+00-1.27981E+01 1.38426E+00 1.30523E-02
 -1      4230 1.78947E+02-9.29751E+00 1.69556E+00-2.24431E+01 5.63761E-01-1.71574E-01
 -1      4231-2.00683E+02-1.61573E+01-9.30327E-01 1.05204E+00 1.01950E+00-9.59639E-02
 -1      4232-5.81567E+01-2.55313E+01 2.59576E+00-2.96494E-01 1.29737E+00-1.19055E-01
 -1      4233 6.20053E+01-2.25476E+01 3.99838E+00-1.25643E+00 1.05726E+00-1.41243E-01
 -1      4234 1.65665E+02-1.20411E+01 4.16961E+00-1.95372E+00 5.89865E-01-1.65183E-01
 -1      4235-1.95933E+02-1.59183E+01 1.08629E-01 2.47579E+00 1.96211E+00-3.21224E-02
 -1      4236-5.41261E+01-2.51355E+01 2.48507E+00-8.28337E-02 2.35386E+00-7.18390E-02
 -1      4237 6.55543E+01-2.21929E+01 3.47440E+00-1.95772E+00 1.79858E+00-1.16344E-01
 -1      4238 1.68868E+02-1.17878E+01 3.54406E+00-3.36502E+00 9.46163E-01-1.64401E-01
 -1      4239-1.87984E+02-1.57555E+01 1.21765E+00 3.74182E+00 2.55982E+00 2.12806E-02
 -1      4240-4.72607E+01-2.46181E+01 2.20201E+00-7.62566E-03 2.80046E+00-3.76308E-02
 -1      4241 7.15758E+01-2.17920E+01 2.69816E+00-2.78421E+00 1.94636E+00-1.01049E-01
 -1      4242 1.74272E+02-1.15486E+01 2.65462E+00-4.88698E+00 8.76832E-01-1.70497E-01
 -1      4243-1.76635E+02-1.61683E+01 1.65786E+00 4.71839E+00 2.12418E+00-1.39802E-02
 -1      4244-3.73259E+01-2.47250E+01 2.11247E+00-2.11902E-01 2.12121E+00-6.14434E-02
 -1      4245 8.00834E+01-2.21211E+01 2.02480E+00-3.85757E+00 1.33007E+00-1.16539E-01
 -1      4246 1.81831E+02-1.17497E+01 1.70471E+00-6.60745E+00 4.83414E-01-1.73969E-01
 -1      4247-1.99576E+02-1.70138E+01-9.13460E-01-1.24066E+01 1.00839E+00-2.95837E-01
 -1      4248-5.79615E+01-2.56223E+01 2.59557E+00-1.52684E+00 1.28250E+00-2.74644E-01
 -1      4249 6.15428E+01-2.20431E+01 4.00833E+00 6.63324E+00 1.04154E+00-2.28951E-01
 -1      4250 1.64680E+02-1.11610E+01 4.16519E+00 1.29333E+01 5.63035E-01-1.68643E-01
 -1      4251-1.95119E+02-1.65495E+01 1.21951E-01-1.08033E+01 1.95844E+00-4.08795E-01
 -1      4252-5.39884E+01-2.51921E+01 2.48827E+00-1.13578E+00 2.35040E+00-3.60441E-01
 -1      4253 6.52020E+01-2.18027E+01 3.48548E+00 6.12511E+00 1.79610E+00-2.75580E-01
 -1      4254 1.68131E+02-1.11126E+01 3.55008E+00 1.17341E+01 9.32406E-01-1.73836E-01
 -1      4255-1.87465E+02-1.61581E+01 1.22791E+00-9.06524E+00 2.54835E+00-4.39344E-01
 -1      4256-4.71829E+01-2.46380E+01 2.20662E+00-6.21623E-01 2.78721E+00-3.71678E-01
 -1      4257 7.13334E+01-2.15147E+01 2.70854E+00 5.72759E+00 1.93103E+00-2.72995E-01
 -1      4258 1.73782E+02-1.10813E+01 2.66265E+00 1.06259E+01 8.48860E-01-1.62416E-01
 -1      4259-1.76398E+02-1.63517E+01 1.66595E+00-7.22602E+00 2.09321E+00-3.59456E-01
 -1      4260-3.72942E+01-2.47182E+01 2.11988E+00 6.36406E-03 2.08517E+00-3.00289E-01
 -1      4261 7.99649E+01-2.19650E+01 2.03563E+00 5.42419E+00 1.28833E+00-2.29142E-01
 -1      4262 1.81599E+02-1.14995E+01 1.71375E+00 9.57640E+00 4.29799E-01-1.52739E-01
 -1      4263-1.95984E+02-1.98580E+01-9.14499E-01-2.58765E+01 9.46342E-01-4.78627E-01
 -1      4264-5.75134E+01-2.57334E+01 2.59505E+00-3.21685E+00 1.22842E+00-4.19072E-01
 -1      4265 5.96057E+01-2.02465E+01 3.98593E+00 1.37593E+01 9.96156E-01-3.06440E-01
 -1      4266 1.60949E+02-7.89892E+00 4.16207E+00 2.68660E+01 5.33983E-01-1.68690E-01
 -1      4267-1.91836E+02-1.91399E+01 1.17342E-01-2.40373E+01 1.86663E+00-7.59599E-01
 -1      4268-5.36526E+01-2.52285E+01 2.48537E+00-2.53075E+00 2.27374E+00-6.29777E-01
 -1      4269 6.33105E+01-2.00463E+01 3.46708E+00 1.36001E+01 1.73601E+00-4.16892E-01
 -1      4270 1.64560E+02-7.99729E+00 3.54416E+00 2.60513E+01 8.97090E-01-1.73863E-01
 -1      4271-1.84550E+02-1.84438E+01 1.22164E+00-2.17810E+01 2.44804E+00-8.74012E-01
 -1      4272-4.70110E+01-2.45527E+01 2.20335E+00-1.46986E+00 2.70844E+00-6.86979E-01
 -1      4273 6.94430E+01-1.97578E+01 2.69542E+00 1.37783E+01 1.87324E+00-4.27616E-01
 -1      4274 1.70337E+02-8.07959E+00 2.65826E+00 2.55244E+01 8.18758E-01-1.46319E-01
 -1      4275-1.73917E+02-1.82719E+01 1.66018E+00-1.90369E+01 2.01503E+00-6.86109E-01
 -1      4276-3.73563E+01-2.44480E+01 2.11472E+00 9.36228E-02 2.02528E+00-5.26882E-01
 -1      4277 7.80182E+01-2.01553E+01 2.02691E+00 1.43885E+01 1.24473E+00-3.29838E-01
 -1      4278 1.78243E+02-8.57686E+00 1.70844E+00 2.53130E+01 4.06231E-01-1.27264E-01
 -1      4279-1.89870E+02-2.45872E+01-8.95178E-01-3.85699E+01 8.65525E-01-6.52567E-01
 -1      4280-5.67665E+01-2.59071E+01 2.58716E+00-4.88068E+00 1.16107E+00-5.57857E-01
 -1      4281 5.63645E+01-1.71704E+01 3.96773E+00 2.03831E+01 9.50360E-01-3.82653E-01
 -1      4282 1.54609E+02-2.44944E+00 4.12565E+00 3.99067E+01 5.15747E-01-1.69022E-01
 -1      4283-1.86068E+02-2.35959E+01 1.26631E-01-3.65412E+01 1.73152E+00-1.09506E+00
 -1      4284-5.30684E+01-2.52800E+01 2.47604E+00-3.91597E+00 2.16708E+00-8.90085E-01
 -1      4285 6.00386E+01-1.69555E+01 3.45028E+00 2.05752E+01 1.66916E+00-5.56612E-01
 -1      4286 1.58304E+02-2.61331E+00 3.51594E+00 3.94956E+01 8.77794E-01-1.75825E-01
 -1      4287-1.79241E+02-2.25273E+01 1.22043E+00-3.38297E+01 2.29218E+00-1.29046E+00
 -1      4288-4.66968E+01-2.43910E+01 2.19354E+00-2.34095E+00 2.59189E+00-9.91425E-01
 -1      4289 6.60456E+01-1.65694E+01 2.68162E+00 2.13179E+01 1.80427E+00-5.79614E-01
 -1      4290 1.64088E+02-2.69533E+00 2.63902E+00 3.95573E+01 8.04204E-01-1.31041E-01
 -1      4291-1.69215E+02-2.18493E+01 1.65339E+00-3.02680E+01 1.89728E+00-9.98654E-01
 -1      4292-3.74638E+01-2.39311E+01 2.10425E+00 9.92474E-02 1.93941E+00-7.44664E-01
 -1      4293 7.43685E+01-1.67478E+01 2.01693E+00 2.28078E+01 1.19477E+00-4.27895E-01
 -1      4294 1.71909E+02-3.10770E+00 1.69738E+00 4.01755E+01 3.95397E-01-1.00732E-01
 -1      4295-1.81455E+02-3.10246E+01-8.64533E-01-5.00863E+01 7.65305E-01-8.14200E-01
 -1      4296-5.57083E+01-2.61448E+01 2.57584E+00-6.48210E+00 1.08065E+00-6.86921E-01
 -1      4297 5.19292E+01-1.29803E+01 3.93569E+00 2.62782E+01 9.00441E-01-4.53017E-01
 -1      4298 1.45937E+02 4.98567E+00 4.08088E+00 5.16404E+01 5.02640E-01-1.66553E-01
 -1      4299-1.78017E+02-2.97470E+01 1.42597E-01-4.79252E+01 1.55643E+00-1.40895E+00
 -1      4300-5.22236E+01-2.53523E+01 2.46349E+00-5.27396E+00 2.03313E+00-1.13429E+00
 -1      4301 5.55015E+01-1.26861E+01 3.42259E+00 2.68019E+01 1.59209E+00-6.87623E-01
 -1      4302 1.49622E+02 4.83203E+00 3.48011E+00 5.16254E+01 8.66159E-01-1.74905E-01
 -1      4303-1.71721E+02-2.82485E+01 1.22022E+00-4.48391E+01 2.08510E+00-1.68103E+00
 -1      4304-4.62213E+01-2.41652E+01 2.18048E+00-3.24096E+00 2.44198E+00-1.27778E+00
 -1      4305 6.12672E+01-1.21005E+01 2.66004E+00 2.80707E+01 1.72296E+00-7.22280E-01
 -1      4306 1.55282E+02 4.85823E+00 2.61417E+00 5.22542E+01 7.99245E-01-1.13792E-01
 -1      4307-1.62448E+02-2.69424E+01 1.64423E+00-4.05797E+01 1.74122E+00-1.29143E+00
 -1      4308-3.75870E+01-2.31975E+01 2.08972E+00-2.24854E-02 1.82948E+00-9.48992E-01
 -1      4309 6.91557E+01-1.18972E+01 2.00175E+00 3.03665E+01 1.13658E+00-5.18837E-01
 -1      4310 1.62840E+02 4.68264E+00 1.68246E+00 5.36561E+01 3.92151E-01-7.26127E-02
 -1      4311-1.71019E+02-3.89187E+01-8.27794E-01-6.00918E+01 6.46009E-01-9.60747E-01
 -1      4312-5.43513E+01-2.64435E+01 2.56015E+00-7.99457E+00 9.87421E-01-8.04120E-01
 -1      4313 4.64841E+01-7.84699E+00 3.89425E+00 3.12423E+01 8.45337E-01-5.16351E-01
 -1      4314 1.35234E+02 1.41050E+01 4.02683E+00 6.16893E+01 4.93003E-01-1.63237E-01
 -1      4315-1.67952E+02-3.73501E+01 1.61204E-01-5.78533E+01 1.34328E+00-1.69539E+00
 -1      4316-5.11240E+01-2.54496E+01 2.44624E+00-6.58479E+00 1.87337E+00-1.35804E+00
 -1      4317 4.98845E+01-7.41476E+00 3.38679E+00 3.20664E+01 1.50392E+00-8.07218E-01
 -1      4318 1.38821E+02 1.40351E+01 3.43594E+00 6.20498E+01 8.59342E-01-1.73530E-01
 -1      4319-1.62241E+02-3.53801E+01 1.21845E+00-5.44830E+01 1.83001E+00-2.03831E+00
 -1      4320-4.55770E+01-2.38935E+01 2.16281E+00-4.16969E+00 2.26094E+00-1.54084E+00
 -1      4321 5.53018E+01-6.53847E+00 2.63229E+00 3.37994E+01 1.62893E+00-8.52676E-01
 -1      4322 1.44237E+02 1.42706E+01 2.58286E+00 6.32003E+01 8.01267E-01-9.71088E-02
 -1      4323-1.53837E+02-3.33490E+01 1.63124E+00-4.96676E+01 1.54943E+00-1.55910E+00
 -1      4324-3.76923E+01-2.22890E+01 2.07020E+00-3.02764E-01 1.69743E+00-1.13632E+00
 -1      4325 6.25914E+01-5.81161E+00 1.98184E+00 3.67934E+01 1.07040E+00-6.01081E-01
 -1      4326 1.51368E+02 1.44712E+01 1.66342E+00 6.53087E+01 3.95667E-01-4.50849E-02
 -1      4327-1.58889E+02-4.79598E+01-7.86252E-01-6.83126E+01 5.09324E-01-1.08897E+00
 -1      4328-5.27117E+01-2.67956E+01 2.53970E+00-9.39644E+00 8.82088E-01-9.07830E-01
 -1      4329 4.02362E+01-1.97604E+00 3.84353E+00 3.51116E+01 7.85098E-01-5.72327E-01
 -1      4330 1.22868E+02 2.45481E+01 3.96205E+00 6.97499E+01 4.86181E-01-1.60092E-01
 -1      4331-1.56193E+02-4.61045E+01 1.81391E-01-6.60493E+01 1.09537E+00-1.94827E+00
 -1      4332-4.97760E+01-2.55728E+01 2.42420E+00-7.83259E+00 1.68949E+00-1.55786E+00
 -1      4333 4.34045E+01-1.35540E+00 3.34295E+00 3.61932E+01 1.40488E+00-9.14349E-01
 -1      4334 1.26278E+02 2.46286E+01 3.38269E+00 7.04496E+01 8.56243E-01-1.73125E-01
 -1      4335-1.51102E+02-4.36374E+01 1.21487E+00-6.24901E+01 1.53142E+00-2.35499E+00
 -1      4336-4.47521E+01-2.35935E+01 2.14082E+00-5.12417E+00 2.05119E+00-1.77643E+00
 -1      4337 4.83821E+01-1.13348E-01 2.59844E+00 3.83103E+01 1.52276E+00-9.69487E-01
 -1      4338 1.31344E+02 2.51619E+01 2.54500E+00 7.20558E+01 8.09075E-01-8.27149E-02
 -1      4339-1.43654E+02-4.08135E+01 1.61449E+00-5.72761E+01 1.32551E+00-1.79646E+00
 -1      4340-3.77363E+01-2.12535E+01 2.04608E+00-7.63795E-01 1.54515E+00-1.30373E+00
 -1      4341 5.49373E+01 1.25238E+00 1.95731E+00 4.18660E+01 9.96908E-01-6.73864E-01
 -1      4342 1.37907E+02 2.58572E+01 1.64037E+00 7.47647E+01 4.05253E-01-1.95979E-02
 -1      4343-1.45439E+02-5.77963E+01-7.41416E-01-7.45441E+01 3.57665E-01-1.19645E+00
 -1      4344-5.08089E+01-2.71907E+01 2.51354E+00-1.06683E+01 7.65972E-01-9.96672E-01
 -1      4345 3.34182E+01 4.40095E+00 3.78244E+00 3.77680E+01 7.20081E-01-6.20680E-01
 -1      4346 1.09256E+02 3.59089E+01 3.88546E+00 7.56002E+01 4.81561E-01-1.57809E-01
 -1      4347-1.43105E+02-5.56658E+01 2.02521E-01-7.23053E+01 8.17423E-01-2.16261E+00
 -1      4348-4.81886E+01-2.57220E+01 2.39665E+00-9.00233E+00 1.48408E+00-1.73087E+00
 -1      4349 3.63056E+01 5.24919E+00 3.29007E+00 3.90545E+01 1.29580E+00-1.00826E+00
 -1      4350 1.12421E+02 3.61952E+01 3.31938E+00 7.65888E+01 8.55869E-01-1.74811E-01
 -1      4351-1.38653E+02-5.26936E+01 1.20898E+00-6.86546E+01 1.19514E+00-2.62490E+00
 -1      4352-4.37367E+01-2.32849E+01 2.11353E+00-6.09855E+00 1.81586E+00-1.98106E+00
 -1      4353 4.07715E+01 6.91253E+00 2.55757E+00 4.14615E+01 1.40548E+00-1.07174E+00
 -1      4354 1.17049E+02 3.70964E+01 2.49963E+00 7.85666E+01 8.21419E-01-7.20356E-02
 -1      4355-1.32214E+02-4.90402E+01 1.59397E+00-6.32086E+01 1.07381E+00-1.99910E+00
 -1      4356-3.76732E+01-2.01455E+01 2.01678E+00-1.41692E+00 1.37497E+00-1.44880E+00
 -1      4357 4.64908E+01 8.99996E+00 1.92760E+00 4.54208E+01 9.16841E-01-7.36620E-01
 -1      4358 1.22932E+02 3.83787E+01 1.61277E+00 8.17469E+01 4.19986E-01 2.61629E-03
 -1      4359-1.31068E+02-6.80470E+01-6.93111E-01-7.86564E+01 1.93658E-01-1.28140E+00
 -1      4360-4.86634E+01-2.76160E+01 2.48090E+00-1.17923E+01 6.40505E-01-1.06950E+00
 -1      4361 2.62808E+01 1.10374E+01 3.71024E+00 3.91442E+01 6.50671E-01-6.61151E-01
 -1      4362 9.48483E+01 4.77507E+01 3.79512E+00 7.91051E+01 4.78370E-01-1.57133E-01
 -1      4363-1.29082E+02-6.56611E+01 2.24358E-01-7.64878E+01 5.14603E-01-2.33477E+00
 -1      4364-4.63726E+01-2.58954E+01 2.36300E+00-1.00784E+01 1.25993E+00-1.87463E+00
 -1      4365 2.88511E+01 1.21392E+01 3.22793E+00 4.05760E+01 1.17748E+00-1.08804E+00
 -1      4366 9.77149E+01 4.82846E+01 3.24471E+00 8.03217E+01 8.56950E-01-1.79557E-01
 -1      4367-1.25269E+02-6.21928E+01 1.20112E+00-7.28418E+01 8.27788E-01-2.84340E+00
 -1      4368-4.25188E+01-2.29861E+01 2.08140E+00-7.08223E+00 1.55850E+00-2.15182E+00
 -1      4369 3.27579E+01 1.42581E+01 2.51008E+00 4.31690E+01 1.27820E+00-1.15847E+00
 -1      4370 1.01838E+02 4.96041E+01 2.44634E+00 8.25744E+01 8.36890E-01-6.62740E-02
 -1      4371-1.19862E+02-5.77067E+01 1.56964E+00-6.73343E+01 7.99327E-01-2.16360E+00
 -1      4372-3.74535E+01-1.90211E+01 1.98273E+00-2.26090E+00 1.18961E+00-1.56952E+00
 -1      4373 3.75759E+01 1.71128E+01 1.89315E+00 4.73601E+01 8.31049E-01-7.88843E-01
 -1      4374 1.06961E+02 5.15345E+01 1.58064E+00 8.60802E+01 4.38818E-01 2.04714E-02
 -1      4375-1.16193E+02-7.83215E+01-6.44366E-01-8.05989E+01 1.97733E-02-1.34281E+00
 -1      4376-4.63008E+01-2.80573E+01 2.43902E+00-1.27520E+01 5.06932E-01-1.12558E+00
 -1      4377 1.90789E+01 1.76803E+01 3.62387E+00 3.92252E+01 5.76888E-01-6.93550E-01
 -1      4378 8.01086E+01 5.96267E+01 3.68833E+00 8.02216E+01 4.75333E-01-1.58646E-01
 -1      4379-1.14533E+02-7.57058E+01 2.45262E-01-7.85413E+01 1.91838E-01-2.46242E+00
 -1      4380-4.43410E+01-2.60896E+01 2.32151E+00-1.10447E+01 1.01973E+00-1.98752E+00
 -1      4381 2.13113E+01 1.90478E+01 3.15414E+00 4.07385E+01 1.05035E+00-1.15327E+00
 -1      4382 8.26387E+01 6.04345E+01 3.15658E+00 8.15982E+01 8.57474E-01-1.88257E-01
 -1      4383-1.11346E+02-7.17690E+01 1.18981E+00-7.49928E+01 4.35855E-01-3.00740E+00
 -1      4384-4.10926E+01-2.27167E+01 2.04273E+00-8.05991E+00 1.28251E+00-2.28665E+00
 -1      4385 2.46331E+01 2.16316E+01 2.45405E+00 4.34086E+01 1.14157E+00-1.22909E+00
 -1      4386 8.62143E+01 6.21988E+01 2.38377E+00 8.40203E+01 8.53210E-01-6.65643E-02
 -1      4387-1.06957E+02-6.64778E+01 1.54136E+00-6.95908E+01 5.07114E-01-2.28770E+00
 -1      4388-3.70301E+01-1.79377E+01 1.94330E+00-3.28184E+00 9.91651E-01-1.66447E+00
 -1      4389 2.85253E+01 2.52624E+01 1.85315E+00 4.76546E+01 7.40078E-01-8.30239E-01
 -1      4390 9.05296E+01 6.48056E+01 1.54315E+00 8.76969E+01 4.60180E-01 3.29603E-02
 -1      4391-1.01226E+02-8.82322E+01-5.97959E-01-8.03986E+01-1.62093E-01-1.38027E+00
 -1      4392-4.37472E+01-2.84959E+01 2.38510E+00-1.35323E+01 3.65998E-01-1.16449E+00
 -1      4393 1.20640E+01 2.40845E+01 3.51978E+00 3.80482E+01 4.98288E-01-7.17882E-01
 -1      4394 6.54944E+01 7.10981E+01 3.56032E+00 7.89974E+01 4.70555E-01-1.63059E-01
 -1      4395-9.98674E+01-8.54202E+01 2.62709E-01-7.84884E+01-1.46641E-01-2.54444E+00
 -1      4396-4.21109E+01-2.62990E+01 2.26980E+00-1.18844E+01 7.65282E-01-2.06842E+00
 -1      4397 1.39510E+01 2.57142E+01 3.06596E+00 3.95780E+01 9.13895E-01-1.20354E+00
 -1      4398 6.76659E+01 7.21887E+01 3.05129E+00 8.04618E+01 8.54346E-01-2.01824E-01
 -1      4399-9.72738E+01-8.10580E+01 1.17427E+00-7.51240E+01 2.50571E-02-3.11538E+00
 -1      4400-3.94516E+01-2.24922E+01 1.99679E+00-9.01141E+00 9.90447E-01-2.38420E+00
 -1      4401 1.66877E+01 2.87484E+01 2.38824E+00 4.22173E+01 9.95340E-01-1.28317E+00
 -1      4402 7.06753E+01 7.44005E+01 2.30963E+00 8.29454E+01 8.66971E-01-7.39725E-02
 -1      4403-9.38623E+01-7.50232E+01 1.50827E+00-6.99856E+01 2.01614E-01-2.37018E+00
 -1      4404-3.63608E+01-1.69498E+01 1.89822E+00-4.45251E+00 7.83122E-01-1.73272E+00
 -1      4405 1.96666E+01 3.31249E+01 1.80694E+00 4.63441E+01 6.43862E-01-8.60634E-01
 -1      4406 7.41709E+01 7.76776E+01 1.49928E+00 8.66365E+01 4.81639E-01 3.91845E-02
 -1      4407-8.65612E+01-9.74107E+01-5.58717E-01-7.81573E+01-3.51037E-01-1.39396E+00
 -1      4408-4.10328E+01-2.89100E+01 2.31403E+00-1.41199E+01 2.17467E-01-1.18596E+00
 -1      4409 5.47014E+00 3.00238E+01 3.39244E+00 3.56996E+01 4.13432E-01-7.33969E-01
 -1      4410 5.14380E+01 8.17538E+01 3.40412E+00 7.55662E+01 4.61166E-01-1.70820E-01
 -1      4411-8.54736E+01-9.44426E+01 2.73555E-01-7.64255E+01-4.98405E-01-2.58102E+00
 -1      4412-3.97017E+01-2.65136E+01 2.20429E+00-1.25805E+01 4.96807E-01-2.11679E+00
 -1      4413 7.01885E+00 3.18959E+01 2.95917E+00 3.71833E+01 7.66144E-01-1.23857E+00
 -1      4414 5.32458E+01 8.31190E+01 2.92366E+00 7.70467E+01 8.42923E-01-2.21024E-01
 -1      4415-8.34317E+01-8.97173E+01 1.15210E+00-7.33239E+01-4.00691E-01-3.16731E+00
 -1      4416-3.75976E+01-2.23262E+01 1.94095E+00-9.91235E+00 6.83206E-01-2.44383E+00
 -1      4417 9.19224E+00 3.53413E+01 2.30993E+00 3.96889E+01 8.37714E-01-1.32046E+00
 -1      4418 5.56934E+01 8.57553E+01 2.22062E+00 7.94858E+01 8.73164E-01-8.94435E-02
 -1      4419-8.09256E+01-8.30296E+01 1.46982E+00-6.85926E+01-1.13763E-01-2.41101E+00
 -1      4420-3.54107E+01-1.61073E+01 1.84649E+00-5.73395E+00 5.64992E-01-1.77388E+00
 -1      4421 1.13078E+01 4.03956E+01 1.75335E+00 4.35342E+01 5.41316E-01-8.79977E-01
 -1      4422 5.83910E+01 8.96630E+01 1.44734E+00 8.30413E+01 4.99838E-01 3.82544E-02
 -1      4423-7.25589E+01-1.05521E+02-5.33076E-01-7.40445E+01-5.47713E-01-1.38431E+00
 -1      4424-3.81897E+01-2.92708E+01 2.21957E+00-1.45039E+01 5.98732E-02-1.18968E+00
 -1      4425-4.94430E-01 3.53019E+01 3.23451E+00 3.23096E+01 3.19769E-01-7.41540E-01
 -1      4426 3.83301E+01 9.12281E+01 3.20985E+00 7.01393E+01 4.42980E-01-1.82135E-01
 -1      4427-7.17104E+01-1.02445E+02 2.72571E-01-7.25167E+01-8.63744E-01-2.57284E+00
 -1      4428-3.71367E+01-2.67180E+01 2.12020E+00-1.31159E+01 2.12357E-01-2.13204E+00
 -1      4429 7.35928E-01 3.73808E+01 2.82798E+00 3.36896E+01 6.03054E-01-1.25779E+00
 -1      4430 3.97843E+01 9.28409E+01 2.76571E+00 7.15676E+01 8.16299E-01-2.46090E-01
 -1      4431-7.01652E+01-9.74370E+01 1.12062E+00-6.97460E+01-8.40444E-01-3.16417E+00
 -1      4432-3.55362E+01-2.22252E+01 1.87276E+00-1.07340E+01 3.59232E-01-2.46506E+00
 -1      4433 2.38856E+00 4.11726E+01 2.21556E+00 3.59692E+01 6.64574E-01-1.34043E+00
 -1      4434 4.16965E+01 9.58541E+01 2.11156E+00 7.38636E+01 8.64348E-01-1.13452E-01
 -1      4435-6.84708E+01-9.02177E+01 1.42435E+00-6.55467E+01-4.37748E-01-2.41114E+00
 -1      4436-3.41556E+01-1.54524E+01 1.78699E+00-7.07626E+00 3.36480E-01-1.78779E+00
 -1      4437 3.72238E+00 4.68017E+01 1.69045E+00 3.93891E+01 4.29727E-01-8.88066E-01
 -1      4438 4.36480E+01 1.00320E+02 1.38462E+00 7.71458E+01 5.09678E-01 2.97540E-02
 -1      4439-5.95348E+01-1.12267E+02-5.29067E-01-6.82885E+01-7.54302E-01-1.35143E+00
 -1      4440-3.52527E+01-2.95412E+01 2.09446E+00-1.46773E+01-1.09584E-01-1.17481E+00
 -1      4441-5.65552E+00 3.97633E+01 3.03699E+00 2.80432E+01 2.13350E-01-7.39583E-01
 -1      4442 2.65058E+01 9.92157E+01 2.96467E+00 6.29929E+01 4.10254E-01-1.96526E-01
 -1      4443-5.88907E+01-1.09143E+02 2.53589E-01-6.69840E+01-1.24599E+00-2.52046E+00
 -1      4444-3.44437E+01-2.68888E+01 2.01169E+00-1.34755E+01-9.25817E-02-2.11289E+00
 -1      4445-4.71237E+00 4.19969E+01 2.66536E+00 2.92706E+01 4.18110E-01-1.25954E+00
 -1      4446 2.76306E+01 1.01031E+02 2.56739E+00 6.43078E+01 7.64816E-01-2.76278E-01
 -1      4447-5.77787E+01-1.03952E+02 1.07591E+00-6.46002E+01-1.29724E+00-3.10721E+00
 -1      4448-3.32812E+01-2.21895E+01 1.78828E+00-1.14461E+01 1.38362E-02-2.44683E+00
 -1      4449-3.52043E+00 4.60464E+01 2.10061E+00 3.12466E+01 4.68906E-01-1.34154E+00
 -1      4450 2.90531E+01 1.04349E+02 1.97607E+00 6.63739E+01 8.29881E-01-1.45247E-01
 -1      4451-5.67835E+01-9.63529E+01 1.36991E+00-6.10348E+01-7.71948E-01-2.37191E+00
 -1      4452-3.25847E+01-1.50180E+01 1.71770E+00-8.42194E+00 9.45398E-02-1.77408E+00
 -1      4453-2.85970E+00 5.21135E+01 1.61602E+00 3.41225E+01 3.04319E-01-8.84066E-01
 -1      4454 3.03369E+01 1.09269E+02 1.30781E+00 6.92639E+01 5.03856E-01 1.39962E-02
 -1      4455-4.77469E+01-1.17400E+02-5.52063E-01-6.11681E+01-9.73829E-01-1.29440E+00
 -1      4456-3.22559E+01-2.96773E+01 1.93210E+00-1.46426E+01-2.94328E-01-1.13951E+00
 -1      4457-9.87324E+00 4.32980E+01 2.79184E+00 2.30907E+01 8.94051E-02-7.26202E-01
 -1      4458 1.62388E+01 1.05485E+02 2.65537E+00 5.44544E+01 3.55882E-01-2.12448E-01
 -1      4459-4.72712E+01-1.14296E+02 2.11789E-01-6.00984E+01-1.65089E+00-2.42290E+00
 -1      4460-3.16513E+01-2.69945E+01 1.87308E+00-1.36510E+01-4.24210E-01-2.05643E+00
 -1      4461-9.17764E+00 4.56192E+01 2.46458E+00 2.41275E+01 2.02877E-01-1.24067E+00
 -1      4462 1.70696E+01 1.07442E+02 2.31798E+00 5.56046E+01 6.75986E-01-3.09002E-01
 -1      4463-4.65215E+01-1.09047E+02 1.01475E+00-5.81422E+01-1.77811E+00-2.99662E+00
 -1      4464-3.08510E+01-2.22103E+01 1.68324E+00-1.20213E+01-3.60422E-01-2.38651E+00
 -1      4465-8.37319E+00 4.98136E+01 1.96033E+00 2.57411E+01 2.40888E-01-1.32047E+00
 -1      4466 1.80637E+01 1.10965E+02 1.80702E+00 5.73697E+01 7.55514E-01-1.82218E-01
 -1      4467-4.61000E+01-1.01253E+02 1.30450E+00-5.52875E+01-1.12155E+00-2.29443E+00
 -1      4468-3.06995E+01-1.48288E+01 1.63535E+00-9.71185E+00-1.66337E-01-1.73145E+00
 -1      4469-8.25730E+00 5.61496E+01 1.52696E+00 2.79849E+01 1.57911E-01-8.65757E-01
 -1      4470 1.87787E+01 1.16205E+02 1.21312E+00 5.97726E+01 4.72300E-01-7.34293E-03
 -1      4471-3.73868E+01-1.20719E+02-5.99796E-01-5.30129E+01-1.20795E+00-1.21059E+00
 -1      4472-2.92242E+01-2.96417E+01 1.72908E+00-1.44229E+01-4.96480E-01-1.08058E+00
 -1      4473-1.30338E+01 4.58348E+01 2.49580E+00 1.76562E+01-5.61147E-02-6.98202E-01
 -1      4474 7.74484E+00 1.09890E+02 2.27505E+00 4.48913E+01 2.72665E-01-2.26694E-01
 -1      4475-3.70420E+01-1.17711E+02 1.47305E-01-5.21790E+01-2.08344E+00-2.27625E+00
 -1      4476-2.87817E+01-2.70068E+01 1.69950E+00-1.36522E+01-7.87523E-01-1.95729E+00
 -1      4477-1.25405E+01 4.81649E+01 2.22185E+00 1.84781E+01-5.06661E-02-1.19566E+00
 -1      4478 8.32581E+00 1.11910E+02 2.01159E+00 4.58384E+01 5.36215E-01-3.38985E-01
 -1      4479-3.65782E+01-1.12553E+02 9.36380E-01-5.06714E+01-2.29216E+00-2.82946E+00
 -1      4480-2.82614E+01-2.22802E+01 1.55170E+00-1.24465E+01-7.71342E-01-2.27865E+00
 -1      4481-1.20418E+01 5.23692E+01 1.79083E+00 1.96932E+01-3.01675E-02-1.27116E+00
 -1      4482 8.96386E+00 1.15516E+02 1.60071E+00 4.72506E+01 6.24292E-01-2.18732E-01
 -1      4483-3.65967E+01-1.04786E+02 1.22673E+00-4.85746E+01-1.49482E+00-2.17804E+00
 -1      4484-2.85057E+01-1.49109E+01 1.53353E+00-1.08968E+01-4.52870E-01-1.65661E+00
 -1      4485-1.23301E+01 5.87723E+01 1.41928E+00 2.12516E+01-1.80699E-02-8.28749E-01
 -1      4486 9.22365E+00 1.20909E+02 1.09904E+00 4.90998E+01 4.02237E-01-3.01803E-02
 -1      4487-2.85575E+01-1.22077E+02-6.47163E-01-4.42169E+01-1.45251E+00-1.09557E+00
 -1      4488-2.61455E+01-2.94485E+01 1.48973E+00-1.40771E+01-7.12939E-01-9.93829E-01
 -1      4489-1.50220E+01 4.73114E+01 2.15835E+00 1.19592E+01-2.22805E-01-6.51539E-01
 -1      4490 1.19831E+00 1.12379E+02 1.84016E+00 3.47127E+01 1.57154E-01-2.34250E-01
 -1      4491-2.83068E+01-1.19244E+02 7.62985E-02-4.36057E+01-2.54059E+00-2.07261E+00
 -1      4492-2.58240E+01-2.69412E+01 1.48899E+00-1.35234E+01-1.17979E+00-1.80773E+00
 -1      4493-1.46843E+01 4.95663E+01 1.94150E+00 1.25561E+01-3.44294E-01-1.11732E+00
 -1      4494 1.57964E+00 1.14376E+02 1.66037E+00 3.54326E+01 3.36149E-01-3.57862E-01
 -1      4495-2.80491E+01-1.14340E+02 8.49010E-01-4.25413E+01-2.84372E+00-2.59720E+00
 -1      4496-2.55009E+01-2.24281E+01 1.38525E+00-1.27388E+01-1.22041E+00-2.11397E+00
 -1      4497-1.44070E+01 5.36298E+01 1.59118E+00 1.33611E+01-3.50073E-01-1.18497E+00
 -1      4498 1.94073E+00 1.17922E+02 1.36571E+00 3.64618E+01 4.20646E-01-2.45561E-01
 -1      4499-2.83686E+01-1.06869E+02 1.13851E+00-4.12136E+01-1.90003E+00-2.01794E+00
 -1      4500-2.59876E+01-1.53285E+01 1.39935E+00-1.19540E+01-7.68862E-01-1.54303E+00
 -1      4501-1.49530E+01 5.98636E+01 1.28766E+00 1.42199E+01-2.30209E-01-7.66083E-01
 -1      4502 1.86719E+00 1.23263E+02 9.71301E-01 3.77231E+01 2.79828E-01-4.76378E-02
 -1      4503-2.12358E+01-1.21417E+02-6.29338E-01-3.52703E+01-1.69192E+00-9.44720E-01
 -1      4504-2.29153E+01-2.92608E+01 1.23073E+00-1.37054E+01-9.30077E-01-8.75901E-01
 -1      4505-1.56860E+01 4.75992E+01 1.80788E+00 6.26121E+00-4.00176E-01-5.82935E-01
 -1      4506-3.24533E+00 1.13020E+02 1.42139E+00 2.43943E+01 1.72240E-02-2.28964E-01
 -1      4507-2.10478E+01-1.18825E+02 4.47376E-02-3.48550E+01-2.99906E+00-1.80147E+00
 -1      4508-2.26789E+01-2.69494E+01 1.24559E+00-1.33514E+01-1.58018E+00-1.60033E+00
 -1      4509-1.54594E+01 4.97035E+01 1.63977E+00 6.63646E+00-6.63064E-01-9.99587E-01
 -1      4510-3.00955E+00 1.14913E+02 1.31953E+00 2.48784E+01 8.33329E-02-3.55327E-01
 -1      4511-2.09180E+01-1.14333E+02 7.77454E-01-3.41947E+01-3.41765E+00-2.28406E+00
 -1      4512-2.24769E+01-2.28033E+01 1.17304E+00-1.29573E+01-1.69074E+00-1.88123E+00
 -1      4513-1.53232E+01 5.34708E+01 1.36208E+00 7.04317E+00-7.08737E-01-1.05441E+00
 -1      4514-2.84272E+00 1.18245E+02 1.14010E+00 2.55168E+01 1.41676E-01-2.51891E-01
 -1      4515-2.13929E+01-1.07463E+02 1.05016E+00-3.35971E+01-2.33516E+00-1.80100E+00
 -1      4516-2.30540E+01-1.62599E+01 1.21189E+00-1.28967E+01-1.10573E+00-1.38066E+00
 -1      4517-1.59805E+01 5.92661E+01 1.12231E+00 7.22963E+00-4.74047E-01-6.70656E-01
 -1      4518-3.12606E+00 1.23288E+02 8.53392E-01 2.61906E+01 9.70759E-02-5.10684E-02
 -1      4519-1.52291E+01-1.18916E+02-4.44548E-01-2.67887E+01-1.89499E+00-7.57368E-01
 -1      4520-1.92505E+01-2.95070E+01 9.98585E-01-1.33944E+01-1.12019E+00-7.28454E-01
 -1      4521-1.48173E+01 4.64174E+01 1.50087E+00 9.28007E-01-5.61769E-01-4.93126E-01
 -1      4522-5.48488E+00 1.11976E+02 1.16285E+00 1.45152E+01-1.18311E-01-2.06154E-01
 -1      4523-1.50838E+01-1.16606E+02 1.24796E-01-2.65321E+01-3.40131E+00-1.45675E+00
 -1      4524-1.90751E+01-2.74387E+01 9.94981E-01-1.32156E+01-1.94057E+00-1.33541E+00
 -1      4525-1.46650E+01 4.83097E+01 1.34806E+00 1.09594E+00-9.63971E-01-8.43941E-01
 -1      4526-5.34156E+00 1.13706E+02 1.09338E+00 1.47726E+01-1.78249E-01-3.23576E-01
 -1      4527-1.50162E+01-1.12638E+02 7.55733E-01-2.62066E+01-3.95270E+00-1.87130E+00
 -1      4528-1.89327E+01-2.37772E+01 9.22983E-01-1.31610E+01-2.13178E+00-1.57541E+00
 -1      4529-1.45975E+01 5.16483E+01 1.11430E+00 1.13400E+00-1.06303E+00-8.82126E-01
 -1      4530-5.28325E+00 1.16696E+02 9.88304E-01 1.50339E+01-1.77003E-01-2.31236E-01
 -1      4531-1.55000E+01-1.06662E+02 9.66565E-01-2.62266E+01-2.76656E+00-1.50210E+00
 -1      4532-1.94635E+01-1.80841E+01 9.60018E-01-1.37344E+01-1.43505E+00-1.16009E+00
 -1      4533-1.52317E+01 5.67054E+01 9.09159E-01 7.13263E-01-7.25539E-01-5.46097E-01
 -1      4534-5.65344E+00 1.21156E+02 7.70332E-01 1.51479E+01-1.31601E-01-3.82899E-02
 -1      4535-1.02578E+01-1.15465E+02-9.41156E-02-1.93743E+01-2.02008E+00-5.42492E-01
 -1      4536-1.46534E+01-3.07060E+01 9.57078E-01-1.30499E+01-1.24532E+00-5.63747E-01
 -1      4537-1.22925E+01 4.33104E+01 1.30616E+00-3.54277E+00-6.72430E-01-3.89953E-01
 -1      4538-5.61279E+00 1.09246E+02 1.21159E+00 5.76964E+00-2.04128E-01-1.65615E-01
 -1      4539-1.01474E+01-1.13439E+02 2.97712E-01-1.92457E+01-3.66350E+00-1.05325E+00
 -1      4540-1.45308E+01-2.89158E+01 8.81714E-01-1.30249E+01-2.18787E+00-1.03546E+00
 -1      4541-1.21830E+01 4.49437E+01 1.11385E+00-3.55971E+00-1.17510E+00-6.67282E-01
 -1      4542-5.52636E+00 1.10752E+02 1.07098E+00 5.82443E+00-3.55826E-01-2.63496E-01
 -1      4543-1.01074E+01-1.10035E+02 7.06006E-01-1.91849E+01-4.33046E+00-1.36219E+00
 -1      4544-1.44247E+01-2.58162E+01 7.40198E-01-1.32556E+01-2.45412E+00-1.21497E+00
 -1      4545-1.21317E+01 4.77618E+01 8.55691E-01-3.84860E+00-1.32985E+00-6.90431E-01
 -1      4546-5.50524E+00 1.13308E+02 9.07156E-01 5.74485E+00-4.26430E-01-1.90396E-01
 -1      4547-1.04722E+01-1.05099E+02 8.08750E-01-1.96522E+01-3.10062E+00-1.09678E+00
 -1      4548-1.48008E+01-2.11705E+01 7.52376E-01-1.43401E+01-1.69490E+00-8.86477E-01
 -1      4549-1.25950E+01 5.18816E+01 6.93367E-01-4.78371E+00-9.28276E-01-4.18392E-01
 -1      4550-5.81497E+00 1.16972E+02 7.07235E-01 5.34100E+00-3.27357E-01-2.84206E-02
 -1      4551-5.57471E+00 1.09559E+02 1.38052E+00-6.09519E+00 2.20686E-01-2.70668E-01
 -1      4552-5.29729E+00 1.12311E+02 1.35903E+00-1.53140E+01 9.70927E-02-3.28958E-01
 -1      4553-2.71900E+00 1.13250E+02 1.64455E+00-2.56862E+01-1.00338E-01-3.57291E-01
 -1      4554 2.23245E+00 1.12335E+02 2.06876E+00-3.64491E+01-2.99393E-01-3.58493E-01
 -1      4555 9.43910E+00 1.09393E+02 2.49485E+00-4.69717E+01-4.64470E-01-3.39620E-01
 -1      4556 1.87224E+01 1.04373E+02 2.85943E+00-5.67331E+01-5.87872E-01-3.08492E-01
 -1      4557 2.98764E+01 9.73564E+01 3.15228E+00-6.52828E+01-6.75144E-01-2.71005E-01
 -1      4558 4.26412E+01 8.85365E+01 3.38303E+00-7.22169E+01-7.35103E-01-2.30726E-01
 -1      4559 5.66866E+01 7.82028E+01 3.56599E+00-7.71822E+01-7.75700E-01-1.89358E-01
 -1      4560 7.16107E+01 6.67250E+01 3.71293E+00-7.98903E+01-8.02845E-01-1.47550E-01
 -1      4561 8.69533E+01 5.45389E+01 3.83346E+00-8.01359E+01-8.20347E-01-1.05388E-01
 -1      4562 1.02211E+02 4.21237E+01 3.93266E+00-7.78079E+01-8.30587E-01-6.28016E-02
 -1      4563 1.16863E+02 2.99824E+01 4.01429E+00-7.29008E+01-8.34830E-01-1.98683E-02
 -1      4564 1.30389E+02 1.86159E+01 4.07959E+00-6.55153E+01-8.33634E-01 2.32810E-02
 -1      4565 1.42300E+02 8.50097E+00 4.12961E+00-5.58592E+01-8.27150E-01 6.62142E-02
 -1      4566 1.52153E+02 6.42724E-02 4.16307E+00-4.42368E+01-8.15248E-01 1.08123E-01
 -1      4567 1.59580E+02-6.34164E+00 4.17825E+00-3.10342E+01-7.97260E-01 1.47460E-01
 -1      4568 1.64349E+02-1.04284E+01 4.19746E+00-1.67113E+01-7.69661E-01 1.79963E-01
 -1      4569 1.66274E+02-1.20624E+01 4.21111E+00-2.29836E+00-6.64992E-01 2.05830E-01
 -1      4570 1.65350E+02-1.12326E+01 4.20649E+00 1.26305E+01-6.35911E-01 2.08174E-01
 -1      4571 1.61662E+02-8.00837E+00 4.20077E+00 2.66500E+01-6.02986E-01 2.04122E-01
 -1      4572 1.55348E+02-2.57785E+00 4.16479E+00 3.97812E+01-5.81564E-01 2.00433E-01
 -1      4573 1.46680E+02 4.85569E+00 4.12085E+00 5.16048E+01-5.66658E-01 1.93769E-01
 -1      4574 1.35962E+02 1.39905E+01 4.06752E+00 6.17399E+01-5.56331E-01 1.86390E-01
 -1      4575 1.23563E+02 2.44650E+01 4.00388E+00 6.98796E+01-5.49792E-01 1.79444E-01
 -1      4576 1.09901E+02 3.58700E+01 3.92814E+00 7.57980E+01-5.46280E-01 1.73909E-01
 -1      4577 9.54320E+01 4.77666E+01 3.83913E+00 7.93580E+01-5.44810E-01 1.70587E-01
 -1      4578 8.06213E+01 5.97041E+01 3.73397E+00 8.05145E+01-5.43886E-01 1.70323E-01
 -1      4579 6.59304E+01 7.12400E+01 3.60845E+00 7.93143E+01-5.41161E-01 1.73894E-01
 -1      4580 5.17958E+01 8.19592E+01 3.45613E+00 7.58909E+01-5.33201E-01 1.81949E-01
 -1      4581 3.86115E+01 9.14923E+01 3.26801E+00 7.04565E+01-5.15006E-01 1.94735E-01
 -1      4582 2.67162E+01 9.95299E+01 3.03200E+00 6.32885E+01-4.79665E-01 2.11770E-01
 -1      4583 1.63863E+01 1.05838E+02 2.73616E+00 5.47168E+01-4.18608E-01 2.31213E-01
 -1      4584 7.83963E+00 1.10265E+02 2.37418E+00 4.51115E+01-3.22986E-01 2.49337E-01
 -1      4585 1.25224E+00 1.12761E+02 1.96191E+00 3.48849E+01-1.88001E-01 2.60130E-01
 -1      4586-3.21973E+00 1.13396E+02 1.56659E+00 2.45161E+01-2.21707E-02 2.56033E-01
 -1      4587-5.47693E+00 1.12333E+02 1.32024E+00 1.45890E+01 1.41109E-01 2.30885E-01
 -1      4588-5.61954E+00 1.09560E+02 1.35349E+00 5.80281E+00 2.39862E-01 1.83153E-01
 -1      4589-5.47406E+00 1.11893E+02 1.19144E+00-6.03149E+00 3.70743E-01-3.07443E-01
 -1      4590-5.18041E+00 1.14994E+02 1.23505E+00-1.54232E+01 1.36294E-01-3.77190E-01
 -1      4591-2.57828E+00 1.16254E+02 1.43732E+00-2.59979E+01-1.84560E-01-4.07689E-01
 -1      4592 2.42952E+00 1.15612E+02 1.73667E+00-3.69934E+01-4.83082E-01-4.01644E-01
 -1      4593 9.72755E+00 1.12862E+02 2.04164E+00-4.77695E+01-7.14480E-01-3.69238E-01
 -1      4594 1.91391E+01 1.07945E+02 2.30516E+00-5.77960E+01-8.76710E-01-3.21920E-01
 -1      4595 3.04598E+01 1.00951E+02 2.51865E+00-6.66128E+01-9.82842E-01-2.68713E-01
 -1      4596 4.34310E+01 9.20840E+01 2.68839E+00-7.38084E+01-1.04834E+00-2.14955E-01
 -1      4597 5.77236E+01 8.16411E+01 2.82426E+00-7.90221E+01-1.08620E+00-1.63215E-01
 -1      4598 7.29366E+01 6.99990E+01 2.93446E+00-8.19584E+01-1.10583E+00-1.14198E-01
 -1      4599 8.86082E+01 5.75983E+01 3.02554E+00-8.24039E+01-1.11346E+00-6.78277E-02
 -1      4600 1.04233E+02 4.49234E+01 3.10110E+00-8.02397E+01-1.11297E+00-2.36819E-02
 -1      4601 1.19285E+02 3.24822E+01 3.16355E+00-7.54515E+01-1.10668E+00 1.85662E-02
 -1      4602 1.33239E+02 2.07824E+01 3.21386E+00-6.81326E+01-1.09578E+00 5.92137E-02
 -1      4603 1.45597E+02 1.03092E+01 3.25285E+00-5.84831E+01-1.08086E+00 9.81704E-02
 -1      4604 1.55908E+02 1.49931E+00 3.27955E+00-4.68020E+01-1.06186E+00 1.34985E-01
 -1      4605 1.63790E+02-5.28064E+00 3.29248E+00-3.34728E+01-1.03769E+00 1.68169E-01
 -1      4606 1.68987E+02-9.73391E+00 3.30624E+00-1.89539E+01-1.00150E+00 1.94840E-01
 -1      4607 1.71293E+02-1.16923E+01 3.31187E+00-4.10304E+00-9.07873E-01 2.10426E-01
 -1      4608 1.70680E+02-1.11199E+01 3.31540E+00 1.11765E+01-8.82788E-01 2.08704E-01
 -1      4609 1.67177E+02-8.06406E+00 3.30852E+00 2.57584E+01-8.44591E-01 1.96561E-01
 -1      4610 1.60934E+02-2.68757E+00 3.28340E+00 3.94733E+01-8.24192E-01 1.85561E-01
 -1      4611 1.52206E+02 4.80002E+00 3.25181E+00 5.18652E+01-8.13364E-01 1.71873E-01
 -1      4612 1.41302E+02 1.40921E+01 3.21234E+00 6.25322E+01-8.09193E-01 1.58170E-01
 -1      4613 1.28607E+02 2.48161E+01 3.16476E+00 7.11459E+01-8.10642E-01 1.46190E-01
 -1      4614 1.14557E+02 3.65461E+01 3.10776E+00 7.74612E+01-8.16542E-01 1.37284E-01
 -1      4615 9.96252E+01 4.88232E+01 3.04070E+00 8.13270E+01-8.25434E-01 1.32679E-01
 -1      4616 8.43023E+01 6.11738E+01 2.96161E+00 8.26884E+01-8.35053E-01 1.33492E-01
 -1      4617 6.90730E+01 7.31311E+01 2.86770E+00 8.15878E+01-8.42025E-01 1.40874E-01
 -1      4618 5.43965E+01 8.42548E+01 2.75453E+00 7.81599E+01-8.41340E-01 1.55780E-01
 -1      4619 4.06894E+01 9.41490E+01 2.61590E+00 7.26227E+01-8.25623E-01 1.78591E-01
 -1      4620 2.83097E+01 1.02479E+02 2.44320E+00 6.52643E+01-7.84381E-01 2.08757E-01
 -1      4621 1.75499E+01 1.08984E+02 2.22819E+00 5.64297E+01-7.04054E-01 2.43671E-01
 -1      4622 8.63963E+00 1.13492E+02 1.96637E+00 4.65075E+01-5.69127E-01 2.77877E-01
 -1      4623 1.76325E+00 1.15934E+02 1.66949E+00 3.59313E+01-3.67297E-01 3.02379E-01
 -1      4624-2.91780E+00 1.16385E+02 1.38669E+00 2.52023E+01-1.01610E-01 3.06167E-01
 -1      4625-5.30107E+00 1.15044E+02 1.20625E+00 1.49275E+01 1.85644E-01 2.80429E-01
 -1      4626-5.50500E+00 1.11927E+02 1.16681E+00 5.82832E+00 3.92577E-01 2.26096E-01
 -1      4627-5.61318E+00 1.15861E+02 8.88739E-01-5.61874E+00 3.35383E-01-1.71952E-01
 -1      4628-5.37022E+00 1.19759E+02 9.42528E-01-1.54256E+01 1.05646E-01-2.08747E-01
 -1      4629-2.73715E+00 1.21673E+02 1.05448E+00-2.64530E+01-1.73531E-01-2.29176E-01
 -1      4630 2.38240E+00 1.21469E+02 1.21936E+00-3.79415E+01-4.10588E-01-2.23699E-01
 -1      4631 9.87600E+00 1.18950E+02 1.39228E+00-4.92373E+01-5.83710E-01-1.97101E-01
 -1      4632 1.95706E+01 1.14087E+02 1.54387E+00-5.97878E+01-6.98733E-01-1.59086E-01
 -1      4633 3.12624E+01 1.06998E+02 1.66810E+00-6.91116E+01-7.69524E-01-1.17074E-01
 -1      4634 4.46903E+01 9.79113E+01 1.76813E+00-7.67777E+01-8.09394E-01-7.54385E-02
 -1      4635 5.95201E+01 8.71416E+01 1.84914E+00-8.24083E+01-8.28693E-01-3.60868E-02
 -1      4636 7.53425E+01 7.50825E+01 1.91567E+00-8.56921E+01-8.34597E-01 4.76698E-04
 -1      4637 9.16845E+01 6.21894E+01 1.97129E+00-8.64009E+01-8.31826E-01 3.42911E-02
 -1      4638 1.08027E+02 4.89635E+01 2.01814E+00-8.44035E+01-8.23206E-01 6.57223E-02
 -1      4639 1.23826E+02 3.59301E+01 2.05731E+00-7.96750E+01-8.10473E-01 9.50375E-02
 -1      4640 1.38537E+02 2.36162E+01 2.08942E+00-7.23016E+01-7.94590E-01 1.22351E-01
 -1      4641 1.51640E+02 1.25269E+01 2.11479E+00-6.24796E+01-7.75973E-01 1.47729E-01
 -1      4642 1.62664E+02 3.12138E+00 2.13314E+00-5.05090E+01-7.54751E-01 1.70865E-01
 -1      4643 1.71205E+02-4.21053E+00 2.14313E+00-3.67806E+01-7.30420E-01 1.90791E-01
 -1      4644 1.76971E+02-9.15639E+00 2.15229E+00-2.17583E+01-6.97417E-01 2.06409E-01
 -1      4645 1.79747E+02-1.15098E+01 2.15782E+00-6.14192E+00-6.10317E-01 2.14455E-01
 -1      4646 1.79452E+02-1.12013E+01 2.16297E+00 9.83189E+00-5.55974E-01 1.97704E-01
 -1      4647 1.76081E+02-8.26397E+00 2.15641E+00 2.53181E+01-5.25364E-01 1.74219E-01
 -1      4648 1.69785E+02-2.82973E+00 2.14191E+00 3.99358E+01-5.08992E-01 1.49712E-01
 -1      4649 1.60805E+02 4.88023E+00 2.12315E+00 5.31871E+01-5.01243E-01 1.23075E-01
 -1      4650 1.49469E+02 1.45469E+01 2.09909E+00 6.46350E+01-5.00768E-01 9.66570E-02
 -1      4651 1.36184E+02 2.57759E+01 2.06975E+00 7.39191E+01-5.06749E-01 7.21049E-02
 -1      4652 1.21417E+02 3.81137E+01 2.03465E+00 8.07694E+01-5.18243E-01 5.07049E-02
 -1      4653 1.05674E+02 5.10684E+01 1.99345E+00 8.50153E+01-5.34095E-01 3.37494E-02
 -1      4654 8.94833E+01 6.41307E+01 1.94518E+00 8.65914E+01-5.52462E-01 2.22930E-02
 -1      4655 7.33660E+01 7.67966E+01 1.88837E+00 8.55374E+01-5.70665E-01 1.73939E-02
 -1      4656 5.78178E+01 8.85879E+01 1.82065E+00 8.19931E+01-5.84830E-01 2.00678E-02
 -1      4657 4.32884E+01 9.90727E+01 1.73865E+00 7.61893E+01-5.89200E-01 3.08187E-02
 -1      4658 3.01642E+01 1.07879E+02 1.63749E+00 6.84335E+01-5.75464E-01 4.93192E-02
 -1      4659 1.87605E+01 1.14711E+02 1.51261E+00 5.90956E+01-5.32419E-01 7.37529E-02
 -1      4660 9.32317E+00 1.19358E+02 1.36149E+00 4.85947E+01-4.46162E-01 9.97472E-02
 -1      4661 2.04557E+00 1.21712E+02 1.19138E+00 3.73983E+01-3.02685E-01 1.19959E-01
 -1      4662-2.90700E+00 1.21811E+02 1.03242E+00 2.60434E+01-9.62114E-02 1.25061E-01
 -1      4663-5.42845E+00 1.19851E+02 9.28384E-01 1.51655E+01 1.53050E-01 1.11056E-01
 -1      4664-5.62569E+00 1.15942E+02 8.77743E-01 5.50451E+00 3.56629E-01 8.79807E-02
 -1      4665-1.23789E+01 4.36093E+01 1.24990E+00 3.37571E+00 7.88143E-01-5.33138E-01
 -1      4666-1.48616E+01 4.67612E+01 1.46429E+00-1.35842E+00 6.28298E-01-6.70191E-01
 -1      4667-1.55807E+01 4.78616E+01 1.77693E+00-6.98302E+00 3.99850E-01-7.83307E-01
 -1      4668-1.46700E+01 4.74088E+01 2.12187E+00-1.29494E+01 1.54228E-01-8.63665E-01
 -1      4669-1.23536E+01 4.56853E+01 2.44528E+00-1.88645E+01-7.58586E-02-9.11328E-01
 -1      4670-8.79107E+00 4.28169E+01 2.72271E+00-2.44444E+01-2.78021E-01-9.30812E-01
 -1      4671-4.10888E+00 3.88743E+01 2.94862E+00-2.94456E+01-4.52463E-01-9.27229E-01
 -1      4672 1.55817E+00 3.39501E+01 3.12865E+00-3.36400E+01-6.04015E-01-9.04399E-01
 -1      4673 8.04072E+00 2.81856E+01 3.27186E+00-3.68201E+01-7.37772E-01-8.64665E-01
 -1      4674 1.51273E+01 2.17745E+01 3.38701E+00-3.88114E+01-8.57357E-01-8.09362E-01
 -1      4675 2.25702E+01 1.49539E+01 3.48106E+00-3.94849E+01-9.64584E-01-7.39328E-01
 -1      4676 3.00946E+01 7.99086E+00 3.55879E+00-3.87658E+01-1.05988E+00-6.55406E-01
 -1      4677 3.74120E+01 1.16854E+00 3.62284E+00-3.66390E+01-1.14256E+00-5.58603E-01
 -1      4678 4.42335E+01-5.22829E+00 3.67493E+00-3.31515E+01-1.21137E+00-4.50389E-01
 -1      4679 5.02841E+01-1.09278E+01 3.71568E+00-2.84106E+01-1.26467E+00-3.32638E-01
 -1      4680 5.53169E+01-1.56854E+01 3.74563E+00-2.25812E+01-1.30063E+00-2.07840E-01
 -1      4681 5.91364E+01-1.92966E+01 3.76842E+00-1.58803E+01-1.31697E+00-7.93469E-02
 -1      4682 6.15745E+01-2.16431E+01 3.77015E+00-8.56168E+00-1.31252E+00 5.23028E-02
 -1      4683 6.25962E+01-2.25601E+01 3.79078E+00-1.42161E+00-1.22690E+00 1.73670E-01
 -1      4684 6.21619E+01-2.20832E+01 3.80029E+00 6.49674E+00-1.20943E+00 2.77331E-01
 -1      4685 6.02409E+01-2.02998E+01 3.77847E+00 1.36930E+01-1.15718E+00 3.67412E-01
 -1      4686 5.70009E+01-1.72262E+01 3.76079E+00 2.03867E+01-1.10273E+00 4.55677E-01
 -1      4687 5.25534E+01-1.30245E+01 3.73092E+00 2.63491E+01-1.04333E+00 5.37126E-01
 -1      4688 4.70811E+01-7.86764E+00 3.69181E+00 3.13753E+01-9.78026E-01 6.10374E-01
 -1      4689 4.07939E+01-1.96212E+00 3.64407E+00 3.52991E+01-9.06910E-01 6.74964E-01
 -1      4690 3.39262E+01 4.45835E+00 3.58663E+00 3.80002E+01-8.30436E-01 7.30633E-01
 -1      4691 2.67310E+01 1.11442E+01 3.51849E+00 3.94097E+01-7.48976E-01 7.77040E-01
 -1      4692 1.94668E+01 1.78400E+01 3.43717E+00 3.95117E+01-6.62615E-01 8.14063E-01
 -1      4693 1.23869E+01 2.42975E+01 3.33918E+00 3.83429E+01-5.70751E-01 8.41638E-01
 -1      4694 5.72930E+00 3.02871E+01 3.21962E+00 3.59899E+01-4.71734E-01 8.59696E-01
 -1      4695-2.95787E-01 3.56096E+01 3.07158E+00 3.25839E+01-3.62441E-01 8.67851E-01
 -1      4696-5.51144E+00 4.01060E+01 2.88697E+00 2.82915E+01-2.38175E-01 8.65002E-01
 -1      4697-9.77561E+00 4.36638E+01 2.65857E+00 2.33052E+01-9.31516E-02 8.48846E-01
 -1      4698-1.29736E+01 4.62099E+01 2.38318E+00 1.78317E+01 7.76934E-02 8.15601E-01
 -1      4699-1.49899E+01 4.76814E+01 2.06933E+00 1.20932E+01 2.74409E-01 7.60333E-01
 -1      4700-1.56729E+01 4.79526E+01 1.74269E+00 6.35389E+00 4.84951E-01 6.78951E-01
 -1      4701-1.48177E+01 4.67426E+01 1.45100E+00 9.81771E-01 6.78523E-01 5.71968E-01
 -1      4702-1.23001E+01 4.35929E+01 1.25803E+00-3.52345E+00 8.06937E-01 4.49353E-01
 -1      4703-1.21905E+01 4.61550E+01 9.70243E-01 3.51455E+00 1.24553E+00-7.75640E-01
 -1      4704-1.46302E+01 4.97275E+01 1.21412E+00-1.43909E+00 9.74577E-01-9.83577E-01
 -1      4705-1.52912E+01 5.12206E+01 1.48041E+00-7.30832E+00 6.11580E-01-1.15753E+00
 -1      4706-1.42883E+01 5.10811E+01 1.74683E+00-1.35523E+01 2.35427E-01-1.28248E+00
 -1      4707-1.18316E+01 4.95607E+01 1.98651E+00-1.97686E+01-1.07314E-01-1.35803E+00
 -1      4708-8.07450E+00 4.67806E+01 2.19029E+00-2.56576E+01-4.03469E-01-1.39186E+00
 -1      4709-3.14299E+00 4.28211E+01 2.35692E+00-3.09593E+01-6.56738E-01-1.39234E+00
 -1      4710 2.82578E+00 3.77893E+01 2.49124E+00-3.54313E+01-8.76298E-01-1.36539E+00
 -1      4711 9.65774E+00 3.18415E+01 2.59960E+00-3.88535E+01-1.07069E+00-1.31448E+00
 -1      4712 1.71352E+01 2.51851E+01 2.68797E+00-4.10410E+01-1.24569E+00-1.24131E+00
 -1      4713 2.50017E+01 1.80699E+01 2.76097E+00-4.18556E+01-1.40422E+00-1.14695E+00
 -1      4714 3.29734E+01 1.07758E+01 2.82201E+00-4.12152E+01-1.54691E+00-1.03232E+00
 -1      4715 4.07490E+01 3.59835E+00 2.87274E+00-3.90994E+01-1.67289E+00-8.98739E-01
 -1      4716 4.80280E+01-3.16456E+00 2.91452E+00-3.55518E+01-1.78028E+00-7.48008E-01
 -1      4717 5.45216E+01-9.22805E+00 2.94749E+00-3.06789E+01-1.86670E+00-5.82642E-01
 -1      4718 5.99694E+01-1.43340E+01 2.97213E+00-2.46477E+01-1.92932E+00-4.05859E-01
 -1      4719 6.41592E+01-1.82644E+01 2.99076E+00-1.76781E+01-1.96461E+00-2.21576E-01
 -1      4720 6.69135E+01-2.08766E+01 2.99163E+00-1.00307E+01-1.96874E+00-3.00722E-02
 -1      4721 6.81616E+01-2.20047E+01 3.00622E+00-2.34154E+00-1.90503E+00 1.48810E-01
 -1      4722 6.78639E+01-2.16703E+01 3.01391E+00 5.91416E+00-1.89173E+00 3.16612E-01
 -1      4723 6.59818E+01-1.99196E+01 2.99761E+00 1.36366E+01-1.82613E+00 4.64953E-01
 -1      4724 6.26640E+01-1.67940E+01 2.98228E+00 2.08566E+01-1.75302E+00 6.10628E-01
 -1      4725 5.80318E+01-1.24451E+01 2.95858E+00 2.73131E+01-1.66925E+00 7.46708E-01
 -1      4726 5.22722E+01-7.05502E+00 2.92769E+00 3.27820E+01-1.57410E+00 8.70515E-01
 -1      4727 4.56094E+01-8.43800E-01 2.88994E+00 3.70799E+01-1.46801E+00 9.81008E-01
 -1      4728 3.82959E+01 5.93793E+00 2.84467E+00 4.00729E+01-1.35184E+00 1.07732E+00
 -1      4729 3.06044E+01 1.30205E+01 2.79122E+00 4.16820E+01-1.22654E+00 1.15878E+00
 -1      4730 2.28150E+01 2.01268E+01 2.72796E+00 4.18857E+01-1.09254E+00 1.22480E+00
 -1      4731 1.52033E+01 2.69858E+01 2.65277E+00 4.07203E+01-9.49431E-01 1.27520E+00
 -1      4732 8.02766E+00 3.33440E+01 2.56225E+00 3.82763E+01-7.95148E-01 1.30970E+00
 -1      4733 1.51787E+00 3.89777E+01 2.45149E+00 3.46932E+01-6.25466E-01 1.32781E+00
 -1      4734-4.13285E+00 4.37047E+01 2.31498E+00 3.01509E+01-4.33430E-01 1.32804E+00
 -1      4735-8.76999E+00 4.73891E+01 2.14731E+00 2.48586E+01-2.09761E-01 1.30703E+00
 -1      4736-1.22705E+01 4.99387E+01 1.94511E+00 1.90439E+01 5.49554E-02 1.25898E+00
 -1      4737-1.45160E+01 5.12811E+01 1.71136E+00 1.29512E+01 3.64235E-01 1.17583E+00
 -1      4738-1.53592E+01 5.12966E+01 1.45578E+00 6.86496E+00 7.05158E-01 1.05066E+00
 -1      4739-1.46020E+01 4.97343E+01 1.20214E+00 1.16891E+00 1.03291E+00 8.84903E-01
 -1      4740-1.21376E+01 4.61677E+01 9.72342E-01-3.62759E+00 1.26928E+00 6.96245E-01
 -1      4741-1.23319E+01 5.06445E+01 7.78739E-01 4.35183E+00 1.01101E+00-6.06359E-01
 -1      4742-1.48774E+01 5.51625E+01 9.99612E-01-1.06677E+00 7.63783E-01-7.69443E-01
 -1      4743-1.55447E+01 5.74622E+01 1.22375E+00-7.47846E+00 4.53487E-01-9.15057E-01
 -1      4744-1.44458E+01 5.78695E+01 1.41346E+00-1.43350E+01 1.46749E-01-1.02063E+00
 -1      4745-1.17705E+01 5.66430E+01 1.57158E+00-2.12061E+01-1.27003E-01-1.08368E+00
 -1      4746-7.66762E+00 5.39277E+01 1.70288E+00-2.77561E+01-3.60796E-01-1.11191E+00
 -1      4747-2.26541E+00 4.98346E+01 1.81078E+00-3.36908E+01-5.60415E-01-1.11288E+00
 -1      4748 4.29183E+00 4.45006E+01 1.89967E+00-3.87377E+01-7.34273E-01-1.09152E+00
 -1      4749 1.18176E+01 3.81096E+01 1.97340E+00-4.26498E+01-8.89292E-01-1.05042E+00
 -1      4750 2.00773E+01 3.08954E+01 2.03521E+00-4.52191E+01-1.02973E+00-9.90857E-01
 -1      4751 2.87924E+01 2.31348E+01 2.08763E+00-4.62882E+01-1.15754E+00-9.13656E-01
 -1      4752 3.76523E+01 1.51356E+01 2.13235E+00-4.57605E+01-1.27280E+00-8.19582E-01
 -1      4753 4.63278E+01 7.22333E+00 2.17025E+00-4.36066E+01-1.37452E+00-7.09776E-01
 -1      4754 5.44869E+01-2.74271E-01 2.20187E+00-3.98671E+01-1.46102E+00-5.85824E-01
 -1      4755 6.18101E+01-7.04186E+00 2.22738E+00-3.46521E+01-1.53024E+00-4.49857E-01
 -1      4756 6.80073E+01-1.27921E+01 2.24711E+00-2.81384E+01-1.57997E+00-3.04598E-01
 -1      4757 7.28325E+01-1.72803E+01 2.26126E+00-2.05623E+01-1.60734E+00-1.52755E-01
 -1      4758 7.60907E+01-2.03270E+01 2.26410E+00-1.22008E+01-1.60859E+00 6.62416E-03
 -1      4759 7.76745E+01-2.17657E+01 2.27457E+00-3.54438E+00-1.54824E+00 1.56871E-01
 -1      4760 7.75250E+01-2.15755E+01 2.28213E+00 5.48474E+00-1.50430E+00 2.88360E-01
 -1      4761 7.56044E+01-1.97873E+01 2.27153E+00 1.41619E+01-1.45034E+00 4.04653E-01
 -1      4762 7.20410E+01-1.64553E+01 2.25998E+00 2.23077E+01-1.38951E+00 5.17652E-01
 -1      4763 6.69708E+01-1.17317E+01 2.24288E+00 2.96172E+01-1.31999E+00 6.22300E-01
 -1      4764 6.05998E+01-5.81757E+00 2.22056E+00 3.58294E+01-1.24168E+00 7.16728E-01
 -1      4765 5.31791E+01 1.03837E+00 2.19294E+00 4.07313E+01-1.15529E+00 8.00178E-01
 -1      4766 4.49970E+01 8.55226E+00 2.15979E+00 4.41659E+01-1.06160E+00 8.72021E-01
 -1      4767 3.63644E+01 1.64172E+01 2.12083E+00 4.60396E+01-9.61583E-01 9.31845E-01
 -1      4768 2.76019E+01 2.43164E+01 2.07531E+00 4.63247E+01-8.55732E-01 9.79286E-01
 -1      4769 1.90247E+01 3.19381E+01 2.02206E+00 4.50596E+01-7.43906E-01 1.01426E+00
 -1      4770 1.09292E+01 3.89892E+01 1.95941E+00 4.23461E+01-6.24768E-01 1.03674E+00
 -1      4771 3.57921E+00 4.52071E+01 1.88470E+00 3.83423E+01-4.95197E-01 1.04652E+00
 -1      4772-2.80441E+00 5.03719E+01 1.79491E+00 3.32537E+01-3.49704E-01 1.04262E+00
 -1      4773-8.04591E+00 5.43112E+01 1.68638E+00 2.73215E+01-1.80363E-01 1.02260E+00
 -1      4774-1.20092E+01 5.68969E+01 1.55523E+00 2.08098E+01 2.19905E-02 9.81645E-01
 -1      4775-1.45703E+01 5.80229E+01 1.39868E+00 1.40038E+01 2.63633E-01 9.12356E-01
 -1      4776-1.55832E+01 5.75465E+01 1.21259E+00 7.23000E+00 5.38211E-01 8.07377E-01
 -1      4777-1.48640E+01 5.52107E+01 9.93377E-01 9.06895E-01 8.17123E-01 6.69664E-01
 -1      4778-1.23044E+01 5.06991E+01 7.80793E-01-4.43159E+00 1.03203E+00 5.23164E-01
 -1      4779-1.47963E+01-3.04769E+01 7.33091E-01 1.30398E+01 1.48644E+00-7.43459E-01
 -1      4780-1.94888E+01-2.92549E+01 7.86352E-01 1.33866E+01 1.30044E+00-9.56220E-01
 -1      4781-2.32171E+01-2.90044E+01 1.02414E+00 1.36988E+01 1.03419E+00-1.14212E+00
 -1      4782-2.65246E+01-2.91739E+01 1.27237E+00 1.40635E+01 7.36846E-01-1.28364E+00
 -1      4783-2.96934E+01-2.93248E+01 1.49226E+00 1.43806E+01 4.43230E-01-1.38001E+00
 -1      4784-3.28158E+01-2.93103E+01 1.67201E+00 1.45461E+01 1.69756E-01-1.43637E+00
 -1      4785-3.58913E+01-2.91293E+01 1.81157E+00 1.45052E+01-8.05010E-02-1.45825E+00
 -1      4786-3.88881E+01-2.88265E+01 1.91618E+00 1.42408E+01-3.10177E-01-1.44956E+00
 -1      4787-4.17673E+01-2.84471E+01 1.99356E+00 1.37554E+01-5.22785E-01-1.41252E+00
 -1      4788-4.44922E+01-2.80270E+01 2.05119E+00 1.30598E+01-7.20556E-01-1.34840E+00
 -1      4789-4.70291E+01-2.75938E+01 2.09483E+00 1.21683E+01-9.03915E-01-1.25808E+00
 -1      4790-4.93471E+01-2.71687E+01 2.12909E+00 1.10971E+01-1.07170E+00-1.14267E+00
 -1      4791-5.14191E+01-2.67686E+01 2.15653E+00 9.86489E+00-1.22170E+00-1.00379E+00
 -1      4792-5.32217E+01-2.64066E+01 2.17877E+00 8.49162E+00-1.35105E+00-8.43622E-01
 -1      4793-5.47353E+01-2.60931E+01 2.19690E+00 6.99896E+00-1.45654E+00-6.65064E-01
 -1      4794-5.59448E+01-2.58366E+01 2.21073E+00 5.40844E+00-1.53490E+00-4.71693E-01
 -1      4795-5.68389E+01-2.56470E+01 2.21928E+00 3.73738E+00-1.58307E+00-2.67699E-01
 -1      4796-5.73878E+01-2.55335E+01 2.22709E+00 2.00277E+00-1.60017E+00-5.86317E-02
 -1      4797-5.75509E+01-2.55329E+01 2.23704E+00-2.30951E-01-1.53856E+00 1.43706E-01
 -1      4798-5.73692E+01-2.56154E+01 2.23792E+00-1.44494E+00-1.52146E+00 3.30977E-01
 -1      4799-5.69421E+01-2.57127E+01 2.23797E+00-3.08654E+00-1.45832E+00 5.03667E-01
 -1      4800-5.62232E+01-2.58647E+01 2.23193E+00-4.70614E+00-1.37758E+00 6.69409E-01
 -1      4801-5.52001E+01-2.60734E+01 2.22354E+00-6.26927E+00-1.28083E+00 8.23556E-01
 -1      4802-5.38854E+01-2.63379E+01 2.21102E+00-7.75028E+00-1.16872E+00 9.63528E-01
 -1      4803-5.22927E+01-2.66510E+01 2.19460E+00-9.12827E+00-1.04226E+00 1.08729E+00
 -1      4804-5.04400E+01-2.70045E+01 2.17324E+00-1.03846E+01-9.03013E-01 1.19318E+00
 -1      4805-4.83472E+01-2.73877E+01 2.14583E+00-1.15018E+01-7.52717E-01 1.27989E+00
 -1      4806-4.60363E+01-2.77871E+01 2.11070E+00-1.24631E+01-5.92917E-01 1.34649E+00
 -1      4807-4.35339E+01-2.81874E+01 2.06422E+00-1.32537E+01-4.24492E-01 1.39251E+00
 -1      4808-4.08665E+01-2.85674E+01 2.00282E+00-1.38593E+01-2.47241E-01 1.41769E+00
 -1      4809-3.80663E+01-2.89017E+01 1.92000E+00-1.42682E+01-5.94054E-02 1.42166E+00
 -1      4810-3.51660E+01-2.91547E+01 1.80968E+00-1.44718E+01 1.42350E-01 1.40344E+00
 -1      4811-3.21989E+01-2.92848E+01 1.66557E+00-1.44710E+01 3.62250E-01 1.36087E+00
 -1      4812-2.91895E+01-2.92555E+01 1.48447E+00-1.42863E+01 6.03121E-01 1.29013E+00
 -1      4813-2.61264E+01-2.90805E+01 1.26902E+00-1.39743E+01 8.61834E-01 1.18601E+00
 -1      4814-2.29063E+01-2.89197E+01 1.03286E+00-1.36334E+01 1.12252E+00 1.04422E+00
 -1      4815-1.92495E+01-2.91995E+01 8.15139E-01-1.33496E+01 1.35196E+00 8.66276E-01
 -1      4816-1.46610E+01-3.04383E+01 7.74355E-01-1.30300E+01 1.50475E+00 6.68164E-01
 -1      4817-1.45458E+01-2.76523E+01 6.48036E-01 1.30434E+01 2.32859E+00-1.20539E+00
 -1      4818-1.91282E+01-2.59607E+01 7.81915E-01 1.31315E+01 2.00987E+00-1.55583E+00
 -1      4819-2.27411E+01-2.52940E+01 1.02233E+00 1.31454E+01 1.57109E+00-1.85329E+00
 -1      4820-2.58784E+01-2.51409E+01 1.24014E+00 1.31702E+01 1.09666E+00-2.07610E+00
 -1      4821-2.88067E+01-2.51077E+01 1.41817E+00 1.31262E+01 6.38437E-01-2.22732E+00
 -1      4822-3.16149E+01-2.50534E+01 1.55974E+00 1.29371E+01 2.16087E-01-2.31742E+00
 -1      4823-3.43071E+01-2.49651E+01 1.67052E+00 1.25725E+01-1.69633E-01-2.35556E+00
 -1      4824-3.68602E+01-2.48653E+01 1.75614E+00 1.20359E+01-5.24882E-01-2.34742E+00
 -1      4825-3.92473E+01-2.47760E+01 1.82232E+00 1.13460E+01-8.55836E-01-2.29598E+00
 -1      4826-4.14459E+01-2.47097E+01 1.87425E+00 1.05258E+01-1.16601E+00-2.20274E+00
 -1      4827-4.34398E+01-2.46722E+01 1.91533E+00 9.59850E+00-1.45592E+00-2.06878E+00
 -1      4828-4.52156E+01-2.46615E+01 1.94926E+00 8.58460E+00-1.72360E+00-1.89557E+00
 -1      4829-4.67672E+01-2.46748E+01 1.97694E+00 7.50335E+00-1.96547E+00-1.68535E+00
 -1      4830-4.80899E+01-2.47052E+01 1.99986E+00 6.37122E+00-2.17702E+00-1.44133E+00
 -1      4831-4.91824E+01-2.47443E+01 2.01878E+00 5.20202E+00-2.35323E+00-1.16772E+00
 -1      4832-5.00469E+01-2.47849E+01 2.03335E+00 4.00612E+00-2.48886E+00-8.69665E-01
 -1      4833-5.06853E+01-2.48222E+01 2.04283E+00 2.78827E+00-2.57903E+00-5.53085E-01
 -1      4834-5.10842E+01-2.48538E+01 2.04888E+00 1.55049E+00-2.62116E+00-2.24917E-01
 -1      4835-5.12247E+01-2.48891E+01 2.05583E+00-1.04600E-02-2.58876E+00 9.49849E-02
 -1      4836-5.11170E+01-2.49264E+01 2.05861E+00-8.97028E-01-2.57586E+00 4.08169E-01
 -1      4837-5.08521E+01-2.49105E+01 2.05631E+00-2.07032E+00-2.49159E+00 7.00530E-01
 -1      4838-5.03804E+01-2.48732E+01 2.04882E+00-3.24621E+00-2.37464E+00 9.82265E-01
 -1      4839-4.96877E+01-2.48225E+01 2.03893E+00-4.41784E+00-2.22809E+00 1.24634E+00
 -1      4840-4.87750E+01-2.47691E+01 2.02479E+00-5.57296E+00-2.05365E+00 1.48805E+00
 -1      4841-4.76410E+01-2.47198E+01 2.00676E+00-6.70096E+00-1.85343E+00 1.70372E+00
 -1      4842-4.62871E+01-2.46826E+01 1.98410E+00-7.79036E+00-1.63017E+00 1.89018E+00
 -1      4843-4.47157E+01-2.46642E+01 1.95625E+00-8.82748E+00-1.38711E+00 2.04498E+00
 -1      4844-4.29317E+01-2.46701E+01 1.92197E+00-9.79652E+00-1.12715E+00 2.16629E+00
 -1      4845-4.09432E+01-2.47038E+01 1.87915E+00-1.06796E+01-8.52395E-01 2.25307E+00
 -1      4846-3.87624E+01-2.47644E+01 1.82525E+00-1.14565E+01-5.63279E-01 2.30475E+00
 -1      4847-3.64060E+01-2.48466E+01 1.75606E+00-1.21059E+01-2.57848E-01 2.32086E+00
 -1      4848-3.38954E+01-2.49365E+01 1.66731E+00-1.26064E+01 6.86817E-02 2.30024E+00
 -1      4849-3.12552E+01-2.50128E+01 1.55399E+00-1.29417E+01 4.23300E-01 2.24002E+00
 -1      4850-2.85050E+01-2.50550E+01 1.41158E+00-1.31121E+01 8.12415E-01 2.13462E+00
 -1      4851-2.56331E+01-2.50827E+01 1.23598E+00-1.31502E+01 1.23511E+00 1.97536E+00
 -1      4852-2.25442E+01-2.52429E+01 1.02513E+00-1.31315E+01 1.67199E+00 1.75293E+00
 -1      4853-1.89731E+01-2.59218E+01 7.97467E-01-1.31288E+01 2.07241E+00 1.46552E+00
 -1      4854-1.44569E+01-2.76138E+01 6.73048E-01-1.30529E+01 2.35480E+00 1.13369E+00
 -1      4855-1.46479E+01-2.26316E+01 6.79365E-01 1.38500E+01 1.86479E+00-1.07733E+00
 -1      4856-1.92639E+01-1.98928E+01 8.64279E-01 1.34156E+01 1.56094E+00-1.38715E+00
 -1      4857-2.28351E+01-1.83411E+01 1.10994E+00 1.27929E+01 1.16994E+00-1.63770E+00
 -1      4858-2.57976E+01-1.75828E+01 1.30142E+00 1.20870E+01 7.65156E-01-1.81898E+00
 -1      4859-2.83946E+01-1.72447E+01 1.44351E+00 1.12715E+01 3.81068E-01-1.93960E+00
 -1      4860-3.07139E+01-1.71638E+01 1.55268E+00 1.03216E+01 2.93231E-02-2.01030E+00
 -1      4861-3.27681E+01-1.72900E+01 1.63970E+00 9.25103E+00-2.92572E-01-2.03842E+00
 -1      4862-3.45480E+01-1.76067E+01 1.71071E+00 8.10076E+00-5.90874E-01-2.02796E+00
 -1      4863-3.60471E+01-1.80973E+01 1.76964E+00 6.92160E+00-8.70597E-01-1.98073E+00
 -1      4864-3.72695E+01-1.87362E+01 1.81940E+00 5.76310E+00-1.13409E+00-1.89767E+00
 -1      4865-3.82315E+01-1.94906E+01 1.86142E+00 4.66869E+00-1.38113E+00-1.77957E+00
 -1      4866-3.89571E+01-2.03188E+01 1.89789E+00 3.67181E+00-1.60960E+00-1.62778E+00
 -1      4867-3.94792E+01-2.11777E+01 1.92878E+00 2.79667E+00-1.81609E+00-1.44424E+00
 -1      4868-3.98335E+01-2.20201E+01 1.95505E+00 2.05579E+00-1.99663E+00-1.23185E+00
 -1      4869-4.00584E+01-2.28005E+01 1.97685E+00 1.45065E+00-2.14694E+00-9.94258E-01
 -1      4870-4.01908E+01-2.34764E+01 1.99404E+00 9.70987E-01-2.26256E+00-7.35932E-01
 -1      4871-4.02641E+01-2.40134E+01 2.00563E+00 5.94176E-01-2.33940E+00-4.61438E-01
 -1      4872-4.02931E+01-2.43841E+01 2.01316E+00 2.96604E-01-2.37456E+00-1.75740E-01
 -1      4873-4.02806E+01-2.45673E+01 2.02074E+00-1.09752E-01-2.34134E+00 1.04163E-01
 -1      4874-4.02387E+01-2.45641E+01 2.02448E+00-1.67173E-01-2.30177E+00 3.69640E-01
 -1      4875-4.02294E+01-2.43508E+01 2.01945E+00-3.79991E-01-2.23000E+00 6.19250E-01
 -1      4876-4.02041E+01-2.39466E+01 2.00965E+00-6.53692E-01-2.13028E+00 8.58738E-01
 -1      4877-4.01375E+01-2.33754E+01 1.99663E+00-1.02323E+00-2.00497E+00 1.08296E+00
 -1      4878-4.00037E+01-2.26714E+01 1.97931E+00-1.50957E+00-1.85591E+00 1.28797E+00
 -1      4879-3.97710E+01-2.18732E+01 1.95757E+00-2.12652E+00-1.68509E+00 1.47076E+00
 -1      4880-3.94041E+01-2.10231E+01 1.93124E+00-2.87966E+00-1.49510E+00 1.62872E+00
 -1      4881-3.88668E+01-2.01654E+01 1.90020E+00-3.76474E+00-1.28881E+00 1.75977E+00
 -1      4882-3.81252E+01-1.93452E+01 1.86364E+00-4.76735E+00-1.06893E+00 1.86247E+00
 -1      4883-3.71492E+01-1.86044E+01 1.82089E+00-5.86272E+00-8.37554E-01 1.93590E+00
 -1      4884-3.59157E+01-1.79813E+01 1.77051E+00-7.01679E+00-5.95542E-01 1.97969E+00
 -1      4885-3.44105E+01-1.75078E+01 1.71047E+00-8.18691E+00-3.41767E-01 1.99370E+00
 -1      4886-3.26308E+01-1.72069E+01 1.63824E+00-9.32442E+00-7.26050E-02 1.97740E+00
 -1      4887-3.05832E+01-1.70940E+01 1.55003E+00-1.03805E+01 2.18089E-01 1.92914E+00
 -1      4888-2.82760E+01-1.71852E+01 1.44014E+00-1.13168E+01 5.37366E-01 1.84500E+00
 -1      4889-2.56942E+01-1.75323E+01 1.29840E+00-1.21226E+01 8.88286E-01 1.71773E+00
 -1      4890-2.27459E+01-1.82987E+01 1.10962E+00-1.28237E+01 1.25964E+00 1.53705E+00
 -1      4891-1.91888E+01-1.98530E+01 8.70456E-01-1.34462E+01 1.61705E+00 1.29509E+00
 -1      4892-1.46019E+01-2.25818E+01 6.92276E-01-1.38816E+01 1.88772E+00 1.00111E+00
 -1      4893-1.03704E+01-1.15400E+02-4.19330E-01 1.96029E+01 2.44515E+00-7.09578E-01
 -1      4894-1.55625E+01-1.18861E+02-7.43582E-01 2.73983E+01 2.25600E+00-9.86748E-01
 -1      4895-2.19134E+01-1.21225E+02-9.13361E-01 3.62714E+01 1.97097E+00-1.22172E+00
 -1      4896-2.97231E+01-1.21575E+02-9.33261E-01 4.55574E+01 1.64324E+00-1.40330E+00
 -1      4897-3.91746E+01-1.19758E+02-9.01576E-01 5.45867E+01 1.31406E+00-1.53431E+00
 -1      4898-5.02632E+01-1.15860E+02-8.76429E-01 6.28313E+01 1.00150E+00-1.62167E+00
 -1      4899-6.28479E+01-1.10059E+02-8.76332E-01 6.98678E+01 7.09143E-01-1.67104E+00
 -1      4900-7.66932E+01-1.02595E+02-9.00458E-01 7.53425E+01 4.34501E-01-1.68538E+00
 -1      4901-9.14886E+01-9.37619E+01-9.41320E-01 7.89590E+01 1.74432E-01-1.66562E+00
 -1      4902-1.06862E+02-8.39067E+01-9.91152E-01 8.04832E+01-7.25409E-02-1.61180E+00
 -1      4903-1.22392E+02-7.34208E+01-1.04334E+00 7.97532E+01-3.05712E-01-1.52407E+00
 -1      4904-1.37626E+02-6.27280E+01-1.09338E+00 7.66897E+01-5.22628E-01-1.40311E+00
 -1      4905-1.52098E+02-5.22664E+01-1.13781E+00 7.13029E+01-7.19622E-01-1.25053E+00
 -1      4906-1.65345E+02-4.24711E+01-1.17515E+00 6.36959E+01-8.92433E-01-1.06888E+00
 -1      4907-1.76935E+02-3.37532E+01-1.20380E+00 5.40627E+01-1.03676E+00-8.61574E-01
 -1      4908-1.86478E+02-2.64826E+01-1.22383E+00 4.26812E+01-1.14835E+00-6.32547E-01
 -1      4909-1.93664E+02-2.09734E+01-1.24075E+00 2.99026E+01-1.22298E+00-3.86376E-01
 -1      4910-1.98266E+02-1.74700E+01-1.26311E+00 1.61234E+01-1.25657E+00-1.30255E-01
 -1      4911-1.99992E+02-1.61269E+01-1.24722E+00 1.42287E+00-1.21632E+00 1.13975E-01
 -1      4912-1.98956E+02-1.69274E+01-1.22893E+00-1.20303E+01-1.20241E+00 3.55801E-01
 -1      4913-1.95431E+02-1.97153E+01-1.22769E+00-2.54783E+01-1.12961E+00 5.77211E-01
 -1      4914-1.89388E+02-2.43895E+01-1.20668E+00-3.81605E+01-1.03203E+00 7.87879E-01
 -1      4915-1.81040E+02-3.07739E+01-1.17405E+00-4.96764E+01-9.10489E-01 9.83681E-01
 -1      4916-1.70666E+02-3.86186E+01-1.13541E+00-5.96902E+01-7.65733E-01 1.16113E+00
 -1      4917-1.58595E+02-4.76154E+01-1.09204E+00-6.79270E+01-5.99954E-01 1.31634E+00
 -1      4918-1.45197E+02-5.74122E+01-1.04428E+00-7.41804E+01-4.16122E-01 1.44628E+00
 -1      4919-1.30873E+02-6.76300E+01-9.93285E-01-7.83197E+01-2.17481E-01 1.54888E+00
 -1      4920-1.16038E+02-7.78775E+01-9.40637E-01-8.02924E+01-7.03027E-03 1.62284E+00
 -1      4921-1.01106E+02-8.77683E+01-8.89748E-01-8.01252E+01 2.12813E-01 1.66773E+00
 -1      4922-8.64697E+01-9.69342E+01-8.44307E-01-7.79185E+01 4.40884E-01 1.68379E+00
 -1      4923-7.24908E+01-1.05040E+02-8.10886E-01-7.38413E+01 6.77900E-01 1.67159E+00
 -1      4924-5.94843E+01-1.11790E+02-7.96217E-01-6.81207E+01 9.26466E-01 1.63130E+00
 -1      4925-4.77089E+01-1.16937E+02-8.05506E-01-6.10348E+01 1.19038E+00 1.56197E+00
 -1      4926-3.73560E+01-1.20280E+02-8.36539E-01-5.29117E+01 1.47207E+00 1.46051E+00
 -1      4927-2.85297E+01-1.21672E+02-8.66621E-01-4.41433E+01 1.76737E+00 1.32152E+00
 -1      4928-2.12088E+01-1.21052E+02-8.36034E-01-3.52187E+01 2.05800E+00 1.13900E+00
 -1      4929-1.52042E+01-1.18596E+02-6.52336E-01-2.67529E+01 2.30544E+00 9.11667E-01
 -1      4930-1.02386E+01-1.15185E+02-3.21203E-01-1.93480E+01 2.46119E+00 6.50959E-01
 -1      4931-1.02202E+01-1.12212E+02 1.07084E-01 1.93338E+01 4.02878E+00-1.22579E+00
 -1      4932-1.52860E+01-1.15177E+02 1.84908E-02 2.67678E+01 3.68235E+00-1.69759E+00
 -1      4933-2.14480E+01-1.17116E+02-3.75029E-02 3.52228E+01 3.18017E+00-2.08644E+00
 -1      4934-2.89707E+01-1.17183E+02-8.94163E-03 4.40450E+01 2.62932E+00-2.38015E+00
 -1      4935-3.80251E+01-1.15265E+02 4.74694E-02 5.26058E+01 2.09289E+00-2.59215E+00
 -1      4936-4.86117E+01-1.11450E+02 9.55741E-02 6.04196E+01 1.59034E+00-2.73657E+00
 -1      4937-6.06043E+01-1.05899E+02 1.24440E-01 6.70978E+01 1.12073E+00-2.82206E+00
 -1      4938-7.37874E+01-9.88172E+01 1.34793E-01 7.23135E+01 6.77052E-01-2.85215E+00
 -1      4939-8.78735E+01-9.04623E+01 1.31942E-01 7.57898E+01 2.53495E-01-2.82732E+00
 -1      4940-1.02517E+02-8.11449E+01 1.21005E-01 7.73049E+01-1.52021E-01-2.74698E+00
 -1      4941-1.17325E+02-7.12213E+01 1.06292E-01 7.67033E+01-5.37829E-01-2.61099E+00
 -1      4942-1.31876E+02-6.10812E+01 9.07122E-02 7.39053E+01-8.99414E-01-2.42028E+00
 -1      4943-1.45731E+02-5.11308E+01 7.67140E-02 6.89141E+01-1.23060E+00-2.17734E+00
 -1      4944-1.58460E+02-4.17765E+01 6.51644E-02 6.18195E+01-1.52431E+00-1.88611E+00
 -1      4945-1.69653E+02-3.34045E+01 5.68740E-02 5.27957E+01-1.77333E+00-1.55194E+00
 -1      4946-1.78943E+02-2.63644E+01 5.20217E-02 4.20957E+01-1.97059E+00-1.18106E+00
 -1      4947-1.86031E+02-2.09550E+01 4.66821E-02 3.00418E+01-2.10915E+00-7.80808E-01
 -1      4948-1.90690E+02-1.74106E+01 3.52950E-02 1.70035E+01-2.18279E+00-3.61677E-01
 -1      4949-1.92675E+02-1.58765E+01 4.88095E-02 3.14795E+00-2.17786E+00 4.50701E-02
 -1      4950-1.92008E+02-1.63929E+01 6.14638E-02-9.95687E+00-2.16592E+00 4.60352E-01
 -1      4951-1.88897E+02-1.88409E+01 5.85173E-02-2.29925E+01-2.06453E+00 8.48247E-01
 -1      4952-1.83333E+02-2.31304E+01 6.69241E-02-3.53256E+01-1.91512E+00 1.21865E+00
 -1      4953-1.75511E+02-2.90956E+01 8.05215E-02-4.65732E+01-1.72135E+00 1.56497E+00
 -1      4954-1.65692E+02-3.65002E+01 9.56903E-02-5.64024E+01-1.48542E+00 1.88064E+00
 -1      4955-1.54189E+02-4.50491E+01 1.12155E-01-6.45378E+01-1.21134E+00 2.15899E+00
 -1      4956-1.41360E+02-5.44048E+01 1.29413E-01-7.07715E+01-9.04356E-01 2.39462E+00
 -1      4957-1.27593E+02-6.42012E+01 1.47016E-01-7.49690E+01-5.70290E-01 2.58361E+00
 -1      4958-1.13292E+02-7.40603E+01 1.63768E-01-7.70729E+01-2.14783E-01 2.72337E+00
 -1      4959-9.88598E+01-8.36085E+01 1.77616E-01-7.71029E+01 1.57368E-01 2.81278E+00
 -1      4960-8.46817E+01-9.24912E+01 1.86128E-01-7.51524E+01 5.43176E-01 2.85204E+00
 -1      4961-7.11122E+01-1.00388E+02 1.84852E-01-7.13814E+01 9.42585E-01 2.84208E+00
 -1      4962-5.84607E+01-1.07022E+02 1.69223E-01-6.60069E+01 1.35907E+00 2.78384E+00
 -1      4963-4.69814E+01-1.12164E+02 1.35393E-01-5.92940E+01 1.79930E+00 2.67680E+00
 -1      4964-3.68619E+01-1.15629E+02 8.40731E-02-5.15534E+01 2.27037E+00 2.51730E+00
 -1      4965-2.82045E+01-1.17277E+02 2.90952E-02-4.31538E+01 2.77240E+00 2.29688E+00
 -1      4966-2.09927E+01-1.17031E+02 7.53550E-03-3.45580E+01 3.28499E+00 2.00254E+00
 -1      4967-1.50520E+01-1.15018E+02 7.28863E-02-2.63614E+01 3.74692E+00 1.62326E+00
 -1      4968-1.01319E+01-1.12068E+02 1.69150E-01-1.91783E+01 4.05720E+00 1.17165E+00
 -1      4969-1.03282E+01-1.06742E+02 5.71908E-01 1.93971E+01 3.38947E+00-1.15040E+00
 -1      4970-1.53648E+01-1.08674E+02 6.64954E-01 2.62552E+01 3.02781E+00-1.58353E+00
 -1      4971-2.13491E+01-1.09719E+02 7.11571E-01 3.39682E+01 2.54953E+00-1.91308E+00
 -1      4972-2.85059E+01-1.09216E+02 7.85271E-01 4.19384E+01 2.05775E+00-2.15197E+00
 -1      4973-3.70014E+01-1.07086E+02 8.65795E-01 4.96297E+01 1.59439E+00-2.32272E+00
 -1      4974-4.68500E+01-1.03391E+02 9.35555E-01 5.66269E+01 1.16545E+00-2.43900E+00
 -1      4975-5.79450E+01-9.82340E+01 9.90631E-01 6.25939E+01 7.64221E-01-2.50669E+00
 -1      4976-7.00952E+01-9.17671E+01 1.03249E+00 6.72442E+01 3.82875E-01-2.52722E+00
 -1      4977-8.30445E+01-8.41943E+01 1.06432E+00 7.03331E+01 1.65782E-02-2.50005E+00
 -1      4978-9.64846E+01-7.57742E+01 1.08898E+00 7.16634E+01-3.35652E-01-2.42431E+00
 -1      4979-1.10066E+02-6.68116E+01 1.10885E+00 7.10955E+01-6.71593E-01-2.29975E+00
 -1      4980-1.23414E+02-5.76458E+01 1.12512E+00 6.85564E+01-9.86733E-01-2.12732E+00
 -1      4981-1.36139E+02-4.86336E+01 1.13921E+00 6.40461E+01-1.27536E+00-1.90939E+00
 -1      4982-1.47857E+02-4.01334E+01 1.15152E+00 5.76402E+01-1.53129E+00-1.64951E+00
 -1      4983-1.58205E+02-3.24887E+01 1.16212E+00 4.94888E+01-1.74815E+00-1.35244E+00
 -1      4984-1.66854E+02-2.60112E+01 1.17150E+00 3.98110E+01-1.91982E+00-1.02386E+00
 -1      4985-1.73531E+02-2.09703E+01 1.17698E+00 2.88868E+01-2.04061E+00-6.69907E-01
 -1      4986-1.78023E+02-1.75770E+01 1.17766E+00 1.70483E+01-2.10445E+00-2.98971E-01
 -1      4987-1.80133E+02-1.59643E+01 1.18737E+00 4.53499E+00-2.09598E+00 6.25769E-02
 -1      4988-1.79829E+02-1.62002E+01 1.19306E+00-7.70571E+00-2.06092E+00 4.24824E-01
 -1      4989-1.77224E+02-1.82249E+01 1.18781E+00-1.98222E+01-1.97198E+00 7.64612E-01
 -1      4990-1.72338E+02-2.19568E+01 1.18463E+00-3.13304E+01-1.84213E+00 1.08865E+00
 -1      4991-1.65335E+02-2.72483E+01 1.18105E+00-4.18808E+01-1.67297E+00 1.39118E+00
 -1      4992-1.56445E+02-3.38887E+01 1.17523E+00-5.11608E+01-1.46724E+00 1.66667E+00
 -1      4993-1.45951E+02-4.16125E+01 1.16743E+00-5.89086E+01-1.22853E+00 1.90966E+00
 -1      4994-1.34181E+02-5.01134E+01 1.15702E+00-6.49242E+01-9.61529E-01 2.11565E+00
 -1      4995-1.21488E+02-5.90567E+01 1.14426E+00-6.90744E+01-6.71428E-01 2.28127E+00
 -1      4996-1.08247E+02-6.80969E+01 1.12828E+00-7.12980E+01-3.63371E-01 2.40431E+00
 -1      4997-9.48302E+01-7.68918E+01 1.10828E+00-7.16054E+01-4.18543E-02 2.48368E+00
 -1      4998-8.15960E+01-8.51181E+01 1.08289E+00-7.00756E+01 2.89929E-01 2.51959E+00
 -1      4999-6.88770E+01-9.24870E+01 1.04965E+00-6.68505E+01 6.31201E-01 2.51308E+00
 -1      5000-5.69651E+01-9.87550E+01 1.00588E+00-6.21252E+01 9.84370E-01 2.46547E+00
 -1      5001-4.61013E+01-1.03730E+02 9.48846E-01-5.61390E+01 1.35549E+00 2.37746E+00
 -1      5002-3.64639E+01-1.07271E+02 8.77565E-01-4.91712E+01 1.75323E+00 2.24748E+00
 -1      5003-2.81489E+01-1.09278E+02 7.97251E-01-4.15496E+01 2.18449E+00 2.06938E+00
 -1      5004-2.11337E+01-1.09696E+02 7.26336E-01-3.36796E+01 2.64283E+00 1.82965E+00
 -1      5005-1.52506E+01-1.08606E+02 6.84648E-01-2.60835E+01 3.08693E+00 1.50707E+00
 -1      5006-1.02820E+01-1.06663E+02 5.98125E-01-1.93399E+01 3.41655E+00 1.09051E+00
 -1      5007-2.68634E+00 1.04068E+02 8.08539E-01 5.32561E+00 1.45429E-01-9.34873E-02
 -1      5008-3.93767E+00 3.94960E+01 1.19932E+00 1.07092E+01 9.18517E-01-3.15481E-01
 -1      5009-4.06952E+00-2.83439E+01 1.23368E+00 1.34954E+01 1.79836E+00-4.40162E-01
 -1      5010-2.83005E+00-1.00743E+02 6.85833E-01 1.05023E+01 3.23095E+00-3.45042E-01
 -1      5011-1.23315E+00 9.83672E+01 7.65913E-01 7.11070E+00-2.26256E-01-8.87278E-02
 -1      5012-1.62116E+00 3.49010E+01 9.38030E-01 1.19822E+01 6.55948E-01-2.26994E-01
 -1      5013-1.63085E+00-2.97721E+01 8.87249E-01 1.30695E+01 1.53393E+00-2.62207E-01
 -1      5014-1.29367E+00-9.61804E+01 4.82968E-01 8.89905E+00 2.83135E+00-1.80825E-01
 -1      5015-4.08391E-01 9.25207E+01 6.54764E-01 8.10973E+00-6.09342E-01-9.07143E-02
 -1      5016-4.93854E-01 3.15682E+01 6.58078E-01 1.28002E+01 3.66283E-01-1.68641E-01
 -1      5017-4.81443E-01-2.94822E+01 5.99209E-01 1.30560E+01 1.22235E+00-1.74586E-01
 -1      5018-3.96473E-01-9.07500E+01 4.45254E-01 8.45503E+00 2.41832E+00-1.18619E-01
 -1      5019-2.39564E-02 8.64405E+01 5.39920E-01 8.12904E+00-9.36050E-01-1.23714E-01
 -1      5020-2.99668E-02 2.89808E+01 4.50207E-01 1.27484E+01 9.40626E-02-1.74357E-01
 -1      5021-2.11050E-02-2.82136E+01 3.77967E-01 1.27113E+01 9.35642E-01-1.76894E-01
 -1      5022-3.56540E-02-8.51975E+01 2.99213E-01 8.02190E+00 2.06981E+00-1.35835E-01
 -1      5023 7.66563E-02 8.02531E+01 3.94594E-01 8.18196E+00-1.20489E+00-1.13386E-01
 -1      5024 9.25192E-02 2.67434E+01 2.98988E-01 1.28039E+01-1.22328E-01-1.52476E-01
 -1      5025 8.34142E-02-2.65206E+01 2.24145E-01 1.27151E+01 7.27182E-01-1.55834E-01
 -1      5026 6.15110E-02-7.95359E+01 1.74305E-01 8.01387E+00 1.85412E+00-1.22888E-01
 -1      5027 8.04578E-02 7.41520E+01 2.92572E-01 8.16714E+00-1.39907E+00-9.70713E-02
 -1      5028 9.03063E-02 2.46634E+01 1.98740E-01 1.28054E+01-2.76112E-01-1.31613E-01
 -1      5029 7.72864E-02-2.46578E+01 1.22473E-01 1.27380E+01 5.93035E-01-1.35663E-01
 -1      5030 5.71852E-02-7.38256E+01 6.18136E-02 8.04810E+00 1.73160E+00-1.05713E-01
 -1      5031 6.19870E-02 6.81489E+01 2.39034E-01 8.14452E+00-1.54463E+00-7.85355E-02
 -1      5032 6.24301E-02 2.26568E+01 1.39441E-01 1.27987E+01-3.81423E-01-1.08992E-01
 -1      5033 4.53793E-02-2.27423E+01 4.99957E-02 1.27596E+01 5.18366E-01-1.12714E-01
 -1      5034 2.84821E-02-6.80678E+01-3.41198E-02 8.07826E+00 1.68465E+00-8.55401E-02
 -1      5035 4.91319E-02 6.22421E+01 2.31888E-01 8.12361E+00-1.67538E+00-5.50141E-02
 -1      5036 4.01255E-02 2.06922E+01 1.10786E-01 1.27863E+01-4.58358E-01-7.92453E-02
 -1      5037 1.73659E-02-2.08133E+01-5.17014E-03 1.27661E+01 4.90682E-01-8.20033E-02
 -1      5038 2.05839E-05-6.22923E+01-1.22218E-01 8.09037E+00 1.70603E+00-5.98249E-02
 -1      5039 4.93525E-02 5.64392E+01 2.68180E-01 8.09775E+00-1.82572E+00-2.09307E-02
 -1      5040 3.04670E-02 1.87649E+01 1.06148E-01 1.27600E+01-5.26711E-01-3.41219E-02
 -1      5041-5.76600E-04-1.88924E+01-5.25461E-02 1.27504E+01 5.02463E-01-3.57853E-02
 -1      5042-2.31921E-02-5.65441E+01-2.15082E-01 8.08185E+00 1.79896E+00-2.35331E-02
 -1      5043 6.52536E-02 5.07683E+01 3.44559E-01 8.05569E+00-2.03003E+00 3.03686E-02
 -1      5044 3.50440E-02 1.68790E+01 1.19951E-01 1.27087E+01-6.03778E-01 3.55419E-02
 -1      5045-7.18607E-03-1.70023E+01-9.98081E-02 1.27079E+01 5.51379E-01 3.47385E-02
 -1      5046-4.06891E-02-5.08787E+01-3.23052E-01 8.05353E+00 1.97659E+00 2.96119E-02
 -1      5047 9.98749E-02 4.52808E+01 4.49541E-01 7.98850E+00-2.31645E+00 1.01713E-01
 -1      5048 5.93000E-02 1.50411E+01 1.45316E-01 1.26238E+01-7.01424E-01 1.31918E-01
 -1      5049 8.94178E-04-1.51790E+01-1.52454E-01 1.26406E+01 6.37299E-01 1.31259E-01
 -1      5050-4.81742E-02-4.53602E+01-4.44575E-01 8.01438E+00 2.25340E+00 1.01828E-01
 -1      5051 1.58352E-01 4.00612E+01 5.52900E-01 7.90152E+00-2.68663E+00 1.79851E-01
 -1      5052 1.07807E-01 1.32523E+01 1.66883E-01 1.25147E+01-8.17113E-01 2.28341E-01
 -1      5053 3.83044E-02-1.34767E+01-2.07182E-01 1.25736E+01 7.52990E-01 2.26043E-01
 -1      5054-3.63017E-02-4.00700E+01-5.55819E-01 7.99783E+00 2.62226E+00 1.78199E-01
 -1      5055 2.23557E-01 3.52325E+01 5.95044E-01 7.76753E+00-3.08604E+00 2.09857E-01
 -1      5056 2.06748E-01 1.15674E+01 1.89485E-01 1.23345E+01-9.33681E-01 2.41003E-01
 -1      5057 9.70420E-02-1.20313E+01-2.74365E-01 1.24831E+01 8.80832E-01 2.33472E-01
 -1      5058 2.38020E-02-3.51146E+01-6.00167E-01 8.01524E+00 3.02387E+00 2.00218E-01
 -1      5059 2.34200E-01 3.09909E+01 4.78286E-01 7.97744E+00-3.31271E+00 5.67019E-02
 -1      5060 2.59907E-01 1.00438E+01 1.76242E-01 1.24155E+01-9.94929E-01-1.06972E-02
 -1      5061 2.10295E-01-1.10077E+01-3.19632E-01 1.27118E+01 9.65414E-01-2.31024E-02
 -1      5062 1.63401E-01-3.06336E+01-4.64459E-01 8.47452E+00 3.25404E+00 3.70548E-02
 -1      5063 4.54333E-01 2.82838E+01 7.26824E-01 8.55324E+00-3.25470E+00-4.68326E-01
 -1      5064-2.40679E-02 8.39851E+00 6.22126E-02 1.27628E+01-9.93905E-01-7.67315E-01
 -1      5065 4.09592E-01-1.02468E+01-2.77035E-01 1.32620E+01 9.84756E-01-7.70995E-01
 -1      5066 5.85492E-03-2.72969E+01-5.84969E-01 9.28848E+00 3.21449E+00-4.83395E-01
 -1      5067-2.72089E+00 1.01843E+02 1.43575E+00 4.31674E+00 1.31794E-01-1.76427E-01
 -1      5068-3.95935E+00 3.70843E+01 1.66897E+00 9.15552E+00 1.14771E+00-4.25206E-01
 -1      5069-4.09007E+00-3.11639E+01 1.58768E+00 1.20073E+01 2.28385E+00-5.78247E-01
 -1      5070-2.85180E+00-1.04165E+02 8.33447E-01 9.79873E+00 3.91572E+00-4.50760E-01
 -1      5071-1.33474E+00 9.69893E+01 1.40068E+00 6.00390E+00-2.55045E-01-1.41202E-01
 -1      5072-1.70953E+00 3.33632E+01 1.40501E+00 1.02182E+01 8.57791E-01-3.04318E-01
 -1      5073-1.72121E+00-3.17177E+01 1.25909E+00 1.13577E+01 1.99639E+00-3.73937E-01
 -1      5074-1.39494E+00-9.87404E+01 7.34428E-01 7.93909E+00 3.52505E+00-2.77032E-01
 -1      5075-5.22026E-01 9.18655E+01 1.20519E+00 7.16718E+00-6.85171E-01-9.35823E-02
 -1      5076-5.95866E-01 3.06992E+01 1.07451E+00 1.11395E+01 5.13528E-01-1.85315E-01
 -1      5077-5.57621E-01-3.07378E+01 9.59368E-01 1.14133E+01 1.63372E+00-2.15051E-01
 -1      5078-4.89455E-01-9.25227E+01 7.48942E-01 7.54738E+00 3.08196E+00-1.56714E-01
 -1      5079-9.38124E-02 8.62588E+01 9.94587E-01 6.89778E+00-1.09008E+00-1.21910E-01
 -1      5080-9.96904E-02 2.85599E+01 7.81819E-01 1.07350E+01 1.64663E-01-1.76410E-01
 -1      5081-6.32519E-02-2.89524E+01 6.57207E-01 1.06948E+01 1.27065E+00-1.89790E-01
 -1      5082-1.00268E-01-8.63170E+01 5.16668E-01 6.78280E+00 2.65837E+00-1.50875E-01
 -1      5083 2.53981E-02 8.02759E+01 7.23571E-01 6.92197E+00-1.43964E+00-1.14216E-01
 -1      5084 4.66142E-02 2.65903E+01 5.38152E-01 1.07369E+01-1.20692E-01-1.50294E-01
 -1      5085 5.38416E-02-2.68985E+01 4.16978E-01 1.06441E+01 9.97572E-01-1.56649E-01
 -1      5086 2.96142E-02-8.01455E+01 3.15636E-01 6.74410E+00 2.37960E+00-1.28657E-01
 -1      5087 4.26097E-02 7.42484E+01 5.34810E-01 6.88589E+00-1.70367E+00-9.78141E-02
 -1      5088 5.57556E-02 2.46479E+01 3.61701E-01 1.07018E+01-3.31228E-01-1.25797E-01
 -1      5089 6.11992E-02-2.48045E+01 2.41429E-01 1.06339E+01 8.14688E-01-1.29610E-01
 -1      5090 4.44131E-02-7.41092E+01 1.18723E-01 6.76431E+00 2.21221E+00-1.06372E-01
 -1      5091 2.95930E-02 6.82089E+01 4.33011E-01 6.84419E+00-1.90746E+00-7.53130E-02
 -1      5092 3.47728E-02 2.26880E+01 2.51263E-01 1.06655E+01-4.80028E-01-9.65007E-02
 -1      5093 4.06497E-02-2.27483E+01 1.08892E-01 1.06286E+01 7.09075E-01-9.91168E-02
 -1      5094 3.08633E-02-6.81155E+01-5.25904E-02 6.78063E+00 2.14335E+00-8.07682E-02
 -1      5095 1.51248E-02 6.21719E+01 4.13845E-01 6.81027E+00-2.09137E+00-4.37506E-02
 -1      5096 1.59622E-02 2.07035E+01 1.95261E-01 1.06321E+01-5.90720E-01-5.49490E-02
 -1      5097 2.19450E-02-2.07243E+01 6.26187E-03 1.06149E+01 6.67013E-01-5.65698E-02
 -1      5098 1.70266E-02-6.21282E+01-2.09090E-01 6.78155E+00 2.16697E+00-4.68767E-02
 -1      5099 7.38555E-03 5.61426E+01 4.74008E-01 6.78168E+00-2.30125E+00 3.83336E-03
 -1      5100 6.25469E-03 1.87031E+01 1.84599E-01 1.05992E+01-6.89048E-01 9.23108E-03
 -1      5101 1.16445E-02-1.87183E+01-8.12722E-02 1.05921E+01 6.79693E-01 8.60826E-03
 -1      5102 9.18816E-03-5.61371E+01-3.74128E-01 6.76990E+00 2.28935E+00 2.83442E-03
 -1      5103 1.06165E-02 5.01265E+01 6.14692E-01 6.75324E+00-2.58839E+00 7.59050E-02
 -1      5104 7.54563E-03 1.66944E+01 2.12745E-01 1.05644E+01-7.99679E-01 1.06722E-01
 -1      5105 1.02516E-02-1.67238E+01-1.68720E-01 1.05648E+01 7.45350E-01 1.06911E-01
 -1      5106 6.72091E-03-5.01432E+01-5.73246E-01 6.75309E+00 2.53237E+00 7.67255E-02
 -1      5107 3.33153E-02 4.41482E+01 8.37221E-01 6.72267E+00-3.00841E+00 1.76192E-01
 -1      5108 2.72682E-02 1.46855E+01 2.75168E-01 1.05271E+01-9.44059E-01 2.37601E-01
 -1      5109 1.69753E-02-1.47554E+01-2.70944E-01 1.05418E+01 8.68484E-01 2.37473E-01
 -1      5110 7.35654E-03-4.41645E+01-8.25368E-01 6.74565E+00 2.93055E+00 1.77066E-01
 -1      5111 1.00404E-01 3.83077E+01 1.13533E+00 6.68894E+00-3.60755E+00 2.86273E-01
 -1      5112 6.64340E-02 1.26799E+01 3.54099E-01 1.04897E+01-1.13151E+00 3.59579E-01
 -1      5113 4.43772E-02-1.28529E+01-3.89547E-01 1.05396E+01 1.05282E+00 3.55059E-01
 -1      5114-2.73293E-03-3.82884E+01-1.13513E+00 6.77148E+00 3.51414E+00 2.80339E-01
 -1      5115 2.46204E-01 3.29227E+01 1.49499E+00 6.54654E+00-4.40715E+00 3.08180E-01
 -1      5116 1.76639E-01 1.07905E+01 4.61486E-01 1.03253E+01-1.36162E+00 3.20753E-01
 -1      5117 4.87303E-02-1.12022E+01-5.55082E-01 1.04534E+01 1.30634E+00 3.01710E-01
 -1      5118-4.98651E-02-3.28144E+01-1.49398E+00 6.76351E+00 4.29213E+00 2.76233E-01
 -1      5119 3.70389E-01 2.84472E+01 1.59861E+00 6.91532E+00-5.11024E+00 1.11375E-03
 -1      5120 2.27801E-01 9.10431E+00 4.63658E-01 1.06034E+01-1.55063E+00-1.79766E-01
 -1      5121 8.20459E-02-1.00371E+01-6.65989E-01 1.08661E+01 1.56351E+00-2.26191E-01
 -1      5122-7.10591E-02-2.81626E+01-1.58353E+00 7.35676E+00 4.97008E+00-8.20340E-02
 -1      5123 4.47413E-01 2.51249E+01 1.63164E+00 7.39440E+00-5.71153E+00-1.20005E+00
 -1      5124-1.85029E-01 7.07769E+00 1.44689E-01 1.10268E+01-1.67451E+00-1.82468E+00
 -1      5125 3.44740E-01-9.03237E+00-5.45477E-01 1.15073E+01 1.86180E+00-1.89322E+00
 -1      5126-1.53639E-01-2.44698E+01-1.55887E+00 8.12946E+00 5.54376E+00-1.34070E+00
 -1      5127-2.82510E+00 1.00324E+02 1.94304E+00 3.93024E+00 6.49096E-02-1.10359E-01
 -1      5128-4.10157E+00 3.54815E+01 2.12317E+00 8.64002E+00 7.23642E-01-2.48873E-01
 -1      5129-4.29174E+00-3.30517E+01 1.92891E+00 1.16447E+01 1.47196E+00-3.30899E-01
 -1      5130-2.93692E+00-1.06445E+02 1.01407E+00 9.72406E+00 2.41274E+00-2.47267E-01
 -1      5131-1.44404E+00 9.59406E+01 1.96635E+00 5.54975E+00-1.37484E-01-8.40323E-02
 -1      5132-1.83405E+00 3.22008E+01 1.88371E+00 9.57858E+00 5.65905E-01-1.71143E-01
 -1      5133-1.90463E+00-3.32272E+01 1.64397E+00 1.08427E+01 1.31566E+00-2.13749E-01
 -1      5134-1.49352E+00-1.00718E+02 1.05585E+00 7.72057E+00 2.21848E+00-1.61063E-01
 -1      5135-6.28056E-01 9.12464E+01 1.71213E+00 6.91384E+00-3.77858E-01-5.78552E-02
 -1      5136-6.95816E-01 2.99049E+01 1.50677E+00 1.06624E+01 3.63784E-01-1.02485E-01
 -1      5137-6.75035E-01-3.18897E+01 1.33385E+00 1.10041E+01 1.10188E+00-1.23733E-01
 -1      5138-5.66073E-01-9.41159E+01 1.10776E+00 7.41325E+00 1.97717E+00-9.86028E-02
 -1      5139-1.58840E-01 8.59648E+01 1.39573E+00 6.38667E+00-6.25342E-01-1.14367E-01
 -1      5140-1.50110E-01 2.80693E+01 1.12214E+00 9.93881E+00 1.38536E-01-1.36570E-01
 -1      5141-1.29425E-01-2.97483E+01 9.44545E-01 9.91809E+00 8.66288E-01-1.47020E-01
 -1      5142-1.55287E-01-8.74523E+01 7.92370E-01 6.30508E+00 1.71024E+00-1.34037E-01
 -1      5143-2.19086E-02 8.01457E+01 1.00261E+00 6.40455E+00-8.57853E-01-1.03762E-01
 -1      5144 2.40396E-02 2.63237E+01 7.83824E-01 9.91000E+00-5.34994E-02-1.13552E-01
 -1      5145 2.38565E-03-2.73818E+01 6.12853E-01 9.81950E+00 6.83820E-01-1.17995E-01
 -1      5146-3.92972E-03-8.08287E+01 5.07634E-01 6.22985E+00 1.53117E+00-1.12791E-01
 -1      5147 6.81272E-03 7.41928E+01 7.28090E-01 6.36195E+00-1.03858E+00-8.70508E-02
 -1      5148 4.28122E-02 2.45201E+01 5.28482E-01 9.85654E+00-1.99249E-01-9.14915E-02
 -1      5149 2.28414E-02-2.50520E+01 3.60069E-01 9.78811E+00 5.57775E-01-9.35475E-02
 -1      5150 2.60610E-02-7.44586E+01 2.23791E-01 6.23872E+00 1.41637E+00-9.16290E-02
 -1      5151-5.46899E-04 6.81336E+01 5.78964E-01 6.31623E+00-1.18085E+00-6.58353E-02
 -1      5152 2.73829E-02 2.26249E+01 3.65425E-01 9.81291E+00-3.04477E-01-6.54540E-02
 -1      5153 1.33113E-02-2.28315E+01 1.65838E-01 9.77605E+00 4.82683E-01-6.65435E-02
 -1      5154 2.57582E-02-6.82017E+01-2.43881E-02 6.25236E+00 1.36582E+00-6.82664E-02
 -1      5155-1.49910E-02 6.19832E+01 5.48987E-01 6.28611E+00-1.30997E+00-3.74743E-02
 -1      5156 1.12396E-02 2.06400E+01 2.81288E-01 9.78521E+00-3.83776E-01-2.98985E-02
 -1      5157 4.49254E-03-2.06853E+01 1.52494E-02 9.76877E+00 4.51315E-01-3.03843E-02
 -1      5158 2.53612E-02-6.19713E+01-2.50513E-01 6.25848E+00 1.37867E+00-3.85382E-02
 -1      5159-2.99565E-02 5.57345E+01 6.33868E-01 6.27410E+00-1.45772E+00 3.07142E-03
 -1      5160 4.44915E-04 1.85811E+01 2.64038E-01 9.77692E+00-4.54600E-01 2.25298E-02
 -1      5161 3.59086E-03-1.85683E+01-1.12302E-01 9.77081E+00 4.58576E-01 2.25922E-02
 -1      5162 3.32743E-02-5.57035E+01-4.88466E-01 6.26391E+00 1.46111E+00 3.18912E-03
 -1      5163-4.49320E-02 4.93535E+01 8.38450E-01 6.27999E+00-1.66405E+00 6.23991E-02
 -1      5164-4.95887E-03 1.64524E+01 3.05590E-01 9.79332E+00-5.35353E-01 9.96135E-02
 -1      5165 1.21003E-02-1.64419E+01-2.39051E-01 9.79397E+00 5.04554E-01 1.00060E-01
 -1      5166 5.21458E-02-4.93321E+01-7.78444E-01 6.28055E+00 1.63246E+00 6.34313E-02
 -1      5167-5.94143E-02 4.27824E+01 1.17627E+00 6.30294E+00-1.98269E+00 1.45629E-01
 -1      5168 3.32605E-04 1.42476E+01 4.03571E-01 9.83428E+00-6.45786E-01 2.03336E-01
 -1      5169 2.93840E-02-1.42842E+01-3.88629E-01 9.84618E+00 5.97007E-01 2.03008E-01
 -1      5170 8.56251E-02-4.27797E+01-1.15961E+00 6.32177E+00 1.93023E+00 1.45748E-01
 -1      5171-5.08301E-02 3.60027E+01 1.67721E+00 6.31710E+00-2.48810E+00 2.48659E-01
 -1      5172 5.22510E-03 1.19325E+01 5.40480E-01 9.87507E+00-8.03052E-01 3.09455E-01
 -1      5173 7.63560E-02-1.20737E+01-5.68053E-01 9.91278E+00 7.51381E-01 3.03775E-01
 -1      5174 1.18173E-01-3.60152E+01-1.67725E+00 6.37924E+00 2.41532E+00 2.40007E-01
 -1      5175 2.92780E-02 2.92544E+01 2.40391E+00 6.10641E+00-3.31577E+00 3.16119E-01
 -1      5176 8.93602E-02 9.61165E+00 7.42938E-01 9.68066E+00-1.04014E+00 3.15146E-01
 -1      5177 8.07438E-02-9.94349E+00-8.31988E-01 9.77167E+00 1.01917E+00 2.90589E-01
 -1      5178 1.06518E-01-2.92696E+01-2.40171E+00 6.26053E+00 3.21261E+00 2.74151E-01
 -1      5179 1.47567E-01 2.30122E+01 2.94889E+00 6.16002E+00-4.34558E+00 1.60486E-01
 -1      5180 1.50246E-01 7.38300E+00 8.19959E-01 9.69565E+00-1.31366E+00-1.93066E-02
 -1      5181 8.17096E-02-8.07035E+00-1.04500E+00 9.87494E+00 1.40848E+00-8.65726E-02
 -1      5182 5.98879E-02-2.29960E+01-2.93289E+00 6.45456E+00 4.20901E+00 3.97076E-02
 -1      5183 4.10312E-01 1.83709E+01 3.45065E+00 6.28602E+00-5.13372E+00-8.19208E-01
 -1      5184 9.41485E-02 5.23733E+00 6.90703E-01 9.64923E+00-1.49779E+00-1.46898E+00
 -1      5185 7.84794E-02-6.61152E+00-1.21580E+00 9.97507E+00 1.85475E+00-1.62081E+00
 -1      5186-1.26311E-01-1.81135E+01-3.37923E+00 6.77989E+00 5.01751E+00-1.09125E+00
 -1      5187-7.28664E+00-1.34318E+01-5.38052E-01 1.41284E+01 8.32496E-01-1.53050E+00
 -1      5188-9.44029E+00-3.41684E+00 7.15678E-02 1.77976E+01 1.51701E-01-2.05632E+00
 -1      5189-6.64342E+00 7.18799E+00 2.63773E+00 2.04520E+01-6.19855E-01-2.28472E+00
 -1      5190 7.56031E+00 2.20343E+01 7.29263E+00 1.91603E+01-1.66237E+00-1.84408E+00
 -1      5191-7.08538E+00-1.50360E+01-1.12412E+00 1.42417E+01 2.36512E+00-3.48373E+00
 -1      5192-8.60470E+00-4.10104E+00 3.55907E-02 1.78837E+01 9.02680E-01-4.43100E+00
 -1      5193-5.25427E+00 7.55510E+00 3.08791E+00 2.04972E+01-6.53704E-01-4.60163E+00
 -1      5194 9.05548E+00 2.33526E+01 8.88584E+00 1.91512E+01-2.45653E+00-3.67945E+00
 -1      5195-7.24971E+00-1.72560E+01-3.20040E+00 1.56701E+01 5.55933E+00-6.60808E+00
 -1      5196-7.91284E+00-5.05889E+00-9.80221E-01 1.95326E+01 2.24387E+00-8.19561E+00
 -1      5197-3.42578E+00 8.11698E+00 3.11201E+00 2.18849E+01-6.65144E-01-8.50322E+00
 -1      5198 1.12362E+01 2.54697E+01 9.26324E+00 1.98844E+01-4.65137E+00-6.81212E+00
 -1      5199-3.50395E+00-1.89454E+01 1.39303E-01 1.33204E+01 1.85352E+00-1.74357E+00
 -1      5200-2.40164E+00-6.57098E+00 3.94560E-01 1.64901E+01 5.99670E-01-2.08859E+00
 -1      5201 2.73795E-01 5.52761E+00 9.04608E-01 1.68166E+01-8.43769E-01-2.15120E+00
 -1      5202 2.63233E-01 1.71049E+01-1.05369E+00 1.46171E+01-2.28540E+00-1.92477E+00
 -1      5203-3.59822E+00-1.96135E+01-2.06247E+00 1.26127E+01 4.60688E+00-4.33351E+00
 -1      5204-2.11863E+00-6.68019E+00-3.91935E-01 1.59043E+01 1.72854E+00-4.99671E+00
 -1      5205 6.51332E-01 5.30584E+00 1.34546E+00 1.62295E+01-1.37860E+00-4.91263E+00
 -1      5206 7.31170E-01 1.73746E+01 8.34156E-01 1.35354E+01-4.97471E+00-4.35125E+00
 -1      5207-3.48293E+00-1.79492E+01-5.98890E+00 1.24245E+01 6.89758E+00-7.20093E+00
 -1      5208-1.71290E+00-6.11140E+00-1.91969E+00 1.55062E+01 2.65956E+00-8.82734E+00
 -1      5209 1.28532E+00 4.57687E+00 1.77861E+00 1.58977E+01-1.32748E+00-8.59908E+00
 -1      5210 1.45836E+00 1.50806E+01 4.83330E+00 1.32737E+01-6.82269E+00-6.77327E+00
 -1      5211 3.23526E-01 1.80891E+01 3.52518E+00-6.26930E+00-5.13636E+00 7.88779E-01
 -1      5212 9.72121E-02 5.42481E+00 7.92089E-01-9.50423E+00-1.51909E+00 1.38006E+00
 -1      5213 4.51138E-02-6.48831E+00-1.23945E+00-9.75658E+00 1.85352E+00 1.51703E+00
 -1      5214-1.26010E-01-1.79220E+01-3.48595E+00-6.64862E+00 5.02711E+00 1.03435E+00
 -1      5215 1.11642E-01 2.28305E+01 3.01995E+00-6.16805E+00-4.36439E+00-1.88252E-01
 -1      5216 1.32459E-01 7.39356E+00 8.59259E-01-9.69149E+00-1.33092E+00-3.22910E-02
 -1      5217 7.09741E-02-7.95525E+00-1.05729E+00-9.84249E+00 1.41923E+00 2.79135E-02
 -1      5218 6.28216E-02-2.28016E+01-3.00422E+00-6.42306E+00 4.23990E+00-7.98733E-02
 -1      5219 1.27511E-02 2.91611E+01 2.46202E+00-6.11260E+00-3.32128E+00-3.37394E-01
 -1      5220 7.91228E-02 9.60746E+00 7.66309E-01-9.68554E+00-1.04475E+00-3.49225E-01
 -1      5221 7.59199E-02-9.87477E+00-8.45163E-01-9.76771E+00 1.02412E+00-3.27239E-01
 -1      5222 1.08543E-01-2.91452E+01-2.45761E+00-6.25148E+00 3.22482E+00-2.99608E-01
 -1      5223-5.86122E-02 3.59622E+01 1.71532E+00-6.31706E+00-2.48359E+00-2.62291E-01
 -1      5224 8.45960E-04 1.19341E+01 5.54223E-01-9.87513E+00-8.01646E-01-3.30234E-01
 -1      5225 7.59308E-02-1.20316E+01-5.78969E-01-9.91044E+00 7.52891E-01-3.25025E-01
 -1      5226 1.20994E-01-3.59387E+01-1.71500E+00-6.37558E+00 2.41461E+00-2.54243E-01
 -1      5227-6.28867E-02 4.27713E+01 1.19973E+00-6.30060E+00-1.97083E+00-1.53396E-01
 -1      5228-1.18474E-03 1.42558E+01 4.11242E-01-9.83120E+00-6.41487E-01-2.15045E-01
 -1      5229 2.99974E-02-1.42556E+01-3.96965E-01-9.84291E+00 5.95422E-01-2.14603E-01
 -1      5230 8.79517E-02-4.27316E+01-1.18425E+00-6.31925E+00 1.92060E+00-1.53207E-01
 -1      5231-4.64036E-02 4.93569E+01 8.51788E-01-6.27665E+00-1.64731E+00-6.63115E-02
 -1      5232-5.37968E-03 1.64648E+01 3.09461E-01-9.78866E+00-5.29472E-01-1.05518E-01
 -1      5233 1.28105E-02-1.64192E+01-2.44799E-01-9.78955E+00 5.00652E-01-1.05793E-01
 -1      5234 5.37103E-02-4.92990E+01-7.93713E-01-6.27771E+00 1.61720E+00-6.70068E-02
 -1      5235-3.05571E-02 5.57446E+01 6.40429E-01-6.27043E+00-1.43820E+00-4.70927E-03
 -1      5236 3.93181E-04 1.85956E+01 2.65620E-01-9.77157E+00-4.47911E-01-2.50378E-02
 -1      5237 4.09672E-03-1.85485E+01-1.15841E-01-9.76568E+00 4.53211E-01-2.49921E-02
 -1      5238 3.42014E-02-5.56782E+01-4.96994E-01-6.26065E+00 1.44265E+00-4.62852E-03
 -1      5239-1.51918E-02 6.19963E+01 5.50873E-01-6.28227E+00-1.28928E+00 3.70431E-02
 -1      5240 1.13011E-02 2.06554E+01 2.81494E-01-9.77944E+00-3.76778E-01 2.91791E-02
 -1      5241 4.80512E-03-2.06671E+01 1.36311E-02-9.76310E+00 4.45195E-01 2.97146E-02
 -1      5242 2.58540E-02-6.19500E+01-2.53830E-01-6.25482E+00 1.35875E+00 3.81942E-02
 -1      5243-5.11321E-04 6.81477E+01 5.77286E-01-6.31212E+00-1.16011E+00 6.59495E-02
 -1      5244 2.75306E-02 2.26403E+01 3.64778E-01-9.80660E+00-2.97481E-01 6.55123E-02
 -1      5245 1.35356E-02-2.28142E+01 1.66058E-01-9.76968E+00 4.76345E-01 6.66124E-02
 -1      5246 2.60143E-02-6.81825E+01-2.31031E-02-6.24817E+00 1.34569E+00 6.83996E-02
 -1      5247 7.07090E-03 7.42068E+01 7.23261E-01-6.35736E+00-1.01856E+00 8.72940E-02
 -1      5248 4.31304E-02 2.45347E+01 5.27263E-01-9.84927E+00-1.92399E-01 9.16501E-02
 -1      5249 2.31267E-02-2.50356E+01 3.62277E-01-9.78053E+00 5.51646E-01 9.36772E-02
 -1      5250 2.62639E-02-7.44402E+01 2.29838E-01-6.23361E+00 1.39698E+00 9.18249E-02
 -1      5251-2.14144E-02 8.01586E+01 9.94524E-01-6.39910E+00-8.38952E-01 1.03776E-01
 -1      5252 2.46704E-02 2.63367E+01 7.82190E-01-9.90109E+00-4.67330E-02 1.13164E-01
 -1      5253 2.88146E-03-2.73667E+01 6.17394E-01-9.80981E+00 6.78287E-01 1.17502E-01
 -1      5254-3.60184E-03-8.08107E+01 5.19263E-01-6.22303E+00 1.51324E+00 1.12627E-01
 -1      5255-1.58340E-01 8.59752E+01 1.38383E+00-6.37949E+00-6.07426E-01 1.13596E-01
 -1      5256-1.49134E-01 2.80794E+01 1.12027E+00-9.92717E+00 1.45643E-01 1.34603E-01
 -1      5257-1.28763E-01-2.97358E+01 9.51769E-01-9.90495E+00 8.61736E-01 1.44795E-01
 -1      5258-1.54753E-01-8.74341E+01 8.10824E-01-6.29523E+00 1.69419E+00 1.32792E-01
 -1      5259-6.28851E-01 9.12526E+01 1.69543E+00-6.90301E+00-3.59642E-01 5.49492E-02
 -1      5260-6.95314E-01 2.99125E+01 1.50513E+00-1.06468E+01 3.72321E-01 9.67932E-02
 -1      5261-6.74854E-01-3.18820E+01 1.34380E+00-1.09867E+01 1.09889E+00 1.17538E-01
 -1      5262-5.65653E-01-9.40986E+01 1.13395E+00-7.39823E+00 1.96301E+00 9.47488E-02
 -1      5263-1.44892E+00 9.59451E+01 1.94453E+00-5.52979E+00-1.15456E-01 7.66040E-02
 -1      5264-1.83763E+00 3.22110E+01 1.88263E+00-9.55867E+00 5.77248E-01 1.58515E-01
 -1      5265-1.90688E+00-3.32275E+01 1.65523E+00-1.08221E+01 1.31440E+00 2.00662E-01
 -1      5266-1.49558E+00-1.00710E+02 1.08650E+00-7.69896E+00 2.20432E+00 1.52117E-01
 -1      5267-2.82710E+00 1.00363E+02 1.92464E+00-3.90254E+00 9.02743E-02 9.06311E-02
 -1      5268-4.12491E+00 3.54938E+01 2.11548E+00-8.61725E+00 7.36720E-01 2.22654E-01
 -1      5269-4.29766E+00-3.30520E+01 1.94352E+00-1.16245E+01 1.47254E+00 3.04894E-01
 -1      5270-2.94912E+00-1.06466E+02 1.04351E+00-9.69747E+00 2.39812E+00 2.27190E-01
 -1      5271 3.95621E-01 2.52437E+01 1.76529E+00-7.40190E+00-5.84641E+00 1.19717E+00
 -1      5272-2.27665E-01 7.33596E+00 2.24461E-01-1.08851E+01-1.71539E+00 1.81144E+00
 -1      5273 3.13593E-01-9.04264E+00-5.83059E-01-1.13031E+01 1.92060E+00 1.89009E+00
 -1      5274-1.58756E-01-2.45930E+01-1.68292E+00-8.04548E+00 5.68626E+00 1.34063E+00
 -1      5275 3.45551E-01 2.84628E+01 1.68197E+00-6.90857E+00-5.19512E+00-2.79472E-02
 -1      5276 2.15507E-01 9.20797E+00 5.10355E-01-1.05508E+01-1.57591E+00 1.43395E-01
 -1      5277 5.07404E-02-9.99793E+00-6.90398E-01-1.07864E+01 1.59634E+00 1.89825E-01
 -1      5278-8.71131E-02-2.81545E+01-1.66451E+00-7.30198E+00 5.06029E+00 5.57146E-02
 -1      5279 2.35071E-01 3.29344E+01 1.55065E+00-6.53400E+00-4.45756E+00-3.31142E-01
 -1      5280 1.66498E-01 1.08341E+01 4.84288E-01-1.03002E+01-1.37711E+00-3.52520E-01
 -1      5281 3.69276E-02-1.11557E+01-5.68349E-01-1.04171E+01 1.32657E+00-3.33539E-01
 -1      5282-5.87050E-02-3.27774E+01-1.54802E+00-6.73340E+00 4.34696E+00-2.99491E-01
 -1      5283 9.56104E-02 3.83288E+01 1.16960E+00-6.67731E+00-3.62956E+00-3.01172E-01
 -1      5284 6.23681E-02 1.27123E+01 3.66634E-01-1.04716E+01-1.13773E+00-3.80644E-01
 -1      5285 4.05637E-02-1.28150E+01-3.99049E-01-1.05184E+01 1.06330E+00-3.76059E-01
 -1      5286-5.39222E-03-3.82497E+01-1.16918E+00-6.75506E+00 3.53980E+00-2.94977E-01
 -1      5287 3.15803E-02 4.41754E+01 8.57379E-01-6.71290E+00-3.01221E+00-1.84408E-01
 -1      5288 2.60370E-02 1.47160E+01 2.81774E-01-1.05128E+01-9.44476E-01-2.49460E-01
 -1      5289 1.62785E-02-1.47218E+01-2.77687E-01-1.05271E+01 8.72600E-01-2.49166E-01
 -1      5290 7.06973E-03-4.41278E+01-8.46391E-01-6.73551E+00 2.93745E+00-1.84934E-01
 -1      5291 1.01458E-02 5.01558E+01 6.25834E-01-6.74530E+00-2.58144E+00-7.98920E-02
 -1      5292 7.41567E-03 1.67250E+01 2.15980E-01-1.05527E+01-7.96752E-01-1.12544E-01
 -1      5293 1.04150E-02-1.66915E+01-1.73262E-01-1.05534E+01 7.45329E-01-1.12600E-01
 -1      5294 7.05887E-03-5.01080E+01-5.85782E-01-6.74574E+00 2.52798E+00-8.04528E-02
 -1      5295 7.33463E-03 5.61722E+01 4.79460E-01-6.77507E+00-2.28860E+00-5.49213E-03
 -1      5296 6.39664E-03 1.87338E+01 1.85917E-01-1.05893E+01-6.84423E-01-1.16920E-02
 -1      5297 1.19292E-02-1.86861E+01-8.40321E-02-1.05825E+01 6.77204E-01-1.09889E-02
 -1      5298 9.54036E-03-5.61025E+01-3.80991E-01-6.76381E+00 2.27871E+00-4.34943E-03
 -1      5299 1.51742E-02 6.22012E+01 4.15585E-01-6.80442E+00-2.07616E+00 4.31780E-02
 -1      5300 1.61195E-02 2.07341E+01 1.95497E-01-1.06232E+01-5.85378E-01 5.40418E-02
 -1      5301 2.21741E-02-2.06919E+01 4.98343E-03-1.06062E+01 6.63226E-01 5.57018E-02
 -1      5302 1.72839E-02-6.20936E+01-2.11839E-01-6.77597E+00 2.15331E+00 4.63706E-02
 -1      5303 2.96771E-02 6.82375E+01 4.32087E-01-6.83867E+00-1.89158E+00 7.50729E-02
 -1      5304 3.49387E-02 2.27184E+01 2.50874E-01-1.06569E+01-4.74479E-01 9.60066E-02
 -1      5305 4.08606E-02-2.27158E+01 1.08977E-01-1.06200E+01 7.04826E-01 9.86319E-02
 -1      5306 3.10845E-02-6.80805E+01-5.19065E-02-6.77510E+00 2.12877E+00 8.05446E-02
 -1      5307 4.27741E-02 7.42761E+01 5.31667E-01-6.88039E+00-1.68819E+00 9.74098E-02
 -1      5308 5.60325E-02 2.46778E+01 3.60932E-01-1.06931E+01-3.25632E-01 1.24907E-01
 -1      5309 6.15097E-02-2.47720E+01 2.42941E-01-1.06250E+01 8.10630E-01 1.28685E-01
 -1      5310 4.47128E-02-7.40736E+01 1.22806E-01-6.75844E+00 2.19819E+00 1.05914E-01
 -1      5311 2.57177E-02 8.03025E+01 7.18257E-01-6.91635E+00-1.42502E+00 1.13170E-01
 -1      5312 4.71562E-02 2.66191E+01 5.37138E-01-1.07278E+01-1.14875E-01 1.48148E-01
 -1      5313 5.43888E-02-2.68664E+01 4.20122E-01-1.06343E+01 9.94296E-01 1.54363E-01
 -1      5314 3.01196E-02-8.01089E+01 3.23573E-01-6.73747E+00 2.36722E+00 1.27381E-01
 -1      5315-9.33791E-02 8.62839E+01 9.86814E-01-6.89189E+00-1.07611E+00 1.19442E-01
 -1      5316-9.87690E-02 2.85874E+01 7.80669E-01-1.07253E+01 1.71302E-01 1.71589E-01
 -1      5317-6.24572E-02-2.89215E+01 6.62180E-01-1.06840E+01 1.26873E+00 1.84597E-01
 -1      5318-9.95061E-02-8.62794E+01 5.29202E-01-6.77494E+00 2.64829E+00 1.47754E-01
 -1      5319-5.22092E-01 9.18897E+01 1.19418E+00-7.16061E+00-6.70460E-01 8.79963E-02
 -1      5320-5.94972E-01 3.07263E+01 1.07330E+00-1.11296E+01 5.22219E-01 1.75091E-01
 -1      5321-5.56935E-01-3.07094E+01 9.66150E-01-1.14020E+01 1.63382E+00 2.04039E-01
 -1      5322-4.88725E-01-9.24854E+01 7.66644E-01-7.53768E+00 3.07421E+00 1.49706E-01
 -1      5323-1.33690E+00 9.70174E+01 1.38537E+00-5.99435E+00-2.38074E-01 1.29285E-01
 -1      5324-1.71035E+00 3.33954E+01 1.40382E+00-1.02097E+01 8.68770E-01 2.84708E-01
 -1      5325-1.72196E+00-3.16940E+01 1.26666E+00-1.13484E+01 1.99860E+00 3.53300E-01
 -1      5326-1.39588E+00-9.87107E+01 7.55664E-01-7.92773E+00 3.51854E+00 2.62675E-01
 -1      5327-2.72384E+00 1.01894E+02 1.41573E+00-4.30535E+00 1.49486E-01 1.51053E-01
 -1      5328-3.97495E+00 3.71180E+01 1.65927E+00-9.15001E+00 1.15929E+00 3.90310E-01
 -1      5329-4.09361E+00-3.11412E+01 1.59622E+00-1.20032E+01 2.28806E+00 5.42783E-01
 -1      5330-2.85854E+00-1.04157E+02 8.55993E-01-9.78772E+00 3.91090E+00 4.23772E-01
 -1      5331 4.19994E-01 2.86256E+01 8.31923E-01-8.59550E+00-3.36852E+00 4.74154E-01
 -1      5332-6.91952E-02 8.67685E+00 1.24642E-01-1.27134E+01-1.01430E+00 7.94118E-01
 -1      5333 3.70923E-01-1.03291E+01-3.14125E-01-1.31603E+01 1.02086E+00 8.08981E-01
 -1      5334-3.18356E-02-2.76366E+01-6.90688E-01-9.27180E+00 3.30678E+00 5.05491E-01
 -1      5335 2.14440E-01 3.11602E+01 5.30421E-01-7.97358E+00-3.38340E+00-6.86242E-02
 -1      5336 2.40027E-01 1.01835E+01 2.05364E-01-1.23698E+01-1.01201E+00-6.86093E-05
 -1      5337 1.75947E-01-1.10066E+01-3.34447E-01-1.26460E+01 9.88806E-01 1.52870E-02
 -1      5338 1.41959E-01-3.07441E+01-5.11446E-01-8.43155E+00 3.32119E+00-4.41003E-02
 -1      5339 2.17828E-01 3.53476E+01 6.30440E-01-7.74852E+00-3.13061E+00-2.22273E-01
 -1      5340 1.96447E-01 1.16497E+01 2.04818E-01-1.23007E+01-9.45710E-01-2.56473E-01
 -1      5341 8.11591E-02-1.20043E+01-2.81942E-01-1.24392E+01 8.96689E-01-2.48337E-01
 -1      5342 8.59603E-03-3.51536E+01-6.33100E-01-7.98082E+00 3.06876E+00-2.11392E-01
 -1      5343 1.58009E-01 4.01460E+01 5.75550E-01-7.88400E+00-2.70854E+00-1.88024E-01
 -1      5344 1.04193E-01 1.33127E+01 1.75269E-01-1.24877E+01-8.22976E-01-2.39340E-01
 -1      5345 3.19937E-02-1.34435E+01-2.12591E-01-1.25437E+01 7.62296E-01-2.36893E-01
 -1      5346-4.42257E-02-4.00698E+01-5.77849E-01-7.97561E+00 2.64637E+00-1.85999E-01
 -1      5347 1.00994E-01 4.53464E+01 4.62966E-01-7.97430E+00-2.32322E+00-1.06002E-01
 -1      5348 5.86407E-02 1.50924E+01 1.49730E-01-1.26027E+01-7.02785E-01-1.37866E-01
 -1      5349-1.26377E-03-1.51415E+01-1.56525E-01-1.26191E+01 6.41702E-01-1.37144E-01
 -1      5350-5.17683E-02-4.53368E+01-4.58372E-01-7.99977E+00 2.26270E+00-1.05953E-01
 -1      5351 6.64191E-02 5.08225E+01 3.51946E-01-8.04437E+00-2.02797E+00-3.22265E-02
 -1      5352 3.53183E-02 1.69263E+01 1.22072E-01-1.26917E+01-6.02505E-01-3.81332E-02
 -1      5353-7.80245E-03-1.69609E+01-1.02622E-01-1.26912E+01 5.52527E-01-3.72899E-02
 -1      5354-4.22057E-02-5.08423E+01-3.31216E-01-8.04284E+00 1.97678E+00-3.13834E-02
 -1      5355 5.01498E-02 5.64873E+01 2.71806E-01-8.08827E+00-1.81907E+00 2.02952E-02
 -1      5356 3.08330E-02 1.88108E+01 1.07004E-01-1.27455E+01-5.24133E-01 3.32402E-02
 -1      5357-6.99960E-04-1.88481E+01-5.42766E-02-1.27362E+01 5.01655E-01 3.49258E-02
 -1      5358-2.37944E-02-5.65005E+01-2.19507E-01-8.07297E+00 1.79407E+00 2.29367E-02
 -1      5359 4.95476E-02 6.22870E+01 2.33161E-01-8.11516E+00-1.66671E+00 5.48301E-02
 -1      5360 4.03662E-02 2.07376E+01 1.10969E-01-1.27730E+01-4.55249E-01 7.89592E-02
 -1      5361 1.73953E-02-2.07672E+01-5.99878E-03-1.27531E+01 4.88835E-01 8.17263E-02
 -1      5362-1.41839E-04-6.22447E+01-1.24050E-01-8.08225E+00 1.69865E+00 5.96528E-02
 -1      5363 6.21431E-02 6.81921E+01 2.38731E-01-8.13665E+00-1.53537E+00 7.83484E-02
 -1      5364 6.25848E-02 2.27020E+01 1.39273E-01-1.27862E+01-3.78154E-01 1.08611E-01
 -1      5365 4.55235E-02-2.26950E+01 4.99674E-02-1.27471E+01 5.16125E-01 1.12330E-01
 -1      5366 2.86185E-02-6.80179E+01-3.39226E-02-8.07045E+00 1.67645E+00 8.53467E-02
 -1      5367 8.05073E-02 7.41942E+01 2.91074E-01-8.15975E+00-1.38999E+00 9.65798E-02
 -1      5368 9.05094E-02 2.47086E+01 1.98395E-01-1.27936E+01-2.72763E-01 1.30635E-01
 -1      5369 7.76335E-02-2.46097E+01 1.23243E-01-1.27260E+01 5.90904E-01 1.34656E-01
 -1      5370 5.76325E-02-7.37738E+01 6.38899E-02-8.04048E+00 1.72370E+00 1.05175E-01
 -1      5371 7.67446E-02 8.02947E+01 3.92039E-01-8.17530E+00-1.19630E+00 1.12282E-01
 -1      5372 9.29388E-02 2.67885E+01 2.98570E-01-1.27931E+01-1.18728E-01 1.50329E-01
 -1      5373 8.40974E-02-2.64720E+01 2.25787E-01-1.27039E+01 7.25610E-01 1.53582E-01
 -1      5374 6.23400E-02-7.94823E+01 1.78385E-01-8.00657E+00 1.84734E+00 1.21613E-01
 -1      5375-2.37684E-02 8.64825E+01 5.36255E-01-8.12376E+00-9.27795E-01 1.21492E-01
 -1      5376-2.92154E-02 2.90265E+01 4.49774E-01-1.27398E+01 9.83753E-02 1.70074E-01
 -1      5377-2.00183E-02-2.81650E+01 3.80542E-01-1.27020E+01 9.35053E-01 1.72325E-01
 -1      5378-3.44143E-02-8.51424E+01 3.05549E-01-8.01541E+00 2.06466E+00 1.33115E-01
 -1      5379-4.08413E-01 9.25654E+01 6.49579E-01-8.10688E+00-6.00724E-01 8.63219E-02
 -1      5380-4.93095E-01 3.16161E+01 6.57519E-01-1.27960E+01 3.72016E-01 1.60436E-01
 -1      5381-4.80117E-01-2.94341E+01 6.02675E-01-1.30510E+01 1.22316E+00 1.65718E-01
 -1      5382-3.95004E-01-9.06950E+01 4.54045E-01-8.45046E+00 2.41490E+00 1.13084E-01
 -1      5383-1.23502E+00 9.84186E+01 7.57621E-01-7.11138E+00-2.16283E-01 8.03267E-02
 -1      5384-1.62190E+00 3.49544E+01 9.36736E-01-1.19863E+01 6.63289E-01 2.12077E-01
 -1      5385-1.63033E+00-2.97258E+01 8.91025E-01-1.30731E+01 1.53616E+00 2.46294E-01
 -1      5386-1.29274E+00-9.61305E+01 4.93951E-01-8.89887E+00 2.82899E+00 1.70216E-01
 -1      5387-2.69026E+00 1.04137E+02 7.98070E-01-5.32972E+00 1.56225E-01 7.53380E-02
 -1      5388-3.94679E+00 3.95542E+01 1.19411E+00-1.07223E+01 9.26084E-01 2.88982E-01
 -1      5389-4.07077E+00-2.82971E+01 1.23842E+00-1.35098E+01 1.80196E+00 4.12692E-01
 -1      5390-2.83133E+00-1.00706E+02 6.98727E-01-1.05074E+01 3.22960E+00 3.24691E-01
 -1      5391-8.33033E+00-1.61869E+01-2.01553E+00-1.67700E+01 4.34487E+00 5.79584E+00
 -1      5392-1.08859E+01-4.55252E+00-6.98537E-01-2.10839E+01 1.72237E+00 7.40197E+00
 -1      5393-8.24782E+00 7.61409E+00 2.64117E+00-2.44366E+01-3.10580E-01 7.90572E+00
 -1      5394 7.74756E+00 2.49998E+01 8.89295E+00-2.33323E+01-3.00547E+00 6.43893E+00
 -1      5395-8.27959E+00-1.34184E+01-1.31469E+00-1.47820E+01 1.90739E+00 3.11243E+00
 -1      5396-1.16990E+01-3.39534E+00-2.86293E-01-1.88108E+01 6.74997E-01 4.05002E+00
 -1      5397-1.03460E+01 6.89455E+00 2.85970E+00-2.24590E+01-5.70951E-01 4.30306E+00
 -1      5398 5.46013E+00 2.20730E+01 1.01068E+01-2.22595E+01-1.89547E+00 3.48294E+00
 -1      5399-8.39212E+00-1.17740E+01-7.94612E-01-1.44225E+01 7.48922E-01 1.43321E+00
 -1      5400-1.24160E+01-2.56579E+00-2.91819E-01-1.84548E+01 5.24119E-02 1.82275E+00
 -1      5401-1.20639E+01 6.67082E+00 2.33182E+00-2.20843E+01-7.88995E-01 2.05251E+00
 -1      5402 3.49240E+00 2.07586E+01 8.48087E+00-2.19661E+01-1.89803E+00 1.88305E+00
 -1      5403-5.35608E+00-1.95895E+01-5.56197E+00-1.49538E+01 6.95987E+00 7.62916E+00
 -1      5404-3.75043E+00-6.56759E+00-1.72694E+00-1.83489E+01 2.82858E+00 9.31329E+00
 -1      5405 1.05361E+00 5.61247E+00 2.51180E+00-1.92006E+01-1.14984E+00 9.17963E+00
 -1      5406 1.93346E+00 1.63903E+01 4.72960E+00-1.70894E+01-6.53882E+00 7.26440E+00
 -1      5407-4.95931E+00-1.80827E+01-1.29218E+00-1.42511E+01 3.45578E+00 4.19379E+00
 -1      5408-4.35446E+00-5.91831E+00-8.48758E-02-1.77311E+01 1.33488E+00 5.12154E+00
 -1      5409-3.09822E-01 5.36520E+00 1.94381E+00-1.87683E+01-9.30672E-01 5.09970E+00
 -1      5410 2.87263E-02 1.47716E+01 3.06819E-01-1.68416E+01-3.69644E+00 4.22604E+00
 -1      5411-5.20296E+00-1.65167E+01-8.12591E-02-1.45235E+01 1.27328E+00 1.73506E+00
 -1      5412-5.04448E+00-5.18718E+00 3.93282E-01-1.81243E+01 3.54751E-01 2.31204E+00
 -1      5413-9.06147E-01 5.30144E+00 1.67998E+00-1.93780E+01-6.56053E-01 2.41434E+00
 -1      5414-2.99870E-01 1.36511E+01-4.95962E-01-1.77564E+01-1.83395E+00 1.92788E+00
 -1      5415-3.08110E+00-1.93590E+01-6.39718E+00-1.18886E+01 7.36445E+00 7.01737E+00
 -1      5416-1.05499E+00-7.13044E+00-2.15283E+00-1.46997E+01 2.74910E+00 8.60379E+00
 -1      5417-1.97551E-01 3.54334E+00 8.59897E-01-1.45623E+01-1.58908E+00 8.40474E+00
 -1      5418 2.21327E+00 1.90956E+01 6.16961E+00-1.13484E+01-7.48473E+00 6.73622E+00
 -1      5419-3.09718E+00-2.14140E+01-2.71290E+00-1.20400E+01 5.13772E+00 4.55458E+00
 -1      5420-1.20574E+00-7.73558E+00-6.41531E-01-1.51844E+01 1.90109E+00 5.32322E+00
 -1      5421-5.36599E-01 4.44156E+00 4.61772E-01-1.50154E+01-1.50564E+00 5.25451E+00
 -1      5422 1.84787E+00 2.21691E+01 2.77218E+00-1.15463E+01-5.42639E+00 4.53328E+00
 -1      5423-2.91051E+00-2.09130E+01-1.01498E-02-1.27726E+01 2.09187E+00 1.87597E+00
 -1      5424-1.50165E+00-7.79739E+00 2.03342E-01-1.59022E+01 6.86975E-01 2.31524E+00
 -1      5425-8.91820E-01 4.44370E+00-8.43216E-02-1.57453E+01-8.37139E-01 2.39471E+00
 -1      5426 1.09740E+00 2.14539E+01-2.22685E-01-1.24733E+01-2.30578E+00 2.02841E+00
 -1      5427 1.27407E+00 2.15356E+01-2.28417E-01 1.29772E+01 1.67766E+00 1.46435E+00
 -1      5428 1.37963E+00 2.21030E+01 8.63339E-01 1.18629E+01 4.12445E+00 3.46804E+00
 -1      5429 2.12408E+00 2.13673E+01 4.04648E+00 1.13853E+01 6.69672E+00 5.64157E+00
 -1      5430 1.33747E+00 1.58695E+01 5.82052E+00 1.05324E+01 7.30207E+00 7.45098E+00
 -1      5431 9.74735E-02 1.39554E+01-1.82715E-01 1.81446E+01 1.46113E+00 1.53197E+00
 -1      5432-8.69992E-02 1.45209E+01-1.14717E-01 1.70754E+01 2.75099E+00 3.04690E+00
 -1      5433 6.61346E-01 1.58820E+01 1.24827E+00 1.67743E+01 4.75292E+00 5.29121E+00
 -1      5434 1.91995E+00 1.55658E+01 5.17644E+00 1.67513E+01 7.32822E+00 8.21655E+00
 -1      5435 2.96724E+00 2.04951E+01 7.60366E+00 2.24370E+01 1.95486E+00 1.61572E+00
 -1      5436 4.60985E+00 2.12731E+01 1.00073E+01 2.22670E+01 1.95976E+00 2.64603E+00
 -1      5437 6.15319E+00 2.31963E+01 9.97709E+00 2.26377E+01 1.78428E+00 4.14899E+00
 -1      5438 7.84852E+00 2.51488E+01 8.08162E+00 2.38990E+01 3.52719E+00 6.90093E+00
 -1      5439-7.38423E-01 4.69813E+00-2.33689E-02 1.62345E+01 6.24810E-01 1.81035E+00
 -1      5440-7.49555E-01 4.67225E+00 1.30887E-01 1.51694E+01 1.26041E+00 3.95505E+00
 -1      5441-3.32656E-01 4.33094E+00 6.63426E-01 1.48116E+01 1.71016E+00 6.64130E+00
 -1      5442-4.26615E-01 2.90694E+00 6.42742E-01 1.34134E+01 1.48536E+00 9.24792E+00
 -1      5443-8.66459E-01 5.48032E+00 1.65835E+00 1.98422E+01 5.57962E-01 1.90386E+00
 -1      5444-5.70934E-01 5.45751E+00 1.88050E+00 1.88392E+01 7.94973E-01 3.72985E+00
 -1      5445 1.15284E-01 5.58737E+00 1.98405E+00 1.88345E+01 1.04677E+00 6.39419E+00
 -1      5446 1.05787E+00 5.35960E+00 2.37134E+00 1.88895E+01 1.29583E+00 1.02734E+01
 -1      5447-1.16249E+01 6.99362E+00 2.39919E+00 2.24764E+01 8.13125E-01 1.63526E+00
 -1      5448-1.03676E+01 6.89234E+00 3.02908E+00 2.22736E+01 7.60307E-01 3.17317E+00
 -1      5449-8.85907E+00 7.41540E+00 3.16274E+00 2.30755E+01 3.02057E-01 5.25545E+00
 -1      5450-7.02178E+00 7.91476E+00 2.64759E+00 2.51121E+01 3.20267E-01 8.47538E+00
 -1      5451-1.58486E+00-7.85026E+00 1.84903E-01 1.63602E+01-4.75634E-01 1.72483E+00
 -1      5452-1.29970E+00-7.75857E+00-1.28300E-01 1.53254E+01-1.34210E+00 3.93468E+00
 -1      5453-1.10177E+00-7.51479E+00-1.17704E+00 1.49700E+01-2.41462E+00 6.75429E+00
 -1      5454-6.45687E-01-6.11801E+00-2.11310E+00 1.35492E+01-2.69842E+00 9.43250E+00
 -1      5455-5.04930E+00-5.01751E+00 4.18385E-01 1.85268E+01-2.07966E-01 1.79757E+00
 -1      5456-4.55648E+00-5.64760E+00 1.45003E-01 1.77374E+01-8.22136E-01 3.71241E+00
 -1      5457-3.96732E+00-6.26284E+00-4.99295E-01 1.79055E+01-1.88495E+00 6.44738E+00
 -1      5458-3.33208E+00-6.34134E+00-1.96587E+00 1.81649E+01-3.13822E+00 1.03683E+01
 -1      5459-1.21931E+01-2.23681E+00-2.08584E-01 1.87873E+01 3.73150E-02 1.38613E+00
 -1      5460-1.15872E+01-2.95215E+00-1.03686E-01 1.85850E+01-3.27280E-01 2.93468E+00
 -1      5461-1.09432E+01-3.68777E+00-3.09611E-01 1.95264E+01-1.05120E+00 5.00220E+00
 -1      5462-1.01660E+01-4.76031E+00-6.99483E-01 2.18810E+01-1.99571E+00 7.96731E+00
 -1      5463-3.06399E+00-2.11503E+01-6.42183E-02 1.31882E+01-1.51970E+00 1.32444E+00
 -1      5464-2.90882E+00-2.13400E+01-1.02435E+00 1.22585E+01-3.80280E+00 3.32580E+00
 -1      5465-3.10831E+00-2.09064E+01-4.01735E+00 1.18928E+01-6.42935E+00 5.73993E+00
 -1      5466-2.09269E+00-1.63513E+01-6.17256E+00 1.10040E+01-7.26497E+00 7.71917E+00
 -1      5467-5.29187E+00-1.63479E+01-1.29565E-01 1.48274E+01-9.31197E-01 1.31158E+00
 -1      5468-4.97661E+00-1.74754E+01-6.61860E-01 1.42992E+01-2.32650E+00 2.94049E+00
 -1      5469-4.91905E+00-1.89274E+01-2.24740E+00 1.44826E+01-4.69472E+00 5.33431E+00
 -1      5470-4.93987E+00-1.86495E+01-6.04305E+00 1.48820E+01-7.78714E+00 8.52970E+00
 -1      5471-8.38100E+00-1.14896E+01-7.27213E-01 1.46622E+01-5.96015E-01 1.12239E+00
 -1      5472-8.22598E+00-1.26885E+01-1.20300E+00 1.46043E+01-1.35353E+00 2.26998E+00
 -1      5473-8.19965E+00-1.44823E+01-1.78146E+00 1.54443E+01-2.54747E+00 3.83715E+00
 -1      5474-8.18311E+00-1.68680E+01-2.17102E+00 1.75599E+01-5.02238E+00 6.28243E+00
 -1      5475-8.82887E-01-2.97769E-01-4.60787E-02 1.00090E-01-2.58342E-01 1.69013E-01
 -1      5476-7.86108E-01-7.36283E-01-2.59389E-01-2.04796E-01 5.36610E-01 2.82608E-01
 -1      5477 4.47662E-01-8.93496E-01-2.01398E-01-6.06391E-01 8.98111E-01 5.71764E-02
 -1      5478-1.12518E+00-3.02431E+00-1.21120E+00-6.68915E-01 3.73487E-01-2.37890E-01
 -1      5479-2.58782E+00-1.54107E+00-2.00199E-01 2.65077E+00-3.66239E-01-9.28003E-02
 -1      5480-5.34461E+00-1.99467E-01 2.30313E-01 2.81946E+00 4.72365E-01 1.81836E-01
 -1      5481-5.27476E+00 3.14104E+00 1.69252E+00 5.14468E-01 1.35398E+00 4.96484E-01
 -1      5482 6.89170E+00 8.75980E+00 5.54802E+00-1.51724E+00 1.12469E+00-7.46560E-02
 -1      5483-1.07013E+00-2.70348E-03-3.80363E-02 2.31778E-01-3.95505E-01-7.78325E-03
 -1      5484-1.18692E+00-7.58488E-01 1.49540E-01-6.06296E-02 1.92397E-01 1.19736E-01
 -1      5485 4.26531E-02-8.76567E-01 4.39028E-01-4.32691E-01 4.72087E-01-3.80429E-02
 -1      5486-1.50203E+00-2.60621E+00-1.26823E+00-5.87471E-01-3.62905E-02-9.12260E-02
 -1      5487-2.81437E+00-1.10487E+00 9.81253E-02 2.87095E+00-6.74845E-01 1.39081E-01
 -1      5488-6.04171E+00 1.93612E-01 7.38011E-01 3.06980E+00 1.97125E-02 6.00473E-01
 -1      5489-6.61582E+00 3.31215E+00 2.31074E+00 5.37718E-01 7.32579E-01 6.67204E-01
 -1      5490 5.57561E+00 9.38076E+00 7.20450E+00-1.88277E+00 7.50015E-01 9.99537E-02
 -1      5491-1.21708E+00 2.12978E-01-1.06048E-01 3.89188E-01-4.18368E-01-7.44495E-02
 -1      5492-1.45757E+00-6.06444E-01 3.77492E-01 8.25777E-02-1.19791E-01 7.60430E-02
 -1      5493-3.46352E-01-6.12293E-01 8.17486E-01-2.27373E-01 3.97172E-02 4.14765E-02
 -1      5494-1.86561E+00-2.10656E+00-1.11949E+00-6.62039E-01-2.21205E-01 6.38102E-02
 -1      5495-3.10693E+00-8.31897E-01 4.00852E-02 2.99026E+00-6.84272E-01 1.37145E-01
 -1      5496-6.74408E+00 3.79151E-01 7.40307E-01 3.15881E+00-2.87633E-01 5.27083E-01
 -1      5497-7.73575E+00 3.32382E+00 2.49440E+00 5.90646E-01 2.35626E-02 6.89508E-01
 -1      5498 4.46621E+00 9.42042E+00 7.63573E+00-2.01907E+00-3.92091E-02 3.53325E-01
 -1      5499-1.28949E+00 1.10074E-01-1.94395E-01 5.02531E-01-2.65076E-01-4.03810E-02
 -1      5500-1.56629E+00-5.46860E-01 4.07525E-01 1.94213E-01-1.80021E-01 6.52856E-02
 -1      5501-4.81612E-01-2.95672E-01 9.07360E-01-1.34210E-01-1.35206E-01 1.45406E-01
 -1      5502-1.76738E+00-1.54354E+00-6.15192E-01-8.61590E-01-1.73861E-01 1.29259E-01
 -1      5503-3.23854E+00-8.40265E-01-1.14889E-01 3.25374E+00-4.02515E-01-2.29794E-02
 -1      5504-7.31612E+00 5.25731E-01 4.72289E-01 3.52950E+00-2.55759E-01 2.01008E-01
 -1      5505-8.82287E+00 3.73969E+00 2.21144E+00 9.26986E-01-2.76551E-01 4.75896E-01
 -1      5506 3.17477E+00 9.82111E+00 6.17255E+00-1.82665E+00-4.46061E-01 5.20381E-01
 -1      5507 1.26279E+00 2.15253E+01-2.42754E-01-1.29433E+01 1.69445E+00-1.48098E+00
 -1      5508-7.67688E-01 4.48651E+00-4.14119E-02-1.62643E+01 6.50533E-01-1.82228E+00
 -1      5509-1.58985E+00-7.96705E+00 2.02538E-01-1.64173E+01-4.64608E-01-1.72720E+00
 -1      5510-3.09509E+00-2.12588E+01-5.84424E-02-1.32271E+01-1.51512E+00-1.32445E+00
 -1      5511-4.00415E-02 1.36580E+01-2.77152E-01-1.82285E+01 1.48631E+00-1.54856E+00
 -1      5512-8.80671E-01 5.34582E+00 1.70299E+00-1.98923E+01 5.70394E-01-1.91505E+00
 -1      5513-5.15976E+00-5.09481E+00 4.34937E-01-1.85676E+01-2.04218E-01-1.79666E+00
 -1      5514-5.36726E+00-1.64511E+01-1.21453E-01-1.48452E+01-9.18467E-01-1.30728E+00
 -1      5515 3.17593E+00 2.07984E+01 7.97894E+00-2.22407E+01 1.92678E+00-1.65329E+00
 -1      5516-1.22438E+01 6.86977E+00 2.33875E+00-2.23996E+01 7.62903E-01-1.64418E+00
 -1      5517-1.25240E+01-2.35577E+00-2.78014E-01-1.87479E+01 2.01936E-02-1.39552E+00
 -1      5518-8.46658E+00-1.15370E+01-7.06280E-01-1.46211E+01-5.70729E-01-1.12950E+00
 -1      5519 1.36518E+00 2.20805E+01 8.52251E-01-1.18340E+01 4.14080E+00-3.49912E+00
 -1      5520-7.87461E-01 4.44595E+00 1.10559E-01-1.52257E+01 1.27321E+00-3.98678E+00
 -1      5521-1.31785E+00-7.86283E+00-1.10333E-01-1.54069E+01-1.33910E+00-3.96142E+00
 -1      5522-2.94846E+00-2.14193E+01-1.01921E+00-1.23038E+01-3.80594E+00-3.34302E+00
 -1      5523-2.16098E-01 1.42132E+01-2.01438E-01-1.71665E+01 2.77330E+00-3.06945E+00
 -1      5524-5.69714E-01 5.32668E+00 1.94509E+00-1.89359E+01 8.07701E-01-3.75783E+00
 -1      5525-4.66980E+00-5.70117E+00 1.71836E-01-1.78152E+01-8.16211E-01-3.73522E+00
 -1      5526-5.06647E+00-1.75598E+01-6.55216E-01-1.43333E+01-2.31492E+00-2.95288E+00
 -1      5527 4.86687E+00 2.14840E+01 1.02643E+01-2.21932E+01 1.96830E+00-2.69509E+00
 -1      5528-1.09984E+01 6.73724E+00 2.87054E+00-2.22552E+01 7.47016E-01-3.21264E+00
 -1      5529-1.19782E+01-3.07717E+00-2.09504E-01-1.85649E+01-3.31117E-01-2.97585E+00
 -1      5530-8.34271E+00-1.27384E+01-1.16316E+00-1.45683E+01-1.32262E+00-2.29590E+00
 -1      5531 2.11774E+00 2.13511E+01 4.05315E+00-1.13772E+01 6.72976E+00-5.68168E+00
 -1      5532-3.68583E-01 4.12186E+00 6.32737E-01-1.48859E+01 1.70333E+00-6.70681E+00
 -1      5533-1.12196E+00-7.59823E+00-1.17820E+00-1.50639E+01-2.43110E+00-6.82325E+00
 -1      5534-3.14537E+00-2.09624E+01-4.02526E+00-1.19395E+01-6.45773E+00-5.78906E+00
 -1      5535 5.48478E-01 1.55845E+01 1.16579E+00-1.68802E+01 4.76538E+00-5.32067E+00
 -1      5536 1.28166E-01 5.45757E+00 2.04798E+00-1.89607E+01 1.03806E+00-6.44474E+00
 -1      5537-4.08046E+00-6.29995E+00-4.77895E-01-1.80057E+01-1.89056E+00-6.49887E+00
 -1      5538-5.01927E+00-1.89961E+01-2.26458E+00-1.45244E+01-4.70132E+00-5.36516E+00
 -1      5539 6.49291E+00 2.34189E+01 1.02652E+01-2.26189E+01 1.82045E+00-4.20846E+00
 -1      5540-9.46728E+00 7.26772E+00 3.04140E+00-2.30941E+01 3.27031E-01-5.34382E+00
 -1      5541-1.13574E+01-3.80132E+00-3.98131E-01-1.95241E+01-1.04004E+00-5.07543E+00
 -1      5542-8.33795E+00-1.45184E+01-1.73112E+00-1.54118E+01-2.53718E+00-3.88205E+00
 -1      5543 1.33612E+00 1.58690E+01 5.89207E+00-1.05511E+01 7.36109E+00-7.50858E+00
 -1      5544-4.64180E-01 2.75952E+00 6.22169E-01-1.35216E+01 1.47864E+00-9.33877E+00
 -1      5545-6.53518E-01-6.16136E+00-2.13835E+00-1.36568E+01-2.74311E+00-9.54012E+00
 -1      5546-2.13820E+00-1.64085E+01-6.23607E+00-1.10664E+01-7.31702E+00-7.79980E+00
 -1      5547 1.83967E+00 1.52960E+01 5.11817E+00-1.68958E+01 7.34567E+00-8.25345E+00
 -1      5548 1.09134E+00 5.24523E+00 2.39959E+00-1.90365E+01 1.26180E+00-1.03774E+01
 -1      5549-3.43022E+00-6.36463E+00-1.97057E+00-1.82765E+01-3.16535E+00-1.04788E+01
 -1      5550-5.03627E+00-1.87045E+01-6.08530E+00-1.49293E+01-7.82234E+00-8.60153E+00
 -1      5551 8.32894E+00 2.54691E+01 8.46873E+00-2.38820E+01 3.52910E+00-6.97931E+00
 -1      5552-7.57922E+00 7.82408E+00 2.66196E+00-2.51662E+01 3.28853E-01-8.55898E+00
 -1      5553-1.05946E+01-4.84471E+00-7.58574E-01-2.19072E+01-1.98410E+00-8.00597E+00
 -1      5554-8.36473E+00-1.68856E+01-2.18923E+00-1.75384E+01-5.02690E+00-6.29113E+00
 -1      5555-8.24560E-01 6.09638E-01 3.87155E-03-5.40688E-02 1.88000E-01-5.08712E-02
 -1      5556-6.88226E-01 6.02239E-01 1.39444E-01 3.59968E-02 3.01920E-01 1.16675E-02
 -1      5557-4.61205E-01 2.84322E-01 1.64213E-01 1.56728E-01 2.42462E-01 1.39961E-01
 -1      5558-2.20731E+00-2.04053E-01-2.45034E-01-1.22550E+00 3.41417E-01-2.43434E-02
 -1      5559-1.94652E+00-2.47311E-01-1.62016E-01-1.03623E+00 4.51125E-01-2.33907E-02
 -1      5560-1.68435E+00-6.78339E-01-2.04305E-01-7.80276E-01 2.96781E-01 9.97331E-02
 -1      5561-4.24469E+00-1.50749E+00-8.74188E-02-4.37911E+00 5.24800E-01 1.57322E-02
 -1      5562-4.03074E+00-1.68717E+00 4.93733E-02-4.18388E+00 7.60728E-01 2.58798E-01
 -1      5563-3.61980E+00-2.30677E+00-1.41838E-01-4.20306E+00 4.80573E-01-9.26090E-03
 -1      5564-1.07187E+00-1.09445E+00 1.85068E-01 1.76649E-01 1.31810E-01 1.34666E-02
 -1      5565-8.18202E-01-1.10662E+00 9.73346E-02 2.60587E-01-8.36624E-02 8.14148E-02
 -1      5566-5.59601E-01-1.24733E+00-3.75856E-01 4.00709E-01-4.47041E-01 1.90987E-01
 -1      5567-3.51680E+00-3.54447E-01 5.09989E-01-9.06516E-01 2.20949E-01 1.52439E-01
 -1      5568-2.96302E+00-6.01564E-01 4.63413E-01-7.43367E-01 2.00102E-02 2.10026E-01
 -1      5569-2.16972E+00-8.85682E-01 6.65830E-02-4.92374E-01-5.42430E-01 2.70839E-01
 -1      5570-1.00891E+01 3.53944E-01 2.13788E-01-4.88519E+00 3.69680E-01 2.48119E-01
 -1      5571-9.33487E+00 6.22090E-02 5.01539E-01-4.57865E+00 2.56121E-01 7.64292E-01
 -1      5572-8.44302E+00-4.78855E-01 1.97766E-01-4.74558E+00-2.13544E-01 4.39172E-01
 -1      5573-1.28467E+00-2.15899E+00-5.94442E-02 2.02581E-03 9.16901E-02 8.53793E-02
 -1      5574-9.35888E-01-2.20986E+00-2.48183E-01 1.00843E-01-2.31356E-01 5.06930E-03
 -1      5575-7.33280E-01-2.46901E+00-8.90965E-01 2.86728E-01-6.86010E-01-5.09199E-03
 -1      5576-2.36786E+00 5.27151E-01 1.51184E+00 3.04403E-01 1.37243E-01 2.62100E-01
 -1      5577-1.70849E+00 1.46560E-02 1.38468E+00 2.94432E-01-3.26190E-01 1.48792E-01
 -1      5578-6.27211E-01-2.20782E-01 7.03699E-01 4.34476E-01-1.08266E+00 1.02109E-01
 -1      5579-1.41298E+01 3.88192E+00 1.82680E+00-1.37790E+00 4.13004E-01 4.87063E-01
 -1      5580-1.25449E+01 3.48984E+00 2.07069E+00-1.01233E+00-3.04066E-01 9.49929E-01
 -1      5581-1.08227E+01 3.48614E+00 1.72992E+00-1.32308E+00-1.19126E+00 8.84123E-01
 -1      5582-9.25677E-01 1.48250E-01-2.08171E-01-3.45799E-01 1.00737E-01 1.01553E-01
 -1      5583-5.33039E-01 1.42213E-01-3.84222E-02-4.45208E-01 9.94153E-02 9.62554E-04
 -1      5584-4.85120E-01-8.38617E-01-4.23580E-01-3.73828E-01-8.23626E-02-1.38967E-01
 -1      5585-3.19601E+00-2.21568E+00-3.66364E-01 1.94710E+00 2.75849E-01 1.61066E-01
 -1      5586-2.92976E+00-2.88211E+00-8.43256E-01 1.54671E+00-9.94085E-03-8.72914E-03
 -1      5587-1.80917E+00-2.89983E+00-6.89355E-01 1.38975E+00-6.10090E-01-2.40267E-01
 -1      5588-7.73904E-01 1.05438E+01 7.43424E+00 3.03715E+00 5.75200E-01 5.98104E-01
 -1      5589 1.13691E+00 1.03845E+01 8.51813E+00 3.21973E+00-4.98605E-01 4.90849E-01
 -1      5590 2.91288E+00 1.04844E+01 6.89986E+00 2.52951E+00-1.46882E+00 3.64030E-01
 -1      5591 1.01104E-01 1.55495E-01 1.62867E-01 2.01255E-01 7.71207E-02 1.02311E-01
 -1      5592 9.53532E-02-4.28129E-01-1.04504E-01 1.83551E-01-1.18602E-01 5.93369E-02
 -1      5593 8.15632E-02-5.61988E-01-2.05629E-01-4.36428E-02-1.49860E-01-6.58965E-02
 -1      5594 1.08037E-01-3.40032E-02-5.01767E-02-1.47536E-01 3.54994E-02-1.25240E-01
 -1      5595 1.21555E-01 3.52409E-01 1.42094E-01 2.98644E-01 1.06214E-01 5.01093E-02
 -1      5596 8.65459E-02-7.04497E-01-8.65728E-02 2.46050E-01-5.95919E-02 1.67312E-02
 -1      5597 5.06383E-02-9.04621E-01-1.91543E-01-1.30583E-01-8.43239E-02-5.72169E-02
 -1      5598 1.33651E-01 2.02840E-01-2.32705E-02-2.87125E-01 7.48656E-02-8.59411E-02
 -1      5599 1.90976E-01 4.34884E-01 1.19929E-01 2.82053E-01 5.97115E-02-6.53178E-04
 -1      5600 1.88513E-01-7.09152E-01-4.38636E-02 1.93217E-01 2.37161E-02-1.65663E-02
 -1      5601 1.65186E-01-8.14702E-01-1.11009E-01-2.21105E-01 1.33431E-02-3.34715E-02
 -1      5602 2.24407E-01 5.28129E-01 4.50048E-02-3.46222E-01 4.18180E-02-3.50153E-02
 -1      5603 7.85501E-02 4.56149E-02 1.00862E-01 1.29027E-01 5.78566E-02 2.69619E-02
 -1      5604 9.81282E-02-2.14510E-01-1.61755E-02 1.04044E-01-1.85102E-02 4.55072E-03
 -1      5605 9.49745E-02-2.59660E-01-6.30151E-02-1.91686E-02-2.19539E-02-3.92625E-02
 -1      5606 8.15345E-02-4.59657E-02-2.53724E-02-7.98604E-02 5.74512E-02-5.12810E-02
 -1      5607 1.21073E-01 1.41326E-01 7.54950E-02 1.71954E-01 6.43737E-02 1.46634E-02
 -1      5608 1.30526E-01-3.17991E-01-3.51309E-02 1.18205E-01 7.83188E-03-9.80670E-03
 -1      5609 1.24079E-01-3.56823E-01-7.42425E-02-7.66818E-02 9.86258E-03-4.80328E-02
 -1      5610 1.22054E-01 9.89103E-02-1.72322E-02-1.54268E-01 7.18187E-02-5.41846E-02
 -1      5611 1.70271E-01 1.57528E-01 4.57125E-02 1.77405E-01 3.42823E-02-5.34232E-03
 -1      5612 2.02259E-01-3.51463E-01-3.55313E-02 9.37827E-02 2.07938E-02-2.01092E-02
 -1      5613 1.96047E-01-3.50723E-01-5.89663E-02-1.45765E-01 2.49530E-02-3.50217E-02
 -1      5614 1.73012E-01 2.22741E-01-2.04669E-03-2.19375E-01 4.28678E-02-2.97979E-02
 -1      5615 4.56368E-02 2.04719E-02 7.81018E-02 6.61237E-02 3.45386E-02-5.01883E-04
 -1      5616 5.97249E-02-9.40773E-02 2.48825E-02 5.65051E-02 1.53077E-02-1.06606E-02
 -1      5617 5.95571E-02-1.12225E-01-2.82113E-03-1.37341E-03 1.84528E-02-2.31239E-02
 -1      5618 4.61801E-02-2.62799E-02-8.74448E-03-3.07052E-02 4.17535E-02-2.12354E-02
 -1      5619 7.05692E-02 6.10018E-02 5.48164E-02 7.74962E-02 3.93423E-02-6.74631E-03
 -1      5620 8.16971E-02-1.18127E-01 2.94800E-03 5.15301E-02 2.48128E-02-2.02015E-02
 -1      5621 8.06638E-02-1.25585E-01-1.73138E-02-3.31154E-02 3.06742E-02-3.24961E-02
 -1      5622 7.03436E-02 4.68881E-02-5.55327E-03-6.56643E-02 5.24883E-02-2.66543E-02
 -1      5623 9.83634E-02 6.45707E-02 2.87427E-02 7.55609E-02 2.11268E-02-9.25414E-03
 -1      5624 1.18734E-01-1.39408E-01-1.36156E-02 3.17867E-02 2.10471E-02-1.92826E-02
 -1      5625 1.16310E-01-1.26592E-01-2.48017E-02-7.56688E-02 2.71275E-02-2.59668E-02
 -1      5626 9.65745E-02 1.04915E-01-1.75958E-03-1.03076E-01 3.41843E-02-1.84945E-02
 -1      5627 2.12113E-02 8.31549E-03 7.94158E-02 2.66746E-02 1.64129E-02-8.37936E-03
 -1      5628 2.62527E-02-3.53767E-02 5.17637E-02 2.54724E-02 1.38103E-02-1.47336E-02
 -1      5629 2.56639E-02-4.31001E-02 3.23224E-02 4.14893E-03 1.63841E-02-1.72442E-02
 -1      5630 2.03552E-02-1.21193E-02 1.46961E-02-7.88622E-03 2.21782E-02-1.20827E-02
 -1      5631 3.29378E-02 2.38089E-02 5.47269E-02 2.64117E-02 1.87605E-02-1.39807E-02
 -1      5632 3.72535E-02-3.58612E-02 2.99527E-02 1.87627E-02 1.86010E-02-2.35064E-02
 -1      5633 3.70359E-02-3.75308E-02 1.65433E-02-1.00725E-02 2.31911E-02-2.60059E-02
 -1      5634 3.21071E-02 1.83112E-02 1.07903E-02-2.02636E-02 2.88805E-02-1.72592E-02
 -1      5635 4.68195E-02 2.50336E-02 2.79628E-02 2.27260E-02 1.05512E-02-1.14270E-02
 -1      5636 5.45048E-02-4.16140E-02 7.57428E-03 6.63250E-03 1.33099E-02-1.91711E-02
 -1      5637 5.36140E-02-3.37322E-02 9.24303E-04-3.02983E-02 1.76285E-02-2.08078E-02
 -1      5638 4.53871E-02 4.38610E-02 7.11858E-03-3.64004E-02 2.00197E-02-1.30369E-02
 -1      5639 1.06107E-01-2.86565E-02-4.65580E-02 1.46645E-01 4.61447E-02 1.27669E-01
 -1      5640 7.97373E-02-5.42694E-01-2.11024E-01 5.20009E-02-1.38678E-01 7.56142E-02
 -1      5641 9.90161E-02-4.25795E-01-1.11248E-01-1.63111E-01-1.17083E-01-4.32067E-02
 -1      5642 1.06590E-01 1.37542E-01 1.57280E-01-1.87613E-01 6.64207E-02-8.89629E-02
 -1      5643 1.25445E-01 2.12169E-01-1.89463E-02 2.83278E-01 8.79175E-02 8.82377E-02
 -1      5644 4.77314E-02-8.57764E-01-1.80424E-01 1.42284E-01-7.51422E-02 6.17803E-02
 -1      5645 7.99173E-02-6.90670E-01-8.90079E-02-2.18102E-01-5.89692E-02-9.32863E-03
 -1      5646 1.16330E-01 3.17942E-01 1.26796E-01-2.77007E-01 9.58096E-02-4.42224E-02
 -1      5647 2.12723E-01 5.45634E-01 4.82322E-02 3.37873E-01 5.23996E-02 3.58612E-02
 -1      5648 1.56891E-01-7.57279E-01-1.01452E-01 2.26089E-01 1.79308E-02 3.48287E-02
 -1      5649 1.77841E-01-6.86855E-01-4.34835E-02-1.69945E-01 2.24811E-02 1.78311E-02
 -1      5650 1.81650E-01 3.98050E-01 1.08190E-01-2.62538E-01 5.21228E-02 1.80469E-03
 -1      5651 8.04588E-02-4.25213E-02-2.46435E-02 7.96409E-02 6.73938E-02 5.52976E-02
 -1      5652 9.59363E-02-2.46602E-01-6.07596E-02 2.47402E-02-1.55401E-02 4.75810E-02
 -1      5653 9.73602E-02-2.12286E-01-1.66510E-02-9.47729E-02-1.77474E-02 7.48547E-03
 -1      5654 7.82371E-02 3.42365E-02 9.95505E-02-1.21172E-01 5.11329E-02-1.79062E-02
 -1      5655 1.16709E-01 1.05864E-01-1.55968E-02 1.53513E-01 8.23796E-02 5.75276E-02
 -1      5656 1.18680E-01-3.39161E-01-7.19711E-02 8.30115E-02 1.53997E-02 5.33028E-02
 -1      5657 1.25267E-01-3.10794E-01-3.48035E-02-1.03786E-01 8.03784E-03 1.56648E-02
 -1      5658 1.17267E-01 1.27187E-01 7.15162E-02-1.59221E-01 5.94861E-02-1.05073E-02
 -1      5659 1.65889E-01 2.35576E-01 5.19869E-05 2.16565E-01 5.02770E-02 3.11935E-02
 -1      5660 1.88212E-01-3.25976E-01-5.48610E-02 1.49577E-01 2.82003E-02 3.67788E-02
 -1      5661 1.93491E-01-3.40073E-01-3.45045E-02-8.06332E-02 2.08051E-02 2.18256E-02
 -1      5662 1.63156E-01 1.41659E-01 4.12710E-02-1.64796E-01 3.12108E-02 6.51991E-03
 -1      5663 4.54523E-02-2.55311E-02-6.99006E-03 3.08941E-02 5.03810E-02 2.56337E-02
 -1      5664 5.88323E-02-1.08868E-01-2.12866E-04 3.53444E-03 2.32095E-02 3.05372E-02
 -1      5665 5.88859E-02-9.35063E-02 2.78175E-02-5.22139E-02 1.52910E-02 1.88387E-02
 -1      5666 4.46983E-02 1.48234E-02 8.06106E-02-6.22486E-02 3.01807E-02 6.09139E-03
 -1      5667 6.77222E-02 5.11789E-02-3.60379E-03 6.65239E-02 6.08549E-02 2.99453E-02
 -1      5668 7.77956E-02-1.18014E-01-1.46610E-02 3.73017E-02 3.47784E-02 3.74934E-02
 -1      5669 7.86163E-02-1.15514E-01 5.14941E-03-4.40399E-02 2.54505E-02 2.52659E-02
 -1      5670 6.81762E-02 5.39424E-02 5.52712E-02-7.09297E-02 3.71407E-02 9.94050E-03
 -1      5671 9.30848E-02 1.12471E-01-4.94858E-05 1.03201E-01 3.95078E-02 1.99958E-02
 -1      5672 1.11865E-01-1.16360E-01-2.25932E-02 7.89393E-02 2.95931E-02 2.79847E-02
 -1      5673 1.14041E-01-1.34524E-01-1.19935E-02-2.45314E-02 2.16560E-02 2.11104E-02
 -1      5674 9.44602E-02 5.77065E-02 2.80480E-02-6.88638E-02 2.02945E-02 1.02939E-02
 -1      5675 1.96904E-02-1.22052E-02 1.88320E-02 7.99593E-03 2.73428E-02 1.68772E-02
 -1      5676 2.48974E-02-4.23488E-02 3.73160E-02-3.21776E-03 1.88200E-02 2.45949E-02
 -1      5677 2.53237E-02-3.56663E-02 5.74323E-02-2.37307E-02 1.36712E-02 2.19552E-02
 -1      5678 2.03166E-02 5.81010E-03 8.52912E-02-2.50962E-02 1.42668E-02 1.28400E-02
 -1      5679 3.10574E-02 2.03984E-02 1.39843E-02 2.11443E-02 3.37263E-02 2.09118E-02
 -1      5680 3.57115E-02-3.48919E-02 2.01641E-02 1.23941E-02 2.56315E-02 3.14732E-02
 -1      5681 3.56890E-02-3.52330E-02 3.39392E-02-1.53023E-02 1.91457E-02 2.86455E-02
 -1      5682 3.15130E-02 2.07130E-02 5.81166E-02-2.36327E-02 1.79776E-02 1.70380E-02
 -1      5683 4.40659E-02 4.75753E-02 9.09878E-03 3.71676E-02 2.28691E-02 1.48271E-02
 -1      5684 5.17280E-02-2.97714E-02 3.12422E-03 3.24280E-02 1.90208E-02 2.34470E-02
 -1      5685 5.24007E-02-3.98831E-02 9.85248E-03-3.21402E-03 1.38516E-02 2.15581E-02
 -1      5686 4.49606E-02 2.24359E-02 2.93116E-02-1.99080E-02 1.05371E-02 1.27458E-02
 -1      5687-4.17650E+00-1.43967E+00-7.10562E-03 4.25509E+00 5.47858E-01-4.85581E-02
 -1      5688-3.93634E+00-1.60647E+00 1.84868E-01 4.09300E+00 7.65891E-01-3.24112E-01
 -1      5689-3.54867E+00-2.30439E+00-1.25547E-01 4.14985E+00 4.68495E-01-1.74300E-02
 -1      5690-2.14276E+00-2.41038E-01-2.21713E-01 1.18064E+00 3.36361E-01 5.17171E-03
 -1      5691-1.88491E+00-3.12359E-01-1.62550E-01 1.02094E+00 4.31074E-01 8.99344E-03
 -1      5692-1.62287E+00-7.63443E-01-2.14049E-01 8.06515E-01 2.52559E-01-9.25767E-02
 -1      5693-8.03280E-01 5.34069E-01-5.73476E-03 5.81525E-02 1.72829E-01 4.20286E-02
 -1      5694-6.63179E-01 5.24309E-01 1.19107E-01-1.41868E-02 2.78454E-01-1.19012E-02
 -1      5695-4.54058E-01 1.95831E-01 1.16284E-01-1.32237E-01 2.15819E-01-1.24814E-01
 -1      5696-9.76446E+00 4.49758E-01 3.20044E-01 4.67655E+00 4.11647E-01-2.98402E-01
 -1      5697-8.98019E+00 1.75600E-01 6.54333E-01 4.41814E+00 2.74849E-01-8.47086E-01
 -1      5698-8.13211E+00-4.22540E-01 2.62391E-01 4.66476E+00-2.21999E-01-4.72466E-01
 -1      5699-3.40746E+00-3.36492E-01 5.07414E-01 8.78339E-01 2.30901E-01-1.78236E-01
 -1      5700-2.87252E+00-6.09305E-01 4.50349E-01 7.62074E-01 2.81827E-02-2.27509E-01
 -1      5701-2.09709E+00-9.07284E-01 6.39478E-02 5.73604E-01-5.36664E-01-2.52853E-01
 -1      5702-1.05497E+00-1.06467E+00 1.74937E-01-1.44002E-01 1.29355E-01-2.42085E-02
 -1      5703-7.99923E-01-1.08658E+00 9.07046E-02-1.95788E-01-7.96759E-02-7.93703E-02
 -1      5704-5.63267E-01-1.27099E+00-3.91117E-01-3.36338E-01-4.32217E-01-1.64763E-01
 -1      5705-1.34855E+01 3.91012E+00 1.86593E+00 1.15377E+00 4.58399E-01-5.43954E-01
 -1      5706-1.19529E+01 3.53582E+00 2.16709E+00 8.62476E-01-2.82734E-01-1.02061E+00
 -1      5707-1.03249E+01 3.50309E+00 1.75697E+00 1.22918E+00-1.18722E+00-8.73861E-01
 -1      5708-2.35045E+00 5.98260E-01 1.44810E+00-3.11334E-01 1.47561E-01-2.82364E-01
 -1      5709-1.72769E+00 6.29854E-02 1.31511E+00-2.51151E-01-2.98553E-01-1.67106E-01
 -1      5710-6.78122E-01-1.79120E-01 6.76906E-01-3.32753E-01-1.03076E+00-9.19803E-02
 -1      5711-1.25039E+00-1.97747E+00-3.96495E-02 1.30467E-02 8.91007E-02-9.23401E-02
 -1      5712-9.12254E-01-2.03739E+00-2.15051E-01-5.30319E-02-2.10344E-01-6.30860E-03
 -1      5713-7.01181E-01-2.32450E+00-8.34423E-01-2.19919E-01-6.50819E-01 1.39816E-02
 -1      5714-1.00104E+00 1.01222E+01 6.95638E+00-3.26331E+00 5.71542E-01-6.17018E-01
 -1      5715 8.23464E-01 1.00421E+01 8.09260E+00-3.30877E+00-5.06888E-01-5.32445E-01
 -1      5716 2.46856E+00 1.00354E+01 6.53791E+00-2.64296E+00-1.41224E+00-2.97822E-01
 -1      5717-3.04073E+00-1.86863E+00-2.94402E-01-1.90105E+00 2.60347E-01-1.74571E-01
 -1      5718-2.80163E+00-2.54233E+00-7.48860E-01-1.48967E+00 1.13374E-02-1.21685E-02
 -1      5719-1.72022E+00-2.61477E+00-5.90386E-01-1.27642E+00-5.53435E-01 2.03310E-01
 -1      5720-9.00330E-01 2.40606E-01-1.85930E-01 2.96765E-01 1.07935E-01-1.02533E-01
 -1      5721-5.20186E-01 2.22215E-01-9.25639E-03 4.19911E-01 1.24696E-01-8.51995E-03
 -1      5722-4.66561E-01-7.61590E-01-3.86157E-01 3.55388E-01-5.78594E-02 1.34886E-01
 -1      5723 2.35727E-01 4.36572E-01 1.12763E-01-3.05447E-01-4.71882E-02-2.31007E-02
 -1      5724 2.54883E-01-7.63389E-01-5.11983E-02-2.05486E-01-4.16395E-02-3.47487E-02
 -1      5725 2.28502E-01-8.78049E-01-1.40355E-01 2.70076E-01-2.61467E-02-3.22515E-02
 -1      5726 2.70161E-01 5.62173E-01 5.22035E-03 3.98460E-01-7.10001E-03-2.27736E-02
 -1      5727 1.95398E-01 1.50061E-01 3.85955E-02-1.89788E-01-2.75646E-02-1.51733E-02
 -1      5728 2.40875E-01-3.86526E-01-4.62182E-02-9.04062E-02-2.60563E-02-2.91632E-02
 -1      5729 2.32974E-01-3.74128E-01-7.05775E-02 1.74539E-01-3.07769E-02-3.78755E-02
 -1      5730 2.00327E-01 2.51409E-01-1.06747E-02 2.53341E-01-3.42399E-02-2.77074E-02
 -1      5731 1.10262E-01 6.11755E-02 2.37109E-02-7.86555E-02-1.84509E-02-1.24296E-02
 -1      5732 1.35527E-01-1.54106E-01-1.96350E-02-2.72373E-02-2.28080E-02-2.29999E-02
 -1      5733 1.33330E-01-1.32484E-01-2.90186E-02 9.27870E-02-3.00230E-02-2.78859E-02
 -1      5734 1.09229E-01 1.21483E-01-3.02068E-03 1.18956E-01-3.31738E-02-1.88324E-02
 -1      5735 5.05792E-02 2.38277E-02 2.45466E-02-2.22883E-02-9.88140E-03-1.19770E-02
 -1      5736 5.99026E-02-4.59575E-02 3.71276E-03-2.87740E-03-1.39772E-02-2.01625E-02
 -1      5737 5.96418E-02-3.41015E-02-1.10193E-03 3.75968E-02-1.90433E-02-2.17316E-02
 -1      5738 5.05450E-02 5.16899E-02 8.13486E-03 4.24856E-02-2.06812E-02-1.37523E-02
 -1      5739 1.66711E-01 4.66928E-01 1.51098E-01-3.33037E-01-1.05999E-01 4.03998E-03
 -1      5740 1.57605E-01-7.32823E-01-7.11045E-02-2.77073E-01-9.64048E-03-2.07444E-02
 -1      5741 1.25981E-01-9.32487E-01-1.89549E-01 1.59757E-01 1.22856E-02-4.90832E-02
 -1      5742 2.12839E-01 4.10770E-01-1.44113E-02 3.29964E-01-7.28956E-02-5.72185E-02
 -1      5743 1.53982E-01 1.83286E-01 6.50812E-02-2.00414E-01-6.22997E-02-4.71081E-03
 -1      5744 1.77298E-01-3.41025E-01-3.74397E-02-1.32289E-01-2.81559E-02-2.56350E-02
 -1      5745 1.70836E-01-3.72599E-01-7.41076E-02 9.82133E-02-3.31792E-02-4.83069E-02
 -1      5746 1.60696E-01 1.68850E-01-2.26449E-02 1.87163E-01-7.07182E-02-4.43585E-02
 -1      5747 8.80228E-02 7.85177E-02 4.76534E-02-8.65809E-02-3.86433E-02-1.28811E-02
 -1      5748 1.02584E-01-1.30052E-01-4.63790E-03-5.38185E-02-3.21387E-02-2.65733E-02
 -1      5749 1.01232E-01-1.33554E-01-2.23854E-02 4.55176E-02-3.94473E-02-3.55534E-02
 -1      5750 8.74107E-02 7.32660E-02-6.76227E-03 7.95262E-02-5.31082E-02-2.66512E-02
 -1      5751 4.01192E-02 2.97112E-02 4.90562E-02-2.77559E-02-1.93057E-02-1.67212E-02
 -1      5752 4.50365E-02-3.82738E-02 2.39366E-02-1.75139E-02-2.14030E-02-2.71601E-02
 -1      5753 4.46430E-02-3.80066E-02 1.29756E-02 1.52354E-02-2.70368E-02-2.91810E-02
 -1      5754 3.85474E-02 2.76082E-02 1.11369E-02 2.49379E-02-3.11258E-02-1.90761E-02
 -1      5755 1.32986E-01 3.36212E-01 1.71282E-01-3.41208E-01-1.24979E-01 8.03914E-02
 -1      5756 1.26989E-01-6.82661E-01-8.75163E-02-3.22631E-01 8.26245E-02 4.21498E-02
 -1      5757 7.40412E-02-9.77974E-01-2.29283E-01 6.65537E-02 1.16812E-01-5.23822E-02
 -1      5758 1.35459E-01 1.00802E-02-8.53237E-02 2.64889E-01-8.76430E-02-1.04660E-01
 -1      5759 1.19068E-01 1.31880E-01 9.75332E-02-1.89871E-01-8.20697E-02 2.63652E-02
 -1      5760 1.28798E-01-3.20396E-01-3.28428E-02-1.47309E-01-5.13482E-03 2.33850E-03
 -1      5761 1.19038E-01-3.87826E-01-8.60860E-02 4.17595E-02-3.81530E-03-4.53409E-02
 -1      5762 1.17277E-01 1.67653E-02-3.42385E-02 1.28188E-01-7.94819E-02-5.67796E-02
 -1      5763 6.60966E-02 5.57305E-02 7.32455E-02-8.62795E-02-4.99169E-02-2.72942E-03
 -1      5764 7.70219E-02-1.18569E-01 1.32414E-02-6.84891E-02-2.85235E-02-1.51675E-02
 -1      5765 7.57342E-02-1.38045E-01-1.30454E-02 1.17024E-02-3.15857E-02-2.92857E-02
 -1      5766 6.49432E-02 5.93915E-03-1.04967E-02 4.87019E-02-5.65027E-02-2.63786E-02
 -1      5767 2.96885E-02 2.16019E-02 7.54414E-02-3.09029E-02-2.40071E-02-1.25205E-02
 -1      5768 3.37588E-02-3.67778E-02 4.63025E-02-2.74203E-02-2.17998E-02-2.08295E-02
 -1      5769 3.28867E-02-4.42493E-02 2.87688E-02-6.98634E-04-2.51387E-02-2.37560E-02
 -1      5770 2.77930E-02 7.79768E-04 1.56198E-02 1.23735E-02-3.07638E-02-1.66071E-02
 -1      5771 1.29285E-01 1.77197E-01 1.95361E-01-2.23257E-01-8.25971E-02 1.28878E-01
 -1      5772 1.37672E-01-4.02504E-01-1.14888E-01-2.21144E-01 1.25793E-01 9.43942E-02
 -1      5773 8.84100E-02-6.14513E-01-2.52578E-01 2.25812E-02 1.56453E-01-4.34629E-02
 -1      5774 1.68288E-01-2.15384E-02-3.34817E-02 1.53933E-01-2.00093E-02-1.15239E-01
 -1      5775 8.52139E-02 4.12129E-02 1.20456E-01-1.40726E-01-6.29614E-02 3.94499E-02
 -1      5776 1.06434E-01-2.14516E-01-1.38236E-02-1.21585E-01 1.82879E-02 2.21379E-02
 -1      5777 1.06106E-01-2.67352E-01-6.46413E-02 3.19595E-03 3.00869E-02-2.29211E-02
 -1      5778 8.53032E-02-8.93261E-02-2.71679E-02 6.48948E-02-4.70549E-02-4.15700E-02
 -1      5779 4.64074E-02 1.69258E-02 9.26556E-02-7.22317E-02-3.72088E-02 5.88615E-03
 -1      5780 6.22445E-02-9.62655E-02 3.27597E-02-6.63964E-02-1.52775E-02-2.85521E-04
 -1      5781 6.09534E-02-1.22036E-01 1.20860E-03-9.79498E-03-1.41404E-02-1.28049E-02
 -1      5782 4.62307E-02-4.94100E-02-8.35357E-03 2.30437E-02-3.26145E-02-1.45932E-02
 -1      5783 2.09929E-02 7.01154E-03 9.49416E-02-2.95254E-02-1.77800E-02-4.09635E-03
 -1      5784 2.60344E-02-3.71966E-02 6.34426E-02-3.05272E-02-1.39394E-02-7.52342E-03
 -1      5785 2.48207E-02-4.79875E-02 4.17474E-02-9.71963E-03-1.40843E-02-9.80867E-03
 -1      5786 1.89819E-02-2.19397E-02 2.04546E-02 3.83389E-03-1.75776E-02-7.49334E-03
 -1      5787 1.86618E-02-1.79334E-02 1.70990E-02-5.76723E-03-1.94569E-02 1.08833E-02
 -1      5788 2.43244E-02-4.45717E-02 3.69317E-02 6.60383E-03-1.38934E-02 1.51480E-02
 -1      5789 2.53692E-02-3.57162E-02 5.76201E-02 2.67542E-02-1.14541E-02 1.29452E-02
 -1      5790 2.00379E-02 5.14698E-03 8.67085E-02 2.68650E-02-1.32129E-02 7.57051E-03
 -1      5791 4.28234E-02-4.09559E-02-6.63803E-03-2.41807E-02-3.59470E-02 1.77060E-02
 -1      5792 5.76127E-02-1.10481E-01 1.82131E-03 4.61667E-03-1.47030E-02 1.83138E-02
 -1      5793 5.81043E-02-8.98322E-02 3.12737E-02 5.77165E-02-1.18611E-02 7.20299E-03
 -1      5794 4.27290E-02 1.21471E-02 8.65504E-02 6.42710E-02-2.82651E-02-8.15466E-04
 -1      5795 7.68045E-02-7.48099E-02-2.16346E-02-6.36516E-02-4.87948E-02 4.34498E-02
 -1      5796 9.59578E-02-2.32269E-01-5.58035E-02-6.39136E-03 2.50891E-02 3.00547E-02
 -1      5797 9.81880E-02-1.86304E-01-8.01420E-03 1.01871E-01 2.07819E-02-1.00941E-02
 -1      5798 7.32592E-02 2.60544E-02 1.12049E-01 1.20296E-01-4.99541E-02-2.83784E-02
 -1      5799 1.13774E-01-6.09807E-02-4.46940E-02-1.09619E-01-2.78058E-02 1.13623E-01
 -1      5800 1.04301E-01-4.41961E-01-2.01261E-01-2.25233E-02 1.46636E-01 5.11275E-02
 -1      5801 1.07742E-01-3.37545E-01-1.04959E-01 1.64405E-01 1.16144E-01-6.97962E-02
 -1      5802 9.99332E-02 1.14377E-01 1.72591E-01 1.75919E-01-6.91689E-02-1.05822E-01
 -1      5803 2.68704E-02 4.45819E-03 1.31281E-02-1.43714E-02-3.04181E-02 1.80755E-02
 -1      5804 3.17577E-02-4.07071E-02 2.50825E-02-2.93089E-03-2.32872E-02 2.60242E-02
 -1      5805 3.22970E-02-3.58314E-02 4.17824E-02 2.28269E-02-1.88108E-02 2.31468E-02
 -1      5806 2.79025E-02 1.76392E-02 6.83134E-02 2.74295E-02-1.97125E-02 1.39218E-02
 -1      5807 5.98973E-02 1.28217E-02-8.05904E-03-5.01508E-02-5.55796E-02 2.73137E-02
 -1      5808 7.02477E-02-1.25424E-01-1.11543E-02-1.73011E-02-2.89093E-02 3.11722E-02
 -1      5809 7.12368E-02-1.11524E-01 1.33547E-02 5.71589E-02-2.33606E-02 1.72973E-02
 -1      5810 6.00947E-02 4.48713E-02 6.73449E-02 7.57766E-02-4.18961E-02 4.40597E-03
 -1      5811 1.03400E-01 2.57824E-02-2.59951E-02-1.22622E-01-7.79878E-02 5.77872E-02
 -1      5812 1.07401E-01-3.43808E-01-7.33987E-02-4.79978E-02 1.13790E-03 4.64822E-02
 -1      5813 1.14068E-01-2.93290E-01-2.72919E-02 1.21517E-01 1.29428E-03 1.06332E-03
 -1      5814 1.03962E-01 1.05376E-01 8.99507E-02 1.62118E-01-7.09130E-02-2.37845E-02
 -1      5815 1.15232E-01 4.85466E-02-5.28877E-02-2.40550E-01-7.38719E-02 1.02841E-01
 -1      5816 5.62968E-02-8.37356E-01-1.90815E-01-8.53035E-02 1.22678E-01 5.93009E-02
 -1      5817 9.00290E-02-6.26772E-01-7.99183E-02 2.51362E-01 9.30532E-02-4.10662E-02
 -1      5818 1.10159E-01 2.71512E-01 1.51187E-01 2.85967E-01-1.12178E-01-7.69376E-02
 -1      5819 3.71037E-02 2.90666E-02 9.38146E-03-2.60292E-02-2.90507E-02 1.88411E-02
 -1      5820 4.28572E-02-3.58976E-02 1.06348E-02-1.73920E-02-2.43158E-02 2.87356E-02
 -1      5821 4.29816E-02-3.78442E-02 2.12051E-02 1.43199E-02-1.86970E-02 2.66391E-02
 -1      5822 3.78265E-02 2.53748E-02 4.41137E-02 2.51171E-02-1.63695E-02 1.63091E-02
 -1      5823 8.07880E-02 7.34849E-02-5.16300E-03-7.91514E-02-5.05759E-02 2.56977E-02
 -1      5824 9.37656E-02-1.25458E-01-2.04254E-02-4.78973E-02-3.48934E-02 3.37236E-02
 -1      5825 9.49062E-02-1.25294E-01-3.89865E-03 4.54754E-02-2.74197E-02 2.43785E-02
 -1      5826 8.08756E-02 6.69485E-02 4.35651E-02 7.80212E-02-3.37607E-02 1.12913E-02
 -1      5827 1.43656E-01 1.61337E-01-1.52743E-02-1.78985E-01-6.72247E-02 4.35525E-02
 -1      5828 1.52405E-01-3.48999E-01-6.53858E-02-1.00298E-01-2.60407E-02 4.51765E-02
 -1      5829 1.57546E-01-3.25483E-01-3.28397E-02 1.13875E-01-2.10370E-02 2.03638E-02
 -1      5830 1.38816E-01 1.58819E-01 6.04201E-02 1.78542E-01-5.62530E-02 2.14404E-04
 -1      5831 1.71020E-01 3.69886E-01-1.05753E-03-3.07286E-01-7.87164E-02 5.73631E-02
 -1      5832 9.08711E-02-8.69336E-01-1.61780E-01-1.60247E-01 2.31120E-02 4.67275E-02
 -1      5833 1.19626E-01-7.06979E-01-6.81280E-02 2.32493E-01 6.30406E-03 8.03651E-03
 -1      5834 1.44042E-01 4.12739E-01 1.35915E-01 2.96754E-01-9.96534E-02-1.65260E-02
 -1      5835 4.85005E-02 4.89997E-02 6.93038E-03-4.14671E-02-1.85379E-02 1.28899E-02
 -1      5836 5.72051E-02-3.42906E-02-2.12679E-03-3.65121E-02-1.67627E-02 2.03173E-02
 -1      5837 5.73113E-02-4.54732E-02 2.69985E-03 2.80581E-03-1.23291E-02 1.87365E-02
 -1      5838 4.81204E-02 2.13113E-02 2.21030E-02 2.15112E-02-8.59654E-03 1.10493E-02
 -1      5839 1.02333E-01 1.14590E-01-1.73801E-03-1.14201E-01-3.04767E-02 1.71561E-02
 -1      5840 1.24514E-01-1.29160E-01-2.69422E-02-8.81232E-02-2.64818E-02 2.48694E-02
 -1      5841 1.26468E-01-1.48879E-01-1.80349E-02 2.57722E-02-2.00397E-02 1.96244E-02
 -1      5842 1.02701E-01 5.53697E-02 2.20056E-02 7.47151E-02-1.67094E-02 1.01672E-02
 -1      5843 1.83444E-01 2.34822E-01-5.07128E-03-2.37918E-01-3.49821E-02 2.54127E-02
 -1      5844 2.12877E-01-3.59323E-01-6.26853E-02-1.65355E-01-2.68754E-02 3.28352E-02
 -1      5845 2.18729E-01-3.71351E-01-4.16546E-02 8.59973E-02-2.24027E-02 2.24950E-02
 -1      5846 1.79688E-01 1.39007E-01 3.63529E-02 1.77848E-01-2.64110E-02 9.69751E-03
 -1      5847 2.40871E-01 5.34861E-01 2.69331E-02-3.73784E-01-2.20005E-02 2.39741E-02
 -1      5848 1.96312E-01-8.23392E-01-1.13302E-01-2.48451E-01-2.34780E-02 2.86787E-02
 -1      5849 2.19971E-01-7.32571E-01-4.64231E-02 1.84303E-01-3.29778E-02 2.30304E-02
 -1      5850 2.07525E-01 4.00410E-01 1.01048E-01 2.85887E-01-4.58223E-02 1.18309E-02
 -1      5851-1.16255E+00 1.08524E+01 7.08769E+00 2.99554E+00-7.74498E-01-6.40287E-01
 -1      5852-1.43826E+01 4.18208E+00 1.86050E+00-1.53127E+00-4.84700E-01-3.73004E-01
 -1      5853-1.01582E+01 4.52322E-01 1.88151E-01-5.08111E+00-3.42745E-01-1.04404E-01
 -1      5854-4.22948E+00-1.57861E+00-1.33931E-01-4.52368E+00-4.55954E-01 7.39930E-02
 -1      5855-3.10160E+00-2.09216E+00-1.99013E-01 2.05130E+00-2.83625E-01-1.98215E-01
 -1      5856-2.40488E+00 6.63603E-01 1.54906E+00 3.11386E-01-1.86168E-01-2.66395E-01
 -1      5857-3.56521E+00-3.46920E-01 5.24057E-01-9.72408E-01-2.23653E-01-1.26827E-01
 -1      5858-2.22507E+00-3.18828E-01-2.74130E-01-1.27769E+00-3.05946E-01 3.77407E-02
 -1      5859-9.48891E-01-3.33744E-02-2.65128E-01-3.34018E-01-7.29256E-02-1.08816E-01
 -1      5860-1.25813E+00-2.21440E+00-3.15852E-02-2.52025E-04-1.08036E-01-1.02389E-01
 -1      5861-1.06143E+00-1.15949E+00 1.78855E-01 1.72354E-01-1.42346E-01-1.29326E-02
 -1      5862-8.34392E-01 5.08379E-01-4.29291E-02-5.19709E-02-1.61472E-01 4.73926E-02
 -1      5863 5.76160E-01 1.04543E+01 8.75307E+00 3.27868E+00-5.53021E-02-5.52834E-01
 -1      5864-1.31176E+01 3.57603E+00 2.16271E+00-1.04768E+00-9.13248E-02-8.03486E-01
 -1      5865-9.63851E+00 1.75571E-01 4.79767E-01-4.62150E+00-3.85957E-01-5.88642E-01
 -1      5866-4.15333E+00-1.60359E+00 2.23974E-03-4.22394E+00-7.55578E-01-1.93250E-01
 -1      5867-3.13571E+00-2.80236E+00-7.09707E-01 1.69029E+00-1.42335E-01-7.90719E-02
 -1      5868-2.00021E+00 1.50293E-01 1.54867E+00 3.03311E-01 8.01052E-02-2.11485E-01
 -1      5869-3.21063E+00-5.11044E-01 5.28947E-01-7.90961E-01-1.70312E-01-2.13617E-01
 -1      5870-2.07668E+00-2.03397E-01-2.11268E-01-1.10489E+00-4.77841E-01 2.90313E-02
 -1      5871-7.76786E-01 1.22708E-01-2.05341E-01-4.41308E-01-1.55903E-01-9.73720E-02
 -1      5872-1.14195E+00-2.26232E+00-1.57902E-01 5.12018E-02 3.51689E-02-4.03417E-02
 -1      5873-9.53533E-01-1.11779E+00 1.80217E-01 2.36582E-01-6.32696E-02-2.43940E-02
 -1      5874-7.57274E-01 6.52069E-01 8.12527E-02 1.63337E-02-3.00200E-01 6.27825E-02
 -1      5875 1.92271E+00 1.06146E+01 8.29409E+00 3.02157E+00 1.10025E+00-4.09575E-01
 -1      5876-1.18246E+01 3.55515E+00 2.10939E+00-1.08666E+00 7.42087E-01-1.02431E+00
 -1      5877-8.93734E+00-8.14592E-02 5.26952E-01-4.63086E+00-9.52374E-02-8.45040E-01
 -1      5878-3.86078E+00-1.88895E+00 4.72950E-02-4.19324E+00-7.53012E-01-2.79247E-01
 -1      5879-2.63203E+00-3.06063E+00-9.70543E-01 1.46264E+00 1.67872E-01 8.65485E-02
 -1      5880-1.32597E+00-1.60251E-01 1.19008E+00 3.56323E-01 5.98640E-01-9.46945E-02
 -1      5881-2.67445E+00-7.63164E-01 3.78936E-01-6.31032E-01 1.56512E-01-1.92514E-01
 -1      5882-1.83868E+00-4.12718E-01-1.54388E-01-9.13469E-01-4.45513E-01 2.69627E-02
 -1      5883-4.28224E-01-2.15524E-01-1.23431E-01-4.32910E-01-4.93167E-02 4.78037E-02
 -1      5884-8.13630E-01-2.35345E+00-4.69400E-01 1.97321E-01 4.25476E-01 5.04940E-03
 -1      5885-7.08218E-01-1.19232E+00-4.43927E-02 3.56028E-01 2.38457E-01-1.15396E-01
 -1      5886-6.12199E-01 4.71190E-01 1.76591E-01 1.16617E-01-3.11741E-01-4.75335E-02
 -1      5887 3.45229E+00 1.03720E+01 6.47060E+00 2.40546E+00 1.56353E+00-3.14942E-01
 -1      5888-1.02086E+01 3.47183E+00 1.73116E+00-1.27606E+00 1.32450E+00-7.70791E-01
 -1      5889-8.14338E+00-5.55733E-01 1.60997E-01-4.62631E+00 3.27178E-01-2.57796E-01
 -1      5890-3.58498E+00-2.44977E+00-2.47198E-01-4.13078E+00-3.93250E-01 1.21488E-01
 -1      5891-1.66836E+00-3.08500E+00-8.17023E-01 1.35495E+00 6.82641E-01 2.20117E-01
 -1      5892-4.43607E-01-3.44651E-01 4.58018E-01 5.11689E-01 1.20443E+00-1.34694E-01
 -1      5893-1.97551E+00-8.93345E-01-2.08866E-02-3.19799E-01 6.55271E-01-2.62349E-01
 -1      5894-1.60528E+00-7.02887E-01-1.90456E-01-6.45265E-01-2.71944E-01-9.37547E-02
 -1      5895-4.77241E-01-9.88407E-01-5.20722E-01-3.26174E-01 1.52214E-01 1.30389E-01
 -1      5896-6.76615E-01-2.35929E+00-1.01710E+00 3.10795E-01 7.44455E-01-2.76479E-02
 -1      5897-4.67315E-01-1.13649E+00-4.52841E-01 4.29606E-01 4.96283E-01-2.23045E-01
 -1      5898-3.88006E-01 2.28324E-01 1.74631E-01 1.85119E-01-2.21154E-01-1.58686E-01
 -3
 9999
