
 displacements (vx,vy,vz) for set LEFT_LOWER_DATUM and time  0.1000000E+01

        25  4.667987E-01 -2.433763E-02  2.045915E-06
        27  4.666246E-01  2.704300E-02  1.127782E-06
       272  4.666820E-01  1.407900E-03  1.927414E-06

 displacements (vx,vy,vz) for set LEFT_UPPER_DATUM and time  0.1000000E+01

        26  2.248114E-01 -1.442828E-02 -9.755205E-07
        28  2.242522E-01  2.899153E-02  8.937124E-07
       284  2.244419E-01  7.337508E-03  1.731482E-06

 displacements (vx,vy,vz) for set RIGHT_UPPER_DATUM and time  0.1000000E+01

         6 -2.244714E-01  2.897303E-02  3.453866E-06
         8 -2.250306E-01 -1.442916E-02  3.668381E-06
       119 -2.246611E-01  7.327920E-03  5.350152E-06

 displacements (vx,vy,vz) for set RIGHT_LOWER_DATUM and time  0.1000000E+01

         3 -4.667547E-01  2.702396E-02  1.911626E-05
         4 -4.669290E-01 -2.434041E-02  2.735423E-05
        87 -4.668121E-01  1.396828E-03  2.345266E-05

 stresses (elem, integ.pnt.,sxx,syy,szz,sxy,sxz,syz) for set ALL and time  0.1000000E+01

         1   1 -2.822773E+00 -1.764980E+01 -1.187232E+01  2.853906E+00  5.536177E+00 -1.000980E+01
         1   2  8.471553E-01 -1.226631E+01 -5.022713E+00  3.274763E+00  5.068249E+00 -6.944948E+00
         1   3 -1.392498E+00 -1.693478E+01 -1.091921E+01  3.581966E+00  2.004840E+00 -6.780555E+00
         1   4  1.805164E+00 -1.202356E+01 -5.171554E+00  4.002823E+00  1.465119E+00 -4.496198E+00
         1   5  1.316027E+00 -4.861969E+00 -6.792707E+00  8.571624E-01  7.103749E+00 -9.850723E+00
         1   6  3.585962E+00 -2.741825E+00 -1.346401E+00  1.192321E+00  6.635443E+00 -7.165799E+00
         1   7  2.479873E+00 -4.259672E+00 -5.948896E+00  7.944197E-01  3.196731E+00 -6.575110E+00
         1   8  4.270762E+00 -2.618575E+00 -1.620365E+00  1.129578E+00  2.655601E+00 -4.681889E+00
         2   1 -1.793258E-01 -9.837392E+00 -3.131689E+00  6.809456E+00  6.833362E+00 -5.065115E+00
         2   2  1.887814E+00 -4.924320E+00 -1.154295E+00  6.808702E+00  6.886995E+00 -2.994169E+00
         2   3 -5.667845E-01 -1.022357E+01 -4.031487E+00  8.018641E+00  2.622641E+00 -3.194096E+00
         2   4  1.722577E+00 -5.088276E+00 -1.535576E+00  8.017887E+00  2.468642E+00 -1.921045E+00
         2   5  3.356511E+00 -1.941981E+00  2.941764E-01  4.203178E+00  6.767924E+00 -5.361835E+00
         2   6  3.996156E+00 -3.612887E-01  8.456325E-01  3.954575E+00  6.820466E+00 -3.118239E+00
         2   7  2.236839E+00 -2.645125E+00 -9.299634E-01  4.597353E+00  2.649166E+00 -3.463952E+00
         2   8  3.101897E+00 -8.390195E-01  1.474558E-01  4.348750E+00  2.491095E+00 -2.029707E+00
         3   1 -1.000624E+00 -3.084356E+00 -1.581490E+00  7.940276E+00  6.945130E+00 -1.432891E+00
         3   2  1.222608E+00  2.250190E+00  4.947383E-01  7.920702E+00  6.940384E+00  7.616524E-01
         3   3 -1.072676E+00 -3.123140E+00 -1.638719E+00  9.262218E+00  2.473396E+00 -9.291074E-01
         3   4  1.335849E+00  2.396698E+00  8.698591E-01  9.242643E+00  2.455789E+00  5.078663E-01
         3   5 -1.149611E-01 -9.866454E-01 -6.866040E-01  5.080668E+00  6.849406E+00 -1.441252E+00
         3   6  7.527849E-01  1.183801E+00  3.543661E-02  5.045742E+00  6.844592E+00  8.967651E-01
         3   7 -2.313992E-01 -1.044566E+00 -7.632338E-01  5.626327E+00  2.440489E+00 -9.302348E-01
         3   8  8.243000E-01  1.313834E+00  3.973642E-01  5.591401E+00  2.422630E+00  6.393351E-01
         4   1 -2.074950E+00  4.095148E+00  6.594620E-02  6.360430E+00  6.706834E+00  2.483318E+00
         4   2  3.828476E-01  9.668321E+00  2.685434E+00  6.372184E+00  6.684055E+00  4.992451E+00
         4   3 -1.723315E+00  4.426807E+00  8.198395E-01  7.684097E+00  2.290175E+00  1.591297E+00
         4   4  9.459301E-01  1.021143E+01  3.932703E+00  7.695851E+00  2.447072E+00  3.114310E+00
         4   5 -3.750392E+00  3.357675E-01 -1.561616E+00  3.864843E+00  6.765674E+00  2.730639E+00
         4   6 -3.057171E+00  1.790113E+00 -7.052236E-01  4.091076E+00  6.743840E+00  5.402859E+00
         4   7 -2.765839E+00  9.412749E-01 -5.278111E-01  4.183654E+00  2.429863E+00  1.825810E+00
         4   8 -1.858135E+00  2.610103E+00  8.290417E-01  4.409886E+00  2.590284E+00  3.497751E+00
         5   1 -9.423038E-01  1.222041E+01  4.790439E+00  3.099729E+00  4.956474E+00  7.188949E+00
         5   2  2.991412E+00  1.791049E+01  1.221274E+01  2.673230E+00  5.572802E+00  1.068076E+01
         5   3 -1.797703E+00  1.208986E+01  5.210662E+00  3.845977E+00  1.304963E+00  4.603167E+00
         5   4  1.610268E+00  1.725419E+01  1.140623E+01  3.419478E+00  1.920309E+00  7.147785E+00
         5   5 -3.406363E+00  2.346678E+00  1.092864E+00  1.270354E+00  6.677358E+00  7.504088E+00
         5   6 -1.171395E+00  4.076698E+00  6.812737E+00  8.426837E-01  7.293680E+00  1.057253E+01
         5   7 -4.241310E+00  2.228279E+00  1.533149E+00  1.058847E+00  2.611391E+00  4.881178E+00
         5   8 -2.539637E+00  3.425005E+00  6.008670E+00  6.311772E-01  3.226717E+00  6.988833E+00
         6   1 -5.257512E+00 -2.933362E+01 -1.431775E+01  2.550602E+00  5.958709E-01 -7.246879E+00
         6   2 -7.302090E-01 -2.064547E+01 -7.914890E+00  3.210750E+00  1.113779E-01 -4.856938E+00
         6   3 -9.511089E-01 -2.614915E+01 -8.009271E+00  4.318471E+00  3.885365E-01 -5.515151E+00
         6   4  2.618777E+00 -1.841842E+01 -3.840385E+00  4.978619E+00  1.131025E-01 -3.653318E+00
         6   5 -3.840238E+00 -2.277974E+01 -1.180406E+01  2.671884E+00  1.477721E+00 -5.330155E+00
         6   6 -2.873755E-01 -1.632682E+01 -6.414098E+00  3.581584E+00  9.995256E-01 -3.718031E+00
         6   7  1.203721E+00 -1.925995E+01 -5.115414E+00  3.886623E+00  6.054542E-01 -3.573565E+00
         6   8  3.785421E+00 -1.377820E+01 -1.991497E+00  4.796322E+00  3.393194E-01 -2.497131E+00
         7   1 -2.952450E+00 -1.668089E+01 -6.426194E+00  7.686495E+00  9.108080E-01 -3.451221E+00
         7   2  6.385923E-01 -8.456351E+00 -2.680591E+00  8.021051E+00  7.166696E-01 -2.000672E+00
         7   3 -1.060706E+00 -1.535773E+01 -3.907411E+00  9.655184E+00  5.298278E-01 -2.569309E+00
         7   4  2.152123E+00 -7.511407E+00 -1.044307E+00  9.989739E+00  4.145744E-01 -1.469572E+00
         7   5 -2.055373E+00 -1.327319E+01 -5.087937E+00  7.812176E+00  9.561290E-01 -2.711049E+00
         7   6  8.961338E-01 -6.525704E+00 -1.997060E+00  8.240897E+00  7.643669E-01 -1.572050E+00
         7   7  1.112597E-01 -1.182486E+01 -2.426822E+00  9.402189E+00  3.077745E-01 -1.816475E+00
         7   8  2.679123E+00 -5.461024E+00 -2.311151E-01  9.830909E+00  1.960301E-01 -1.033324E+00
         8   1 -1.650548E+00 -4.480084E+00 -2.085450E+00  9.451560E+00  7.149865E-01 -8.966490E-01
         8   2  1.967035E+00  3.928458E+00  1.564618E+00  9.425666E+00  6.958997E-01  6.690511E-01
         8   3 -1.482967E+00 -4.268496E+00 -1.547740E+00  1.148715E+01  4.418303E-01 -6.487337E-01
         8   4  1.764488E+00  3.769917E+00  1.238697E+00  1.146126E+01  4.319200E-01  4.941008E-01
         8   5 -1.263794E+00 -3.464594E+00 -1.652006E+00  9.826923E+00  7.027151E-01 -6.945352E-01
         8   6  1.585481E+00  3.166097E+00  1.214889E+00  9.811983E+00  6.839048E-01  5.638803E-01
         8   7 -1.059494E+00 -3.235263E+00 -1.091869E+00  1.141084E+01  1.692175E-01 -4.430607E-01
         8   8  1.414340E+00  3.019986E+00  8.989946E-01  1.139590E+01  1.597154E-01  3.864183E-01
         9   1 -5.454357E-01  7.925090E+00  2.194849E+00  7.728868E+00  5.623962E-01  1.837780E+00
         9   2  3.317998E+00  1.658350E+01  6.414551E+00  7.365794E+00  7.489274E-01  3.465108E+00
         9   3 -2.047861E+00  7.039718E+00  7.460327E-01  9.766166E+00  3.261502E-01  1.358593E+00
         9   4  1.374152E+00  1.525671E+01  3.935753E+00  9.403093E+00  4.353016E-01  2.577595E+00
         9   5 -7.312412E-01  6.203892E+00  1.600682E+00  8.084947E+00  7.099758E-01  1.487056E+00
         9   6  2.387772E+00  1.314305E+01  5.058234E+00  7.629506E+00  8.941760E-01  2.750802E+00
         9   7 -2.495278E+00  5.202933E+00  2.819036E-02  9.685084E+00  1.648872E-01  1.000989E+00
         9   8  1.759763E-01  1.169433E+01  2.440973E+00  9.229644E+00  2.705967E-01  1.850547E+00
        10   1  7.166475E-01  2.058710E+01  7.982778E+00  3.005818E+00 -4.280473E-02  5.004251E+00
        10   2  5.460887E+00  2.960159E+01  1.478242E+01  2.360887E+00  4.837615E-01  7.581940E+00
        10   3 -2.601564E+00  1.836496E+01  3.893877E+00  4.820170E+00  2.770602E-02  3.751571E+00
        10   4  1.119522E+00  2.635630E+01  8.306161E+00  4.175239E+00  3.251360E-01  5.739930E+00
        10   5  3.314442E-01  1.612558E+01  6.455656E+00  3.508509E+00  9.338907E-01  3.852342E+00
        10   6  3.989643E+00  2.264707E+01  1.212816E+01  2.590060E+00  1.453554E+00  5.598056E+00
        10   7 -3.781696E+00  1.355128E+01  1.987784E+00  4.707851E+00  2.979905E-01  2.581677E+00
        10   8 -1.161341E+00  1.903492E+01  5.238655E+00  3.789402E+00  5.852282E-01  3.729600E+00
        11   1 -4.811832E+00 -4.006726E+01 -1.059364E+01  2.306466E+00  2.435508E-01 -4.370742E+00
        11   2  8.829005E-02 -2.843188E+01 -5.895277E+00  2.994199E+00  7.073980E-02 -3.063812E+00
        11   3 -8.469728E-01 -3.727122E+01 -5.238378E+00  5.168155E+00  4.767062E-01 -3.586181E+00
        11   4  3.426798E+00 -2.626220E+01 -2.001500E+00  5.855889E+00  3.720671E-01 -2.501430E+00
        11   5 -4.017220E+00 -3.699061E+01 -9.249304E+00  2.440522E+00  9.578614E-02 -2.800131E+00
        11   6  4.506369E-01 -2.631792E+01 -5.029131E+00  3.209632E+00 -7.327599E-02 -2.003867E+00
        11   7  1.848477E-01 -3.407716E+01 -3.739885E+00  5.039524E+00 -1.008678E-01 -2.004304E+00
        11   8  4.017360E+00 -2.403982E+01 -1.002183E+00  5.808634E+00 -2.007791E-01 -1.433410E+00
        12   1 -3.330592E+00 -2.293002E+01 -5.714667E+00  7.776465E+00  2.991375E-01 -2.221573E+00
        12   2  1.272194E+00 -1.145824E+01 -1.843822E+00  8.114571E+00  2.239727E-01 -1.227461E+00
        12   3 -1.412011E+00 -2.158606E+01 -3.153386E+00  1.069498E+01  4.673518E-01 -1.805754E+00
        12   4  2.778736E+00 -1.052632E+01 -2.439654E-01  1.103308E+01  4.224216E-01 -9.898828E-01
        12   5 -2.853438E+00 -2.127866E+01 -4.989088E+00  7.918029E+00 -9.881971E-02 -1.472151E+00
        12   6  1.407543E+00 -1.057422E+01 -1.490260E+00  8.292226E+00 -1.723218E-01 -8.157400E-01
        12   7 -8.301622E-01 -1.988234E+01 -2.357969E+00  1.061699E+01 -2.136497E-01 -1.050362E+00
        12   8  3.012864E+00 -9.595855E+00  1.656313E-01  1.099118E+01 -2.564832E-01 -5.747504E-01
        13   1 -2.143912E+00 -5.929722E+00 -1.952217E+00  9.654041E+00  2.565688E-01 -5.060082E-01
        13   2  2.464123E+00  5.650040E+00  1.828139E+00  9.628946E+00  2.509388E-01  4.709264E-01
        13   3 -2.008818E+00 -5.751978E+00 -1.494831E+00  1.261620E+01  4.404872E-01 -4.043800E-01
        13   4  2.215625E+00  5.444192E+00  1.390477E+00  1.259111E+01  4.372837E-01  3.793719E-01
        13   5 -1.966068E+00 -5.500304E+00 -1.750047E+00  9.857590E+00 -1.855016E-01 -3.335158E-01
        13   6  2.274971E+00  5.251260E+00  1.635187E+00  9.835392E+00 -1.909982E-01  3.275343E-01
        13   7 -1.818413E+00 -5.315456E+00 -1.281541E+00  1.258464E+01 -2.646823E-01 -2.304284E-01
        13   8  2.033526E+00  5.047008E+00  1.195793E+00  1.256244E+01 -2.677175E-01  2.346652E-01
        14   1 -1.109668E+00  1.117958E+01  1.706785E+00  7.933703E+00  1.687119E-01  1.213031E+00
        14   2  3.629076E+00  2.289706E+01  5.785123E+00  7.564738E+00  2.392133E-01  2.263563E+00
        14   3 -2.681204E+00  1.023511E+01  1.300885E-01  1.089884E+01  3.918559E-01  9.799935E-01
        14   4  1.620670E+00  2.151572E+01  3.189065E+00  1.052988E+01  4.348138E-01  1.837171E+00
        14   5 -1.246759E+00  1.031114E+01  1.359928E+00  8.148488E+00 -1.925871E-01  8.228731E-01
        14   6  3.121749E+00  2.119677E+01  5.035999E+00  7.746644E+00 -1.236004E-01  1.515114E+00
        14   7 -2.905973E+00  9.325208E+00 -2.673128E-01  1.087830E+01 -2.688085E-01  5.864897E-01
        14   8  1.019394E+00  1.976769E+01  2.374760E+00  1.047645E+01 -2.277608E-01  1.082599E+00
        15   1 -5.132607E-02  2.840348E+01  5.944750E+00  2.857159E+00  1.935129E-02  3.145272E+00
        15   2  4.942038E+00  4.021005E+01  1.078273E+01  2.170829E+00  2.043642E-01  4.503612E+00
        15   3 -3.400191E+00  2.622106E+01  2.018860E+00  5.751968E+00  3.456835E-01  2.561359E+00
        15   4  9.466255E-01  3.738108E+01  5.348228E+00  5.065637E+00  4.574161E-01  3.682702E+00
        15   5 -4.105432E-01  2.621698E+01  5.056394E+00  3.109360E+00 -1.020695E-01  2.072581E+00
        15   6  4.122913E+00  3.699783E+01  9.387059E+00  2.335555E+00  7.891357E-02  2.903368E+00
        15   7 -4.005770E+00  2.391824E+01  9.891588E-01  5.726195E+00 -2.181867E-01  1.480284E+00
        15   8 -1.281445E-01  3.404326E+01  3.789551E+00  4.952390E+00 -1.115361E-01  2.070671E+00
        16   1 -4.789404E+00 -5.112848E+01 -8.157069E+00  1.591824E+00  3.113861E-01 -2.941680E+00
        16   2  8.147354E-01 -3.643796E+01 -4.167118E+00  2.158731E+00  2.338507E-01 -2.124405E+00
        16   3 -1.045911E+00 -4.850762E+01 -3.164372E+00  6.090223E+00  6.972435E-01 -2.448963E+00
        16   4  4.055704E+00 -3.431963E+01 -3.469787E-01  6.657130E+00  6.462162E-01 -1.764732E+00
        16   5 -4.331751E+00 -4.945984E+01 -7.334127E+00  1.662203E+00 -5.241378E-01 -1.723048E+00
        16   6  1.042132E+00 -3.526637E+01 -3.614645E+00  2.255688E+00 -6.000823E-01 -1.249661E+00
        16   7 -4.940318E-01 -4.680595E+01 -2.325565E+00  6.060344E+00 -4.698692E-01 -1.233896E+00
        16   8  4.380964E+00 -3.311138E+01  2.298443E-01  6.653830E+00 -5.194974E-01 -8.925910E-01
        17   1 -3.748997E+00 -2.936452E+01 -4.989955E+00  6.973184E+00  2.622359E-01 -1.564197E+00
        17   2  1.859296E+00 -1.458114E+01 -1.079033E+00  7.264074E+00  2.298108E-01 -8.509574E-01
        17   3 -1.803560E+00 -2.799513E+01 -2.370751E+00  1.151551E+01  6.354443E-01 -1.297008E+00
        17   4  3.381102E+00 -1.363538E+01  5.516997E-01  1.180640E+01  6.150118E-01 -7.033931E-01
        17   5 -3.465325E+00 -2.844538E+01 -4.531599E+00  7.031360E+00 -6.092230E-01 -9.216002E-01
        17   6  1.937630E+00 -1.410722E+01 -8.599138E-01  7.334274E+00 -6.409283E-01 -4.987084E-01
        17   7 -1.477349E+00 -2.706164E+01 -1.907083E+00  1.148716E+01 -5.156892E-01 -6.563446E-01
        17   8  3.505040E+00 -1.314404E+01  7.832830E-01  1.179008E+01 -5.354887E-01 -3.522119E-01
        18   1 -2.691171E+00 -7.457285E+00 -1.938371E+00  8.854091E+00  2.384181E-01 -3.373617E-01
        18   2  2.915773E+00  7.356628E+00  1.937529E+00  8.835621E+00  2.368427E-01  3.525681E-01
        18   3 -2.545526E+00 -7.275064E+00 -1.476612E+00  1.341219E+01  6.148459E-01 -2.784199E-01
        18   4  2.654299E+00  7.131731E+00  1.449345E+00  1.339372E+01  6.141606E-01  2.890133E-01
        18   5 -2.591586E+00 -7.238565E+00 -1.821069E+00  8.918378E+00 -6.480598E-01 -1.936852E-01
        18   6  2.806693E+00  7.121041E+00  1.813586E+00  8.900800E+00 -6.495818E-01  2.167618E-01
        18   7 -2.444809E+00 -7.056726E+00 -1.361715E+00  1.338721E+01 -5.405177E-01 -1.351700E-01
        18   8  2.549297E+00  6.898708E+00  1.329871E+00  1.336963E+01 -5.411561E-01  1.536668E-01
        19   1 -1.726560E+00  1.447565E+01  1.058546E+00  7.171414E+00  2.124879E-01  8.724093E-01
        19   2  3.941610E+00  2.937908E+01  5.049021E+00  6.855506E+00  2.445109E-01  1.602712E+00
        19   3 -3.326401E+00  1.350140E+01 -5.891279E-01  1.174352E+01  6.068489E-01  7.185560E-01
        19   4  1.908510E+00  2.797156E+01  2.390412E+00  1.142761E+01  6.274814E-01  1.324655E+00
        19   5 -1.809998E+00  1.398183E+01  8.328245E-01  7.251171E+00 -6.487548E-01  5.255743E-01
        19   6  3.645369E+00  2.842338E+01  4.575827E+00  6.923842E+00 -6.174153E-01  9.588188E-01
        19   7 -3.454032E+00  1.299072E+01 -8.268271E-01  1.173240E+01 -5.405325E-01  3.728342E-01
        19   8  1.571212E+00  2.700215E+01  1.912555E+00  1.140507E+01 -5.205011E-01  6.827737E-01
        20   1 -7.770922E-01  3.643765E+01  4.186935E+00  2.092436E+00  2.206063E-01  2.173812E+00
        20   2  4.854019E+00  5.118618E+01  8.208776E+00  1.522257E+00  3.025592E-01  3.003784E+00
        20   3 -4.035918E+00  3.430794E+01  3.467303E-01  6.606205E+00  6.404693E-01  1.800303E+00
        20   4  1.087125E+00  4.854840E+01  3.183078E+00  6.036025E+00  6.945096E-01  2.493699E+00
        20   5 -1.009544E+00  3.522403E+01  3.619659E+00  2.197756E+00 -6.110714E-01  1.293882E+00
        20   6  4.385667E+00  4.946278E+01  7.364942E+00  1.599590E+00 -5.307938E-01  1.776048E+00
        20   7 -4.371183E+00  3.305556E+01 -2.469278E-01  6.607847E+00 -5.266603E-01  9.230756E-01
        20   8  5.196356E-01  4.678992E+01  2.321441E+00  6.009681E+00 -4.740933E-01  1.269653E+00
        21   1 -5.092616E+00 -6.232368E+01 -6.425379E+00  8.820187E-01  5.281720E-01 -2.126859E+00
        21   2  1.444150E+00 -4.434564E+01 -2.614202E+00  1.457458E+00  4.927469E-01 -1.558810E+00
        21   3 -1.626012E+00 -5.999661E+01 -2.135081E+00  6.546262E+00  8.999936E-01 -1.865596E+00
        21   4  4.529843E+00 -4.239948E+01  7.873034E-01  7.121701E+00  8.795209E-01 -1.363507E+00
        21   5 -4.849138E+00 -6.143094E+01 -5.963324E+00  8.938134E-01 -8.481356E-01 -1.130239E+00
        21   6  1.570340E+00 -4.370245E+01 -2.293552E+00  1.484245E+00 -8.828507E-01 -8.199361E-01
        21   7 -1.326320E+00 -5.908587E+01 -1.669228E+00  6.533382E+00 -7.281956E-01 -8.708675E-01
        21   8  4.715003E+00 -4.173553E+01  1.118183E+00  7.123813E+00 -7.480665E-01 -6.260461E-01
        22   1 -4.119210E+00 -3.562917E+01 -4.227405E+00  6.321395E+00  4.688865E-01 -1.157133E+00
        22   2  2.442582E+00 -1.766569E+01 -3.182464E-01  6.594622E+00  4.534692E-01 -6.277774E-01
        22   3 -2.354143E+00 -3.440517E+01 -1.912475E+00  1.196604E+01  8.595157E-01 -1.010519E+00
        22   4  3.841860E+00 -1.680748E+01  1.143178E+00  1.223927E+01  8.482199E-01 -5.482273E-01
        22   5 -3.959105E+00 -3.511835E+01 -3.958784E+00  6.320583E+00 -8.697519E-01 -6.032603E-01
        22   6  2.484456E+00 -1.740758E+01 -1.910155E-01  6.597943E+00 -8.849736E-01 -3.215942E-01
        22   7 -2.178632E+00 -3.389113E+01 -1.648528E+00  1.193931E+01 -7.211038E-01 -4.577077E-01
        22   8  3.901787E+00 -1.654350E+01  1.271911E+00  1.221666E+01 -7.322337E-01 -2.426198E-01
        23   1 -3.229716E+00 -8.994867E+00 -1.943687E+00  8.205961E+00  4.500983E-01 -2.457526E-01
        23   2  3.346209E+00  9.002802E+00  1.978395E+00  8.194581E+00  4.501364E-01  2.686035E-01
        23   3 -3.083670E+00 -8.826287E+00 -1.527798E+00  1.386053E+01  8.453947E-01 -2.153738E-01
        23   4  3.128778E+00  8.807906E+00  1.546171E+00  1.384915E+01  8.455508E-01  2.317074E-01
        23   5 -3.173200E+00 -8.878587E+00 -1.876582E+00  8.196380E+00 -8.888281E-01 -1.203285E-01
        23   6  3.284286E+00  8.865737E+00  1.904048E+00  8.185119E+00 -8.887843E-01  1.478737E-01
        23   7 -3.028371E+00 -8.711295E+00 -1.463771E+00  1.382489E+01 -7.340200E-01 -9.016956E-02
        23   8  3.068269E+00  8.672183E+00  1.474884E+00  1.381363E+01 -7.338591E-01  1.112445E-01
        24   1 -2.368640E+00  1.766777E+01  3.386761E-01  6.562382E+00  4.501995E-01  6.521023E-01
        24   2  4.211177E+00  3.567280E+01  4.266373E+00  6.272856E+00  4.664614E-01  1.185484E+00
        24   3 -3.817722E+00  1.679203E+01 -1.131368E+00  1.221867E+01  8.470452E-01  5.657200E-01
        24   4  2.394108E+00  3.442907E+01  1.937691E+00  1.192915E+01  8.591531E-01  1.031178E+00
        24   5 -2.414815E+00  1.738842E+01  2.043345E-01  6.567445E+00 -8.880691E-01  3.500603E-01
        24   6  4.045374E+00  3.513762E+01  3.989104E+00  6.273753E+00 -8.720045E-01  6.342423E-01
        24   7 -3.882523E+00  1.650655E+01 -1.267549E+00  1.219704E+01 -7.346880E-01  2.643031E-01
        24   8  2.212341E+00  3.389041E+01  1.664796E+00  1.190335E+01 -7.227473E-01  4.810528E-01
        25   1 -1.416692E+00  4.437445E+01  2.626782E+00  1.439184E+00  4.915203E-01  1.589668E+00
        25   2  5.117600E+00  6.235268E+01  6.429527E+00  8.581771E-01  5.291104E-01  2.160536E+00
        25   3 -4.518272E+00  4.242343E+01 -7.750465E-01  7.104743E+00  8.795202E-01  1.386185E+00
        25   4  1.634367E+00  6.002001E+01  2.137176E+00  6.523737E+00  9.015593E-01  1.890625E+00
        25   5 -1.546521E+00  4.370637E+01  2.297851E+00  1.467346E+00 -8.871217E-01  8.526815E-01
        25   6  4.869742E+00  6.143336E+01  5.958404E+00  8.707473E-01 -8.502701E-01  1.165286E+00
        25   7 -4.709332E+00  4.173361E+01 -1.115222E+00  7.107772E+00 -7.515958E-01  6.506715E-01
        25   8  1.328040E+00  5.908171E+01  1.661252E+00  6.511173E+00 -7.301827E-01  8.973289E-01
        26   1 -5.349394E+00 -7.276919E+01 -5.319920E+00  3.087192E-01  7.492068E-01 -1.696849E+00
        26   2  2.111714E+00 -5.178074E+01 -1.438003E+00  8.622835E-01  7.359914E-01 -1.245586E+00
        26   3 -2.149830E+00 -7.066584E+01 -1.508316E+00  7.005703E+00  1.068034E+00 -1.550001E+00
        26   4  4.991888E+00 -4.999678E+01  1.628360E+00  7.559267E+00  1.061935E+00 -1.134626E+00
        26   5 -5.197552E+00 -7.225785E+01 -5.043348E+00  2.906850E-01 -1.048529E+00 -8.353271E-01
        26   6  2.198418E+00 -5.140651E+01 -1.241454E+00  8.513840E-01 -1.061496E+00 -5.988082E-01
        26   7 -1.968370E+00 -7.014710E+01 -1.236710E+00  7.000596E+00 -9.409425E-01 -6.895417E-01
        26   8  5.110522E+00 -4.961284E+01  1.825336E+00  7.561295E+00 -9.468448E-01 -4.886519E-01
        27   1 -4.551713E+00 -4.161586E+01 -3.745992E+00  5.685194E+00  7.218878E-01 -9.255623E-01
        27   2  2.957584E+00 -2.061536E+01  2.844990E-01  5.959245E+00  7.129585E-01 -5.025060E-01
        27   3 -2.874809E+00 -4.048165E+01 -1.642213E+00  1.236429E+01  1.060889E+00 -8.418248E-01
        27   4  4.312882E+00 -1.980276E+01  1.637867E+00  1.263834E+01  1.054219E+00 -4.572511E-01
        27   5 -4.465047E+00 -4.132431E+01 -3.588474E+00  5.640436E+00 -1.025625E+00 -4.365642E-01
        27   6  2.975133E+00 -2.047009E+01  3.579133E-01  5.916752E+00 -1.034476E+00 -2.298242E-01
        27   7 -2.778575E+00 -4.018901E+01 -1.490617E+00  1.232973E+01 -8.993486E-01 -3.534327E-01
        27   8  4.342327E+00 -1.965407E+01  1.710789E+00  1.260605E+01 -9.059560E-01 -1.848967E-01
        28   1 -3.729858E+00 -1.046618E+01 -1.986475E+00  7.585406E+00  7.115747E-01 -1.974455E-01
        28   2  3.777476E+00  1.052730E+01  2.044503E+00  7.579149E+00  7.119369E-01  2.129392E-01
        28   3 -3.582002E+00 -1.030593E+01 -1.600176E+00  1.426199E+01  1.056004E+00 -1.806861E-01
        28   4  3.602073E+00  1.036428E+01  1.676531E+00  1.425574E+01  1.056287E+00  1.903299E-01
        28   5 -3.696696E+00 -1.040057E+01 -1.946572E+00  7.528734E+00 -1.034691E+00 -8.353405E-02
        28   6  3.740131E+00  1.044345E+01  1.998833E+00  7.522397E+00 -1.034332E+00  1.093979E-01
        28   7 -3.550504E+00 -1.024173E+01 -1.563323E+00  1.421462E+01 -9.040928E-01 -6.689592E-02
        28   8  3.565403E+00  1.028136E+01  1.633270E+00  1.420828E+01 -9.038125E-01  8.695222E-02
        29   1 -2.924782E+00  2.067303E+01 -2.337691E-01  5.955238E+00  7.131041E-01  5.184248E-01
        29   2  4.586664E+00  4.168236E+01  3.795052E+00  5.671011E+00  7.229828E-01  9.426425E-01
        29   3 -4.299695E+00  1.986096E+01 -1.565734E+00  1.263764E+01  1.054738E+00  4.672688E-01
        29   4  2.889681E+00  4.054823E+01  1.711593E+00  1.235342E+01  1.062137E+00  8.528642E-01
        29   5 -2.946095E+00  2.050956E+01 -3.128260E-01  5.912973E+00 -1.036269E+00  2.559978E-01
        29   6  4.496008E+00  4.137210E+01  3.631643E+00  5.626261E+00 -1.026476E+00  4.635840E-01
        29   7 -4.334043E+00  1.969352E+01 -1.645002E+00  1.260547E+01 -9.076788E-01  2.052120E-01
        29   8  2.788321E+00  4.023632E+01  1.553410E+00  1.231875E+01 -9.003478E-01  3.744554E-01
        30   1 -2.094317E+00  5.183901E+01  1.473896E+00  8.640324E-01  7.372337E-01  1.263663E+00
        30   2  5.357629E+00  7.281366E+01  5.339062E+00  3.037689E-01  7.516485E-01  1.716489E+00
        30   3 -4.982877E+00  5.005993E+01 -1.567810E+00  7.558726E+00  1.063393E+00  1.146593E+00
        30   4  2.149175E+00  7.071469E+01  1.550934E+00  6.998463E+00  1.070405E+00  1.563480E+00
        30   5 -2.184677E+00  5.144600E+01  1.271517E+00  8.533017E-01 -1.064100E+00  6.265855E-01
        30   6  5.202037E+00  7.228335E+01  5.056543E+00  2.856149E-01 -1.049943E+00  8.643275E-01
        30   7 -5.106450E+00  4.965660E+01 -1.771372E+00  7.560855E+00 -9.495584E-01  5.103630E-01
        30   8  1.962684E+00  7.017638E+01  1.272635E+00  6.993168E+00 -9.427525E-01  7.124259E-01
        31   1 -5.699607E+00 -8.280529E+01 -4.655047E+00 -2.060579E-01  9.613567E-01 -1.457993E+00
        31   2  2.685316E+00 -5.893814E+01 -5.724484E-01  3.399168E-01  9.592494E-01 -1.066542E+00
        31   3 -2.640755E+00 -8.082762E+01 -1.121676E+00  7.458746E+00  1.202685E+00 -1.378997E+00
        31   4  5.457300E+00 -5.724734E+01  2.291562E+00  8.004720E+00  1.204887E+00 -1.006850E+00
        31   5 -5.604743E+00 -8.252338E+01 -4.496679E+00 -2.428039E-01 -1.195510E+00 -6.763105E-01
        31   6  2.744716E+00 -5.873041E+01 -4.581191E-01  3.074913E-01 -1.197521E+00 -4.770439E-01
        31   7 -2.525461E+00 -8.054179E+01 -9.706327E-01  7.458557E+00 -1.143586E+00 -5.978857E-01
        31   8  5.539205E+00 -5.703361E+01  2.403410E+00  8.008852E+00 -1.141319E+00 -4.177838E-01
        32   1 -4.969734E+00 -4.737273E+01 -3.448782E+00  5.131340E+00  9.672854E-01 -7.916365E-01
        32   2  3.471703E+00 -2.346815E+01  7.847629E-01  5.403164E+00  9.617838E-01 -4.320330E-01
        32   3 -3.359271E+00 -4.630056E+01 -1.485336E+00  1.278670E+01  1.224922E+00 -7.467898E-01
        32   4  4.791330E+00 -2.268682E+01  2.069594E+00  1.305852E+01  1.220506E+00 -4.084399E-01
        32   5 -4.927827E+00 -4.721773E+01 -3.363738E+00  5.059134E+00 -1.142450E+00 -3.438142E-01
        32   6  3.475125E+00 -2.339426E+01  8.226300E-01  5.332047E+00 -1.147927E+00 -1.790906E-01
        32   7 -3.311538E+00 -4.614583E+01 -1.407007E+00  1.274903E+01 -1.076834E+00 -2.992920E-01
        32   8  4.802683E+00 -2.261109E+01  2.105656E+00  1.302194E+01 -1.081234E+00 -1.556682E-01
        33   1 -4.209759E+00 -1.191084E+01 -2.057877E+00  7.025721E+00  9.660183E-01 -1.736458E-01
        33   2  4.228380E+00  1.198790E+01  2.170505E+00  7.022456E+00  9.663059E-01  1.726775E-01
        33   3 -4.057363E+00 -1.175198E+01 -1.680738E+00  1.467982E+01  1.228242E+00 -1.658221E-01
        33   4  4.087195E+00  1.185318E+01  1.862623E+00  1.467656E+01  1.228419E+00  1.586721E-01
        33   5 -4.193060E+00 -1.187918E+01 -2.037006E+00  6.938533E+00 -1.144688E+00 -6.404202E-02
        33   6  4.205667E+00  1.193638E+01  2.143190E+00  6.935158E+00 -1.144403E+00  8.555297E-02
        33   7 -4.042318E+00 -1.172170E+01 -1.662832E+00  1.462659E+01 -1.076304E+00 -5.627491E-02
        33   8  4.064953E+00  1.180240E+01  1.837298E+00  1.462321E+01 -1.076129E+00  7.164897E-02
        34   1 -3.458261E+00  2.354457E+01 -6.761622E-01  5.410844E+00  9.626403E-01  4.313200E-01
        34   2  4.982916E+00  4.745333E+01  3.552333E+00  5.132058E+00  9.687959E-01  7.916211E-01
        34   3 -4.768262E+00  2.278664E+01 -1.892581E+00  1.306840E+01  1.221476E+00  4.015135E-01
        34   4  3.381844E+00  4.640433E+01  1.656748E+00  1.278961E+01  1.226341E+00  7.404741E-01
        34   5 -3.467437E+00  2.345084E+01 -7.203941E-01  5.339722E+00 -1.149481E+00  2.007984E-01
        34   6  4.935119E+00  4.727819E+01  3.460780E+00  5.059642E+00 -1.143354E+00  3.660597E-01
        34   7 -4.786511E+00  2.269045E+01 -1.935962E+00  1.303175E+01 -1.082827E+00  1.712075E-01
        34   8  3.327080E+00  4.622883E+01  1.570960E+00  1.275167E+01 -1.077982E+00  3.152827E-01
        35   1 -2.674917E+00  5.901689E+01  6.681070E-01  3.485330E-01  9.611385E-01  1.067335E+00
        35   2  5.702154E+00  8.287459E+01  4.733977E+00 -2.054158E-01  9.639573E-01  1.460297E+00
        35   3 -5.441382E+00  5.734740E+01 -2.130390E+00  8.012547E+00  1.207032E+00  1.001262E+00
        35   4  2.648069E+00  8.091748E+01  1.264366E+00  7.458598E+00  1.205370E+00  1.374787E+00
        35   5 -2.740056E+00  5.878885E+01  5.472501E-01  3.161460E-01 -1.200103E+00  4.998542E-01
        35   6  5.601334E+00  8.257189E+01  4.568842E+00 -2.422959E-01 -1.197384E+00  7.001265E-01
        35   7 -5.530070E+00  5.711277E+01 -2.249670E+00  8.016579E+00 -1.144135E+00  4.342597E-01
        35   8  2.525782E+00  8.061027E+01  1.105665E+00  7.458137E+00 -1.145866E+00  6.152356E-01
        36   1 -6.090855E+00 -9.261669E+01 -4.250728E+00 -6.873480E-01  1.167171E+00 -1.324913E+00
        36   2  3.219743E+00 -6.593564E+01  1.035538E-01 -1.451844E-01  1.171974E+00 -9.670097E-01
        36   3 -3.107942E+00 -9.070741E+01 -8.693869E-01  7.912248E+00  1.310345E+00 -1.294166E+00
        36   4  5.934032E+00 -6.429499E+01  2.858104E+00  8.454412E+00  1.318074E+00 -9.443575E-01
        36   5 -6.035598E+00 -9.249869E+01 -4.179834E+00 -7.366891E-01 -1.314158E+00 -5.866273E-01
        36   6  3.260171E+00 -6.584870E+01  1.560775E-01 -1.915909E-01 -1.309326E+00 -4.083613E-01
        36   7 -3.036735E+00 -9.058714E+01 -8.068748E-01  7.917496E+00 -1.347747E+00 -5.561025E-01
        36   8  5.992353E+00 -6.420384E+01  2.906781E+00  8.462594E+00 -1.340009E+00 -3.858730E-01
        37   1 -5.397295E+00 -5.300752E+01 -3.278865E+00  4.630773E+00  1.199677E+00 -7.186076E-01
        37   2  3.973371E+00 -2.627251E+01  1.221680E+00  4.902439E+00  1.195872E+00 -3.978639E-01
        37   3 -3.817779E+00 -5.196598E+01 -1.386576E+00  1.322735E+01  1.354776E+00 -7.022749E-01
        37   4  5.282304E+00 -2.550155E+01  2.482606E+00  1.349901E+01  1.351561E+00 -3.907016E-01
        37   5 -5.389117E+00 -5.295362E+01 -3.249309E+00  4.540740E+00 -1.238590E+00 -2.919462E-01
        37   6  3.965082E+00 -2.625347E+01  1.231202E+00  4.812998E+00 -1.242389E+00 -1.521600E-01
        37   7 -3.805289E+00 -5.191287E+01 -1.363968E+00  1.319080E+01 -1.261533E+00 -2.757316E-01
        37   8  5.280285E+00 -2.548134E+01  2.489751E+00  1.346306E+01 -1.264747E+00 -1.450494E-01
        38   1 -4.675317E+00 -1.334591E+01 -2.133466E+00  6.525103E+00  1.205914E+00 -1.684511E-01
        38   2  4.693619E+00  1.339302E+01  2.357386E+00  6.524167E+00  1.206059E+00  1.375725E-01
        38   3 -4.509977E+00 -1.317872E+01 -1.741494E+00  1.512448E+01  1.364376E+00 -1.681336E-01
        38   4  4.586157E+00  1.328742E+01  2.112818E+00  1.512354E+01  1.364465E+00  1.283599E-01
        38   5 -4.672633E+00 -1.334290E+01 -2.128868E+00  6.418507E+00 -1.236352E+00 -5.576146E-02
        38   6  4.679274E+00  1.335990E+01  2.341358E+00  6.417514E+00 -1.236208E+00  6.781792E-02
        38   7 -4.508734E+00 -1.317702E+01 -1.739838E+00  1.507103E+01 -1.257399E+00 -5.544625E-02
        38   8  4.572345E+00  1.325495E+01  2.098455E+00  1.507004E+01 -1.257310E+00  5.867194E-02
        39   1 -3.963721E+00  2.632221E+01 -1.002079E+00  4.920389E+00  1.196968E+00  3.671235E-01
        39   2  5.413220E+00  5.307712E+01  3.499485E+00  4.643841E+00  1.201143E+00  6.882446E-01
        39   3 -5.225230E+00  2.560835E+01 -2.120126E+00  1.352371E+01  1.352722E+00  3.509986E-01
        39   4  3.881066E+00  5.209261E+01  1.749932E+00  1.324716E+01  1.356229E+00  6.627653E-01
        39   5 -3.966814E+00  2.627298E+01 -1.022970E+00  4.830938E+00 -1.243925E+00  1.643388E-01
        39   6  5.393384E+00  5.299239E+01  3.458283E+00  4.553720E+00 -1.239756E+00  3.044592E-01
        39   7 -5.235452E+00  2.555731E+01 -2.139894E+00  1.348761E+01 -1.266255E+00  1.483306E-01
        39   8  3.856058E+00  5.200803E+01  1.714422E+00  1.321040E+01 -1.262750E+00  2.791643E-01
        40   1 -3.213833E+00  6.600946E+01  1.078570E-01 -1.295259E-01  1.174381E+00  9.370843E-01
        40   2  6.094447E+00  9.269554E+01  4.449381E+00 -6.819750E-01  1.170035E+00  1.295806E+00
        40   3 -5.899648E+00  6.441765E+01 -2.512362E+00  8.473709E+00  1.320708E+00  9.050725E-01
        40   4  3.139627E+00  9.083472E+01  1.201484E+00  7.921260E+00  1.313461E+00  1.255301E+00
        40   5 -3.265750E+00  6.589115E+01  4.357281E-02 -1.758283E-01 -1.312146E+00  4.212017E-01
        40   6  6.027099E+00  9.254476E+01  4.366119E+00 -7.311864E-01 -1.316521E+00  6.000275E-01
        40   7 -5.970093E+00  6.429459E+01 -2.573955E+00  8.481624E+00 -1.342851E+00  3.894215E-01
        40   8  3.055698E+00  9.068114E+01  1.125455E+00  7.926266E+00 -1.350105E+00  5.598162E-01
        41   1 -6.506150E+00 -1.023172E+02 -3.987131E+00 -1.154618E+00  1.371626E+00 -1.258412E+00
        41   2  3.729530E+00 -7.286246E+01  6.770954E-01 -6.142603E-01  1.381312E+00 -9.207850E-01
        41   3 -3.555141E+00 -1.004362E+02 -6.683103E-01  8.360155E+00  1.395877E+00 -1.267934E+00
        41   4  6.422622E+00 -7.123943E+01  3.394110E+00  8.900512E+00  1.407983E+00 -9.295032E-01
        41   5 -6.484428E+00 -1.023368E+02 -3.991445E+00 -1.213503E+00 -1.412986E+00 -5.375469E-01
        41   6  3.753143E+00 -7.287856E+01  6.755832E-01 -6.707201E-01 -1.403306E+00 -3.723216E-01
        41   7 -3.519104E+00 -1.004541E+02 -6.813536E-01  8.371427E+00 -1.557635E+00 -5.469992E-01
        41   8  6.462416E+00 -7.125198E+01  3.388224E+00  8.914210E+00 -1.545553E+00 -3.809767E-01
        42   1 -5.828801E+00 -5.859446E+01 -3.172749E+00  4.157589E+00  1.423640E+00 -6.887176E-01
        42   2  4.469576E+00 -2.907630E+01  1.637010E+00  4.430742E+00  1.420814E+00 -3.923251E-01
        42   3 -4.250356E+00 -5.755693E+01 -1.292776E+00  1.367274E+01  1.456683E+00 -6.970325E-01
        42   4  5.790532E+00 -2.829626E+01  2.916176E+00  1.394589E+01  1.454329E+00 -4.003410E-01
        42   5 -5.850345E+00 -5.862847E+01 -3.192316E+00  4.055590E+00 -1.319549E+00 -2.663561E-01
        42   6  4.449163E+00 -2.910857E+01  1.619484E+00  4.329217E+00 -1.322376E+00 -1.420782E-01
        42   7 -4.267920E+00 -5.759185E+01 -1.319346E+00  1.364040E+01 -1.455107E+00 -2.746108E-01
        42   8  5.775963E+00 -2.832758E+01  2.895995E+00  1.391402E+01 -1.457465E+00 -1.500361E-01
        43   1 -5.131712E+00 -1.480474E+01 -2.191249E+00  6.062505E+00  1.435345E+00 -1.812699E-01
        43   2  5.172325E+00  1.473926E+01  2.611542E+00  6.064501E+00  1.435452E+00  9.895118E-02
        43   3 -4.939411E+00 -1.461639E+01 -1.755722E+00  1.558764E+01  1.470774E+00 -1.891439E-01
        43   4  5.105859E+00  1.466884E+01  2.443278E+00  1.558964E+01  1.470986E+00  9.116576E-02
        43   5 -5.143653E+00 -1.483270E+01 -2.204070E+00  5.943327E+00 -1.314155E+00 -5.733228E-02
        43   6  5.161202E+00  1.471230E+01  2.600454E+00  5.945428E+00 -1.314049E+00  4.992004E-02
        43   7 -4.952275E+00 -1.464551E+01 -1.771493E+00  1.553798E+01 -1.448172E+00 -6.514934E-02
        43   8  5.095685E+00  1.464259E+01  2.433609E+00  1.554008E+01 -1.447961E+00  4.219095E-02
        44   1 -4.453292E+00  2.901899E+01 -1.223960E+00  4.470665E+00  1.421931E+00  3.097672E-01
        44   2  5.869130E+00  5.859830E+01  3.604805E+00  4.195250E+00  1.425114E+00  6.055063E-01
        44   3 -5.669838E+00  2.834784E+01 -2.244573E+00  1.400418E+01  1.455258E+00  3.020054E-01
        44   4  4.395771E+00  5.767034E+01  1.984960E+00  1.372877E+01  1.458223E+00  5.977205E-01
        44   5 -4.455677E+00  2.899613E+01 -1.230331E+00  4.369279E+00 -1.323781E+00  1.345923E-01
        44   6  5.867389E+00  5.857603E+01  3.599985E+00  4.093646E+00 -1.320598E+00  2.586688E-01
        44   7 -5.678045E+00  2.832357E+01 -2.249826E+00  1.397226E+01 -1.458613E+00  1.268867E-01
        44   8  4.390065E+00  5.764852E+01  1.985594E+00  1.369663E+01 -1.455646E+00  2.509393E-01
        45   1 -3.728140E+00  7.288116E+01 -2.596862E-01 -5.804826E-01  1.383969E+00  8.368138E-01
        45   2  6.520551E+00  1.023768E+02  4.406995E+00 -1.135288E+00  1.374926E+00  1.173019E+00
        45   3 -6.357699E+00  7.135027E+01 -2.733088E+00  8.948105E+00  1.410474E+00  8.290186E-01
        45   4  3.634255E+00  1.005892E+02  1.334540E+00  8.393300E+00  1.399424E+00  1.165222E+00
        45   5 -3.774774E+00  7.283991E+01 -2.828050E-01 -6.366035E-01 -1.405932E+00  3.643294E-01
        45   6  6.474594E+00  1.023362E+02  4.385460E+00 -1.193421E+00 -1.414971E+00  5.289228E-01
        45   7 -6.420257E+00  7.130512E+01 -2.753288E+00  8.961438E+00 -1.547570E+00  3.565906E-01
        45   8  3.574232E+00  1.005465E+02  1.320259E+00  8.404620E+00 -1.558601E+00  5.211824E-01
        46   1 -6.928901E+00 -1.119696E+02 -3.769996E+00 -1.620482E+00  1.578344E+00 -1.240958E+00
        46   2  4.223445E+00 -7.978353E+01  1.218453E+00 -1.081812E+00  1.592262E+00 -9.160178E-01
        46   3 -3.980375E+00 -1.100878E+02 -4.458349E-01  8.792693E+00  1.462624E+00 -1.288942E+00
        46   4  6.920305E+00 -7.815339E+01  3.955396E+00  9.331363E+00  1.479013E+00 -9.554055E-01
        46   5 -6.940232E+00 -1.121213E+02 -3.847373E+00 -1.687399E+00 -1.495259E+00 -5.171418E-01
        46   6  4.228863E+00 -7.990124E+01  1.162920E+00 -1.146251E+00 -1.481379E+00 -3.605533E-01
        46   7 -3.977277E+00 -1.102377E+02 -5.319364E-01  8.810263E+00 -1.774779E+00 -5.647785E-01
        46   8  6.941974E+00 -7.826757E+01  3.895387E+00  9.351411E+00 -1.758445E+00 -3.996560E-01
        47   1 -6.259542E+00 -6.419533E+01 -3.075583E+00  3.692486E+00  1.644941E+00 -6.942547E-01
        47   2  4.963143E+00 -3.193002E+01  2.068050E+00  3.968186E+00  1.642981E+00 -4.133268E-01
        47   3 -4.657350E+00 -6.313910E+01 -1.157018E+00  1.411009E+01  1.536204E+00 -7.274079E-01
        47   4  6.316084E+00 -3.112304E+01  3.405030E+00  1.438579E+01  1.534934E+00 -4.380433E-01
        47   5 -6.311472E+00 -6.431817E+01 -3.145034E+00  3.581875E+00 -1.386244E+00 -2.614405E-01
        47   6  4.927686E+00 -3.201947E+01  2.020117E+00  3.858267E+00 -1.388214E+00 -1.472479E-01
        47   7 -4.704580E+00 -6.326261E+01 -1.233368E+00  1.408384E+01 -1.657173E+00 -2.943538E-01
        47   8  6.287130E+00 -3.121135E+01  3.354406E+00  1.436023E+01 -1.658458E+00 -1.717856E-01
        48   1 -5.582857E+00 -1.632943E+01 -2.207898E+00  5.623670E+00  1.660444E+00 -2.142018E-01
        48   2  5.662701E+00  1.600417E+01  2.943697E+00  5.628167E+00  1.660803E+00  4.888974E-02
        48   3 -5.352222E+00 -1.610770E+01 -1.699433E+00  1.606375E+01  1.553325E+00 -2.327829E-01
        48   4  5.644120E+00  1.597668E+01  2.870658E+00  1.606825E+01  1.554066E+00  3.863432E-02
        48   5 -5.612573E+00 -1.639726E+01 -2.242822E+00  5.496112E+00 -1.378205E+00 -7.017255E-02
        48   6  5.649290E+00  1.596934E+01  2.930124E+00  5.500992E+00 -1.377852E+00  2.620860E-02
        48   7 -5.382043E+00 -1.617647E+01 -1.737365E+00  1.602061E+01 -1.647496E+00 -8.861920E-02
        48   8  5.632408E+00  1.594272E+01  2.858283E+00  1.602549E+01 -1.646764E+00  1.602738E-02
        49   1 -4.936125E+00  3.162421E+01 -1.343457E+00  4.052998E+00  1.643362E+00  2.468399E-01
        49   2  6.345628E+00  6.402986E+01  3.856728E+00  3.777059E+00  1.646308E+00  5.245583E-01
        49   3 -6.108067E+00  3.099870E+01 -2.256529E+00  1.451084E+01  1.534177E+00  2.425408E-01
        49   4  4.927004E+00  6.315768E+01  2.368066E+00  1.423490E+01  1.537273E+00  5.282063E-01
        49   5 -4.943626E+00  3.161055E+01 -1.344130E+00  3.943585E+00 -1.389138E+00  1.027404E-01
        49   6  6.353823E+00  6.404784E+01  3.876747E+00  3.667795E+00 -1.386194E+00  2.154482E-01
        49   7 -6.120455E+00  3.098384E+01 -2.256324E+00  1.448559E+01 -1.658829E+00  9.847240E-02
        49   8  4.932098E+00  6.317623E+01  2.393127E+00  1.420980E+01 -1.655736E+00  2.190698E-01
        50   1 -4.233352E+00  7.965871E+01 -4.579843E-01 -1.009862E+00  1.594091E+00  7.428159E-01
        50   2  6.972746E+00  1.119762E+02  4.578170E+00 -1.570130E+00  1.581877E+00  1.061388E+00
        50   3 -6.818015E+00  7.818354E+01 -2.790561E+00  9.441789E+00  1.479375E+00  7.520670E-01
        50   4  4.141095E+00  1.102541E+02  1.669289E+00  8.881520E+00  1.465805E+00  1.078000E+00
        50   5 -4.282115E+00  7.966989E+01 -4.523365E-01 -1.073519E+00 -1.482673E+00  3.128380E-01
        50   6  6.938803E+00  1.120170E+02  4.603638E+00 -1.635148E+00 -1.494866E+00  4.662042E-01
        50   7 -6.881026E+00  7.819128E+01 -2.782156E+00  9.461665E+00 -1.758135E+00  3.220221E-01
        50   8  4.094692E+00  1.102932E+02  1.701683E+00  8.900036E+00 -1.771675E+00  4.826957E-01
        51   1 -7.345004E+00 -1.216054E+02 -3.519986E+00 -2.090646E+00  1.789676E+00 -1.265508E+00
        51   2  4.698909E+00 -8.675961E+01  1.780585E+00 -1.554359E+00  1.808147E+00 -9.481005E-01
        51   3 -4.378461E+00 -1.197009E+02 -1.380496E-01  9.197897E+00  1.513050E+00 -1.353913E+00
        51   4  7.417077E+00 -8.510344E+01  4.582980E+00  9.734184E+00  1.534576E+00 -1.020915E+00
        51   5 -7.392138E+00 -1.218964E+02 -3.674656E+00 -2.164800E+00 -1.562461E+00 -5.224052E-01
        51   6  4.682105E+00 -8.698902E+01  1.665424E+00 -1.625450E+00 -1.544074E+00 -3.714514E-01
        51   7 -4.409374E+00 -1.199895E+02 -3.010409E-01  9.221618E+00 -1.999570E+00 -6.101705E-01
        51   8  7.418292E+00 -8.532869E+01  4.463691E+00  9.760968E+00 -1.978150E+00 -4.437394E-01
        52   1 -6.695282E+00 -6.987595E+01 -2.946545E+00  3.232990E+00  1.868191E+00 -7.326320E-01
        52   2  5.449045E+00 -3.488714E+01  2.545731E+00  3.509121E+00  1.867583E+00 -4.613688E-01
        52   3 -5.059032E+00 -6.878652E+01 -9.513507E-01  1.454262E+01  1.597853E+00 -7.938537E-01
        52   4  6.840948E+00 -3.404205E+01  3.970782E+00  1.481875E+01  1.598391E+00 -5.065073E-01
        52   5 -6.781600E+00 -7.009909E+01 -3.072014E+00  3.116172E+00 -1.438380E+00 -2.768552E-01
        52   6  5.393688E+00 -3.504706E+01  2.460252E+00  3.393451E+00 -1.439021E+00 -1.693673E-01
        52   7 -5.139281E+00 -6.900986E+01 -1.083583E+00  1.452432E+01 -1.866536E+00 -3.376338E-01
        52   8  6.793428E+00 -3.420041E+01  3.882666E+00  1.480160E+01 -1.866039E+00 -2.141791E-01
        53   1 -6.047317E+00 -1.796823E+01 -2.164600E+00  5.208654E+00  1.886148E+00 -2.702056E-01
        53   2  6.150646E+00  1.715953E+01  3.367518E+00  5.206930E+00  1.887367E+00 -1.920126E-02
        53   3 -5.796468E+00 -1.771397E+01 -1.567905E+00  1.656052E+01  1.616358E+00 -3.035900E-01
        53   4  6.159128E+00  1.717142E+01  3.398690E+00  1.655879E+01  1.618077E+00 -3.655640E-02
        53   5 -6.100544E+00 -1.809075E+01 -2.229660E+00  5.075720E+00 -1.427403E+00 -9.761100E-02
        53   6  6.128244E+00  1.709998E+01  3.342239E+00  5.074496E+00 -1.426197E+00 -9.056985E-03
        53   7 -5.849848E+00 -1.783761E+01 -1.636571E+00  1.652636E+01 -1.853712E+00 -1.307538E-01
        53   8  6.138327E+00  1.711250E+01  3.373897E+00  1.652514E+01 -1.852011E+00 -2.628654E-02
        54   1 -5.429739E+00  3.411760E+01 -1.353631E+00  3.660848E+00  1.865215E+00  1.688406E-01
        54   2  6.825321E+00  6.935924E+01  4.254927E+00  3.376223E+00  1.868696E+00  4.315760E-01
        54   3 -6.577390E+00  3.353358E+01 -2.152694E+00  1.504082E+01  1.591816E+00  1.628838E-01
        54   4  5.439898E+00  6.853745E+01  2.901063E+00  1.475620E+01  1.595610E+00  4.407309E-01
        54   5 -5.449577E+00  3.409458E+01 -1.358738E+00  3.545678E+00 -1.438809E+00  6.119644E-02
        54   6  6.834800E+00  6.939585E+01  4.287924E+00  3.261366E+00 -1.435336E+00  1.645784E-01
        54   7 -6.602159E+00  3.350912E+01 -2.157691E+00  1.502372E+01 -1.865702E+00  5.528279E-02
        54   8  5.446167E+00  6.857433E+01  2.938184E+00  1.473941E+01 -1.861919E+00  1.736670E-01
        55   1 -4.745188E+00  8.634058E+01 -4.892321E-01 -1.425678E+00  1.806689E+00  6.381775E-01
        55   2  7.443728E+00  1.215165E+02  4.964579E+00 -1.995306E+00  1.792551E+00  9.398877E-01
        55   3 -7.292123E+00  8.492167E+01 -2.672002E+00  9.954504E+00  1.527604E+00  6.580534E-01
        55   4  4.659639E+00  1.198604E+02  2.228449E+00  9.384876E+00  1.512635E+00  9.739423E-01
        55   5 -4.804007E+00  8.638139E+01 -4.671157E-01 -1.495880E+00 -1.541802E+00  2.546857E-01
        55   6  7.412807E+00  1.216136E+02  5.023355E+00 -2.066341E+00 -1.555917E+00  3.974814E-01
        55   7 -7.364096E+00  8.495921E+01 -2.647627E+00  9.981433E+00 -1.974013E+00  2.744178E-01
        55   8  4.617279E+00  1.199560E+02  2.293489E+00  9.410972E+00 -1.988953E+00  4.312896E-01
        56   1 -7.745908E+00 -1.312458E+02 -3.177808E+00 -2.552753E+00  2.006491E+00 -1.327154E+00
        56   2  5.134499E+00 -9.387539E+01  2.386478E+00 -2.019345E+00  2.030783E+00 -1.013181E+00
        56   3 -4.749983E+00 -1.293062E+02  2.916796E-01  9.571539E+00  1.549344E+00 -1.460760E+00
        56   4  7.883553E+00 -9.218264E+01  5.279934E+00  1.010495E+01  1.577844E+00 -1.124800E+00
        56   5 -7.833061E+00 -1.316923E+02 -3.417945E+00 -2.632699E+00 -1.616026E+00 -5.548191E-01
        56   6  5.090348E+00 -9.423478E+01  2.202592E+00 -2.095072E+00 -1.591902E+00 -4.067471E-01
        56   7 -4.817241E+00 -1.297489E+02  4.425673E-02  9.601942E+00 -2.231364E+00 -6.874577E-01
        56   8  7.861083E+00 -9.253646E+01  5.092929E+00  1.013957E+01 -2.203064E+00 -5.175587E-01
        57   1 -7.186531E+00 -7.573310E+01 -2.781436E+00  2.821460E+00  2.096339E+00 -8.011048E-01
        57   2  5.900178E+00 -3.798265E+01  3.090471E+00  3.081794E+00  2.098419E+00 -5.356753E-01
        57   3 -5.562606E+00 -7.462471E+01 -7.107253E-01  1.503177E+01  1.645690E+00 -8.957517E-01
        57   4  7.282519E+00 -3.711584E+01  4.597486E+00  1.529211E+01  1.649220E+00 -6.059390E-01
        57   5 -7.314071E+00 -7.607550E+01 -2.972768E+00  2.702531E+00 -1.475762E+00 -3.148609E-01
        57   6  5.819033E+00 -3.822975E+01  2.958498E+00  2.964318E+00 -1.473741E+00 -2.118952E-01
        57   7 -5.683718E+00 -7.496734E+01 -9.092483E-01  1.502622E+01 -2.081122E+00 -4.088230E-01
        57   8  7.209550E+00 -3.736142E+01  4.462401E+00  1.528800E+01 -2.077660E+00 -2.816506E-01
        58   1 -6.593519E+00 -1.974561E+01 -2.056251E+00  4.840453E+00  2.115670E+00 -3.500427E-01
        58   2  6.578099E+00  1.821062E+01  3.892913E+00  4.798607E+00  2.118881E+00 -1.083145E-01
        58   3 -6.433477E+00 -1.950270E+01 -1.406596E+00  1.711060E+01  1.663015E+00 -4.025415E-01
        58   4  6.501351E+00  1.821674E+01  3.990057E+00  1.706876E+01  1.665689E+00 -1.366617E-01
        58   5 -6.679397E+00 -1.993982E+01 -2.161560E+00  4.705867E+00 -1.460482E+00 -1.440183E-01
        58   6  6.538074E+00  1.811069E+01  3.846164E+00  4.663484E+00 -1.457251E+00 -6.154062E-02
        58   7 -6.524493E+00 -1.970038E+01 -1.518312E+00  1.708959E+01 -2.064693E+00 -1.961372E-01
        58   8  6.457901E+00  1.811506E+01  3.940899E+00  1.704721E+01 -2.061993E+00 -8.968270E-02
        59   1 -5.981018E+00  3.650874E+01 -1.243344E+00  3.271222E+00  2.088979E+00  7.074766E-02
        59   2  7.246496E+00  7.456301E+01  4.794094E+00  2.952017E+00  2.093930E+00  3.182265E-01
        59   3 -7.189014E+00  3.593286E+01 -1.954942E+00  1.556224E+01  1.627149E+00  5.890039E-02
        59   4  5.810682E+00  7.375932E+01  3.550921E+00  1.524303E+01  1.631407E+00  3.273062E-01
        59   5 -6.022257E+00  3.645947E+01 -1.263396E+00  3.150515E+00 -1.471277E+00  3.184880E-03
        59   6  7.245900E+00  7.459635E+01  4.826910E+00  2.830615E+00 -1.466298E+00  9.754057E-02
        59   7 -7.240004E+00  3.587983E+01 -1.977770E+00  1.555203E+01 -2.078733E+00 -8.576677E-03
        59   8  5.801983E+00  7.379054E+01  3.584807E+00  1.523213E+01 -2.074441E+00  1.065546E-01
        60   1 -5.285322E+00  9.290219E+01 -3.471377E-01 -1.861209E+00  2.021545E+00  5.123299E-01
        60   2  7.900292E+00  1.309446E+02  5.562472E+00 -2.442841E+00  2.006720E+00  7.951513E-01
        60   3 -7.796281E+00  9.154303E+01 -2.366718E+00  1.044469E+01  1.551310E+00  5.365933E-01
        60   4  5.164434E+00  1.293606E+02  3.018126E+00  9.863057E+00  1.536481E+00  8.399704E-01
        60   5 -5.362500E+00  9.295001E+01 -3.213893E-01 -1.939389E+00 -1.581939E+00  1.802695E-01
        60   6  7.863081E+00  1.310736E+02  5.640256E+00 -2.521025E+00 -1.596764E+00  3.119335E-01
        60   7 -7.884579E+00  9.158813E+01 -2.338909E+00  1.047675E+01 -2.195903E+00  2.043574E-01
        60   8  5.117730E+00  1.294885E+02  3.101768E+00  9.895116E+00 -2.210731E+00  3.564283E-01
        61   1 -8.180291E+00 -1.409804E+02 -2.768225E+00 -2.908723E+00  2.218900E+00 -1.403724E+00
        61   2  5.462482E+00 -1.012660E+02  2.993254E+00 -2.391554E+00  2.251035E+00 -1.097664E+00
        61   3 -5.219306E+00 -1.390436E+02  7.269418E-01  9.998586E+00  1.548938E+00 -1.583197E+00
        61   4  8.185299E+00 -9.956732E+01  5.932697E+00  1.051575E+01  1.584579E+00 -1.253585E+00
        61   5 -8.304144E+00 -1.415829E+02 -3.093045E+00 -3.001274E+00 -1.664640E+00 -6.130264E-01
        61   6  5.386622E+00 -1.017732E+02  2.733188E+00 -2.480590E+00 -1.632690E+00 -4.674090E-01
        61   7 -5.326281E+00 -1.396437E+02  3.932453E-01  1.002367E+01 -2.485552E+00 -7.912015E-01
        61   8  8.128041E+00 -1.000704E+02  5.667776E+00  1.054435E+01 -2.450121E+00 -6.222018E-01
        62   1 -7.938281E+00 -8.190048E+01 -2.664998E+00  2.626500E+00  2.323446E+00 -8.905815E-01
        62   2  6.215800E+00 -4.110371E+01  3.718499E+00  2.783596E+00  2.331752E+00 -6.308806E-01
        62   3 -6.637546E+00 -8.091084E+01 -6.669332E-01  1.581651E+01  1.661198E+00 -1.024075E+00
        62   4  7.278629E+00 -4.035197E+01  5.161451E+00  1.597361E+01  1.667000E+00 -7.266552E-01
        62   5 -8.120957E+00 -8.238400E+01 -2.934050E+00  2.502624E+00 -1.504739E+00 -3.779876E-01
        62   6  6.102410E+00 -4.144230E+01  3.535475E+00  2.657210E+00 -1.496301E+00 -2.793013E-01
        62   7 -6.830491E+00 -8.140189E+01 -9.508109E-01  1.582650E+01 -2.317762E+00 -5.105156E-01
        62   8  7.156692E+00 -4.069638E+01  4.967618E+00  1.598108E+01 -2.311810E+00 -3.743828E-01
        63   1 -7.379947E+00 -2.151950E+01 -1.877975E+00  4.534166E+00  2.345608E+00 -4.496908E-01
        63   2  6.756668E+00  1.923234E+01  4.492235E+00  4.363742E+00  2.352750E+00 -2.143721E-01
        63   3 -7.624083E+00 -2.142615E+01 -1.322668E+00  1.771058E+01  1.672887E+00 -5.204152E-01
        63   4  6.280670E+00  1.909383E+01  4.506531E+00  1.754015E+01  1.675204E+00 -2.543776E-01
        63   5 -7.511005E+00 -2.178872E+01 -2.029756E+00  4.385324E+00 -1.480495E+00 -2.143684E-01
        63   6  6.684048E+00  1.908316E+01  4.415210E+00  4.210063E+00 -1.473099E+00 -1.356550E-01
        63   7 -7.778838E+00 -2.170696E+01 -1.489380E+00  1.768850E+01 -2.299963E+00 -2.845811E-01
        63   8  6.186032E+00  1.893474E+01  4.418489E+00  1.751324E+01 -2.297356E+00 -1.753711E-01
        64   1 -6.684555E+00  3.886779E+01 -1.013409E+00  2.792150E+00  2.308441E+00 -4.395412E-02
        64   2  7.480138E+00  7.962817E+01  5.441855E+00  2.412541E+00  2.314805E+00  1.863176E-01
        64   3 -8.049474E+00  3.825460E+01 -1.692449E+00  1.595889E+01  1.614325E+00 -6.339297E-02
        64   4  5.899042E+00  7.879881E+01  4.258401E+00  1.557928E+01  1.618885E+00  1.923492E-01
        64   5 -6.758849E+00  3.878175E+01 -1.056991E+00  2.644762E+00 -1.489544E+00 -7.594136E-02
        64   6  7.455561E+00  7.964293E+01  5.463204E+00  2.263344E+00 -1.483084E+00  8.485834E-03
        64   7 -8.139317E+00  3.816211E+01 -1.742013E+00  1.593295E+01 -2.320000E+00 -9.523954E-02
        64   8  5.860480E+00  7.880867E+01  4.277417E+00  1.555153E+01 -2.315332E+00  1.447379E-02
        65   1 -5.871883E+00  9.929329E+01 -3.571068E-02 -2.402521E+00  2.227129E+00  3.636047E-01
        65   2  8.244086E+00  1.400129E+02  6.297921E+00 -2.988248E+00  2.213258E+00  6.176901E-01
        65   3 -8.320427E+00  9.800465E+01 -1.882634E+00  1.076815E+01  1.514991E+00  3.856500E-01
        65   4  5.593318E+00  1.385220E+02  3.979140E+00  1.018242E+01  1.503184E+00  6.580153E-01
        65   5 -5.973091E+00  9.932569E+01 -1.804456E-02 -2.511127E+00 -1.608088E+00  8.255999E-02
        65   6  8.181044E+00  1.401201E+02  6.367984E+00 -3.094785E+00 -1.622067E+00  2.005072E-01
        65   7 -8.426179E+00  9.803684E+01 -1.861144E+00  1.077383E+01 -2.447370E+00  1.044458E-01
        65   8  5.527195E+00  1.386305E+02  4.056441E+00  1.019017E+01 -2.459302E+00  2.405405E-01
        66   1 -9.141613E+00 -1.517279E+02 -2.875533E+00 -2.094747E+00  2.420989E+00 -1.493849E+00
        66   2  5.755112E+00 -1.085602E+02  3.612548E+00 -1.505650E+00  2.456596E+00 -1.213730E+00
        66   3 -6.390627E+00 -1.499781E+02  2.061470E-01  9.917065E+00  1.851021E+00 -1.683670E+00
        66   4  8.313369E+00 -1.070031E+02  6.244526E+00  1.050616E+01  1.895309E+00 -1.363651E+00
        66   5 -9.306360E+00 -1.524854E+02 -3.272310E+00 -2.083286E+00 -1.720012E+00 -6.857564E-01
        66   6  5.675175E+00 -1.091377E+02  3.318402E+00 -1.483826E+00 -1.685008E+00 -5.617781E-01
        66   7 -6.535446E+00 -1.507189E+02 -1.547730E-01  9.798413E+00 -2.431576E+00 -8.783031E-01
        66   8  8.250592E+00 -1.075667E+02  5.979781E+00  1.039787E+01 -2.387765E+00 -7.138513E-01
        67   1 -9.145379E+00 -8.776791E+01 -2.573905E+00  3.925245E+00  2.543764E+00 -1.012397E+00
        67   2  6.164457E+00 -4.373767E+01  4.428647E+00  3.892292E+00  2.558441E+00 -7.424639E-01
        67   3 -8.584249E+00 -8.715077E+01 -1.077917E+00  1.612802E+01  1.999706E+00 -1.135198E+00
        67   4  6.516593E+00 -4.332953E+01  5.436982E+00  1.609507E+01  2.008686E+00 -8.310741E-01
        67   5 -9.366300E+00 -8.830753E+01 -2.881302E+00  3.932253E+00 -1.546132E+00 -4.793406E-01
        67   6  6.019251E+00 -4.411995E+01  4.216291E+00  3.892498E+00 -1.531059E+00 -3.780953E-01
        67   7 -8.814261E+00 -8.768888E+01 -1.371185E+00  1.599650E+01 -2.242716E+00 -6.039050E-01
        67   8  6.359295E+00 -4.371330E+01  5.231753E+00  1.595675E+01 -2.233422E+00 -4.679777E-01
        68   1 -8.692691E+00 -2.287936E+01 -1.666769E+00  5.388675E+00  2.566789E+00 -5.564051E-01
        68   2  6.336344E+00  2.047467E+01  5.075988E+00  4.932599E+00  2.581862E+00 -3.180162E-01
        68   3 -9.748190E+00 -2.315975E+01 -1.545883E+00  1.742345E+01  2.001993E+00 -6.230970E-01
        68   4  5.082238E+00  1.999568E+01  4.733455E+00  1.696737E+01  2.007963E+00 -3.590174E-01
        68   5 -8.872960E+00 -2.319600E+01 -1.852018E+00  5.350709E+00 -1.512492E+00 -3.122835E-01
        68   6  6.215849E+00  2.027913E+01  4.968876E+00  4.883766E+00 -1.496788E+00 -2.337275E-01
        68   7 -9.936799E+00 -2.347749E+01 -1.726477E+00  1.724084E+01 -2.222914E+00 -3.799329E-01
        68   8  4.950551E+00  1.979618E+01  4.624346E+00  1.677389E+01 -2.216443E+00 -2.753173E-01
        69   1 -7.657359E+00  4.127940E+01 -7.212820E-01  3.109057E+00  2.517394E+00 -1.469566E-01
        69   2  7.105748E+00  8.391796E+01  5.850521E+00  2.553869E+00  2.530649E+00  8.199809E-02
        69   3 -9.345107E+00  4.053521E+01 -1.514167E+00  1.495283E+01  1.921432E+00 -1.739517E-01
        69   4  5.237220E+00  8.299299E+01  4.635815E+00  1.439764E+01  1.930270E+00  6.757760E-02
        69   5 -7.769661E+00  4.114065E+01 -7.922074E-01  3.051963E+00 -1.514595E+00 -1.741479E-01
        69   6  7.028499E+00  8.384428E+01  5.831365E+00  2.491502E+00 -1.501033E+00 -8.992959E-02
        69   7 -9.450024E+00  4.039933E+01 -1.582926E+00  1.474068E+01 -2.244257E+00 -2.015306E-01
        69   8  5.164760E+00  8.291958E+01  4.612769E+00  1.418021E+01 -2.235176E+00 -1.045571E-01
        70   1 -6.653870E+00  1.049866E+02  2.335929E-01 -2.221447E+00  2.414519E+00  2.413978E-01
        70   2  8.643909E+00  1.489026E+02  7.310141E+00 -2.853291E+00  2.406324E+00  4.479311E-01
        70   3 -8.871253E+00  1.038430E+02 -1.360844E+00  9.937937E+00  1.783068E+00  2.408942E-01
        70   4  6.277094E+00  1.476096E+02  5.367029E+00  9.306092E+00  1.774807E+00  4.728744E-01
        70   5 -6.788480E+00  1.049406E+02  2.200586E-01 -2.251983E+00 -1.634026E+00 -2.767978E-02
        70   6  8.565226E+00  1.489733E+02  7.366351E+00 -2.883907E+00 -1.642215E+00  5.817149E-02
        70   7 -8.984354E+00  1.038035E+02 -1.374408E+00  9.760746E+00 -2.377948E+00 -2.819063E-02
        70   8  6.217774E+00  1.476846E+02  5.418204E+00  9.128821E+00 -2.386205E+00  8.347292E-02
        71   1 -1.038530E+01 -1.626478E+02 -3.565351E+00 -1.209533E+00  2.381639E+00 -1.582273E+00
        71   2  5.952828E+00 -1.156678E+02  3.915103E+00 -6.391057E-01  2.431378E+00 -1.284998E+00
        71   3 -7.741361E+00 -1.609733E+02 -6.276888E-01  1.180965E+01  2.091657E+00 -1.744405E+00
        71   4  8.396401E+00 -1.141937E+02  6.385244E+00  1.238008E+01  2.145482E+00 -1.421246E+00
        71   5 -1.046926E+01 -1.632608E+02 -3.847494E+00 -1.102190E+00 -2.018845E+00 -8.211348E-01
        71   6  5.924126E+00 -1.161638E+02  3.700103E+00 -5.268845E-01 -1.969288E+00 -6.844610E-01
        71   7 -7.821434E+00 -1.615769E+02 -8.822523E-01  1.175857E+01 -2.451558E+00 -9.855949E-01
        71   8  8.368710E+00 -1.146831E+02  6.191110E+00  1.233388E+01 -2.397856E+00 -8.226657E-01
        72   1 -1.145613E+01 -9.351271E+01 -3.057152E+00  5.003572E+00  2.552710E+00 -1.076583E+00
        72   2  5.421240E+00 -4.534479E+01  5.032839E+00  4.579576E+00  2.574153E+00 -8.044590E-01
        72   3 -1.211820E+01 -9.345419E+01 -2.200000E+00  1.829837E+01  2.278775E+00 -1.192279E+00
        72   4  4.555059E+00 -4.549038E+01  5.413728E+00  1.787438E+01  2.295450E+00 -8.898909E-01
        72   5 -1.167018E+01 -9.401426E+01 -3.318016E+00  5.088059E+00 -1.812263E+00 -5.947778E-01
        72   6  5.270458E+00 -4.571082E+01  4.847351E+00  4.658371E+00 -1.790608E+00 -4.864324E-01
        72   7 -1.232249E+01 -9.394664E+01 -2.440296E+00  1.822492E+01 -2.231544E+00 -7.121357E-01
        72   8  4.411109E+00 -4.585024E+01  5.241968E+00  1.779523E+01 -2.214725E+00 -5.730911E-01
        73   1 -1.081841E+01 -2.312469E+01 -1.513493E+00  5.307592E+00  2.566125E+00 -6.184335E-01
        73   2  4.955526E+00  2.242192E+01  5.519696E+00  4.415247E+00  2.584510E+00 -3.823262E-01
        73   3 -1.322262E+01 -2.401233E+01 -2.068085E+00  1.795748E+01  2.264347E+00 -6.870405E-01
        73   4  2.359087E+00  2.134205E+01  4.516565E+00  1.706513E+01  2.276089E+00 -4.352315E-01
        73   5 -1.100441E+01 -2.344474E+01 -1.684564E+00  5.339344E+00 -1.775964E+00 -4.166029E-01
        73   6  4.806200E+00  2.217603E+01  5.396691E+00  4.439069E+00 -1.757283E+00 -3.341706E-01
        73   7 -1.339071E+01 -2.432266E+01 -2.224650E+00  1.782585E+01 -2.215027E+00 -4.861952E-01
        73   8  2.224909E+00  2.110312E+01  4.401627E+00  1.692558E+01 -2.203084E+00 -3.878356E-01
        74   1 -8.999736E+00  4.426558E+01 -3.644196E-01  1.895313E+00  2.491701E+00 -2.170001E-01
        74   2  6.032560E+00  8.793953E+01  6.069284E+00  1.067202E+00  2.508751E+00 -1.428083E-03
        74   3 -1.153508E+01  4.313763E+01 -1.588885E+00  1.406465E+01  2.158638E+00 -2.616102E-01
        74   4  3.334425E+00  8.664879E+01  4.464965E+00  1.323654E+01  2.171472E+00 -3.907694E-02
        74   5 -9.124725E+00  4.406170E+01 -4.574959E-01  1.897105E+00 -1.779742E+00 -2.726258E-01
        74   6  5.927277E+00  8.777198E+01  6.005569E+00  1.063962E+00 -1.762504E+00 -1.869146E-01
        74   7 -1.164099E+01  4.294134E+01 -1.675768E+00  1.390113E+01 -2.230326E+00 -3.178765E-01
        74   8  3.245877E+00  8.648649E+01  4.401989E+00  1.306798E+01 -2.217365E+00 -2.251041E-01
        75   1 -7.526086E+00  1.097685E+02  3.830083E-01 -3.234065E+00  2.345820E+00  1.571058E-01
        75   2  8.074806E+00  1.547363E+02  7.418151E+00 -3.783903E+00  2.335907E+00  3.746563E-01
        75   3 -9.510821E+00  1.087182E+02 -1.133153E+00  9.243429E+00  1.988687E+00  1.200244E-01
        75   4  5.940777E+00  1.535367E+02  5.553638E+00  8.693591E+00  1.983663E+00  3.321641E-01
        75   5 -7.683348E+00  1.095835E+02  3.072757E-01 -3.197864E+00 -1.909906E+00 -1.193115E-01
        75   6  7.914496E+00  1.545353E+02  7.348226E+00 -3.741867E+00 -1.920036E+00 -2.032749E-02
        75   7 -9.632839E+00  1.085454E+02 -1.203339E+00  9.097583E+00 -2.375332E+00 -1.569253E-01
        75   8  5.813567E+00  1.533459E+02  5.484258E+00  8.553581E+00 -2.380503E+00 -6.342990E-02
        76   1 -1.395927E+01 -1.785252E+02 -6.637050E+00  1.131289E+00  2.433633E+00 -1.641950E+00
        76   2  6.040725E+00 -1.225482E+02  4.052620E+00  1.612503E+00  2.494463E+00 -1.304690E+00
        76   3 -1.169888E+01 -1.770826E+02 -4.088939E+00  1.641726E+01  2.460506E+00 -1.784363E+00
        76   4  8.125701E+00 -1.212810E+02  6.191445E+00  1.689847E+01  2.531311E+00 -1.420569E+00
        76   5 -1.398995E+01 -1.790333E+02 -6.826886E+00  1.279766E+00 -2.213572E+00 -9.793059E-01
        76   6  6.060995E+00 -1.229420E+02  3.918322E+00  1.772887E+00 -2.152937E+00 -7.821552E-01
        76   7 -1.170301E+01 -1.775726E+02 -4.244717E+00  1.637591E+01 -2.309463E+00 -1.123764E+00
        76   8  8.170012E+00 -1.216592E+02  6.085328E+00  1.686903E+01 -2.238710E+00 -8.996980E-01
        77   1 -1.512370E+01 -9.789689E+01 -3.744779E+00  7.068524E+00  2.626932E+00 -1.077108E+00
        77   2  3.487098E+00 -4.519680E+01  5.591116E+00  5.997202E+00  2.656138E+00 -7.926019E-01
        77   3 -1.780737E+01 -9.875982E+01 -3.937550E+00  2.155245E+01  2.634220E+00 -1.179185E+00
        77   4  5.659053E-01 -4.629725E+01  4.844142E+00  2.048112E+01  2.665585E+00 -8.835072E-01
        77   5 -1.527572E+01 -9.831581E+01 -3.933148E+00  7.205961E+00 -2.003501E+00 -6.751209E-01
        77   6  3.359743E+00 -4.556439E+01  5.433621E+00  6.137215E+00 -1.974337E+00 -5.798482E-01
        77   7 -1.789952E+01 -9.914896E+01 -4.086514E+00  2.149605E+01 -2.159693E+00 -7.786640E-01
        77   8  4.950121E-01 -4.663846E+01  4.718095E+00  2.042731E+01 -2.128340E+00 -6.720586E-01
        78   1 -1.408475E+01 -2.156821E+01 -1.376623E+00  4.970289E+00  2.612479E+00 -6.061876E-01
        78   2  2.304704E+00  2.586080E+01  5.825874E+00  3.633356E+00  2.630834E+00 -3.813999E-01
        78   3 -1.795561E+01 -2.316692E+01 -2.834777E+00  1.815843E+01  2.587953E+00 -6.902657E-01
        78   4 -1.764933E+00  2.406332E+01  3.903905E+00  1.682150E+01  2.605714E+00 -4.579980E-01
        78   5 -1.425000E+01 -2.192697E+01 -1.537408E+00  5.066869E+00 -1.974703E+00 -5.206519E-01
        78   6  2.156748E+00  2.553719E+01  5.687579E+00  3.729226E+00 -1.956336E+00 -4.541973E-01
        78   7 -1.806514E+01 -2.350093E+01 -2.968802E+00  1.807583E+01 -2.136356E+00 -6.059371E-01
        78   8 -1.860030E+00  2.376160E+01  3.785711E+00  1.673819E+01 -2.118592E+00 -5.318952E-01
        79   1 -1.106589E+01  4.850402E+01 -3.559031E-02 -1.949203E-01  2.500451E+00 -2.268633E-01
        79   2  3.705143E+00  9.194727E+01  5.757938E+00 -1.353623E+00  2.517045E+00 -2.944944E-02
        79   3 -1.474086E+01  4.679830E+01 -2.046358E+00  1.198739E+01  2.448498E+00 -3.006272E-01
        79   4 -1.410206E-01  9.007036E+01  3.347713E+00  1.082868E+01  2.460761E+00 -1.029500E-01
        79   5 -1.120204E+01  4.819666E+01 -1.608634E-01 -1.185661E-01 -1.982443E+00 -4.074829E-01
        79   6  3.572829E+00  9.164437E+01  5.640971E+00 -1.282437E+00 -1.965765E+00 -3.463111E-01
        79   7 -1.484667E+01  4.650206E+01 -2.164886E+00  1.189158E+01 -2.152817E+00 -4.823058E-01
        79   8 -2.454548E-01  8.977612E+01  3.231756E+00  1.072771E+01 -2.140530E+00 -4.208670E-01
        80   1 -8.153671E+00  1.140349E+02  3.313388E-01 -5.263235E+00  2.329183E+00  1.230339E-01
        80   2  6.672893E+00  1.575062E+02  6.281986E+00 -5.550822E+00  2.322025E+00  3.422124E-01
        80   3 -9.500284E+00  1.131771E+02 -1.181553E+00  6.907365E+00  2.277458E+00  4.949996E-02
        80   4  5.248042E+00  1.565701E+02  4.586539E+00  6.619778E+00  2.274511E+00  2.683238E-01
        80   5 -8.317289E+00  1.137195E+02  2.043319E-01 -5.175980E+00 -2.102742E+00 -2.664825E-01
        80   6  6.510174E+00  1.571908E+02  6.157924E+00 -5.458542E+00 -2.109982E+00 -1.095585E-01
        80   7 -9.644114E+00  1.128661E+02 -1.313514E+00  6.822004E+00 -2.211042E+00 -3.410722E-01
        80   8  5.103989E+00  1.562580E+02  4.454902E+00  6.539443E+00 -2.214012E+00 -1.845079E-01
        81   1 -3.230046E+00 -2.739878E+01 -7.664517E+00  4.550221E+00  5.037179E+00 -1.221107E+01
        81   2 -9.678218E-01 -2.173834E+01 -5.784208E+00  5.015260E+00  4.811727E+00 -8.834621E+00
        81   3 -4.595949E-01 -2.543805E+01 -3.899210E+00  6.029459E+00  2.887330E+00 -1.045753E+01
        81   4  1.586269E+00 -1.999397E+01 -2.523740E+00  6.494498E+00  2.653488E+00 -7.398652E+00
        81   5 -9.557647E-01 -2.058471E+01 -4.925982E+00  3.836546E+00  4.828248E+00 -1.115115E+01
        81   6  7.505277E-01 -1.621996E+01 -3.603084E+00  4.291814E+00  4.602752E+00 -7.944336E+00
        81   7  1.784705E+00 -1.862599E+01 -1.137408E+00  4.977779E+00  2.485053E+00 -9.373048E+00
        81   8  3.271607E+00 -1.448064E+01 -3.264218E-01  5.433046E+00  2.251050E+00 -6.488250E+00
        82   1 -2.774698E+00 -1.818970E+01 -5.520976E+00  8.851186E+00  7.020894E+00 -6.584523E+00
        82   2  8.776000E-01 -9.504659E+00 -2.031695E+00  9.093788E+00  6.831023E+00 -3.813586E+00
        82   3 -1.132230E+00 -1.696965E+01 -3.096607E+00  1.104193E+01  4.325154E+00 -5.436790E+00
        82   4  2.097574E+00 -8.707102E+00 -5.931446E-01  1.128454E+01  4.038749E+00 -3.135758E+00
        82   5 -1.433157E+00 -1.379269E+01 -3.791382E+00  8.047184E+00  6.923696E+00 -5.877286E+00
        82   6  1.396006E+00 -7.025405E+00 -1.128124E+00  8.177350E+00  6.733330E+00 -3.436819E+00
        82   7 -1.261171E-01 -1.270916E+01 -1.486665E+00  9.737760E+00  3.903428E+00 -4.713474E+00
        82   8  2.274634E+00 -6.370291E+00  1.769635E-01  9.867926E+00  3.615175E+00 -2.749495E+00
        83   1 -1.763990E+00 -5.342577E+00 -1.909798E+00  1.011092E+01  7.068211E+00 -1.758352E+00
        83   2  1.808526E+00  3.532730E+00  1.123282E+00  1.011226E+01  7.065920E+00  1.085716E+00
        83   3 -1.553996E+00 -5.134905E+00 -1.427553E+00  1.241922E+01  4.186843E+00 -1.429007E+00
        83   4  1.690205E+00  3.412087E+00  8.394587E-01  1.242056E+01  4.174924E+00  9.328921E-01
        83   5 -1.195578E+00 -4.002377E+00 -1.335384E+00  9.279466E+00  6.782363E+00 -1.596761E+00
        83   6  1.532862E+00  2.905664E+00  8.513752E-01  9.269586E+00  6.780022E+00  9.899018E-01
        83   7 -1.016453E+00 -3.806287E+00 -8.608732E-01  1.107371E+01  3.638050E+00 -1.262803E+00
        83   8  1.379073E+00  2.768841E+00  5.490856E-01  1.106383E+01  3.625946E+00  8.349373E-01
        84   1 -1.433010E+00  7.913687E+00  1.167368E+00  8.008320E+00  6.564484E+00  3.325662E+00
        84   2  2.942302E+00  1.820904E+01  5.456394E+00  7.844670E+00  6.804714E+00  6.601241E+00
        84   3 -2.347627E+00  7.284015E+00 -1.691913E-02  1.058530E+01  3.828023E+00  2.772111E+00
        84   4  1.553932E+00  1.710561E+01  3.166684E+00  1.042165E+01  4.129788E+00  5.435052E+00
        84   5 -1.558921E+00  6.016404E+00  5.567130E-01  7.462248E+00  6.504573E+00  2.999835E+00
        84   6  1.743626E+00  1.381187E+01  3.769734E+00  7.370270E+00  6.745118E+00  5.904410E+00
        84   7 -2.257104E+00  5.476160E+00 -5.459167E-01  9.390991E+00  3.406467E+00  2.438529E+00
        84   8  5.650536E-01  1.279124E+01  1.546196E+00  9.299013E+00  3.709410E+00  4.721884E+00
        85   1  5.355661E-01  2.230456E+01  5.779343E+00  4.386923E+00  4.618199E+00  9.221413E+00
        85   2  3.311359E+00  2.908116E+01  8.255387E+00  4.036822E+00  4.970216E+00  1.310428E+01
        85   3 -1.692189E+00  2.068640E+01  2.613228E+00  6.128469E+00  2.472959E+00  7.667033E+00
        85   4  8.162848E-01  2.719568E+01  4.465527E+00  5.778368E+00  2.777468E+00  1.110198E+01
        85   5 -9.485763E-01  1.649245E+01  3.580146E+00  3.927496E+00  4.449246E+00  8.311970E+00
        85   6  1.043291E+00  2.144171E+01  5.270436E+00  3.522061E+00  4.801020E+00  1.198497E+01
        85   7 -3.344135E+00  1.479307E+01  3.111351E-01  5.197063E+00  2.073670E+00  6.735814E+00
        85   8 -1.623331E+00  1.947128E+01  1.368943E+00  4.791628E+00  2.377270E+00  9.954620E+00
        86   1 -3.681657E+00 -3.599344E+01 -6.865682E+00  2.871338E+00  1.767010E+00 -1.131351E+01
        86   2  2.079804E-01 -2.608277E+01 -3.810892E+00  3.413514E+00  1.538200E+00 -7.849405E+00
        86   3 -1.366169E+00 -3.462198E+01 -4.609655E+00  5.492284E+00  1.121257E+00 -9.524504E+00
        86   4  2.346917E+00 -2.488786E+01 -1.966820E+00  6.034460E+00  9.101969E-01 -6.500468E+00
        86   5 -1.385310E+00 -2.904468E+01 -4.058351E+00  2.609059E+00  1.257465E+00 -1.074579E+01
        86   6  1.730289E+00 -2.093318E+01 -1.784519E+00  3.171908E+00  1.029177E+00 -7.431703E+00
        86   7  9.787710E-01 -2.764709E+01 -1.763794E+00  4.753720E+00  4.501017E-01 -8.931713E+00
        86   8  3.915344E+00 -1.971462E+01  9.231119E-02  5.316570E+00  2.398120E-01 -6.063867E+00
        87   1 -2.254640E+00 -2.099415E+01 -3.896320E+00  8.256727E+00  2.793802E+00 -5.673181E+00
        87   2  1.704809E+00 -1.075513E+01 -9.371796E-01  8.406215E+00  2.504744E+00 -3.191735E+00
        87   3 -1.443132E+00 -2.044293E+01 -2.870427E+00  1.099022E+01  1.566922E+00 -4.639287E+00
        87   4  2.335319E+00 -1.038490E+01 -3.336150E-01  1.113970E+01  1.372448E+00 -2.578481E+00
        87   5 -1.462773E+00 -1.720821E+01 -2.504841E+00  7.812207E+00  2.221809E+00 -5.366359E+00
        87   6  1.756458E+00 -8.689268E+00 -2.930114E-01  8.071860E+00  1.935531E+00 -3.037819E+00
        87   7 -3.215259E-01 -1.651282E+01 -1.328130E+00  1.008729E+01  8.400214E-01 -4.317980E+00
        87   8  2.714171E+00 -8.177415E+00  4.554535E-01  1.034694E+01  6.496529E-01 -2.415974E+00
        88   1 -1.819088E+00 -5.811303E+00 -1.549144E+00  9.607340E+00  2.613292E+00 -1.363619E+00
        88   2  2.333510E+00  5.059099E+00  1.422447E+00  9.574992E+00  2.597725E+00  1.149441E+00
        88   3 -1.856962E+00 -5.792853E+00 -1.449771E+00  1.253159E+01  1.464692E+00 -1.083359E+00
        88   4  2.164321E+00  4.946235E+00  1.215420E+00  1.249924E+01  1.450701E+00  9.405859E-01
        88   5 -1.379293E+00 -4.689152E+00 -1.077468E+00  9.399222E+00  1.956257E+00 -1.308254E+00
        88   6  1.914916E+00  4.183488E+00  1.030587E+00  9.368711E+00  1.940735E+00  1.088465E+00
        88   7 -1.409436E+00 -4.666903E+00 -9.731614E-01  1.179396E+01  6.884011E-01 -1.024068E+00
        88   8  1.751619E+00  4.072583E+00  8.242009E-01  1.176344E+01  6.744790E-01  8.766842E-01
        89   1 -1.566900E+00  1.007231E+01  7.121801E-01  7.825400E+00  2.333341E+00  3.067394E+00
        89   2  2.716719E+00  2.108069E+01  3.982534E+00  7.657746E+00  2.620408E+00  5.794279E+00
        89   3 -2.258913E+00  9.672217E+00  7.054532E-02  1.075268E+01  1.258008E+00  2.498720E+00
        89   4  1.854036E+00  2.050992E+01  2.942671E+00  1.058502E+01  1.443615E+00  4.731677E+00
        89   5 -1.546207E+00  8.185705E+00  1.431768E-01  7.665934E+00  1.756010E+00  2.910014E+00
        89   6  1.869456E+00  1.717554E+01  2.538886E+00  7.380106E+00  2.040096E+00  5.489860E+00
        89   7 -2.588810E+00  7.633907E+00 -6.535452E-01  1.005884E+01  5.332001E-01  2.333373E+00
        89   8  6.537922E-01  1.645068E+01  1.338356E+00  9.773011E+00  7.144040E-01  4.412370E+00
        90   1 -3.476257E-01  2.634959E+01  3.759783E+00  2.956623E+00  1.377459E+00  8.152808E+00
        90   2  3.834299E+00  3.695220E+01  7.096929E+00  2.463822E+00  1.649261E+00  1.186954E+01
        90   3 -2.326161E+00  2.522912E+01  2.003408E+00  5.751535E+00  8.047786E-01  6.721126E+00
        90   4  1.684648E+00  3.566061E+01  4.941285E+00  5.258734E+00  1.042851E+00  9.923448E+00
        90   5 -1.868092E+00  2.092561E+01  1.652149E+00  2.864292E+00  8.609895E-01  7.740400E+00
        90   6  1.410075E+00  2.942615E+01  4.078832E+00  2.332206E+00  1.131800E+00  1.130915E+01
        90   7 -3.950614E+00  1.975675E+01 -1.615184E-01  5.106176E+00  1.293892E-01  6.288661E+00
        90   8 -8.459596E-01  2.808378E+01  1.860301E+00  4.574090E+00  3.659981E-01  9.335786E+00
        91   1 -4.324480E+00 -4.475610E+01 -7.392148E+00  2.176855E+00  6.773066E-01 -8.538789E+00
        91   2  6.321025E-01 -3.185665E+01 -3.769656E+00  2.741080E+00  4.952438E-01 -6.031638E+00
        91   3 -1.469107E+00 -4.288316E+01 -4.004363E+00  5.634376E+00  7.408525E-01 -7.355209E+00
        91   4  3.171124E+00 -3.030006E+01 -1.120026E+00  6.198601E+00  6.177520E-01 -5.166082E+00
        91   5 -2.923891E+00 -4.018230E+01 -5.494162E+00  2.239566E+00 -9.392419E-02 -7.593093E+00
        91   6  1.460100E+00 -2.859627E+01 -2.466896E+00  2.872467E+00 -2.728232E-01 -5.348649E+00
        91   7  1.300141E-01 -3.821518E+01 -1.990975E+00  5.331295E+00 -2.684804E-01 -6.392932E+00
        91   8  4.193221E+00 -2.694992E+01  2.877961E-01  5.964195E+00 -3.875910E-01 -4.470967E+00
        92   1 -3.108614E+00 -2.560488E+01 -4.342508E+00  7.775736E+00  8.535404E-01 -4.384216E+00
        92   2  1.738148E+00 -1.284282E+01 -9.486984E-01  8.018187E+00  7.164881E-01 -2.390525E+00
        92   3 -1.767785E+00 -2.468621E+01 -2.621089E+00  1.122126E+01  7.548106E-01 -3.737320E+00
        92   4  2.800513E+00 -1.220261E+01  1.229693E-01  1.146371E+01  6.694699E-01 -2.022997E+00
        92   5 -2.464898E+00 -2.315780E+01 -3.359274E+00  7.742131E+00  4.206695E-02 -3.882015E+00
        92   6  1.878842E+00 -1.154954E+01 -4.884101E-01  8.044812E+00 -9.221051E-02 -2.119539E+00
        92   7 -9.448509E-01 -2.215750E+01 -1.544982E+00  1.086068E+01 -2.644971E-01 -3.226056E+00
        92   8  3.116523E+00 -1.083160E+01  6.670285E-01  1.116336E+01 -3.463385E-01 -1.746861E+00
        93   1 -2.243278E+00 -6.647977E+00 -1.704638E+00  9.541949E+00  7.903216E-01 -9.610053E-01
        93   2  2.676125E+00  6.361837E+00  1.683556E+00  9.509943E+00  7.782662E-01  9.508259E-01
        93   3 -2.211619E+00 -6.560589E+00 -1.445004E+00  1.306370E+01  7.054244E-01 -8.048043E-01
        93   4  2.455112E+00  6.196553E+00  1.353622E+00  1.303169E+01  6.970401E-01  8.090366E-01
        93   5 -2.000482E+00 -6.020156E+00 -1.431437E+00  9.573086E+00 -5.333979E-02 -8.523141E-01
        93   6  2.384747E+00  5.761329E+00  1.404505E+00  9.545356E+00 -6.519817E-02  8.473313E-01
        93   7 -1.952817E+00 -5.924874E+00 -1.161497E+00  1.274819E+01 -3.270643E-01 -6.939249E-01
        93   8  2.176200E+00  5.600399E+00  1.076618E+00  1.272046E+01 -3.352001E-01  7.035557E-01
        94   1 -1.518240E+00  1.257595E+01  8.706884E-01  7.729328E+00  6.353567E-01  2.415662E+00
        94   2  3.488350E+00  2.570848E+01  4.426787E+00  7.449813E+00  7.613949E-01  4.505838E+00
        94   3 -2.688271E+00  1.189260E+01 -2.370854E-01  1.126654E+01  6.230974E-01  2.052481E+00
        94   4  2.038687E+00  2.474551E+01  2.666540E+00  1.098703E+01  7.005834E-01  3.835793E+00
        94   5 -1.683627E+00  1.128671E+01  4.046956E-01  7.825046E+00 -1.731494E-01  2.149000E+00
        94   6  2.771839E+00  2.315330E+01  3.389665E+00  7.488981E+00 -4.971635E-02  4.005581E+00
        94   7 -3.016284E+00  1.053113E+01 -7.812692E-01  1.100653E+01 -3.935673E-01  1.780731E+00
        94   8  1.155634E+00  2.211416E+01  1.542087E+00  1.067046E+01 -3.193667E-01  3.326149E+00
        95   1 -6.352021E-01  3.199732E+01  3.748991E+00  2.505032E+00  4.205930E-01  6.219418E+00
        95   2  4.448720E+00  4.519892E+01  7.493804E+00  1.956000E+00  6.197403E-01  8.810829E+00
        95   3 -3.124714E+00  3.046378E+01  1.126704E+00  6.038644E+00  5.769196E-01  5.311018E+00
        95   4  1.641599E+00  4.334777E+01  4.130428E+00  5.489612E+00  7.098505E-01  7.558095E+00
        95   5 -1.480532E+00  2.858704E+01  2.396359E+00  2.699033E+00 -3.507946E-01  5.536627E+00
        95   6  2.984764E+00  4.036789E+01  5.499822E+00  2.072877E+00 -1.552004E-01  7.862943E+00
        95   7 -4.190127E+00  2.695264E+01 -3.420393E-01  5.839491E+00 -4.327945E-01  4.615501E+00
        95   8 -4.689080E-02  3.841143E+01  2.009953E+00  5.213335E+00 -3.043443E-01  6.592659E+00
        96   1 -4.642929E+00 -5.400950E+01 -6.634382E+00  1.485724E+00  4.368646E-01 -6.307829E+00
        96   2  1.102246E+00 -3.848669E+01 -3.006608E+00  2.007675E+00  3.419992E-01 -4.533200E+00
        96   3 -1.515872E+00 -5.190301E+01 -2.739795E+00  6.265236E+00  7.660185E-01 -5.499588E+00
        96   4  3.875865E+00 -3.673364E+01  6.329152E-02  6.787188E+00  6.965487E-01 -3.939165E+00
        96   5 -3.771799E+00 -5.124482E+01 -5.402357E+00  1.543200E+00 -7.071055E-01 -5.350913E+00
        96   6  1.625644E+00 -3.650474E+01 -2.150957E+00  2.090938E+00 -8.004274E-01 -3.828550E+00
        96   7 -5.525020E-01 -4.910441E+01 -1.486956E+00  6.143788E+00 -6.032962E-01 -4.548595E+00
        96   8  4.494094E+00 -3.471518E+01  9.457995E-01  6.691525E+00 -6.714086E-01 -3.238869E+00
        97   1 -3.687970E+00 -3.096376E+01 -4.208442E+00  7.021347E+00  3.708185E-01 -3.323410E+00
        97   2  2.071257E+00 -1.539431E+01 -5.804641E-01  7.277597E+00  3.132576E-01 -1.792833E+00
        97   3 -2.074802E+00 -2.985163E+01 -2.114518E+00  1.181679E+01  6.526707E-01 -2.880076E+00
        97   4  3.351337E+00 -1.461527E+01  7.362515E-01  1.207304E+01  6.169377E-01 -1.547012E+00
        97   5 -3.223140E+00 -2.945283E+01 -3.538139E+00  6.969172E+00 -7.719723E-01 -2.798020E+00
        97   6  2.215019E+00 -1.460555E+01 -2.582241E-01  7.247585E+00 -8.282065E-01 -1.504921E+00
        97   7 -1.532496E+00 -2.831058E+01 -1.421290E+00  1.160250E+01 -7.028761E-01 -2.357934E+00
        97   8  3.575013E+00 -1.379395E+01  1.087112E+00  1.188091E+01 -7.374424E-01 -1.260901E+00
        98   1 -2.751970E+00 -7.848823E+00 -1.801917E+00  8.922856E+00  3.289281E-01 -6.997472E-01
        98   2  3.027664E+00  7.789032E+00  1.825673E+00  8.901049E+00  3.233206E-01  7.560421E-01
        98   3 -2.662899E+00 -7.717113E+00 -1.451956E+00  1.374176E+01  6.135703E-01 -6.003675E-01
        98   4  2.795309E+00  7.599316E+00  1.425641E+00  1.371995E+01  6.101365E-01  6.528497E-01
        98   5 -2.605717E+00 -7.492151E+00 -1.633795E+00  8.854000E+00 -8.206952E-01 -5.829035E-01
        98   6  2.845851E+00  7.406266E+00  1.639682E+00  8.834400E+00 -8.261705E-01  6.429955E-01
        98   7 -2.510789E+00 -7.358616E+00 -1.283608E+00  1.350591E+01 -7.414630E-01 -4.842520E-01
        98   8  2.621709E+00  7.220730E+00  1.245372E+00  1.348631E+01 -7.447806E-01  5.405593E-01
        99   1 -1.911371E+00  1.533182E+01  5.674680E-01  7.151094E+00  2.862600E-01  1.860328E+00
        99   2  3.913846E+00  3.105776E+01  4.258916E+00  6.866646E+00  3.384591E-01  3.421503E+00
        99   3 -3.282159E+00  1.451721E+01 -7.771149E-01  1.199078E+01  6.045438E-01  1.607129E+00
        99   4  2.209497E+00  2.990959E+01  2.136023E+00  1.170633E+01  6.370526E-01  2.961050E+00
        99   5 -2.078877E+00  1.451168E+01  2.292994E-01  7.143304E+00 -8.568031E-01  1.575879E+00
        99   6  3.410405E+00  2.948080E+01  3.557782E+00  6.838863E+00 -8.058007E-01  2.898665E+00
        99   7 -3.522853E+00  1.366736E+01 -1.141102E+00  1.181146E+01 -7.517092E-01  1.324535E+00
        99   8  1.635312E+00  2.830537E+01  1.414773E+00  1.150702E+01 -7.202529E-01  2.441585E+00
       100   1 -1.074861E+00  3.856919E+01  2.988262E+00  1.912770E+00  3.199172E-01  4.649717E+00
       100   2  4.703417E+00  5.417896E+01  6.639421E+00  1.391102E+00  4.202230E-01  6.444085E+00
       100   3 -3.842109E+00  3.682195E+01 -6.861837E-02  6.718608E+00  6.871690E-01  4.032327E+00
       100   4  1.583464E+00  5.207902E+01  2.759561E+00  6.196940E+00  7.598853E-01  5.605189E+00
       100   5 -1.614521E+00  3.651270E+01  2.105939E+00  2.014749E+00 -8.273328E-01  3.947305E+00
       100   6  3.804953E+00  5.131384E+01  5.369712E+00  1.465067E+00 -7.287039E-01  5.489458E+00
       100   7 -4.484312E+00  3.472563E+01 -9.811784E-01  6.634557E+00 -6.851280E-01  3.334438E+00
       100   8  5.850419E-01  4.917665E+01  1.465645E+00  6.084876E+00 -6.138864E-01  4.656708E+00
       101   1 -5.036317E+00 -6.397474E+01 -5.710664E+00  8.994773E-01  5.576281E-01 -4.815810E+00
       101   2  1.614352E+00 -4.552304E+01 -1.993472E+00  1.444108E+00  5.052732E-01 -3.487774E+00
       101   3 -1.908981E+00 -6.191231E+01 -1.963237E+00  6.668066E+00  9.195276E-01 -4.362446E+00
       101   4  4.422054E+00 -4.378024E+01  1.008142E+00  7.212697E+00  8.854379E-01 -3.146770E+00
       101   5 -4.558563E+00 -6.242002E+01 -4.995589E+00  8.824894E-01 -9.595749E-01 -3.938558E+00
       101   6  1.905603E+00 -4.438300E+01 -1.485393E+00  1.445666E+00 -1.011051E+00 -2.832290E+00
       101   7 -1.362802E+00 -6.033356E+01 -1.236477E+00  6.581303E+00 -8.030741E-01 -3.488516E+00
       101   8  4.784072E+00 -4.261383E+01  1.533371E+00  7.144480E+00 -8.364193E-01 -2.493785E+00
       102   1 -4.116060E+00 -3.656734E+01 -3.802198E+00  6.484027E+00  4.359325E-01 -2.566995E+00
       102   2  2.538029E+00 -1.813999E+01 -4.926243E-02  6.743432E+00  4.115998E-01 -1.379416E+00
       102   3 -2.517763E+00 -3.547626E+01 -1.763542E+00  1.223904E+01  8.179371E-01 -2.309701E+00
       102   4  3.818198E+00 -1.736703E+01  1.247096E+00  1.249845E+01  8.024918E-01 -1.238460E+00
       102   5 -3.818173E+00 -3.567372E+01 -3.385511E+00  6.364160E+00 -1.063360E+00 -2.073553E+00
       102   6  2.643427E+00 -1.767511E+01  1.545394E-01  6.632590E+00 -1.087265E+00 -1.106914E+00
       102   7 -2.187426E+00 -3.457171E+01 -1.342867E+00  1.204532E+01 -8.860161E-01 -1.818145E+00
       102   8  3.958377E+00 -1.688889E+01  1.460325E+00  1.231375E+01 -9.010991E-01 -9.669917E-01
       103   1 -3.270164E+00 -9.214494E+00 -1.872794E+00  8.429409E+00  4.009575E-01 -5.317461E-01
       103   2  3.404406E+00  9.256017E+00  1.905261E+00  8.417037E+00  3.990422E-01  5.965506E-01
       103   3 -3.151445E+00 -9.071584E+00 -1.515147E+00  1.419551E+01  7.903822E-01 -4.762819E-01
       103   4  3.208790E+00  9.084591E+00  1.529460E+00  1.418314E+01  7.891528E-01  5.347876E-01
       103   5 -3.182597E+00 -9.011634E+00 -1.772242E+00  8.267390E+00 -1.095179E+00 -4.200598E-01
       103   6  3.298313E+00  9.027158E+00  1.792000E+00  8.255714E+00 -1.097061E+00  4.898215E-01
       103   7 -3.062970E+00 -8.869010E+00 -1.416455E+00  1.395883E+01 -9.080141E-01 -3.650021E-01
       103   8  3.105909E+00  8.857751E+00  1.419715E+00  1.394715E+01 -9.092155E-01  4.285111E-01
       104   1 -2.454807E+00  1.817490E+01  6.246177E-02  6.703241E+00  4.069570E-01  1.446830E+00
       104   2  4.218977E+00  3.665237E+01  3.830936E+00  6.426817E+00  4.296003E-01  2.641539E+00
       104   3 -3.785433E+00  1.738476E+01 -1.240712E+00  1.247313E+01  8.016301E-01  1.298748E+00
       104   4  2.570235E+00  3.554411E+01  1.785491E+00  1.219670E+01  8.159146E-01  2.374857E+00
       104   5 -2.573778E+00  1.768374E+01 -1.526473E-01  6.597756E+00 -1.094036E+00  1.179248E+00
       104   6  3.904073E+00  3.572443E+01  3.399498E+00  6.312845E+00 -1.071795E+00  2.152917E+00
       104   7 -3.937822E+00  1.688089E+01 -1.464772E+00  1.229164E+01 -9.040741E-01  1.032252E+00
       104   8  2.224244E+00  3.460580E+01  1.350541E+00  1.200673E+01 -8.901303E-01  1.888188E+00
       105   1 -1.590421E+00  4.559075E+01  1.987230E+00  1.420241E+00  5.032397E-01  3.566063E+00
       105   2  5.057551E+00  6.404480E+01  5.693084E+00  8.717058E-01  5.574473E-01  4.897201E+00
       105   3 -4.403495E+00  4.385021E+01 -1.001475E+00  7.191295E+00  8.861038E-01  3.214574E+00
       105   4  1.925377E+00  6.198516E+01  1.959813E+00  6.642760E+00  9.210043E-01  4.432614E+00
       105   5 -1.890128E+00  4.441688E+01  1.467132E+00  1.425529E+00 -1.017370E+00  2.915481E+00
       105   6  4.570245E+00  6.245366E+01  4.964928E+00  8.573906E-01 -9.640909E-01  4.025177E+00
       105   7 -4.777773E+00  4.264831E+01 -1.540465E+00  7.126091E+00 -8.396872E-01  2.566567E+00
       105   8  1.365839E+00  6.036833E+01  1.218222E+00  6.557952E+00 -8.055736E-01  3.563994E+00
       106   1 -5.343588E+00 -7.372245E+01 -4.960956E+00  4.029353E-01  7.631424E-01 -3.940656E+00
       106   2  2.199665E+00 -5.245671E+01 -1.082522E+00  9.414543E-01  7.387922E-01 -2.846467E+00
       106   3 -2.327873E+00 -7.175969E+01 -1.434144E+00  7.110775E+00  1.083714E+00 -3.684534E+00
       106   4  4.924182E+00 -5.078515E+01  1.764827E+00  7.649294E+00  1.068333E+00 -2.651267E+00
       106   5 -5.062907E+00 -7.283540E+01 -4.538673E+00  3.378897E-01 -1.101339E+00 -3.137541E+00
       106   6  2.377251E+00 -5.179647E+01 -7.770761E-01  8.855161E-01 -1.125372E+00 -2.242625E+00
       106   7 -2.010792E+00 -7.086196E+01 -1.012632E+00  7.034319E+00 -9.682606E-01 -2.883296E+00
       106   8  5.140301E+00 -5.011209E+01  2.074479E+00  7.581945E+00 -9.833896E-01 -2.048855E+00
       107   1 -4.547943E+00 -4.215125E+01 -3.486407E+00  5.960017E+00  6.790149E-01 -2.091279E+00
       107   2  3.008111E+00 -2.089019E+01  4.393841E-01  6.226388E+00  6.688943E-01 -1.122257E+00
       107   3 -2.969479E+00 -4.109362E+01 -1.539434E+00  1.265931E+01  1.027785E+00 -1.942890E+00
       107   4  4.290833E+00 -2.012830E+01  1.696295E+00  1.292568E+01  1.022610E+00 -1.040835E+00
       107   5 -4.366250E+00 -4.162940E+01 -3.234425E+00  5.769928E+00 -1.168194E+00 -1.634519E+00
       107   6  3.077342E+00 -2.061680E+01  5.649478E-01  6.041322E+00 -1.178140E+00 -8.680597E-01
       107   7 -2.768635E+00 -4.056636E+01 -1.288553E+00  1.245170E+01 -1.009944E+00 -1.487217E+00
       107   8  4.381383E+00 -1.984733E+01  1.825813E+00  1.272309E+01 -1.014980E+00 -7.872341E-01
       108   1 -3.755551E+00 -1.059331E+01 -1.949619E+00  7.932361E+00  6.580014E-01 -4.326063E-01
       108   2  3.809842E+00  1.067729E+01  1.997760E+00  7.926197E+00  6.572392E-01  4.825338E-01
       108   3 -3.621780E+00 -1.044749E+01 -1.597309E+00  1.463175E+01  1.016015E+00 -4.008172E-01
       108   4  3.648135E+00  1.052763E+01  1.660622E+00  1.462559E+01  1.015207E+00  4.456895E-01
       108   5 -3.703568E+00 -1.047568E+01 -1.889234E+00  7.692670E+00 -1.182934E+00 -3.266509E-01
       108   6  3.746834E+00  1.054055E+01  1.929210E+00  7.686460E+00 -1.183698E+00  3.860461E-01
       108   7 -3.571247E+00 -1.033112E+01 -1.539706E+00  1.437288E+01 -1.015296E+00 -2.950947E-01
       108   8  3.585842E+00  1.039179E+01  1.594341E+00  1.436667E+01 -1.016105E+00  3.494717E-01
       109   1 -2.971605E+00  2.096987E+01 -3.999134E-01  6.221342E+00  6.701234E-01  1.172852E+00
       109   2  4.586960E+00  4.224108E+01  3.524092E+00  5.945366E+00  6.794248E-01  2.143697E+00
       109   3 -4.272963E+00  2.020812E+01 -1.637715E+00  1.292437E+01  1.024391E+00  1.086262E+00
       109   4  2.989790E+00  4.118352E+01  1.596063E+00  1.264839E+01  1.028391E+00  1.989830E+00
       109   5 -3.049900E+00  2.067789E+01 -5.329007E-01  6.036976E+00 -1.179094E+00  9.281006E-01
       109   6  4.395729E+00  4.169954E+01  3.264210E+00  5.755618E+00 -1.169980E+00  1.696324E+00
       109   7 -4.374166E+00  1.990782E+01 -1.775537E+00  1.272220E+01 -1.015422E+00  8.421446E-01
       109   8  2.777820E+00  4.063583E+01  1.336404E+00  1.244085E+01 -1.011571E+00  1.543585E+00
       110   1 -2.182327E+00  5.253647E+01  1.104914E+00  9.429328E-01  7.414352E-01  2.900409E+00
       110   2  5.350941E+00  7.378675E+01  4.965534E+00  3.987764E-01  7.658973E-01  3.996941E+00
       110   3 -4.912144E+00  5.087064E+01 -1.718060E+00  7.648091E+00  1.071326E+00  2.699738E+00
       110   4  2.329543E+00  7.182933E+01  1.462207E+00  7.103934E+00  1.086128E+00  3.735672E+00
       110   5 -2.366672E+00  5.185775E+01  7.927519E-01  8.871464E-01 -1.126723E+00  2.305843E+00
       110   6  5.063980E+00  7.288235E+01  4.536997E+00  3.331815E-01 -1.102602E+00  3.202855E+00
       110   7 -5.137685E+00  5.017789E+01 -2.035765E+00  7.581198E+00 -9.846282E-01  2.106642E+00
       110   8  2.003524E+00  7.091305E+01  1.033112E+00  7.027233E+00 -9.700972E-01  2.943500E+00
       111   1 -5.704688E+00 -8.332795E+01 -4.460511E+00 -6.279991E-02  9.799670E-01 -3.432966E+00
       111   2  2.738371E+00 -5.929701E+01 -3.479244E-01  4.751934E-01  9.695454E-01 -2.465011E+00
       111   3 -2.760533E+00 -8.143573E+01 -1.097246E+00  7.556880E+00  1.224127E+00 -3.293008E+00
       111   4  5.410903E+00 -5.767641E+01  2.381554E+00  8.094873E+00  1.218321E+00 -2.358073E+00
       111   5 -5.545054E+00 -8.283920E+01 -4.222580E+00 -1.586635E-01 -1.205158E+00 -2.682961E+00
       111   6  2.841550E+00 -5.893177E+01 -1.746711E-01  3.840159E-01 -1.215475E+00 -1.899622E+00
       111   7 -2.579240E+00 -8.094231E+01 -8.654339E-01  7.484254E+00 -1.135659E+00 -2.544029E+00
       111   8  5.537731E+00 -5.730451E+01  2.553333E+00  8.026933E+00 -1.141395E+00 -1.793467E+00
       112   1 -4.960501E+00 -4.765285E+01 -3.274063E+00  5.481415E+00  9.425217E-01 -1.805416E+00
       112   2  3.496174E+00 -2.361418E+01  8.761802E-01  5.749378E+00  9.401127E-01 -9.713211E-01
       112   3 -3.412502E+00 -4.662880E+01 -1.408547E+00  1.309822E+01  1.208990E+00 -1.724203E+00
       112   4  4.767856E+00 -2.286644E+01  2.096957E+00  1.336618E+01  1.209082E+00 -9.273749E-01
       112   5 -4.851883E+00 -4.736251E+01 -3.129541E+00  5.243654E+00 -1.230764E+00 -1.376373E+00
       112   6  3.541760E+00 -2.346255E+01  9.493059E-01  5.514157E+00 -1.233117E+00 -7.301676E-01
       112   7 -3.292988E+00 -4.633643E+01 -1.268165E+00  1.287943E+01 -1.142028E+00 -1.295755E+00
       112   8  4.826363E+00 -2.271076E+01  2.170668E+00  1.314993E+01 -1.141898E+00 -6.865435E-01
       113   1 -4.220941E+00 -1.197473E+01 -2.039424E+00  7.457450E+00  9.369807E-01 -3.807703E-01
       113   2  4.245807E+00  1.207489E+01  2.133458E+00  7.454634E+00  9.361323E-01  3.985500E-01
       113   3 -4.078265E+00 -1.182654E+01 -1.688157E+00  1.507468E+01  1.210991E+00 -3.644982E-01
       113   4  4.111652E+00  1.194624E+01  1.838783E+00  1.507186E+01  1.209848E+00  3.764813E-01
       113   5 -4.195449E+00 -1.191462E+01 -2.007750E+00  7.163935E+00 -1.230045E+00 -2.772979E-01
       113   6  4.206619E+00  1.199245E+01  2.092072E+00  7.160820E+00 -1.230900E+00  3.137597E-01
       113   7 -4.054990E+00 -1.176802E+01 -1.659560E+00  1.479906E+01 -1.134104E+00 -2.611451E-01
       113   8  4.072275E+00  1.186425E+01  1.799054E+00  1.479594E+01 -1.135251E+00  2.918527E-01
       114   1 -3.477726E+00  2.371336E+01 -7.865523E-01  5.757394E+00  9.422744E-01  9.895816E-01
       114   2  4.979067E+00  4.775690E+01  3.359217E+00  5.483403E+00  9.432421E-01  1.824990E+00
       114   3 -4.742365E+00  2.298445E+01 -1.951610E+00  1.337652E+01  1.211248E+00  9.398068E-01
       114   4  3.437770E+00  4.675133E+01  1.548622E+00  1.310253E+01  1.209096E+00  1.737861E+00
       114   5 -3.536134E+00  2.353968E+01 -8.690494E-01  5.521927E+00 -1.233285E+00  7.670246E-01
       114   6  4.857487E+00  4.744419E+01  3.205173E+00  5.244768E+00 -1.232388E+00  1.414310E+00
       114   7 -4.816218E+00  2.280552E+01 -2.036160E+00  1.315995E+01 -1.142279E+00  7.176147E-01
       114   8  3.302772E+00  4.643540E+01  1.397257E+00  1.288279E+01 -1.144479E+00  1.327820E+00
       115   1 -2.724367E+00  5.939865E+01  4.245083E-01  4.842049E-01  9.730382E-01  2.486382E+00
       115   2  5.710780E+00  8.342016E+01  4.520158E+00 -6.085898E-02  9.823704E-01  3.457932E+00
       115   3 -5.394298E+00  5.779447E+01 -2.252815E+00  8.103140E+00  1.222045E+00  2.373499E+00
       115   4  2.768120E+00  8.154325E+01  1.206464E+00  7.558076E+00  1.226155E+00  3.312040E+00
       115   5 -2.839250E+00  5.901149E+01  2.422242E-01  3.927244E-01 -1.216583E+00  1.938997E+00
       115   6  5.539431E+00  8.290950E+01  4.273152E+00 -1.576419E-01 -1.207369E+00  2.725182E+00
       115   7 -5.535329E+00  5.739948E+01 -2.435070E+00  8.034901E+00 -1.142981E+00  1.826941E+00
       115   8  2.572621E+00  8.102676E+01  9.641516E-01  7.484535E+00 -1.138951E+00  2.580359E+00
       116   1 -6.095432E+00 -9.284242E+01 -4.143694E+00 -5.129864E-01  1.191929E+00 -3.147449E+00
       116   2  3.255605E+00 -6.607111E+01  2.551133E-01  2.496217E-02  1.188640E+00 -2.251454E+00
       116   3 -3.195099E+00 -9.099393E+01 -8.823893E-01  8.002410E+00  1.337038E+00 -3.084379E+00
       116   4  5.897309E+00 -6.448124E+01  2.912948E+00  8.540359E+00  1.336011E+00 -2.204226E+00
       116   5 -6.018839E+00 -9.262057E+01 -4.035775E+00 -6.282064E-01 -1.293308E+00 -2.429550E+00
       116   6  3.305480E+00 -6.590814E+01  3.328621E-01 -8.796020E-02 -1.296574E+00 -1.708784E+00
       116   7 -3.104763E+00 -9.077062E+01 -7.833695E-01  7.934201E+00 -1.313941E+00 -2.366942E+00
       116   8  5.962821E+00 -6.431493E+01  2.986219E+00  8.474448E+00 -1.314962E+00 -1.661903E+00
       117   1 -5.377915E+00 -5.310444E+01 -3.151246E+00  5.027942E+00  1.190313E+00 -1.648460E+00
       117   2  3.984008E+00 -2.632153E+01  1.272247E+00  5.297485E+00  1.191843E+00 -8.970457E-01
       117   3 -3.845148E+00 -5.209871E+01 -1.331565E+00  1.354369E+01  1.350034E+00 -1.613626E+00
       117   4  5.254895E+00 -2.557767E+01  2.480875E+00  1.381323E+01  1.352941E+00 -8.802312E-01
       117   5 -5.322695E+00 -5.297623E+01 -3.085625E+00  4.760518E+00 -1.288099E+00 -1.234881E+00
       117   6  4.009163E+00 -2.625997E+01  1.304308E+00  5.031459E+00 -1.286555E+00 -6.609179E-01
       117   7 -3.782774E+00 -5.196999E+01 -1.271399E+00  1.332110E+01 -1.296232E+00 -1.200303E+00
       117   8  5.289122E+00 -2.551369E+01  2.511959E+00  1.359204E+01 -1.293321E+00 -6.442266E-01
       118   1 -4.672862E+00 -1.335654E+01 -2.129618E+00  7.008902E+00  1.197021E+00 -3.679290E-01
       118   2  4.703369E+00  1.344835E+01  2.319602E+00  7.008320E+00  1.195710E+00  3.262307E-01
       118   3 -4.518126E+00 -1.320066E+01 -1.764769E+00  1.552839E+01  1.361961E+00 -3.645348E-01
       118   4  4.595842E+00  1.334196E+01  2.072503E+00  1.552781E+01  1.360410E+00  3.109787E-01
       118   5 -4.670691E+00 -1.334486E+01 -2.122746E+00  6.682501E+00 -1.275698E+00 -2.618018E-01
       118   6  4.674516E+00  1.339113E+01  2.291950E+00  6.681675E+00 -1.277011E+00  2.546408E-01
       118   7 -4.517958E+00 -1.319050E+01 -1.760943E+00  1.524623E+01 -1.278855E+00 -2.584325E-01
       118   8  4.566907E+00  1.328515E+01  2.046289E+00  1.524540E+01 -1.280407E+00  2.395005E-01
       119   1 -3.963069E+00  2.641614E+01 -1.086876E+00  5.315853E+00  1.194069E+00  8.556974E-01
       119   2  5.405903E+00  5.322093E+01  3.338242E+00  5.042081E+00  1.190108E+00  1.608067E+00
       119   3 -5.197384E+00  2.571713E+01 -2.182606E+00  1.383884E+01  1.355170E+00  8.268843E-01
       119   4  3.909286E+00  5.225961E+01  1.630473E+00  1.356507E+01  1.349382E+00  1.560851E+00
       119   5 -4.014348E+00  2.630887E+01 -1.139601E+00  5.049522E+00 -1.287053E+00  6.540008E-01
       119   6  5.323970E+00  5.304563E+01  3.251361E+00  4.773894E+00 -1.291032E+00  1.228630E+00
       119   7 -5.259794E+00  2.560633E+01 -2.235950E+00  1.361702E+01 -1.294089E+00  6.253988E-01
       119   8  3.818143E+00  5.208272E+01  1.547458E+00  1.334139E+01 -1.299882E+00  1.181759E+00
       120   1 -3.239097E+00  6.619285E+01 -7.812001E-02  4.069576E-02  1.192651E+00  2.212523E+00
       120   2  6.110507E+00  9.297249E+01  4.307583E+00 -5.070314E-01  1.193851E+00  3.111555E+00
       120   3 -5.864260E+00  6.463865E+01 -2.633626E+00  8.560863E+00  1.340370E+00  2.152491E+00
       120   4  3.225444E+00  9.115839E+01  1.145642E+00  8.013136E+00  1.338934E+00  3.034916E+00
       120   5 -3.314946E+00  6.598189E+01 -1.771907E-01 -7.231249E-02 -1.298429E+00  1.703571E+00
       120   6  6.006762E+00  9.269991E+01  4.177148E+00 -6.227163E-01 -1.297255E+00  2.426507E+00
       120   7 -5.957667E+00  6.442331E+01 -2.729741E+00  8.494137E+00 -1.317294E+00  1.643980E+00
       120   8  3.106046E+00  9.088333E+01  1.022607E+00  7.943733E+00 -1.318737E+00  2.350429E+00
       121   1 -6.503362E+00 -1.023037E+02 -3.935723E+00 -9.592676E-01  1.399669E+00 -3.007660E+00
       121   2  3.759023E+00 -7.281280E+01  7.813132E-01 -4.216749E-01  1.399965E+00 -2.154666E+00
       121   3 -3.623866E+00 -1.004754E+02 -7.207198E-01  8.440038E+00  1.425670E+00 -3.004329E+00
       121   4  6.388418E+00 -7.123455E+01  3.412749E+00  8.977630E+00  1.427316E+00 -2.154984E+00
       121   5 -6.495072E+00 -1.022921E+02 -3.934584E+00 -1.087271E+00 -1.370347E+00 -2.303682E+00
       121   6  3.762425E+00 -7.281348E+01  7.784589E-01 -5.483076E-01 -1.370055E+00 -1.619975E+00
       121   7 -3.604893E+00 -1.004635E+02 -7.295171E-01  8.377763E+00 -1.503817E+00 -2.300375E+00
       121   8  6.404336E+00 -7.123317E+01  3.404235E+00  8.916727E+00 -1.502184E+00 -1.620291E+00
       122   1 -5.796380E+00 -5.853593E+01 -3.076228E+00  4.582956E+00  1.421303E+00 -1.585950E+00
       122   2  4.473810E+00 -2.903383E+01  1.655631E+00  4.854407E+00  1.425118E+00 -8.851834E-01
       122   3 -4.261388E+00 -5.753171E+01 -1.263793E+00  1.398392E+01  1.456294E+00 -1.589239E+00
       122   4  5.756930E+00 -2.828147E+01  2.880365E+00  1.425537E+01  1.461212E+00 -8.929374E-01
       122   5 -5.787153E+00 -5.854245E+01 -3.078232E+00  4.298117E+00 -1.345192E+00 -1.175624E+00
       122   6  4.476911E+00 -2.905553E+01  1.648402E+00  4.570689E+00 -1.341380E+00 -6.453424E-01
       122   7 -4.245884E+00 -5.753807E+01 -1.271567E+00  1.376400E+01 -1.470821E+00 -1.178889E+00
       122   8  5.768154E+00 -2.830118E+01  2.871672E+00  1.403658E+01 -1.465913E+00 -6.530396E-01
       123   1 -5.114890E+00 -1.475542E+01 -2.202977E+00  6.576354E+00  1.436406E+00 -3.940831E-01
       123   2  5.179502E+00  1.479239E+01  2.563850E+00  6.578148E+00  1.434810E+00  2.468613E-01
       123   3 -4.938818E+00 -1.458286E+01 -1.803833E+00  1.598783E+01  1.474853E+00 -4.052610E-01
       123   4  5.103796E+00  1.471318E+01  2.375512E+00  1.598962E+01  1.473375E+00  2.307945E-01
       123   5 -5.137939E+00 -1.479799E+01 -2.223452E+00  6.231348E+00 -1.324705E+00 -2.790216E-01
       123   6  5.149682E+00  1.473312E+01  2.537505E+00  6.233261E+00 -1.326301E+00  1.915033E-01
       123   7 -4.962654E+00 -1.462647E+01 -1.827016E+00  1.570740E+01 -1.446812E+00 -2.901176E-01
       123   8  5.075035E+00  1.465471E+01  2.350763E+00  1.570931E+01 -1.448291E+00  1.755542E-01
       124   1 -4.434298E+00  2.907995E+01 -1.302508E+00  4.894493E+00  1.427257E+00  7.375688E-01
       124   2  5.861177E+00  5.864728E+01  3.448402E+00  4.620334E+00  1.420489E+00  1.437262E+00
       124   3 -5.638622E+00  2.841168E+01 -2.325736E+00  1.431498E+01  1.463100E+00  7.177335E-01
       124   4  4.404900E+00  5.772707E+01  1.837287E+00  1.404082E+01  1.455483E+00  1.412020E+00
       124   5 -4.490016E+00  2.899893E+01 -1.342291E+00  4.610618E+00 -1.342360E+00  5.574124E-01
       124   6  5.797898E+00  5.854773E+01  3.401961E+00  4.335597E+00 -1.349126E+00  1.086570E+00
       124   7 -5.702286E+00  2.832837E+01 -2.365208E+00  1.409523E+01 -1.467204E+00  5.377224E-01
       124   8  4.335523E+00  5.762707E+01  1.795464E+00  1.382021E+01 -1.474812E+00  1.061512E+00
       125   1 -3.734352E+00  7.294239E+01 -4.254613E-01 -3.884820E-01  1.404470E+00  2.005165E+00
       125   2  6.542816E+00  1.024821E+02  4.292085E+00 -9.410112E-01  1.401664E+00  2.857011E+00
       125   3 -6.327120E+00  7.142998E+01 -2.874083E+00  9.027435E+00  1.431877E+00  1.975882E+00
       125   4  3.699356E+00  1.007190E+02  1.258517E+00  8.474906E+00  1.427963E+00  2.822097E+00
       125   5 -3.791997E+00  7.283381E+01 -4.720648E-01 -5.147775E-01 -1.372690E+00  1.529944E+00
       125   6  6.477267E+00  1.023542E+02  4.238474E+00 -1.068431E+00 -1.375493E+00  2.212108E+00
       125   7 -6.397452E+00  7.131890E+01 -2.916324E+00  8.965010E+00 -1.505169E+00  1.500876E+00
       125   8  3.622957E+00  1.005904E+02  1.213554E+00  8.411356E+00 -1.509071E+00  2.177450E+00
       126   1 -6.913280E+00 -1.117269E+02 -3.762274E+00 -1.409513E+00  1.606937E+00 -2.977912E+00
       126   2  4.254313E+00 -7.954916E+01  1.285319E+00 -8.738920E-01  1.609666E+00 -2.150862E+00
       126   3 -4.038832E+00 -1.098997E+02 -5.462016E-01  8.860677E+00  1.493983E+00 -3.030584E+00
       126   4  6.884045E+00 -7.796672E+01  3.930389E+00  9.396298E+00  1.498254E+00 -2.197320E+00
       126   5 -6.971582E+00 -1.119138E+02 -3.863606E+00 -1.546783E+00 -1.436054E+00 -2.271968E+00
       126   6  4.209238E+00 -7.971025E+01  1.202231E+00 -1.009597E+00 -1.433349E+00 -1.610665E+00
       126   7 -4.085843E+00 -1.100862E+02 -6.572346E-01  8.805441E+00 -1.704044E+00 -2.324254E+00
       126   8  6.852055E+00 -7.812554E+01  3.841784E+00  9.342627E+00 -1.699808E+00 -1.656783E+00
       127   1 -6.210391E+00 -6.397650E+01 -3.004755E+00  4.134595E+00  1.643021E+00 -1.602918E+00
       127   2  4.966978E+00 -3.177963E+01  2.056264E+00  4.407783E+00  1.648919E+00 -9.329555E-01
       127   3 -4.657958E+00 -6.295823E+01 -1.162944E+00  1.440937E+01  1.535928E+00 -1.644869E+00
       127   4  6.274219E+00 -3.100654E+01  3.325962E+00  1.468256E+01  1.543457E+00 -9.688098E-01
       127   5 -6.248661E+00 -6.412004E+01 -3.075754E+00  3.839823E+00 -1.398138E+00 -1.184173E+00
       127   6  4.941763E+00 -3.189772E+01  2.003346E+00  4.114667E+00 -1.392265E+00 -6.802789E-01
       127   7 -4.688145E+00 -6.310088E+01 -1.239100E+00  1.419655E+01 -1.660581E+00 -1.225817E+00
       127   8  6.258885E+00 -3.112196E+01  3.272080E+00  1.447140E+01 -1.653089E+00 -7.158704E-01
       128   1 -5.549095E+00 -1.619723E+01 -2.239133E+00  6.153611E+00  1.663650E+00 -4.655459E-01
       128   2  5.671959E+00  1.609018E+01  2.876978E+00  6.156786E+00  1.662510E+00  1.414786E-01
       128   3 -5.344950E+00 -1.599929E+01 -1.783489E+00  1.645129E+01  1.558851E+00 -4.971152E-01
       128   4  5.631762E+00  1.604377E+01  2.762491E+00  1.645446E+01  1.558565E+00  1.155191E-01
       128   5 -5.603969E+00 -1.631403E+01 -2.295785E+00  5.799087E+00 -1.371849E+00 -3.342260E-01
       128   6  5.629386E+00  1.599707E+01  2.837635E+00  5.803129E+00 -1.373001E+00  1.073136E-01
       128   7 -5.398174E+00 -1.611619E+01 -1.842132E+00  1.617839E+01 -1.631451E+00 -3.655639E-01
       128   8  5.592630E+00  1.595235E+01  2.725335E+00  1.618243E+01 -1.631757E+00  8.154434E-02
       129   1 -4.897262E+00  3.169426E+01 -1.430599E+00  4.492383E+00  1.650103E+00  6.064915E-01
       129   2  6.340854E+00  6.403864E+01  3.685408E+00  4.216283E+00  1.642228E+00  1.269906E+00
       129   3 -6.071845E+00  3.105953E+01 -2.371781E+00  1.480957E+01  1.543049E+00  5.841395E-01
       129   4  4.922183E+00  6.315982E+01  2.174686E+00  1.453347E+01  1.535250E+00  1.251800E+00
       129   5 -4.969967E+00  3.160027E+01 -1.474481E+00  4.199291E+00 -1.394050E+00  4.512534E-01
       129   6  6.278369E+00  6.396350E+01  3.656748E+00  3.923268E+00 -1.401927E+00  9.493751E-01
       129   7 -6.149573E+00  3.096435E+01 -2.414608E+00  1.459689E+01 -1.655774E+00  4.290652E-01
       129   8  4.856463E+00  6.308528E+01  2.151255E+00  1.432087E+01 -1.663575E+00  9.314017E-01
       130   1 -4.219700E+00  7.965900E+01 -6.287100E-01 -8.034119E-01  1.613708E+00  1.811222E+00
       130   2  7.003896E+00  1.119818E+02  4.460473E+00 -1.363211E+00  1.609489E+00  2.626711E+00
       130   3 -6.787444E+00  7.818582E+01 -2.971557E+00  9.510324E+00  1.500779E+00  1.795562E+00
       130   4  4.193049E+00  1.102655E+02  1.550388E+00  8.950525E+00  1.496584E+00  2.613489E+00
       130   5 -4.277955E+00  7.959433E+01 -6.482057E-01 -9.382434E-01 -1.436691E+00  1.369943E+00
       130   6  6.953091E+00  1.119295E+02  4.453411E+00 -1.498018E+00 -1.440911E+00  2.020835E+00
       130   7 -6.854975E+00  7.811991E+01 -2.985923E+00  9.454071E+00 -1.703677E+00  1.354398E+00
       130   8  4.134751E+00  1.102138E+02  1.552613E+00  8.894296E+00 -1.707872E+00  2.007710E+00
       131   1 -7.311337E+00 -1.211097E+02 -3.552987E+00 -1.866958E+00  1.817130E+00 -3.046549E+00
       131   2  4.738314E+00 -8.631039E+01  1.813230E+00 -1.335802E+00  1.823134E+00 -2.233698E+00
       131   3 -4.431260E+00 -1.192682E+02 -2.946687E-01  9.253521E+00  1.545477E+00 -3.160642E+00
       131   4  7.376535E+00 -8.471072E+01  4.507219E+00  9.784676E+00  1.554372E+00 -2.333080E+00
       131   5 -7.442529E+00 -1.215139E+02 -3.765316E+00 -2.011591E+00 -1.489430E+00 -2.324055E+00
       131   6  4.636316E+00 -8.665558E+01  1.639146E+00 -1.477500E+00 -1.483507E+00 -1.675333E+00
       131   7 -4.546704E+00 -1.196701E+02 -5.150813E-01  9.205694E+00 -1.913140E+00 -2.437312E+00
       131   8  7.292058E+00 -8.505184E+01  4.329187E+00  9.739785E+00 -1.904347E+00 -1.773987E+00
       132   1 -6.624294E+00 -6.946407E+01 -2.900475E+00  3.683866E+00  1.863256E+00 -1.697430E+00
       132   2  5.458040E+00 -3.459184E+01  2.501741E+00  3.955263E+00  1.872567E+00 -1.045169E+00
       132   3 -5.051671E+00 -6.842210E+01 -9.998781E-01  1.482403E+01  1.596705E+00 -1.785782E+00
       132   4  6.789572E+00 -3.379096E+01  3.839791E+00  1.509542E+01  1.609131E+00 -1.118098E+00
       132   5 -6.718088E+00 -6.977091E+01 -3.051994E+00  3.384354E+00 -1.441789E+00 -1.259034E+00
       132   6  5.394502E+00 -3.483710E+01  2.389501E+00  3.658913E+00 -1.432565E+00 -7.704046E-01
       132   7 -5.132425E+00 -6.872605E+01 -1.154798E+00  1.462218E+01 -1.859925E+00 -1.346738E+00
       132   8  6.740840E+00 -3.403157E+01  3.728272E+00  1.489674E+01 -1.847609E+00 -8.427996E-01
       133   1 -5.991198E+00 -1.771322E+01 -2.219917E+00  5.744551E+00  1.887599E+00 -5.925263E-01
       133   2  6.167241E+00  1.732236E+01  3.272631E+00  5.740150E+00  1.888474E+00 -8.144796E-03
       133   3 -5.779044E+00 -1.749246E+01 -1.696209E+00  1.692736E+01  1.622276E+00 -6.544168E-01
       133   4  6.140549E+00  1.730427E+01  3.239030E+00  1.692296E+01  1.624951E+00 -5.529904E-02
       133   5 -6.089203E+00 -1.793842E+01 -2.327930E+00  5.387125E+00 -1.410574E+00 -4.369856E-01
       133   6  6.098384E+00  1.715624E+01  3.202703E+00  5.384554E+00 -1.409750E+00 -1.469697E-02
       133   7 -5.872521E+00 -1.771667E+01 -1.805454E+00  1.666722E+01 -1.826049E+00 -4.984226E-01
       133   8  6.077969E+00  1.714089E+01  3.171956E+00  1.666465E+01 -1.823437E+00 -6.150566E-02
       134   1 -5.366218E+00  3.424466E+01 -1.461858E+00  4.107799E+00  1.869736E+00  4.377254E-01
       134   2  6.829806E+00  6.938357E+01  4.052641E+00  3.821887E+00  1.862521E+00  1.071484E+00
       134   3 -6.530354E+00  3.363957E+01 -2.314712E+00  1.532274E+01  1.600086E+00  4.002634E-01
       134   4  5.428638E+00  6.854145E+01  2.646715E+00  1.503683E+01  1.593718E+00  1.045766E+00
       134   5 -5.470975E+00  3.409407E+01 -1.529424E+00  3.810732E+00 -1.436532E+00  3.129936E-01
       134   6  6.749587E+00  6.928137E+01  4.018484E+00  3.525680E+00 -1.443771E+00  7.859723E-01
       134   7 -6.638005E+00  3.348851E+01 -2.380924E+00  1.512021E+01 -1.855196E+00  2.758062E-01
       134   8  5.347263E+00  6.844051E+01  2.617964E+00  1.483516E+01 -1.861594E+00  7.604424E-01
       135   1 -4.707067E+00  8.634011E+01 -6.845480E-01 -1.208385E+00  1.823540E+00  1.589060E+00
       135   2  7.489400E+00  1.214895E+02  4.820917E+00 -1.779312E+00  1.820058E+00  2.369345E+00
       135   3 -7.256289E+00  8.490721E+01 -2.911661E+00  1.001148E+01  1.547845E+00  1.570752E+00
       135   4  4.705081E+00  1.198215E+02  2.045247E+00  9.440555E+00  1.545524E+00  2.359541E+00
       135   5 -4.785655E+00  8.626288E+01 -7.023181E-01 -1.349376E+00 -1.487727E+00  1.186362E+00
       135   6  7.430361E+00  1.214491E+02  4.831494E+00 -1.919123E+00 -1.491242E+00  1.807268E+00
       135   7 -7.340867E+00  8.482990E+01 -2.923684E+00  9.961824E+00 -1.911214E+00  1.168189E+00
       135   8  4.641776E+00  1.197828E+02  2.065591E+00  9.392077E+00 -1.913576E+00  1.797536E+00
       136   1 -7.691913E+00 -1.304535E+02 -3.250131E+00 -2.318058E+00  2.031743E+00 -3.209750E+00
       136   2  5.189898E+00 -9.315477E+01  2.390483E+00 -1.794174E+00  2.044076E+00 -2.403155E+00
       136   3 -4.800710E+00 -1.285867E+02  8.152973E-02  9.617458E+00  1.581750E+00 -3.395761E+00
       136   4  7.840438E+00 -9.152857E+01  5.160597E+00  1.014134E+01  1.599841E+00 -2.568654E+00
       136   5 -7.903227E+00 -1.311093E+02 -3.587875E+00 -2.469193E+00 -1.530738E+00 -2.458508E+00
       136   6  5.019636E+00 -9.372784E+01  2.106869E+00 -1.939462E+00 -1.518640E+00 -1.815658E+00
       136   7 -4.986691E+00 -1.292362E+02 -2.606923E-01  9.574949E+00 -2.130723E+00 -2.643156E+00
       136   8  7.697273E+00 -9.209363E+01  4.876620E+00  1.010468E+01 -2.112910E+00 -1.979943E+00
       137   1 -7.084958E+00 -7.506878E+01 -2.754751E+00  3.270993E+00  2.088262E+00 -1.872096E+00
       137   2  5.919581E+00 -3.748918E+01  3.014114E+00  3.523226E+00  2.104548E+00 -1.227810E+00
       137   3 -5.539638E+00 -7.401665E+01 -7.929592E-01  1.528380E+01  1.645885E+00 -2.020744E+00
       137   4  7.225557E+00 -3.667639E+01  4.417437E+00  1.553603E+01  1.667639E+00 -1.350935E+00
       137   5 -7.246726E+00 -7.558524E+01 -3.006419E+00  2.973042E+00 -1.471952E+00 -1.404215E+00
       137   6  5.806442E+00 -3.790518E+01  2.824083E+00  3.230826E+00 -1.455888E+00 -9.229853E-01
       137   7 -5.680898E+00 -7.452717E+01 -1.045362E+00  1.510005E+01 -2.063530E+00 -1.551775E+00
       137   8  7.134679E+00 -3.708471E+01  4.230764E+00  1.535784E+01 -2.042040E+00 -1.045208E+00
       138   1 -6.503407E+00 -1.931493E+01 -2.136431E+00  5.371266E+00  2.115469E+00 -7.838095E-01
       138   2  6.610023E+00  1.849769E+01  3.762380E+00  5.326703E+00  2.121082E+00 -2.150646E-01
       138   3 -6.386466E+00 -1.911085E+01 -1.573120E+00  1.744475E+01  1.672149E+00 -8.886600E-01
       138   4  6.492371E+00  1.846717E+01  3.778307E+00  1.740019E+01  1.679870E+00 -2.955111E-01
       138   5 -6.660699E+00 -1.969279E+01 -2.316013E+00  5.018026E+00 -1.434929E+00 -5.971566E-01
       138   6  6.499461E+00  1.821612E+01  3.642278E+00  4.975603E+00 -1.429402E+00 -1.882062E-01
       138   7 -6.539479E+00 -1.948801E+01 -1.754628E+00  1.720505E+01 -2.024413E+00 -7.012387E-01
       138   8  6.387807E+00  1.818802E+01  3.660290E+00  1.716262E+01 -2.016793E+00 -2.680632E-01
       139   1 -5.883118E+00  3.674240E+01 -1.382310E+00  3.722767E+00  2.089716E+00  2.138204E-01
       139   2  7.271961E+00  7.466115E+01  4.549209E+00  3.403195E+00  2.085086E+00  8.168110E-01
       139   3 -7.111449E+00  3.613893E+01 -2.165569E+00  1.582777E+01  1.634102E+00  1.486015E-01
       139   4  5.814677E+00  7.382872E+01  3.231726E+00  1.550820E+01  1.629922E+00  7.687908E-01
       139   5 -6.038060E+00  3.648993E+01 -1.495007E+00  3.423847E+00 -1.465907E+00  1.252059E-01
       139   6  7.152545E+00  7.447913E+01  4.484482E+00  3.104733E+00 -1.470556E+00  5.725135E-01
       139   7 -7.271899E+00  3.588466E+01 -2.278744E+00  1.563541E+01 -2.064060E+00  6.046496E-02
       139   8  5.691432E+00  7.364658E+01  3.170435E+00  1.531630E+01 -2.068261E+00  5.248452E-01
       140   1 -5.216190E+00  9.296487E+01 -5.819035E-01 -1.629526E+00  2.033054E+00  1.307128E+00
       140   2  7.972613E+00  1.309652E+02  5.380464E+00 -2.215241E+00  2.032794E+00  2.043709E+00
       140   3 -7.749752E+00  9.157655E+01 -2.676089E+00  1.049886E+01  1.566144E+00  1.269383E+00
       140   4  5.215560E+00  1.293534E+02  2.764798E+00  9.913146E+00  1.568837E+00  2.016835E+00
       140   5 -5.335302E+00  9.281665E+01 -6.247018E-01 -1.778884E+00 -1.524609E+00  9.503102E-01
       140   6  7.879169E+00  1.308647E+02  5.375480E+00 -2.361601E+00 -1.524990E+00  1.535163E+00
       140   7 -7.869447E+00  9.143029E+01 -2.711748E+00  1.044991E+01 -2.130526E+00  9.128413E-01
       140   8  5.123170E+00  1.292565E+02  2.770775E+00  9.867195E+00 -2.127975E+00  1.508486E+00
       141   1 -8.109573E+00 -1.398601E+02 -2.864708E+00 -2.673971E+00  2.246908E+00 -3.439872E+00
       141   2  5.545291E+00 -1.002038E+02  2.995182E+00 -2.169200E+00  2.270998E+00 -2.648806E+00
       141   3 -5.241658E+00 -1.379792E+02  5.371944E-01  1.003609E+01  1.602758E+00 -3.705417E+00
       141   4  8.174426E+00 -9.856165E+01  5.839928E+00  1.054086E+01  1.634870E+00 -2.895289E+00
       141   5 -8.397669E+00 -1.407888E+02 -3.335426E+00 -2.821715E+00 -1.565131E+00 -2.653508E+00
       141   6  5.298992E+00 -1.010520E+02  2.583277E+00 -2.308799E+00 -1.541469E+00 -2.025095E+00
       141   7 -5.497283E+00 -1.388987E+02  6.447144E-02  1.000122E+01 -2.356754E+00 -2.917106E+00
       141   8  7.962345E+00 -9.939893E+01  5.430101E+00  1.051414E+01 -2.325129E+00 -2.269772E+00
       142   1 -7.778127E+00 -8.090522E+01 -2.627893E+00  3.048261E+00  2.323694E+00 -2.123464E+00
       142   2  6.255682E+00 -4.037012E+01  3.616377E+00  3.202914E+00  2.353220E+00 -1.479268E+00
       142   3 -6.522995E+00 -7.995248E+01 -7.072165E-01  1.600264E+01  1.698048E+00 -2.347961E+00
       142   4  7.268792E+00 -3.965940E+01  4.972332E+00  1.615730E+01  1.730011E+00 -1.662762E+00
       142   5 -8.027019E+00 -8.168534E+01 -3.003856E+00  2.772031E+00 -1.485902E+00 -1.620056E+00
       142   6  6.082179E+00 -4.099159E+01  3.333050E+00  2.929159E+00 -1.456506E+00 -1.141882E+00
       142   7 -6.764768E+00 -8.073259E+01 -1.090261E+00  1.586304E+01 -2.261221E+00 -1.842909E+00
       142   8  7.104180E+00 -4.027908E+01  4.686062E+00  1.602016E+01 -2.229406E+00 -1.324031E+00
       143   1 -7.235684E+00 -2.087500E+01 -1.978782E+00  5.053010E+00  2.354035E+00 -1.038337E+00
       143   2  6.825647E+00  1.968910E+01  4.328221E+00  4.884463E+00  2.368704E+00 -4.778839E-01
       143   3 -7.502022E+00 -2.081178E+01 -1.501711E+00  1.800812E+01  1.716062E+00 -1.194957E+00
       143   4  6.327216E+00  1.952023E+01  4.263742E+00  1.783957E+01  1.730667E+00 -6.020878E-01
       143   5 -7.470531E+00 -2.143949E+01 -2.247343E+00  4.712423E+00 -1.438973E+00 -8.198577E-01
       143   6  6.652577E+00  1.925221E+01  4.137980E+00  4.543811E+00 -1.424301E+00 -4.182457E-01
       143   7 -7.743624E+00 -2.138047E+01 -1.777498E+00  1.779557E+01 -2.220139E+00 -9.753302E-01
       143   8  6.149092E+00  1.908085E+01  4.070241E+00  1.762696E+01 -2.205530E+00 -5.415395E-01
       144   1 -6.536316E+00  3.925388E+01 -1.186180E+00  3.257395E+00  2.310695E+00 -6.477922E-02
       144   2  7.541068E+00  7.984643E+01  5.145883E+00  2.874927E+00  2.310759E+00  5.033912E-01
       144   3 -7.931949E+00  3.860608E+01 -1.949876E+00  1.621856E+01  1.644273E+00 -1.689634E-01
       144   4  5.926144E+00  7.897934E+01  3.870506E+00  1.583609E+01  1.646887E+00  4.214858E-01
       144   5 -6.760596E+00  3.885817E+01 -1.364124E+00  2.955677E+00 -1.479433E+00 -1.180502E-01
       144   6  7.362442E+00  7.954161E+01  5.029222E+00  2.575800E+00 -1.479505E+00  3.004872E-01
       144   7 -8.156322E+00  3.821069E+01 -2.126647E+00  1.603479E+01 -2.280736E+00 -2.214710E-01
       144   8  5.749031E+00  7.867645E+01  3.758767E+00  1.565491E+01 -2.278276E+00  2.191820E-01
       145   1 -5.770694E+00  9.947946E+01 -3.204065E-01 -2.139911E+00  2.232532E+00  9.540985E-01
       145   2  8.371555E+00  1.402059E+02  6.093939E+00 -2.734909E+00  2.239020E+00  1.617283E+00
       145   3 -8.267269E+00  9.814628E+01 -2.267777E+00  1.085502E+01  1.537325E+00  8.811208E-01
       145   4  5.672375E+00  1.386702E+02  3.673822E+00  1.026002E+01  1.549963E+00  1.546418E+00
       145   5 -5.944141E+00  9.920749E+01 -4.113558E-01 -2.303661E+00 -1.551053E+00  6.461844E-01
       145   6  8.212155E+00  1.399523E+02  6.031475E+00 -2.892415E+00 -1.544893E+00  1.172109E+00
       145   7 -8.430842E+00  9.788046E+01 -2.348066E+00  1.078930E+01 -2.370314E+00  5.737414E-01
       145   8  5.524332E+00  1.384242E+02  3.625483E+00  1.020055E+01 -2.358049E+00  1.101763E+00
       146   1 -8.988110E+00 -1.501634E+02 -2.855913E+00 -2.090884E+00  2.504002E+00 -3.741561E+00
       146   2  5.838473E+00 -1.072344E+02  3.637019E+00 -1.539166E+00  2.543821E+00 -2.975760E+00
       146   3 -6.279820E+00 -1.484158E+02  2.612653E-01  1.014206E+01  1.980741E+00 -4.054457E+00
       146   4  8.333876E+00 -1.056996E+02  6.257463E+00  1.069378E+01  2.041606E+00 -3.246661E+00
       146   5 -9.352722E+00 -1.514006E+02 -3.456942E+00 -2.095674E+00 -1.570627E+00 -2.922818E+00
       146   6  5.561635E+00 -1.082860E+02  3.142971E+00 -1.519442E+00 -1.532233E+00 -2.325161E+00
       146   7 -6.579606E+00 -1.496170E+02 -2.845710E-01  1.001025E+01 -2.254901E+00 -3.240097E+00
       146   8  8.118882E+00 -1.067182E+02  5.811649E+00  1.058649E+01 -2.195165E+00 -2.599858E+00
       147   1 -8.926374E+00 -8.654568E+01 -2.519099E+00  4.035214E+00  2.625784E+00 -2.450204E+00
       147   2  6.244524E+00 -4.280817E+01  4.313056E+00  4.004144E+00  2.670375E+00 -1.780159E+00
       147   3 -8.364106E+00 -8.592931E+01 -1.026810E+00  1.647022E+01  2.155740E+00 -2.691488E+00
       147   4  6.589854E+00 -4.240874E+01  5.299157E+00  1.643915E+01  2.200679E+00 -1.982522E+00
       147   5 -9.242624E+00 -8.750956E+01 -2.980191E+00  3.953829E+00 -1.451721E+00 -1.923771E+00
       147   6  6.010953E+00 -4.359871E+01  3.954215E+00  3.923166E+00 -1.407154E+00 -1.424809E+00
       147   7 -8.668622E+00 -8.688290E+01 -1.465343E+00  1.625595E+01 -2.085410E+00 -2.168435E+00
       147   8  6.364977E+00 -4.319203E+01  4.955784E+00  1.622528E+01 -2.040489E+00 -1.630007E+00
       148   1 -8.478599E+00 -2.203558E+01 -1.778144E+00  5.629037E+00  2.651564E+00 -1.327082E+00
       148   2  6.472703E+00  2.112721E+01  4.896740E+00  5.182826E+00  2.682134E+00 -7.592992E-01
       148   3 -9.551607E+00 -2.233164E+01 -1.692030E+00  1.790946E+01  2.154387E+00 -1.504730E+00
       148   4  5.197627E+00  2.062908E+01  4.511361E+00  1.746325E+01  2.181227E+00 -9.083432E-01
       148   5 -8.792099E+00 -2.277219E+01 -2.126798E+00  5.464185E+00 -1.396470E+00 -1.092492E+00
       148   6  6.222849E+00  2.052088E+01  4.629964E+00  5.013630E+00 -1.365648E+00 -6.835477E-01
       148   7 -9.855360E+00 -2.306179E+01 -2.028858E+00  1.760354E+01 -2.047030E+00 -1.272628E+00
       148   8  4.954689E+00  2.002638E+01  4.249805E+00  1.715298E+01 -2.019989E+00 -8.346798E-01
       149   1 -7.457935E+00  4.187118E+01 -9.142557E-01  3.338257E+00  2.580086E+00 -3.503541E-01
       149   2  7.241068E+00  8.440031E+01  5.553289E+00  2.782616E+00  2.594995E+00  1.991215E-01
       149   3 -9.206586E+00  4.109000E+01 -1.769512E+00  1.545267E+01  2.036622E+00 -4.849759E-01
       149   4  5.311640E+00  8.343836E+01  4.276217E+00  1.489703E+01  2.052997E+00  7.529853E-02
       149   5 -7.750177E+00  4.130008E+01 -1.166739E+00  3.186642E+00 -1.447945E+00 -3.843886E-01
       149   6  6.979926E+00  8.388547E+01  5.348215E+00  2.632710E+00 -1.433135E+00  2.398482E-02
       149   7 -9.471081E+00  4.053036E+01 -2.011587E+00  1.514448E+01 -2.130085E+00 -5.208965E-01
       149   8  5.075711E+00  8.293244E+01  4.075643E+00  1.459055E+01 -2.113789E+00 -1.015729E-01
       150   1 -6.510262E+00  1.054107E+02 -7.306957E-02 -2.151182E+00  2.458310E+00  6.082097E-01
       150   2  8.769094E+00  1.492319E+02  7.036900E+00 -2.787426E+00  2.476791E+00  1.176384E+00
       150   3 -8.809840E+00  1.042189E+02 -1.746005E+00  1.027305E+01  1.860150E+00  4.945877E-01
       150   4  6.310031E+00  1.478806E+02  4.991833E+00  9.636807E+00  1.881399E+00  1.079832E+00
       150   5 -6.749042E+00  1.049442E+02 -2.423224E-01 -2.193619E+00 -1.542739E+00  3.356754E-01
       150   6  8.570930E+00  1.488458E+02  6.922652E+00 -2.826638E+00 -1.524446E+00  7.788563E-01
       150   7 -9.017200E+00  1.037630E+02 -1.911422E+00  1.007603E+01 -2.264541E+00  2.204615E-01
       150   8  6.141052E+00  1.475029E+02  4.876207E+00  9.443007E+00 -2.243440E+00  6.809522E-01
       151   1 -1.026747E+01 -1.610210E+02 -3.432453E+00 -1.336663E+00  2.561971E+00 -4.030272E+00
       151   2  5.992615E+00 -1.142523E+02  3.999149E+00 -7.996408E-01  2.638397E+00 -3.234606E+00
       151   3 -7.618105E+00 -1.593067E+02 -3.674795E-01  1.194369E+01  2.303477E+00 -4.359982E+00
       151   4  8.424249E+00 -1.127558E+02  6.556092E+00  1.248071E+01  2.399695E+00 -3.529588E+00
       151   5 -1.054994E+01 -1.622644E+02 -3.966418E+00 -1.271081E+00 -1.803881E+00 -3.229380E+00
       151   6  5.780268E+00 -1.153447E+02  3.547906E+00 -7.110051E-01 -1.728315E+00 -2.604283E+00
       151   7 -7.839714E+00 -1.605159E+02 -8.483317E-01  1.186053E+01 -2.223145E+00 -3.563708E+00
       151   8  8.269712E+00 -1.138170E+02  6.150845E+00  1.242061E+01 -2.127508E+00 -2.903397E+00
       152   1 -1.117656E+01 -9.214130E+01 -2.927896E+00  5.003320E+00  2.781414E+00 -2.691172E+00
       152   2  5.553336E+00 -4.425992E+01  4.957056E+00  4.577508E+00  2.843812E+00 -2.002149E+00
       152   3 -1.184136E+01 -9.206467E+01 -2.007682E+00  1.856352E+01  2.572394E+00 -2.960497E+00
       152   4  4.662074E+00 -4.440976E+01  5.348853E+00  1.813771E+01  2.637205E+00 -2.236105E+00
       152   5 -1.151170E+01 -9.319688E+01 -3.392708E+00  4.982001E+00 -1.592962E+00 -2.188207E+00
       152   6  5.289821E+00 -4.516148E+01  4.576972E+00  4.559000E+00 -1.530669E+00 -1.676566E+00
       152   7 -1.214126E+01 -9.310009E+01 -2.440511E+00  1.839024E+01 -1.968483E+00 -2.461305E+00
       152   8  4.430621E+00 -4.529433E+01  4.993349E+00  1.796724E+01 -1.903742E+00 -1.913799E+00
       153   1 -1.056053E+01 -2.210663E+01 -1.599197E+00  5.454010E+00  2.783454E+00 -1.542443E+00
       153   2  5.157257E+00  2.330942E+01  5.377369E+00  4.567389E+00  2.826620E+00 -9.755231E-01
       153   3 -1.301237E+01 -2.301470E+01 -2.174236E+00  1.838163E+01  2.531106E+00 -1.756477E+00
       153   4  2.504426E+00  2.220037E+01  4.333360E+00  1.749501E+01  2.572472E+00 -1.170502E+00
       153   5 -1.090986E+01 -2.297481E+01 -1.983238E+00  5.339381E+00 -1.541139E+00 -1.339211E+00
       153   6  4.849940E+00  2.252765E+01  5.046975E+00  4.450664E+00 -1.497895E+00 -9.291821E-01
       153   7 -1.332718E+01 -2.386608E+01 -2.536818E+00  1.810746E+01 -1.942331E+00 -1.556244E+00
       153   8  2.228814E+00  2.143258E+01  4.017855E+00  1.721874E+01 -1.900913E+00 -1.126892E+00
       154   1 -8.780525E+00  4.510260E+01 -5.364738E-01  2.062441E+00  2.655768E+00 -5.798371E-01
       154   2  6.202906E+00  8.870373E+01  5.807160E+00  1.232924E+00  2.684826E+00 -6.572248E-02
       154   3 -1.139447E+01  4.393301E+01 -1.821165E+00  1.451970E+01  2.342706E+00 -7.657832E-01
       154   4  3.420830E+00  8.736601E+01  4.130154E+00  1.369018E+01  2.373774E+00 -2.460466E-01
       154   5 -9.108127E+00  4.434555E+01 -8.553746E-01  1.940624E+00 -1.620565E+00 -6.387976E-01
       154   6  5.892425E+00  8.797690E+01  5.515109E+00  1.113447E+00 -1.591593E+00 -2.554814E-01
       154   7 -1.168133E+01  4.319273E+01 -2.124908E+00  1.423140E+01 -2.059778E+00 -8.273485E-01
       154   8  3.148735E+00  8.665359E+01  3.847764E+00  1.340422E+01 -2.028769E+00 -4.383316E-01
       155   1 -7.355388E+00  1.105290E+02  1.189119E-01 -3.230934E+00  2.458280E+00  3.225802E-01
       155   2  8.287836E+00  1.555565E+02  7.235524E+00 -3.799318E+00  2.481481E+00  8.693284E-01
       155   3 -9.454978E+00  1.094191E+02 -1.481237E+00  9.559994E+00  2.102737E+00  1.428640E-01
       155   4  6.047088E+00  1.543054E+02  5.306006E+00  8.991609E+00  2.136224E+00  6.856509E-01
       155   5 -7.646340E+00  1.098154E+02 -1.548037E-01 -3.241980E+00 -1.763839E+00  4.488975E-02
       155   6  7.996090E+00  1.548328E+02  6.969183E+00 -3.798383E+00 -1.741085E+00  4.822027E-01
       155   7 -9.691149E+00  1.087260E+02 -1.741286E+00  9.368278E+00 -2.226781E+00 -1.373441E-01
       155   8  5.808145E+00  1.536003E+02  5.048718E+00  8.811875E+00 -2.193596E+00  2.959522E-01
       156   1 -1.381393E+01 -1.767658E+02 -6.256376E+00  8.990793E-01  2.689085E+00 -4.251927E+00
       156   2  6.066373E+00 -1.210373E+02  4.282805E+00  1.337996E+00  2.803295E+00 -3.392901E+00
       156   3 -1.156522E+01 -1.752814E+02 -3.556853E+00  1.650375E+01  2.770639E+00 -4.598932E+00
       156   4  8.082298E+00 -1.197856E+02  6.439168E+00  1.694267E+01  2.908624E+00 -3.706750E+00
       156   5 -1.401264E+01 -1.780157E+02 -6.721186E+00  1.030519E+00 -1.964682E+00 -3.537682E+00
       156   6  5.930041E+00 -1.221476E+02  3.886316E+00  1.497127E+00 -1.850927E+00 -2.860043E+00
       156   7 -1.168643E+01 -1.764907E+02 -3.964129E+00  1.645274E+01 -2.050611E+00 -3.889548E+00
       156   8  8.020208E+00 -1.208587E+02  6.092603E+00  1.691935E+01 -1.912748E+00 -3.178289E+00
       157   1 -1.483326E+01 -9.639985E+01 -3.499083E+00  6.956989E+00  2.987771E+00 -2.813472E+00
       157   2  3.648679E+00 -4.390559E+01  5.613128E+00  5.881410E+00  3.067765E+00 -2.089471E+00
       157   3 -1.760131E+01 -9.729510E+01 -3.715207E+00  2.176251E+01  3.080017E+00 -3.107473E+00
       157   4  6.512589E-01 -4.503021E+01  4.861788E+00  2.068693E+01  3.162094E+00 -2.362399E+00
       157   5 -1.513853E+01 -9.751462E+01 -3.941992E+00  7.002936E+00 -1.681362E+00 -2.412347E+00
       157   6  3.384612E+00 -4.493007E+01  5.217276E+00  5.929783E+00 -1.601408E+00 -1.866858E+00
       157   7 -1.784687E+01 -9.838021E+01 -4.118936E+00  2.162497E+01 -1.753552E+00 -2.710466E+00
       157   8  4.436850E-01 -4.602825E+01  4.497618E+00  2.055181E+01 -1.671486E+00 -2.143610E+00
       158   1 -1.381277E+01 -2.031718E+01 -1.385501E+00  5.006527E+00  2.925878E+00 -1.620022E+00
       158   2  2.522718E+00  2.700028E+01  5.748679E+00  3.664738E+00  2.977237E+00 -1.061468E+00
       158   3 -1.777667E+01 -2.194477E+01 -2.846882E+00  1.849293E+01  2.945150E+00 -1.879381E+00
       158   4 -1.636127E+00  2.517775E+01  3.832425E+00  1.715115E+01  2.999705E+00 -1.304825E+00
       158   5 -1.416569E+01 -2.133289E+01 -1.800224E+00  4.955237E+00 -1.660575E+00 -1.518268E+00
       158   6  2.201488E+00  2.605353E+01  5.370619E+00  3.617170E+00 -1.609277E+00 -1.111392E+00
       158   7 -1.806017E+01 -2.292972E+01 -3.228528E+00  1.827131E+01 -1.781663E+00 -1.781261E+00
       158   8 -1.890670E+00  2.425902E+01  3.481069E+00  1.693325E+01 -1.727125E+00 -1.358159E+00
       159   1 -1.085106E+01  4.959642E+01 -1.536493E-01 -1.438084E-01  2.706227E+00 -6.819045E-01
       159   2  3.879923E+00  9.298606E+01  5.559983E+00 -1.312886E+00  2.747903E+00 -2.034722E-01
       159   3 -1.460987E+01  4.787321E+01 -2.138899E+00  1.233127E+01  2.658369E+00 -9.178780E-01
       159   4 -2.880809E-02  9.111292E+01  3.224914E+00  1.116219E+01  2.707692E+00 -4.352754E-01
       159   5 -1.118093E+01  4.867193E+01 -5.234406E-01 -2.006254E-01 -1.789784E+00 -8.299867E-01
       159   6  3.560206E+00  9.208143E+01  5.204173E+00 -1.360796E+00 -1.748254E+00 -4.680474E-01
       159   7 -1.486651E+01  4.697852E+01 -2.482550E+00  1.210626E+01 -1.946861E+00 -1.069266E+00
       159   8 -2.773957E-01  9.023600E+01  2.890342E+00  1.094609E+01 -1.897577E+00 -7.030981E-01
       160   1 -8.019579E+00  1.150511E+02  1.126398E-01 -5.354143E+00  2.447070E+00  1.567457E-01
       160   2  6.837734E+00  1.585580E+02  6.130161E+00 -5.669720E+00  2.485049E+00  6.624471E-01
       160   3 -9.425890E+00  1.141943E+02 -1.337148E+00  7.116964E+00  2.368136E+00 -7.405396E-02
       160   4  5.312863E+00  1.575826E+02  4.403732E+00  6.801387E+00  2.422489E+00  4.302187E-01
       160   5 -8.299518E+00  1.141680E+02 -2.215393E-01 -5.310041E+00 -1.961374E+00 -1.841552E-01
       160   6  6.557568E+00  1.576713E+02  5.798780E+00 -5.606546E+00 -1.923708E+00  2.295132E-01
       160   7 -9.641465E+00  1.133352E+02 -1.655610E+00  6.987332E+00 -2.127731E+00 -4.181884E-01
       160   8  5.095400E+00  1.567182E+02  4.084193E+00  6.690826E+00 -2.073462E+00 -5.968634E-03
       161   1 -2.021660E+00 -3.147554E+01 -9.933524E-01  5.485326E+00  3.753129E+00 -1.059066E+01
       161   2 -8.673404E-01 -2.633502E+01 -2.286135E+00  6.102593E+00  3.695717E+00 -7.829803E+00
       161   3  4.469048E-01 -3.010748E+01  1.098294E+00  7.262034E+00  2.350825E+00 -9.473782E+00
       161   4  1.622563E+00 -2.494562E+01 -1.446987E-01  7.879301E+00  2.198152E+00 -6.816150E+00
       161   5 -3.243397E-01 -2.711788E+01  8.278500E-01  4.987628E+00  2.515271E+00 -1.017366E+01
       161   6  6.540208E-01 -2.238808E+01 -6.407492E-01  5.496570E+00  2.457382E+00 -7.397146E+00
       161   7  1.792249E+00 -2.589642E+01  2.782788E+00  6.637141E+00  1.088104E+00 -9.041509E+00
       161   8  2.792239E+00 -2.114499E+01  1.364659E+00  7.146083E+00  9.336516E-01 -6.369629E+00
       162   1 -2.660621E+00 -2.221529E+01 -3.378386E+00  9.983873E+00  5.169604E+00 -5.878450E+00
       162   2  1.221288E+00 -1.184239E+01 -8.115907E-01  1.030185E+01  5.030995E+00 -3.308112E+00
       162   3 -1.188208E+00 -2.130978E+01 -1.832423E+00  1.287701E+01  3.420896E+00 -5.027440E+00
       162   4  2.443722E+00 -1.118686E+01  1.510890E-01  1.319498E+01  3.259875E+00 -2.798226E+00
       162   5 -1.696676E+00 -1.903590E+01 -2.131217E+00  9.366256E+00  4.498075E+00 -5.510051E+00
       162   6  1.602123E+00 -1.002192E+01 -1.491993E-01  9.658742E+00  4.359353E+00 -3.130926E+00
       162   7 -3.095223E-01 -1.816317E+01 -6.092796E-01  1.187923E+01  2.544542E+00 -4.647401E+00
       162   8  2.735880E+00 -9.402588E+00  7.814769E-01  1.217171E+01  2.383102E+00 -2.614067E+00
       163   1 -2.141750E+00 -6.627743E+00 -1.523859E+00  1.112890E+01  5.390726E+00 -1.408917E+00
       163   2  2.124401E+00  4.675772E+00  1.393130E+00  1.117926E+01  5.421970E+00  1.209443E+00
       163   3 -1.934871E+00 -6.510651E+00 -1.340430E+00  1.426556E+01  3.519943E+00 -1.179942E+00
       163   4  2.087832E+00  4.549416E+00  1.008512E+00  1.431592E+01  3.522362E+00  1.012079E+00
       163   5 -1.642363E+00 -5.669649E+00 -1.086183E+00  1.060206E+01  4.702367E+00 -1.370054E+00
       163   6  1.895361E+00  3.935829E+00  1.100754E+00  1.061964E+01  4.733465E+00  1.061616E+00
       163   7 -1.537809E+00 -5.596021E+00 -9.453110E-01  1.327005E+01  2.631640E+00 -1.137947E+00
       163   8  1.753138E+00  3.762679E+00  6.658101E-01  1.328764E+01  2.633521E+00  8.615520E-01
       164   1 -1.913398E+00  1.023753E+01  4.709343E-01  8.839579E+00  4.976054E+00  3.225520E+00
       164   2  2.758000E+00  2.268718E+01  3.592612E+00  8.688586E+00  5.183547E+00  6.115186E+00
       164   3 -2.741596E+00  9.678534E+00 -5.641932E-01  1.230646E+01  3.194276E+00  2.714356E+00
       164   4  1.726830E+00  2.192521E+01  2.083884E+00  1.215547E+01  3.377174E+00  5.173043E+00
       164   5 -2.058528E+00  8.513560E+00 -9.289513E-02  8.373283E+00  4.186495E+00  2.952249E+00
       164   6  1.876732E+00  1.924691E+01  2.291290E+00  8.194322E+00  4.393865E+00  5.685886E+00
       164   7 -2.971337E+00  7.915510E+00 -1.173587E+00  1.136241E+01  2.229242E+00  2.434093E+00
       164   8  7.581758E-01  1.844311E+01  7.305192E-01  1.118345E+01  2.411681E+00  4.730857E+00
       165   1  2.940198E-01  2.764395E+01  2.315133E+00  5.224529E+00  3.735440E+00  8.314468E+00
       165   2  2.012299E+00  3.435991E+01  1.326774E+00  4.779280E+00  3.865145E+00  1.143335E+01
       165   3 -1.701927E+00  2.644182E+01  3.039804E-01  7.452071E+00  2.174555E+00  7.141645E+00
       165   4  9.174303E-02  3.323317E+01 -5.084671E-01  7.006821E+00  2.377937E+00  1.006128E+01
       165   5 -1.248679E+00  2.317061E+01  5.050542E-01  4.730799E+00  2.366265E+00  7.848613E+00
       165   6  1.301156E-01  2.909393E+01 -8.222870E-01  4.369330E+00  2.496338E+00  1.102365E+01
       165   7 -2.976314E+00  2.207873E+01 -1.406915E+00  6.729034E+00  8.123204E-01  6.659748E+00
       165   8 -1.521098E+00  2.807847E+01 -2.555939E+00  6.367565E+00  1.017078E+00  9.632813E+00
       166   1 -2.774083E+00 -4.038099E+01 -2.482537E+00  3.291853E+00  1.577276E+00 -1.044446E+01
       166   2  7.624970E-01 -2.976713E+01 -1.307798E+00  3.777104E+00  1.398590E+00 -7.250346E+00
       166   3 -9.227269E-01 -3.939477E+01 -1.046495E+00  6.446307E+00  1.194905E+00 -9.451859E+00
       166   4  2.655756E+00 -2.873900E+01  2.260187E-01  6.931559E+00  1.047926E+00 -6.478117E+00
       166   5 -1.739582E+00 -3.670718E+01 -1.053265E+00  3.052721E+00  3.119690E-01 -1.016022E+01
       166   6  1.422314E+00 -2.696919E+01 -2.516060E-01  3.574027E+00  1.341930E-01 -6.940665E+00
       166   7  2.069325E-01 -3.567755E+01  4.323493E-01  5.944241E+00 -8.268939E-02 -9.154043E+00
       166   8  3.411306E+00 -2.589707E+01  1.333120E+00  6.465547E+00 -2.283250E-01 -6.157873E+00
       167   1 -1.816091E+00 -2.396213E+01 -2.337436E+00  9.092338E+00  2.365376E+00 -5.217392E+00
       167   2  2.354719E+00 -1.239404E+01 -2.818929E-03  9.150776E+00  2.202815E+00 -2.857370E+00
       167   3 -1.298987E+00 -2.354921E+01 -1.478151E+00  1.238942E+01  1.574719E+00 -4.615594E+00
       167   4  2.708360E+00 -1.214459E+01  4.750522E-01  1.244786E+01  1.445136E+00 -2.500830E+00
       167   5 -1.354121E+00 -2.180343E+01 -1.534586E+00  8.598195E+00  1.377608E+00 -4.946332E+00
       167   6  2.393661E+00 -1.121616E+01  3.707498E-01  8.694133E+00  1.215993E+00 -2.717268E+00
       167   7 -7.194764E-01 -2.133752E+01 -6.162038E-01  1.160553E+01  4.447676E-01 -4.336302E+00
       167   8  2.862607E+00 -1.091595E+01  9.025004E-01  1.170147E+01  3.165816E-01 -2.355851E+00
       168   1 -2.001403E+00 -6.752983E+00 -1.374090E+00  1.029521E+01  2.402831E+00 -1.156905E+00
       168   2  2.658394E+00  5.975638E+00  1.429946E+00  1.026402E+01  2.392574E+00  1.128828E+00
       168   3 -2.045539E+00 -6.741515E+00 -1.291729E+00  1.389161E+01  1.587856E+00 -1.000542E+00
       168   4  2.454949E+00  5.827796E+00  1.140585E+00  1.386042E+01  1.576433E+00  9.835557E-01
       168   5 -1.766314E+00 -6.143341E+00 -1.118026E+00  9.846382E+00  1.408511E+00 -1.112111E+00
       168   6  2.374411E+00  5.380205E+00  1.160842E+00  9.813869E+00  1.398221E+00  1.044196E+00
       168   7 -1.812489E+00 -6.132332E+00 -1.035154E+00  1.309262E+01  4.556620E-01 -9.536087E-01
       168   8  2.166747E+00  5.229726E+00  8.669072E-01  1.306011E+01  4.441897E-01  8.969365E-01
       169   1 -2.178332E+00  1.171585E+01 -1.190447E-01  8.369970E+00  2.135479E+00  2.879577E+00
       169   2  2.360307E+00  2.427520E+01  2.450406E+00  8.307045E+00  2.296605E+00  5.376978E+00
       169   3 -2.585740E+00  1.142063E+01 -6.957088E-01  1.194493E+01  1.395326E+00  2.520419E+00
       169   4  1.825501E+00  2.385258E+01  1.576479E+00  1.188200E+01  1.516555E+00  4.735110E+00
       169   5 -2.227505E+00  1.052443E+01 -5.017232E-01  8.012897E+00  1.081403E+00  2.709252E+00
       169   6  1.825260E+00  2.195494E+01  1.576978E+00  7.904603E+00  1.241385E+00  5.101960E+00
       169   7 -2.774793E+00  1.016761E+01 -1.143835E+00  1.125690E+01  2.232004E-01  2.345181E+00
       169   8  1.148831E+00  2.146898E+01  6.335374E-01  1.114861E+01  3.427388E-01  4.451313E+00
       170   1 -1.003069E+00  3.034563E+01  1.133219E+00  3.142767E+00  1.347292E+00  7.518226E+00
       170   2  2.883454E+00  4.191989E+01  2.514038E+00  2.738060E+00  1.561139E+00  1.087082E+01
       170   3 -2.621153E+00  2.944908E+01 -2.371870E-01  6.569311E+00  1.011116E+00  6.674797E+00
       170   4  1.346559E+00  4.110453E+01  1.333072E+00  6.164604E+00  1.177572E+00  9.759429E+00
       170   5 -1.667697E+00  2.731470E+01  6.872886E-03  3.029617E+00  9.427376E-03  7.224602E+00
       170   6  1.764085E+00  3.782479E+01  9.360573E-01  2.571021E+00  2.219143E-01  1.063106E+01
       170   7 -3.439471E+00  2.634950E+01 -1.438659E+00  6.141958E+00 -3.131449E-01  6.369636E+00
       170   8  7.461027E-02  3.694189E+01 -3.174445E-01  5.683362E+00 -1.486967E-01  9.504461E+00
       171   1 -3.721480E+00 -4.849608E+01 -4.064551E+00  2.258711E+00  8.056181E-01 -9.246893E+00
       171   2  1.205134E+00 -3.465507E+01 -1.483516E+00  2.760157E+00  6.798552E-01 -6.481859E+00
       171   3 -1.561504E+00 -4.723012E+01 -2.004636E+00  6.231994E+00  8.981294E-01 -8.352132E+00
       171   4  3.256325E+00 -3.349789E+01  3.225698E-01  6.733439E+00  7.967805E-01 -5.813037E+00
       171   5 -2.685113E+00 -4.512706E+01 -2.688863E+00  2.182854E+00 -4.885898E-01 -8.748606E+00
       171   6  1.850417E+00 -3.219098E+01 -5.065108E-01  2.712062E+00 -6.130736E-01 -6.077876E+00
       171   7 -4.526536E-01 -4.382537E+01 -5.823702E-01  5.876586E+00 -5.003014E-01 -7.841607E+00
       171   8  3.972604E+00 -3.099957E+01  1.342681E+00  6.405794E+00 -6.000374E-01 -5.399906E+00
       172   1 -2.763208E+00 -2.779019E+01 -2.779008E+00  8.305399E+00  9.757866E-01 -4.675794E+00
       172   2  2.207946E+00 -1.398764E+01 -1.104382E-02  8.480746E+00  8.738063E-01 -2.506568E+00
       172   3 -1.833366E+00 -2.717297E+01 -1.651440E+00  1.224169E+01  8.964308E-01 -4.169664E+00
       172   4  2.962662E+00 -1.354554E+01  7.078962E-01  1.241703E+01  8.235776E-01 -2.218981E+00
       172   5 -2.265054E+00 -2.592084E+01 -2.034001E+00  7.927862E+00 -2.337649E-01 -4.359114E+00
       172   6  2.324157E+00 -1.299726E+01  3.397868E-01  8.136331E+00 -3.342194E-01 -2.334098E+00
       172   7 -1.235413E+00 -2.525786E+01 -8.536906E-01  1.159250E+01 -4.580570E-01 -3.846061E+00
       172   8  3.176276E+00 -1.251180E+01  1.105880E+00  1.180096E+01 -5.289859E-01 -2.042578E+00
       173   1 -2.299602E+00 -7.245050E+00 -1.442382E+00  1.011579E+01  9.765386E-01 -9.794133E-01
       173   2  2.852130E+00  6.989669E+00  1.495340E+00  1.007883E+01  9.652488E-01  1.023625E+00
       173   3 -2.334643E+00 -7.214206E+00 -1.304530E+00  1.416421E+01  8.697256E-01 -8.589502E-01
       173   4  2.644218E+00  6.847640E+00  1.229825E+00  1.412726E+01  8.606215E-01  9.060406E-01
       173   5 -2.123479E+00 -6.775787E+00 -1.241478E+00  9.688754E+00 -2.327797E-01 -9.122609E-01
       173   6  2.613158E+00  6.502451E+00  1.269074E+00  9.654286E+00 -2.439550E-01  9.472545E-01
       173   7 -2.148216E+00 -6.739900E+00 -1.097120E+00  1.344451E+01 -4.815528E-01 -7.901503E-01
       173   8  2.413184E+00  6.363102E+00  1.004548E+00  1.341004E+01 -4.905125E-01  8.280615E-01
       174   1 -1.923812E+00  1.375896E+01 -3.665515E-02  8.103129E+00  8.349850E-01  2.572736E+00
       174   2  3.219572E+00  2.802255E+01  2.844376E+00  7.886347E+00  9.252535E-01  4.801948E+00
       174   3 -2.813257E+00  1.325601E+01 -8.237159E-01  1.216814E+01  7.999290E-01  2.281562E+00
       174   4  2.173879E+00  2.736335E+01  1.692735E+00  1.195136E+01  8.630241E-01  4.274565E+00
       174   5 -2.080738E+00  1.273932E+01 -4.089759E-01  7.805194E+00 -4.029379E-01  2.395947E+00
       174   6  2.651559E+00  2.605461E+01  2.050054E+00  7.557512E+00 -3.140929E-01  4.494334E+00
       174   7 -3.059078E+00  1.219660E+01 -1.239686E+00  1.157915E+01 -5.700293E-01  2.100790E+00
       174   8  1.514833E+00  2.535351E+01  8.497768E-01  1.133147E+01 -5.087294E-01  3.959738E+00
       175   1 -1.244295E+00  3.493985E+01  1.356737E+00  2.444328E+00  6.492590E-01  6.647964E+00
       175   2  3.824539E+00  4.917799E+01  4.014714E+00  1.966671E+00  7.850896E-01  9.462159E+00
       175   3 -3.193775E+00  3.384196E+01 -3.533928E-01  6.531227E+00  7.794609E-01  5.944612E+00
       175   4  1.785822E+00  4.799086E+01  2.096362E+00  6.053569E+00  8.873155E-01  8.514263E+00
       175   5 -1.915633E+00  3.235323E+01  3.376529E-01  2.437879E+00 -6.763853E-01  6.263013E+00
       175   6  2.731406E+00  4.561341E+01  2.567601E+00  1.928409E+00 -5.420202E-01  8.996747E+00
       175   7 -3.949201E+00  3.121572E+01 -1.420477E+00  6.225089E+00 -6.370615E-01  5.550042E+00
       175   8  6.073801E-01  4.438544E+01  5.984010E-01  5.715619E+00 -5.310551E-01  8.035886E+00
       176   1 -4.366462E+00 -5.679508E+01 -4.694859E+00  1.578791E+00  5.514822E-01 -7.686841E+00
       176   2  1.476858E+00 -4.048408E+01 -1.528124E+00  2.064585E+00  4.650467E-01 -5.429425E+00
       176   3 -1.778782E+00 -5.514512E+01 -1.782674E+00  6.630185E+00  8.705048E-01 -6.956216E+00
       176   4  3.837971E+00 -3.906068E+01  8.554054E-01  7.115979E+00  8.030717E-01 -4.887662E+00
       176   5 -3.585393E+00 -5.428019E+01 -3.605059E+00  1.494437E+00 -9.082318E-01 -6.992811E+00
       176   6  1.952632E+00 -3.866295E+01 -7.622157E-01  1.999773E+00 -9.934976E-01 -4.902359E+00
       176   7 -9.259605E-01 -5.260349E+01 -6.755071E-01  6.394743E+00 -7.256133E-01 -6.267609E+00
       176   8  4.387180E+00 -3.721114E+01  1.642605E+00  6.900080E+00 -7.920177E-01 -4.364618E+00
       177   1 -3.539477E+00 -3.252288E+01 -3.176220E+00  7.571639E+00  4.700152E-01 -3.929941E+00
       177   2  2.326619E+00 -1.619166E+01  4.620327E-02  7.797601E+00  4.167586E-01 -2.090692E+00
       177   3 -2.228610E+00 -3.164819E+01 -1.571432E+00  1.262181E+01  7.434607E-01 -3.523484E+00
       177   4  3.392682E+00 -1.556176E+01  1.079784E+00  1.284777E+01  7.059735E-01 -1.865033E+00
       177   5 -3.112489E+00 -3.112631E+01 -2.570724E+00  7.181925E+00 -9.664943E-01 -3.529496E+00
       177   6  2.459629E+00 -1.546093E+01  3.376292E-01  7.424104E+00 -1.018780E+00 -1.869219E+00
       177   7 -1.744787E+00 -3.022958E+01 -9.493187E-01  1.208906E+01 -8.424244E-01 -3.126056E+00
       177   8  3.584345E+00 -1.480719E+01  1.392066E+00  1.233124E+01 -8.790580E-01 -1.645235E+00
       178   1 -2.789634E+00 -8.234740E+00 -1.617801E+00  9.620272E+00  4.345319E-01 -8.016238E-01
       178   2  3.125909E+00  8.212518E+00  1.653418E+00  9.594686E+00  4.277123E-01  8.809257E-01
       178   3 -2.752068E+00 -8.147787E+00 -1.365525E+00  1.470257E+01  6.989360E-01 -7.102498E-01
       178   4  2.919860E+00  8.055856E+00  1.337260E+00  1.467698E+01  6.942307E-01  7.862258E-01
       178   5 -2.659552E+00 -7.906139E+00 -1.466965E+00  9.127303E+00 -9.989854E-01 -7.109875E-01
       178   6  2.953949E+00  7.856350E+00  1.482215E+00  9.103892E+00 -1.005675E+00  7.930810E-01
       178   7 -2.616153E+00 -7.817212E+00 -1.213943E+00  1.406153E+01 -8.835643E-01 -6.202917E-01
       178   8  2.755541E+00  7.703470E+00  1.171023E+00  1.403812E+01 -8.881552E-01  6.990840E-01
       179   1 -2.133973E+00  1.616565E+01 -6.539868E-02  7.639561E+00  4.030152E-01  2.177149E+00
       179   2  3.803308E+00  3.268524E+01  3.205955E+00  7.381314E+00  4.486586E-01  4.035949E+00
       179   3 -3.302041E+00  1.549608E+01 -1.129261E+00  1.274627E+01  7.001844E-01  1.945637E+00
       179   4  2.397766E+00  3.177818E+01  1.587987E+00  1.248802E+01  7.324027E-01  3.616732E+00
       179   5 -2.295461E+00  1.540578E+01 -3.733623E-01  7.283198E+00 -1.043586E+00  1.960152E+00
       179   6  3.337641E+00  3.123510E+01  2.574321E+00  7.011144E+00 -9.987687E-01  3.644580E+00
       179   7 -3.514846E+00  1.471546E+01 -1.455037E+00  1.224039E+01 -8.910306E-01  1.730358E+00
       179   8  1.882545E+00  3.030907E+01  9.426542E-01  1.196834E+01 -8.595391E-01  3.228475E+00
       180   1 -1.463298E+00  4.063023E+01  1.454467E+00  1.944684E+00  4.564565E-01  5.545032E+00
       180   2  4.413569E+00  5.704653E+01  4.627722E+00  1.462217E+00  5.462352E-01  7.809127E+00
       180   3 -3.793208E+00  3.923162E+01 -8.776587E-01  7.030707E+00  8.002643E-01  4.986361E+00
       180   4  1.865017E+00  5.542928E+01  1.785431E+00  6.548239E+00  8.694562E-01  7.057160E+00
       180   5 -1.952924E+00  3.875418E+01  6.700575E-01  1.893157E+00 -1.015077E+00  5.030614E+00
       180   6  3.612298E+00  5.446126E+01  3.513721E+00  1.389518E+00 -9.265658E-01  7.132904E+00
       180   7 -4.361877E+00  3.732466E+01 -1.686046E+00  6.823917E+00 -8.025950E-01  4.476090E+00
       180   8  9.863251E-01  5.281472E+01  6.512395E-01  6.320278E+00 -7.345175E-01  6.386519E+00
       181   1 -4.877873E+00 -6.573068E+01 -4.588203E+00  1.097249E+00  6.386134E-01 -6.328060E+00
       181   2  1.856230E+00 -4.678917E+01 -1.082710E+00  1.611178E+00  5.857719E-01 -4.471645E+00
       181   3 -2.113353E+00 -6.395819E+01 -1.444418E+00  6.988192E+00  9.889609E-01 -5.862010E+00
       181   4  4.364785E+00 -4.527264E+01  1.463823E+00  7.502121E+00  9.531388E-01 -4.120514E+00
       181   5 -4.378963E+00 -6.411881E+01 -3.868146E+00  9.561449E-01 -1.056600E+00 -5.600223E+00
       181   6  2.165394E+00 -4.560342E+01 -5.690198E-01  1.487577E+00 -1.108613E+00 -3.924900E+00
       181   7 -1.549528E+00 -6.232286E+01 -7.110781E-01  6.776215E+00 -8.645681E-01 -5.137632E+00
       181   8  4.740764E+00 -4.406153E+01  1.995227E+00  7.307647E+00 -8.996876E-01 -3.576375E+00
       182   1 -4.049979E+00 -3.757268E+01 -3.159690E+00  7.131569E+00  5.050129E-01 -3.234828E+00
       182   2  2.678698E+00 -1.864906E+01  3.456182E-01  7.376440E+00  4.771686E-01 -1.712196E+00
       182   3 -2.639165E+00 -3.663454E+01 -1.443358E+00  1.301649E+01  8.768298E-01 -2.969430E+00
       182   4  3.829493E+00 -1.797094E+01  1.455241E+00  1.326136E+01  8.569783E-01 -1.566107E+00
       182   5 -3.750183E+00 -3.664812E+01 -2.743111E+00  6.688772E+00 -1.186075E+00 -2.821747E+00
       182   6  2.781779E+00 -1.816662E+01  5.485968E-01  6.941863E+00 -1.213530E+00 -1.483199E+00
       182   7 -2.309541E+00 -3.569966E+01 -1.022245E+00  1.249839E+01 -9.755043E-01 -2.558319E+00
       182   8  3.964332E+00 -1.747626E+01  1.667255E+00  1.275148E+01 -9.950259E-01 -1.338195E+00
       183   1 -3.296357E+00 -9.453670E+00 -1.753676E+00  9.258801E+00  4.603129E-01 -6.487004E-01
       183   2  3.454962E+00  9.518208E+00  1.778841E+00  9.245107E+00  4.572543E-01  7.341915E-01
       183   3 -3.208961E+00 -9.339841E+00 -1.461641E+00  1.515609E+01  8.365695E-01 -5.902507E-01
       183   4  3.283374E+00  9.373054E+00  1.466582E+00  1.514239E+01  8.342709E-01  6.725165E-01
       183   5 -3.208116E+00 -9.240386E+00 -1.651936E+00  8.694172E+00 -1.227614E+00 -5.542174E-01
       183   6  3.345280E+00  9.286490E+00  1.665841E+00  8.681260E+00 -1.230636E+00  6.452599E-01
       183   7 -3.119398E+00 -9.126557E+00 -1.361223E+00  1.451543E+01 -1.012048E+00 -4.962015E-01
       183   8  3.176936E+00  9.143258E+00  1.356744E+00  1.450251E+01 -1.014315E+00  5.840426E-01
       184   1 -2.583172E+00  1.870456E+01 -3.459470E-01  7.327959E+00  4.762491E-01  1.799238E+00
       184   2  4.167059E+00  3.768658E+01  3.172808E+00  7.065055E+00  5.006082E-01  3.326107E+00
       184   3 -3.785714E+00  1.800950E+01 -1.460284E+00  1.323066E+01  8.578820E-01  1.649306E+00
       184   4  2.706798E+00  3.673380E+01  1.457126E+00  1.296776E+01  8.748309E-01  3.055177E+00
       184   5 -2.700945E+00  1.820478E+01 -5.577594E-01  6.898015E+00 -1.218443E+00  1.576339E+00
       184   6  3.850079E+00  3.673872E+01  2.745052E+00  6.627490E+00 -1.194445E+00  2.920618E+00
       184   7 -3.933729E+00  1.749809E+01 -1.680613E+00  1.272385E+01 -9.965924E-01  1.427520E+00
       184   8  2.361488E+00  3.577622E+01  1.025316E+00  1.245333E+01 -9.799493E-01  2.651699E+00
       185   1 -1.837823E+00  4.687931E+01  1.049803E+00  1.582639E+00  5.874839E-01  4.564157E+00
       185   2  4.891043E+00  6.582003E+01  4.538636E+00  1.066557E+00  6.408752E-01  6.419706E+00
       185   3 -4.340469E+00  4.537285E+01 -1.469087E+00  7.475726E+00  9.555039E-01  4.207027E+00
       185   4  2.134820E+00  6.405999E+01  1.428065E+00  6.959644E+00  9.909056E-01  5.948069E+00
       185   5 -2.153318E+00  4.567358E+01  5.293349E-01  1.461459E+00 -1.112453E+00  4.026158E+00
       185   6  4.386555E+00  6.418979E+01  3.812707E+00  9.268757E-01 -1.059937E+00  5.702273E+00
       185   7 -4.726327E+00  4.414019E+01 -2.008977E+00  7.284101E+00 -9.013063E-01  3.671678E+00
       185   8  1.561851E+00  6.240470E+01  6.871060E-01  6.749517E+00 -8.666472E-01  5.234136E+00
       186   1 -5.261860E+00 -7.477401E+01 -4.293735E+00  6.791063E-01  8.217112E-01 -5.396294E+00
       186   2  2.335125E+00 -5.321905E+01 -5.254175E-01  1.200607E+00  7.959689E-01 -3.787033E+00
       186   3 -2.466144E+00 -7.298494E+01 -1.125874E+00  7.414818E+00  1.134318E+00 -5.114568E+00
       186   4  4.871670E+00 -5.168914E+01  2.037710E+00  7.936318E+00  1.118320E+00 -3.573023E+00
       186   5 -4.943909E+00 -7.378875E+01 -3.838513E+00  4.935062E-01 -1.146708E+00 -4.677203E+00
       186   6  2.539322E+00 -5.248682E+01 -1.963371E-01  1.025027E+00 -1.172101E+00 -3.248062E+00
       186   7 -2.108592E+00 -7.198709E+01 -6.683007E-01  7.211871E+00 -9.956841E-01 -4.397568E+00
       186   8  5.117392E+00 -5.094241E+01  2.373631E+00  7.743392E+00 -1.011406E+00 -3.035641E+00
       187   1 -4.504572E+00 -4.275414E+01 -3.081850E+00  6.720558E+00  7.291548E-01 -2.726254E+00
       187   2  3.092451E+00 -2.119828E+01  6.857020E-01  6.978710E+00  7.143891E-01 -1.437413E+00
       187   3 -3.047516E+00 -4.179539E+01 -1.343076E+00  1.345668E+01  1.072214E+00 -2.563619E+00
       187   4  4.289861E+00 -2.049918E+01  1.818637E+00  1.371483E+01  1.061990E+00 -1.347421E+00
       187   5 -4.315888E+00 -4.218341E+01 -2.817674E+00  6.213882E+00 -1.239689E+00 -2.319324E+00
       187   6  3.159764E+00 -2.089834E+01  8.160970E-01  6.476705E+00 -1.254292E+00 -1.211104E+00
       187   7 -2.840759E+00 -4.121940E+01 -1.079424E+00  1.292774E+01 -1.058524E+00 -2.157896E+00
       187   8  4.377175E+00 -2.019205E+01  1.953004E+00  1.319056E+01 -1.068619E+00 -1.121781E+00
       188   1 -3.771692E+00 -1.074015E+01 -1.877012E+00  8.886423E+00  6.943447E-01 -5.423742E-01
       188   2  3.834016E+00  1.082869E+01  1.906507E+00  8.880491E+00  6.925593E-01  6.140745E-01
       188   3 -3.656327E+00 -1.061333E+01 -1.569659E+00  1.562462E+01  1.045705E+00 -5.059323E-01
       188   4  3.690017E+00  1.069614E+01  1.608679E+00  1.561869E+01  1.043766E+00  5.768593E-01
       188   5 -3.716146E+00 -1.060649E+01 -1.811837E+00  8.251370E+00 -1.270715E+00 -4.482329E-01
       188   6  3.766636E+00  1.068792E+01  1.836361E+00  8.245280E+00 -1.272506E+00  5.277510E-01
       188   7 -3.602474E+00 -1.048097E+01 -1.507124E+00  1.496630E+01 -1.081091E+00 -4.120615E-01
       188   8  3.622870E+00  1.055600E+01  1.540384E+00  1.496021E+01 -1.083034E+00  4.908121E-01
       189   1 -3.052639E+00  2.128088E+01 -6.665341E-01  6.972875E+00  7.165971E-01  1.509688E+00
       189   2  4.547719E+00  4.284828E+01  3.100590E+00  6.706145E+00  7.287947E-01  2.800101E+00
       189   3 -4.267475E+00  2.058091E+01 -1.784941E+00  1.371296E+01  1.064206E+00  1.418880E+00
       189   4  3.073525E+00  4.188895E+01  1.377016E+00  1.344623E+01  1.071225E+00  2.636530E+00
       189   5 -3.128740E+00  2.097501E+01 -8.006268E-01  6.471259E+00 -1.254002E+00  1.291268E+00
       189   6  4.350074E+00  4.227121E+01  2.832557E+00  6.199203E+00 -1.241990E+00  2.401252E+00
       189   7 -4.366111E+00  2.026671E+01 -1.924254E+00  1.318898E+01 -1.068121E+00  1.201134E+00
       189   8  2.855271E+00  4.130548E+01  1.108254E+00  1.291693E+01 -1.061250E+00  2.238896E+00
       190   1 -2.320582E+00  5.329908E+01  5.262326E-01  1.202680E+00  7.996137E-01  3.862501E+00
       190   2  5.264774E+00  7.483389E+01  4.275945E+00  6.772966E-01  8.241248E-01  5.474618E+00
       190   3 -4.858399E+00  5.177540E+01 -2.014881E+00  7.934276E+00  1.121817E+00  3.647877E+00
       190   4  2.467518E+00  7.305077E+01  1.129472E+00  7.408893E+00  1.135517E+00  5.193277E+00
       190   5 -2.529137E+00  5.256342E+01  1.955530E-01  1.026622E+00 -1.172067E+00  3.331628E+00
       190   6  4.943997E+00  7.384878E+01  3.820642E+00  4.901205E-01 -1.147943E+00  4.763477E+00
       190   7 -5.112400E+00  5.102350E+01 -2.354249E+00  7.741840E+00 -1.011672E+00  3.118597E+00
       190   8  2.103220E+00  7.205135E+01  6.699738E-01  7.205338E+00 -9.982794E-01  4.484224E+00
       191   1 -5.653772E+00 -8.390939E+01 -4.043887E+00  2.657327E-01  1.026175E+00 -4.805968E+00
       191   2  2.816192E+00 -5.971827E+01 -1.794103E-03  7.949876E-01  1.015767E+00 -3.345321E+00
       191   3 -2.850384E+00 -8.212761E+01 -9.080242E-01  7.852305E+00  1.264450E+00 -4.645351E+00
       191   4  5.365585E+00 -5.819049E+01  2.541416E+00  8.381560E+00  1.259042E+00 -3.223417E+00
       191   5 -5.460489E+00 -8.334126E+01 -3.774987E+00  5.008858E-02 -1.221310E+00 -4.105984E+00
       191   6  2.943913E+00 -5.929533E+01  1.937580E-01  5.844860E-01 -1.231603E+00 -2.820370E+00
       191   7 -2.633770E+00 -8.155379E+01 -6.434802E-01  7.654671E+00 -1.141536E+00 -3.946559E+00
       191   8  5.518523E+00 -5.775997E+01  2.737010E+00  8.189069E+00 -1.146866E+00 -2.699371E+00
       192   1 -4.926435E+00 -4.798261E+01 -3.018493E+00  6.321397E+00  9.841274E-01 -2.395959E+00
       192   2  3.545759E+00 -2.378470E+01  1.024243E+00  6.585699E+00  9.764303E-01 -1.262902E+00
       192   3 -3.457947E+00 -4.702430E+01 -1.292612E+00  1.391017E+01  1.245870E+00 -2.303344E+00
       192   4  4.760368E+00 -2.308026E+01  2.157740E+00  1.417447E+01  1.240116E+00 -1.211591E+00
       192   5 -4.817949E+00 -4.765641E+01 -2.865144E+00  5.769368E+00 -1.264347E+00 -1.999134E+00
       192   6  3.584691E+00 -2.361301E+01  1.100254E+00  6.035668E+00 -1.271999E+00 -1.041091E+00
       192   7 -3.340255E+00 -4.669660E+01 -1.143456E+00  1.337358E+01 -1.160966E+00 -1.907206E+00
       192   8  4.810389E+00 -2.290519E+01  2.233954E+00  1.363988E+01 -1.166689E+00 -9.901604E-01
       193   1 -4.225723E+00 -1.205663E+01 -2.000359E+00  8.500436E+00  9.633341E-01 -4.816922E-01
       193   2  4.254422E+00  1.215187E+01  2.058289E+00  8.498534E+00  9.612296E-01  5.195558E-01
       193   3 -4.096159E+00 -1.192340E+01 -1.685802E+00  1.609048E+01  1.231717E+00 -4.607437E-01
       193   4  4.130228E+00  1.203135E+01  1.780743E+00  1.608858E+01  1.229039E+00  4.988550E-01
       193   5 -4.197498E+00 -1.198120E+01 -1.963840E+00  7.814735E+00 -1.281200E+00 -3.879729E-01
       193   6  4.212563E+00  1.207156E+01  2.016944E+00  7.812244E+00 -1.283318E+00  4.383359E-01
       193   7 -4.070997E+00 -1.184985E+01 -1.652518E+00  1.541988E+01 -1.171086E+00 -3.671799E-01
       193   8  4.087189E+00  1.195103E+01  1.740556E+00  1.541739E+01 -1.173773E+00  4.177886E-01
       194   1 -3.525633E+00  2.387823E+01 -9.710477E-01  6.594741E+00  9.788230E-01  1.301574E+00
       194   2  4.947565E+00  4.808195E+01  3.069223E+00  6.326331E+00  9.827521E-01  2.436840E+00
       194   3 -4.736102E+00  2.318587E+01 -2.068451E+00  1.418584E+01  1.242394E+00  1.250511E+00
       194   4  3.482658E+00  4.713515E+01  1.378130E+00  1.391743E+01  1.243175E+00  2.344475E+00
       194   5 -3.576634E+00  2.370234E+01 -1.051223E+00  6.044024E+00 -1.271405E+00  1.092122E+00
       194   6  4.827001E+00  4.775155E+01  2.911684E+00  5.772377E+00 -1.267548E+00  2.051990E+00
       194   7 -4.802644E+00  2.300460E+01 -2.150992E+00  1.365057E+01 -1.166562E+00  1.041438E+00
       194   8  3.348440E+00  4.680126E+01  1.222630E+00  1.337893E+01 -1.165830E+00  1.960311E+00
       195   1 -2.802892E+00  5.981357E+01  4.343472E-02  8.052187E-01  1.019652E+00  3.389443E+00
       195   2  5.658986E+00  8.399398E+01  4.069293E+00  2.707773E-01  1.026905E+00  4.856737E+00
       195   3 -5.353149E+00  5.829494E+01 -2.468419E+00  8.390522E+00  1.263161E+00  3.267935E+00
       195   4  2.853106E+00  8.221972E+01  9.609861E-01  7.856080E+00  1.264232E+00  4.696908E+00
       195   5 -2.940256E+00  5.938788E+01 -1.551716E-01  5.939007E-01 -1.231960E+00  2.875921E+00
       195   6  5.456629E+00  8.342447E+01  3.797856E+00  5.310103E-02 -1.224849E+00  4.167075E+00
       195   7 -5.520121E+00  5.785972E+01 -2.669184E+00  8.197597E+00 -1.148021E+00  2.755315E+00
       195   8  2.623038E+00  8.164258E+01  6.918163E-01  7.656797E+00 -1.147046E+00  4.008431E+00
       196   1 -6.055366E+00 -9.309563E+01 -3.878515E+00 -1.519831E-01  1.229773E+00 -4.456519E+00
       196   2  3.301310E+00 -6.625100E+01  4.657749E-01  3.819946E-01  1.227070E+00 -3.086692E+00
       196   3 -3.254871E+00 -9.132586E+01 -7.797870E-01  8.287191E+00  1.370463E+00 -4.378770E+00
       196   4  5.854164E+00 -6.472887E+01  2.986674E+00  8.821168E+00  1.369988E+00 -3.028848E+00
       196   5 -5.953207E+00 -9.281762E+01 -3.746946E+00 -3.861861E-01 -1.291384E+00 -3.772361E+00
       196   6  3.370250E+00 -6.604715E+01  5.607769E-01  1.500828E-01 -1.294065E+00 -2.572522E+00
       196   7 -3.138824E+00 -9.104613E+01 -6.563581E-01  8.096190E+00 -1.304833E+00 -3.695189E+00
       196   8  5.938830E+00 -6.452146E+01  3.077825E+00  8.632459E+00 -1.305302E+00 -2.515109E+00
       197   1 -5.343620E+00 -5.323833E+01 -2.994697E+00  5.915186E+00  1.225288E+00 -2.206828E+00
       197   2  4.014511E+00 -2.638888E+01  1.349628E+00  6.183455E+00  1.220493E+00 -1.172824E+00
       197   3 -3.869560E+00 -5.228211E+01 -1.281342E+00  1.435598E+01  1.380749E+00 -2.163690E+00
       197   4  5.241076E+00 -2.568015E+01  2.485497E+00  1.462425E+01  1.376494E+00 -1.149953E+00
       197   5 -5.297355E+00 -5.308846E+01 -2.925875E+00  5.336530E+00 -1.296665E+00 -1.817064E+00
       197   6  4.027000E+00 -2.631447E+01  1.381328E+00  5.605355E+00 -1.301454E+00 -9.529517E-01
       197   7 -3.818843E+00 -5.213273E+01 -1.218640E+00  1.382018E+01 -1.295183E+00 -1.774246E+00
       197   8  5.259855E+00 -2.560441E+01  2.515363E+00  1.408900E+01 -1.299436E+00 -9.302510E-01
       198   1 -4.666544E+00 -1.338476E+01 -2.121035E+00  8.103608E+00  1.215099E+00 -4.645514E-01
       198   2  4.703619E+00  1.348459E+01  2.243489E+00  8.103980E+00  1.212014E+00  4.364808E-01
       198   3 -4.526110E+00 -1.324505E+01 -1.795745E+00  1.654820E+01  1.374537E+00 -4.564847E-01
       198   4  4.596570E+00  1.337682E+01  1.991319E+00  1.654858E+01  1.370836E+00  4.243708E-01
       198   5 -4.663499E+00 -1.335895E+01 -2.109931E+00  7.388879E+00 -1.302800E+00 -3.690456E-01
       198   6  4.673029E+00  1.343527E+01  2.217612E+00  7.388616E+00 -1.305891E+00  3.621036E-01
       198   7 -4.526246E+00 -1.322118E+01 -1.787972E+00  1.587645E+01 -1.297311E+00 -3.610387E-01
       198   8  4.564636E+00  1.332739E+01  1.966398E+00  1.587618E+01 -1.301014E+00  3.500835E-01
       199   1 -3.988548E+00  2.649164E+01 -1.232003E+00  6.203103E+00  1.222824E+00  1.145648E+00
       199   2  5.377992E+00  5.336569E+01  3.115743E+00  5.932464E+00  1.221786E+00  2.182098E+00
       199   3 -5.192620E+00  2.580998E+01 -2.300141E+00  1.465172E+01  1.378929E+00  1.118593E+00
       199   4  3.925391E+00  5.243550E+01  1.467703E+00  1.438108E+01  1.376144E+00  2.134386E+00
       199   5 -4.027517E+00  2.639376E+01 -1.278152E+00  5.624145E+00 -1.301649E+00  9.466435E-01
       199   6  5.304639E+00  5.319094E+01  3.031850E+00  5.351710E+00 -1.302704E+00  1.812487E+00
       199   7 -5.242387E+00  2.570870E+01 -2.346819E+00  1.411528E+01 -1.300194E+00  9.197886E-01
       199   8  3.843084E+00  5.225920E+01  1.387585E+00  1.384285E+01 -1.302983E+00  1.765130E+00
       200   1 -3.281280E+00  6.638434E+01 -3.554829E-01  3.985030E-01  1.231608E+00  3.065623E+00
       200   2  6.075276E+00  9.324103E+01  3.976347E+00 -1.436359E-01  1.229118E+00  4.443008E+00
       200   3 -5.833547E+00  6.487855E+01 -2.822501E+00  8.843554E+00  1.375235E+00  3.002823E+00
       200   4  3.272834E+00  9.148507E+01  9.255870E-01  8.301416E+00  1.369462E+00  4.359644E+00
       200   5 -3.375473E+00  6.615527E+01 -4.651328E-01  1.660408E-01 -1.295777E+00  2.570707E+00
       200   6  5.946822E+00  9.293540E+01  3.829054E+00 -3.794736E-01 -1.298300E+00  3.776360E+00
       200   7 -5.947572E+00  6.464404E+01 -2.930458E+00  8.653679E+00 -1.307937E+00  2.508374E+00
       200   8  3.126405E+00  9.117585E+01  7.843197E-01  8.108165E+00 -1.313718E+00  3.693614E+00
       201   1 -6.462168E+00 -1.022957E+02 -3.775328E+00 -5.776545E-01  1.430433E+00 -4.277560E+00
       201   2  3.788497E+00 -7.279594E+01  8.937539E-01 -4.213241E-02  1.431182E+00 -2.964596E+00
       201   3 -3.667674E+00 -1.005350E+02 -7.005384E-01  8.711414E+00  1.453582E+00 -4.264040E+00
       201   4  6.340893E+00 -7.127725E+01  3.403648E+00  9.246936E+00  1.455447E+00 -2.957452E+00
       201   5 -6.436416E+00 -1.022465E+02 -3.757473E+00 -8.234998E-01 -1.356173E+00 -3.601918E+00
       201   6  3.805069E+00 -7.276900E+01  9.033062E-01 -2.868298E-01 -1.355428E+00 -2.454923E+00
       201   7 -3.631803E+00 -1.004856E+02 -6.922802E-01  8.528655E+00 -1.482989E+00 -3.588499E+00
       201   8  6.369382E+00 -7.124836E+01  3.407797E+00  9.065325E+00 -1.481135E+00 -2.447833E+00
       202   1 -5.755785E+00 -5.850633E+01 -2.994997E+00  5.495054E+00  1.449293E+00 -2.128116E+00
       202   2  4.495234E+00 -2.900455E+01  1.673293E+00  5.765862E+00  1.445296E+00 -1.155777E+00
       202   3 -4.274818E+00 -5.754809E+01 -1.281854E+00  1.478490E+01  1.481098E+00 -2.125330E+00
       202   4  5.734116E+00 -2.828840E+01  2.821568E+00  1.505571E+01  1.477265E+00 -1.158517E+00
       202   5 -5.764512E+00 -5.850276E+01 -2.999210E+00  4.902889E+00 -1.337872E+00 -1.739939E+00
       202   6  4.478640E+00 -2.902022E+01  1.662088E+00  5.173864E+00 -1.341870E+00 -9.335631E-01
       202   7 -4.280332E+00 -5.754555E+01 -1.292696E+00  1.425668E+01 -1.455982E+00 -1.737174E+00
       202   8  5.722530E+00 -2.830330E+01  2.807928E+00  1.452766E+01 -1.459817E+00 -9.362832E-01
       203   1 -5.096949E+00 -1.472239E+01 -2.228738E+00  7.696526E+00  1.445301E+00 -4.931481E-01
       203   2  5.176138E+00  1.482274E+01  2.469755E+00  7.698619E+00  1.441284E+00  3.448475E-01
       203   3 -4.943040E+00 -1.457252E+01 -1.883085E+00  1.699665E+01  1.479193E+00 -4.998643E-01
       203   4  5.087856E+00  1.473041E+01  2.250298E+00  1.699874E+01  1.474932E+00  3.327958E-01
       203   5 -5.121748E+00 -1.475298E+01 -2.246047E+00  6.968158E+00 -1.337790E+00 -3.924546E-01
       203   6  5.143766E+00  1.477360E+01  2.445751E+00  6.969999E+00 -1.341806E+00  2.795052E-01
       203   7 -4.969734E+00 -1.460455E+01 -1.903281E+00  1.633249E+01 -1.453870E+00 -3.991210E-01
       203   8  5.055387E+00  1.468164E+01  2.227600E+00  1.633433E+01 -1.458129E+00  2.675430E-01
       204   1 -4.442463E+00  2.911523E+01 -1.440706E+00  5.806985E+00  1.447833E+00  1.007717E+00
       204   2  5.835646E+00  5.868779E+01  3.247092E+00  5.534070E+00  1.444168E+00  1.980714E+00
       204   3 -5.637508E+00  2.844699E+01 -2.473134E+00  1.511792E+01  1.479978E+00  9.912914E-01
       204   4  4.397068E+00  5.777602E+01  1.646420E+00  1.484501E+01  1.475652E+00  1.957675E+00
       204   5 -4.482411E+00  2.905027E+01 -1.470893E+00  5.214268E+00 -1.343119E+00  8.204923E-01
       204   6  5.786157E+00  5.859969E+01  3.208247E+00  4.940674E+00 -1.346782E+00  1.626537E+00
       204   7 -5.684635E+00  2.838011E+01 -2.502535E+00  1.458822E+01 -1.461845E+00  8.041888E-01
       204   8  4.342207E+00  5.768780E+01  1.612578E+00  1.431463E+01 -1.466164E+00  1.603668E+00
       205   1 -3.751654E+00  7.299965E+01 -6.603141E-01 -9.051722E-03  1.437034E+00  2.818854E+00
       205   2  6.516567E+00  1.025590E+02  4.007791E+00 -5.590216E-01  1.429501E+00  4.135697E+00
       205   3 -6.305058E+00  7.150785E+01 -3.079599E+00  9.300256E+00  1.462247E+00  2.790215E+00
       205   4  3.717835E+00  1.008218E+02  1.016074E+00  8.750286E+00  1.453184E+00  4.098372E+00
       205   5 -3.825396E+00  7.288498E+01 -7.135639E-01 -2.537634E-01 -1.358831E+00  2.342010E+00
       205   6  6.430093E+00  1.024137E+02  3.942698E+00 -8.053068E-01 -1.366360E+00  3.490675E+00
       205   7 -6.392884E+00  7.139008E+01 -3.129050E+00  9.116474E+00 -1.485716E+00  2.313583E+00
       205   8  3.619097E+00  1.006753E+02  9.590283E-01  8.564931E+00 -1.494764E+00  3.453627E+00
       206   1 -6.862494E+00 -1.114676E+02 -3.688986E+00 -1.013373E+00  1.630766E+00 -4.232471E+00
       206   2  4.278224E+00 -7.933440E+01  1.313546E+00 -4.802889E-01  1.633582E+00 -2.954815E+00
       206   3 -4.077336E+00 -1.097114E+02 -6.202953E-01  9.116980E+00  1.516806E+00 -4.279318E+00
       206   4  6.825513E+00 -7.781611E+01  3.827209E+00  9.650064E+00  1.521020E+00 -2.997028E+00
       206   5 -6.911983E+00 -1.116352E+02 -3.780692E+00 -1.267355E+00 -1.412727E+00 -3.556818E+00
       206   6  4.239586E+00 -7.948164E+01  1.237631E+00 -7.328336E-01 -1.409933E+00 -2.442321E+00
       206   7 -4.115774E+00 -1.098785E+02 -7.211818E-01  8.943385E+00 -1.673065E+00 -3.603316E+00
       206   8  6.799692E+00 -7.796103E+01  3.746233E+00  9.477907E+00 -1.668884E+00 -2.484221E+00
       207   1 -6.158287E+00 -6.377611E+01 -2.991898E+00  5.058396E+00  1.663473E+00 -2.145097E+00
       207   2  4.986483E+00 -3.163247E+01  2.013689E+00  5.329728E+00  1.660017E+00 -1.210564E+00
       207   3 -4.669308E+00 -6.281088E+01 -1.263439E+00  1.519184E+01  1.554928E+00 -2.183518E+00
       207   4  6.237648E+00 -3.090505E+01  3.187250E+00  1.546317E+01  1.552361E+00 -1.243255E+00
       207   5 -6.224183E+00 -6.392234E+01 -3.070987E+00  4.460341E+00 -1.380504E+00 -1.752037E+00
       207   6  4.933130E+00 -3.175437E+01  1.952081E+00  4.732585E+00 -1.383973E+00 -9.806420E-01
       207   7 -4.729493E+00 -6.295709E+01 -1.348173E+00  1.467529E+01 -1.635382E+00 -1.790172E+00
       207   8  6.191771E+00 -3.102517E+01  3.124115E+00  1.494753E+01 -1.637970E+00 -1.013090E+00
       208   1 -5.517516E+00 -1.607393E+01 -2.308643E+00  7.282882E+00  1.662771E+00 -5.764182E-01
       208   2  5.668668E+00  1.615845E+01  2.746257E+00  7.284725E+00  1.658687E+00  2.215666E-01
       208   3 -5.350854E+00 -1.591083E+01 -1.931621E+00  1.743916E+01  1.555448E+00 -6.049293E-01
       208   4  5.597303E+00  1.608352E+01  2.567884E+00  1.744100E+01  1.552086E+00  1.987447E-01
       208   5 -5.578193E+00 -1.618514E+01 -2.364540E+00  6.550420E+00 -1.377283E+00 -4.659751E-01
       208   6  5.620474E+00  1.607142E+01  2.707786E+00  6.553005E+00 -1.381379E+00  1.687258E-01
       208   7 -5.410147E+00 -1.602212E+01 -1.989192E+00  1.678833E+01 -1.631095E+00 -4.942746E-01
       208   8  5.552260E+00  1.599818E+01  2.531861E+00  1.679092E+01 -1.634473E+00  1.460733E-01
       209   1 -4.889014E+00  3.174170E+01 -1.589992E+00  5.414717E+00  1.662595E+00  8.538013E-01
       209   2  6.318443E+00  6.404260E+01  3.467295E+00  5.137968E+00  1.658237E+00  1.783114E+00
       209   3 -6.076265E+00  3.108865E+01 -2.579570E+00  1.559380E+01  1.554335E+00  8.343198E-01
       209   4  4.891634E+00  6.315000E+01  1.918749E+00  1.531705E+01  1.550420E+00  1.767069E+00
       209   5 -4.945056E+00  3.166268E+01 -1.623697E+00  4.817282E+00 -1.386953E+00  6.810569E-01
       209   6  6.271434E+00  6.397969E+01  3.447598E+00  4.540989E+00 -1.391317E+00  1.446070E+00
       209   7 -6.135876E+00  3.100918E+01 -2.611235E+00  1.507592E+01 -1.642746E+00  6.617200E-01
       209   8  4.842835E+00  6.308840E+01  1.905240E+00  1.479962E+01 -1.646672E+00  1.430145E+00
       210   1 -4.215442E+00  7.965828E+01 -8.676980E-01 -4.113902E-01  1.640936E+00  2.588019E+00
       210   2  6.985395E+00  1.119577E+02  4.169053E+00 -9.709387E-01  1.631364E+00  3.857751E+00
       210   3 -6.773533E+00  7.818027E+01 -3.236287E+00  9.770145E+00  1.528579E+00  2.573082E+00
       210   4  4.186065E+00  1.102384E+02  1.237572E+00  9.210596E+00  1.518821E+00  3.842399E+00
       210   5 -4.291241E+00  7.958784E+01 -8.935377E-01 -6.630139E-01 -1.415651E+00  2.130301E+00
       210   6  6.912715E+00  1.118895E+02  4.151340E+00 -1.222753E+00 -1.425220E+00  3.234641E+00
       210   7 -6.859158E+00  7.810846E+01 -3.256895E+00  9.594244E+00 -1.676702E+00  2.115474E+00
       210   8  4.105349E+00  1.101707E+02  1.229269E+00  9.034505E+00 -1.686455E+00  3.219403E+00
       211   1 -7.243954E+00 -1.205626E+02 -3.565616E+00 -1.458349E+00  1.833297E+00 -4.312029E+00
       211   2  4.765821E+00 -8.585391E+01  1.758291E+00 -9.328258E-01  1.839399E+00 -3.053507E+00
       211   3 -4.473293E+00 -1.188063E+02 -4.821080E-01  9.495487E+00  1.562439E+00 -4.427132E+00
       211   4  7.301043E+00 -8.433310E+01  4.292443E+00  1.002101E+01  1.571786E+00 -3.154447E+00
       211   5 -7.377615E+00 -1.209743E+02 -3.778266E+00 -1.719478E+00 -1.458958E+00 -3.626262E+00
       211   6  4.660701E+00 -8.620791E+01  1.583106E+00 -1.190616E+00 -1.452948E+00 -2.529563E+00
       211   7 -4.589711E+00 -1.192148E+02 -7.014376E-01  9.330410E+00 -1.873547E+00 -3.740511E+00
       211   8  7.214914E+00 -8.468218E+01  4.114656E+00  9.859271E+00 -1.864316E+00 -2.629754E+00
       212   1 -6.555170E+00 -6.904644E+01 -2.958623E+00  4.611626E+00  1.875433E+00 -2.258739E+00
       212   2  5.481281E+00 -3.427522E+01  2.391659E+00  4.877436E+00  1.874482E+00 -1.345916E+00
       212   3 -5.069323E+00 -6.807369E+01 -1.201944E+00  1.558277E+01  1.609281E+00 -2.348807E+00
       212   4  6.732478E+00 -3.353711E+01  3.600819E+00  1.584858E+01  1.611483E+00 -1.420444E+00
       212   5 -6.688438E+00 -6.937776E+01 -3.126970E+00  4.011954E+00 -1.417157E+00 -1.853076E+00
       212   6  5.378657E+00 -3.454393E+01  2.262850E+00  4.281007E+00 -1.418197E+00 -1.101575E+00
       212   7 -5.189206E+00 -6.840176E+01 -1.372865E+00  1.508066E+01 -1.826563E+00 -1.942475E+00
       212   8  6.644979E+00 -3.380084E+01  3.473499E+00  1.534971E+01 -1.824474E+00 -1.175550E+00
       213   1 -5.941190E+00 -1.744480E+01 -2.345279E+00  6.871718E+00  1.877039E+00 -7.294300E-01
       213   2  6.167784E+00  1.748791E+01  3.085255E+00  6.863292E+00  1.875074E+00  4.201770E-02
       213   3 -5.788131E+00 -1.727547E+01 -1.933923E+00  1.788580E+01  1.611862E+00 -7.927389E-01
       213   4  6.086219E+00  1.742262E+01  2.949156E+00  1.787737E+01  1.612288E+00 -6.181197E-03
       213   5 -6.051707E+00 -1.768114E+01 -2.458280E+00  6.141588E+00 -1.411954E+00 -6.031743E-01
       213   6  6.087247E+00  1.731264E+01  3.011127E+00  6.135621E+00 -1.413987E+00  6.981529E-03
       213   7 -5.891839E+00 -1.750966E+01 -2.046571E+00  1.725312E+01 -1.820437E+00 -6.660133E-01
       213   8  6.014232E+00  1.725123E+01  2.879442E+00  1.724715E+01 -1.820097E+00 -4.085972E-02
       214   1 -5.338089E+00  3.436877E+01 -1.668392E+00  5.030512E+00  1.875142E+00  6.513590E-01
       214   2  6.814446E+00  6.942518E+01  3.783643E+00  4.741973E+00  1.872287E+00  1.544663E+00
       214   3 -6.538085E+00  3.372574E+01 -2.611836E+00  1.608327E+01  1.607505E+00  6.126345E-01
       214   4  5.378589E+00  6.854629E+01  2.289856E+00  1.579473E+01  1.606298E+00  1.516713E+00
       214   5 -5.429331E+00  3.421954E+01 -1.729431E+00  4.433883E+00 -1.425172E+00  4.979836E-01
       214   6  6.746530E+00  6.932144E+01  3.754870E+00  4.147038E+00 -1.428074E+00  1.229270E+00
       214   7 -6.629174E+00  3.357753E+01 -2.669626E+00  1.558004E+01 -1.837016E+00  4.595464E-01
       214   8  5.312577E+00  6.844532E+01  2.268418E+00  1.529319E+01 -1.838282E+00  1.201528E+00
       215   1 -4.678771E+00  8.636284E+01 -9.679041E-01 -8.080980E-01  1.846813E+00  2.319387E+00
       215   2  7.483218E+00  1.214586E+02  4.476269E+00 -1.381408E+00  1.837840E+00  3.542672E+00
       215   3 -7.249595E+00  8.489867E+01 -3.277653E+00  1.025910E+01  1.574801E+00  2.297049E+00
       215   4  4.675576E+00  1.197576E+02  1.613944E+00  9.685785E+00  1.567218E+00  3.524891E+00
       215   5 -4.782073E+00  8.626323E+01 -9.975272E-01 -1.064102E+00 -1.462443E+00  1.885215E+00
       215   6  7.393679E+00  1.213822E+02  4.469384E+00 -1.635982E+00 -1.471455E+00  2.946002E+00
       215   7 -7.357804E+00  8.479964E+01 -3.300416E+00  1.009038E+01 -1.879373E+00  1.863043E+00
       215   8  4.582887E+00  1.196835E+02  1.618020E+00  9.518503E+00 -1.887006E+00  2.928353E+00
       216   1 -7.602427E+00 -1.295430E+02 -3.350015E+00 -1.899040E+00  2.039345E+00 -4.523214E+00
       216   2  5.232112E+00 -9.236578E+01  2.254599E+00 -1.387838E+00  2.053166E+00 -3.270442E+00
       216   3 -4.851680E+00 -1.277790E+02 -2.208223E-01  9.848005E+00  1.594541E+00 -4.724196E+00
       216   4  7.746430E+00 -9.083823E+01  4.832125E+00  1.035921E+01  1.615872E+00 -3.450403E+00
       216   5 -7.834545E+00 -1.302572E+02 -3.707171E+00 -2.166044E+00 -1.495003E+00 -3.812908E+00
       216   6  5.042181E+00 -9.299455E+01  1.952643E+00 -1.647118E+00 -1.481492E+00 -2.723103E+00
       216   7 -5.052201E+00 -1.284840E+02 -5.789138E-01  9.689866E+00 -2.082930E+00 -4.012397E+00
       216   8  7.589851E+00 -9.145604E+01  4.533329E+00  1.020879E+01 -2.061966E+00 -2.901728E+00
       217   1 -6.989262E+00 -7.434149E+01 -2.883671E+00  4.190249E+00  2.091852E+00 -2.480732E+00
       217   2  5.951585E+00 -3.691904E+01  2.830042E+00  4.430616E+00  2.098726E+00 -1.575975E+00
       217   3 -5.561899E+00 -7.337810E+01 -1.099746E+00  1.600435E+01  1.654861E+00 -2.643293E+00
       217   4  7.145259E+00 -3.618935E+01  4.068692E+00  1.624472E+01  1.668739E+00 -1.712022E+00
       217   5 -7.207613E+00 -7.492725E+01 -3.168940E+00  3.596394E+00 -1.441838E+00 -2.052089E+00
       217   6  5.783784E+00 -3.739972E+01  2.608186E+00  3.843965E+00 -1.435253E+00 -1.308648E+00
       217   7 -5.754232E+00 -7.395532E+01 -1.382564E+00  1.552536E+01 -2.020259E+00 -2.213443E+00
       217   8  7.005210E+00 -3.665975E+01  3.853334E+00  1.577293E+01 -2.006723E+00 -1.443685E+00
       218   1 -6.423868E+00 -1.881890E+01 -2.326001E+00  6.481202E+00  2.096489E+00 -9.689165E-01
       218   2  6.620470E+00  1.883585E+01  3.500381E+00  6.429654E+00  2.101025E+00 -2.151583E-01
       218   3 -6.386743E+00 -1.868227E+01 -1.907700E+00  1.835746E+01  1.658962E+00 -1.086054E+00
       218   4  6.425578E+00  1.874046E+01  3.377310E+00  1.830591E+01  1.667918E+00 -3.071494E-01
       218   5 -6.604656E+00 -1.924555E+01 -2.523350E+00  5.762583E+00 -1.433561E+00 -8.192409E-01
       218   6  6.488051E+00  1.850928E+01  3.364172E+00  5.715581E+00 -1.429207E+00 -2.255955E-01
       218   7 -6.554930E+00 -1.910442E+01 -2.102636E+00  1.775280E+01 -2.011574E+00 -9.355086E-01
       218   8  6.307482E+00  1.842012E+01  3.247533E+00  1.770580E+01 -2.002833E+00 -3.169038E-01
       219   1 -5.825522E+00  3.702119E+01 -1.657815E+00  4.638043E+00  2.090124E+00  3.734935E-01
       219   2  7.273662E+00  7.482686E+01  4.200466E+00  4.314406E+00  2.091854E+00  1.227962E+00
       219   3 -7.109001E+00  3.636243E+01 -2.570226E+00  1.656067E+01  1.642222E+00  2.964891E-01
       219   4  5.759195E+00  7.393711E+01  2.749082E+00  1.623703E+01  1.646733E+00  1.166756E+00
       219   5 -5.975872E+00  3.673498E+01 -1.775172E+00  4.047381E+00 -1.452416E+00  2.462449E-01
       219   6  7.157219E+00  7.460705E+01  4.129729E+00  3.726603E+00 -1.450800E+00  9.416915E-01
       219   7 -7.256381E+00  3.607829E+01 -2.683621E+00  1.607496E+01 -2.040302E+00  1.698121E-01
       219   8  5.647437E+00  7.372109E+01  2.686308E+00  1.575418E+01 -2.035926E+00  8.809395E-01
       220   1 -5.157762E+00  9.310739E+01 -9.441741E-01 -1.220596E+00  2.054191E+00  1.966031E+00
       220   2  7.992769E+00  1.310506E+02  4.947697E+00 -1.813139E+00  2.049333E+00  3.128003E+00
       220   3 -7.749185E+00  9.165974E+01 -3.178248E+00  1.074363E+01  1.596209E+00  1.911997E+00
       220   4  5.171719E+00  1.293733E+02  2.177827E+00  1.015109E+01  1.595434E+00  3.077767E+00
       220   5 -5.317019E+00  9.289428E+01 -1.013680E+00 -1.480652E+00 -1.498085E+00  1.563871E+00
       220   6  7.848851E+00  1.308607E+02  4.906168E+00 -2.068996E+00 -1.503112E+00  2.568250E+00
       220   7 -7.904743E+00  9.145072E+01 -3.237830E+00  1.057684E+01 -2.095297E+00  1.510238E+00
       220   8  5.033203E+00  1.291892E+02  2.150199E+00  9.988501E+00 -2.096271E+00  2.518387E+00
       221   1 -7.985669E+00 -1.384739E+02 -3.019621E+00 -2.265139E+00  2.251387E+00 -4.861907E+00
       221   2  5.621752E+00 -9.894368E+01  2.808258E+00 -1.781106E+00  2.281455E+00 -3.615271E+00
       221   3 -5.271758E+00 -1.366943E+02  1.984348E-01  1.024443E+01  1.623254E+00 -5.173866E+00
       221   4  8.091070E+00 -9.740868E+01  5.455598E+00  1.072846E+01  1.665974E+00 -3.904255E+00
       221   5 -8.330897E+00 -1.395718E+02 -3.553821E+00 -2.525591E+00 -1.523133E+00 -4.105340E+00
       221   6  5.325208E+00 -9.994571E+01  2.340399E+00 -2.028546E+00 -1.493749E+00 -3.027645E+00
       221   7 -5.568485E+00 -1.377760E+02 -3.302314E-01  1.010050E+01 -2.298525E+00 -4.414984E+00
       221   8  7.844843E+00 -9.839269E+01  4.997508E+00  1.059754E+01 -2.256584E+00 -3.314483E+00
       222   1 -7.624383E+00 -7.972893E+01 -2.800003E+00  3.917989E+00  2.326264E+00 -2.824291E+00
       222   2  6.307619E+00 -3.945122E+01  3.362292E+00  4.061774E+00  2.350135E+00 -1.909927E+00
       222   3 -6.481373E+00 -7.886347E+01 -1.058136E+00  1.663165E+01  1.720193E+00 -3.088564E+00
       222   4  7.211774E+00 -3.882461E+01  4.546831E+00  1.677544E+01  1.751167E+00 -2.129665E+00
       222   5 -7.957607E+00 -8.066860E+01 -3.243553E+00  3.354589E+00 -1.444295E+00 -2.359325E+00
       222   6  6.056027E+00 -4.021766E+01  3.017617E+00  3.505680E+00 -1.420809E+00 -1.611136E+00
       222   7 -6.790982E+00 -7.979581E+01 -1.500858E+00  1.620786E+01 -2.193933E+00 -2.621636E+00
       222   8  6.985571E+00 -3.958194E+01  4.207121E+00  1.635895E+01 -2.163396E+00 -1.829242E+00
       223   1 -7.107991E+00 -2.006445E+01 -2.232003E+00  6.122716E+00  2.333955E+00 -1.302335E+00
       223   2  6.864913E+00  2.029079E+01  3.989103E+00  5.946387E+00  2.352807E+00 -5.567267E-01
       223   3 -7.456858E+00 -2.007295E+01 -1.911472E+00  1.885406E+01  1.713965E+00 -1.493219E+00
       223   4  6.285877E+00  2.005212E+01  3.772573E+00  1.867773E+01  1.738389E+00 -7.133169E-01
       223   5 -7.382320E+00 -2.075054E+01 -2.543285E+00  5.430190E+00 -1.429686E+00 -1.122809E+00
       223   6  6.655948E+00  1.974061E+01  3.759799E+00  5.259590E+00 -1.411135E+00 -5.368649E-01
       223   7 -7.717971E+00 -2.075442E+01 -2.220580E+00  1.829103E+01 -2.187730E+00 -1.312276E+00
       223   8  6.091836E+00  1.950826E+01  3.549430E+00  1.812043E+01 -2.163649E+00 -6.922928E-01
       224   1 -6.434311E+00  3.977801E+01 -1.538788E+00  4.157036E+00  2.312786E+00  1.157064E-02
       224   2  7.571714E+00  8.022560E+01  4.700375E+00  3.762739E+00  2.324688E+00  8.185794E-01
       224   3 -7.915301E+00  3.905813E+01 -2.457417E+00  1.691696E+01  1.664255E+00 -1.250374E-01
       224   4  5.868296E+00  7.928329E+01  3.262749E+00  1.652266E+01  1.683916E+00  7.022701E-01
       224   5 -6.667968E+00  3.928108E+01 -1.743977E+00  3.578617E+00 -1.461079E+00 -8.323006E-02
       224   6  7.381412E+00  7.981377E+01  4.554597E+00  3.192300E+00 -1.449597E+00  5.701793E-01
       224   7 -8.130654E+00  3.856967E+01 -2.652654E+00  1.645426E+01 -2.242872E+00 -2.188241E-01
       224   8  5.697949E+00  7.888159E+01  3.130775E+00  1.606794E+01 -2.223689E+00  4.547333E-01
       225   1 -5.679285E+00  9.984709E+01 -7.836847E-01 -1.718608E+00  2.256533E+00  1.499740E+00
       225   2  8.444522E+00  1.405774E+02  5.565378E+00 -2.328771E+00  2.261491E+00  2.553697E+00
       225   3 -8.271553E+00  9.843261E+01 -2.906355E+00  1.112090E+01  1.576039E+00  1.387747E+00
       225   4  5.638492E+00  1.389491E+02  2.943928E+00  1.051074E+01  1.590172E+00  2.433197E+00
       225   5 -5.918361E+00  9.943199E+01 -9.300982E-01 -1.983804E+00 -1.524534E+00  1.141643E+00
       225   6  8.203896E+00  1.401432E+02  5.432845E+00 -2.584530E+00 -1.520072E+00  2.049500E+00
       225   7 -8.489986E+00  9.802861E+01 -3.036412E+00  1.094321E+01 -2.332962E+00  1.030481E+00
       225   8  5.420095E+00  1.385277E+02  2.831453E+00  1.034249E+01 -2.319393E+00  1.929895E+00
       226   1 -8.743231E+00 -1.480718E+02 -2.879136E+00 -1.929960E+00  2.539575E+00 -5.367975E+00
       226   2  5.926725E+00 -1.054946E+02  3.443467E+00 -1.434307E+00  2.597280E+00 -4.108747E+00
       226   3 -6.144527E+00 -1.463568E+02  2.388992E-01  1.050876E+01  2.033059E+00 -5.783036E+00
       226   4  8.281059E+00 -1.040239E+02  5.991305E+00  1.100441E+01  2.121037E+00 -4.472565E+00
       226   5 -9.217964E+00 -1.496635E+02 -3.619561E+00 -2.045050E+00 -1.507160E+00 -4.542846E+00
       226   6  5.555542E+00 -1.068662E+02  2.828117E+00 -1.514973E+00 -1.451454E+00 -3.472258E+00
       226   7 -6.519780E+00 -1.478977E+02 -4.314770E-01  1.027707E+01 -2.202871E+00 -4.963585E+00
       226   8  8.006014E+00 -1.053480E+02  5.438206E+00  1.080715E+01 -2.116479E+00 -3.841053E+00
       227   1 -8.709993E+00 -8.494745E+01 -2.714659E+00  4.556476E+00  2.668479E+00 -3.294966E+00
       227   2  6.337944E+00 -4.151481E+01  4.012489E+00  4.511053E+00  2.717209E+00 -2.330900E+00
       227   3 -8.217010E+00 -8.437348E+01 -1.294423E+00  1.720798E+01  2.218117E+00 -3.622520E+00
       227   4  6.602140E+00 -4.116963E+01  4.898891E+00  1.716256E+01  2.275948E+00 -2.610625E+00
       227   5 -9.149315E+00 -8.622390E+01 -3.302072E+00  4.198037E+00 -1.367178E+00 -2.792164E+00
       227   6  5.995320E+00 -4.258578E+01  3.541926E+00  4.162962E+00 -1.319049E+00 -2.004699E+00
       227   7 -8.613887E+00 -8.562678E+01 -1.847109E+00  1.672666E+01 -1.995889E+00 -3.124199E+00
       227   8  6.298832E+00 -4.222058E+01  4.455754E+00  1.669158E+01 -1.938535E+00 -2.288249E+00
       228   1 -8.287035E+00 -2.085908E+01 -2.074155E+00  6.376715E+00  2.666426E+00 -1.700994E+00
       228   2  6.570501E+00  2.208150E+01  4.510388E+00  5.924568E+00  2.711886E+00 -9.441245E-01
       228   3 -9.451544E+00 -2.121747E+01 -2.104290E+00  1.889376E+01  2.180017E+00 -1.950960E+00
       228   4  5.198405E+00  2.151552E+01  3.995882E+00  1.844162E+01  2.230278E+00 -1.160616E+00
       228   5 -8.662497E+00 -2.184141E+01 -2.509686E+00  5.874806E+00 -1.349545E+00 -1.497844E+00
       228   6  6.265849E+00  2.124611E+01  4.163953E+00  5.428120E+00 -1.304402E+00 -9.005552E-01
       228   7 -9.787798E+00 -2.218108E+01 -2.516604E+00  1.825643E+01 -1.999299E+00 -1.751228E+00
       228   8  4.930122E+00  2.069601E+01  3.666040E+00  1.780975E+01 -1.949290E+00 -1.120008E+00
       229   1 -7.308828E+00  4.275711E+01 -1.317092E+00  3.961839E+00  2.612378E+00 -3.871083E-01
       229   2  7.341815E+00  8.520073E+01  5.074769E+00  3.392305E+00  2.648945E+00  3.778187E-01
       229   3 -9.191149E+00  4.189019E+01 -2.324505E+00  1.634960E+01  2.067370E+00 -5.880511E-01
       229   4  5.273733E+00  8.414805E+01  3.633916E+00  1.578007E+01  2.112444E+00  1.858830E-01
       229   5 -7.632440E+00  4.196954E+01 -1.638380E+00  3.547146E+00 -1.401575E+00 -4.537125E-01
       229   6  7.045838E+00  8.446128E+01  4.797480E+00  2.987285E+00 -1.365570E+00  1.697961E-01
       229   7 -9.462453E+00  4.112422E+01 -2.626120E+00  1.577676E+01 -2.094324E+00 -6.574038E-01
       229   8  5.027524E+00  8.342765E+01  3.370370E+00  1.521690E+01 -2.049696E+00 -2.476489E-02
       230   1 -6.365041E+00  1.061794E+02 -5.939191E-01 -1.941625E+00  2.505248E+00  9.925596E-01
       230   2  8.838984E+00  1.498946E+02  6.371000E+00 -2.590927E+00  2.527975E+00  1.907136E+00
       230   3 -8.812833E+00  1.048892E+02 -2.446718E+00  1.076623E+01  1.897210E+00  8.058480E-01
       230   4  6.219500E+00  1.484327E+02  4.117589E+00  1.011693E+01  1.927559E+00  1.725690E+00
       230   5 -6.708122E+00  1.054417E+02 -8.698400E-01 -2.082549E+00 -1.504867E+00  6.850061E-01
       230   6  8.516227E+00  1.491892E+02  6.130527E+00 -2.723183E+00 -1.482643E+00  1.469077E+00
       230   7 -9.107672E+00  1.041689E+02 -2.712958E+00  1.045910E+01 -2.250023E+00  4.957407E-01
       230   8  5.942637E+00  1.477423E+02  3.881317E+00  9.818469E+00 -2.220073E+00  1.285149E+00
       231   1 -1.000625E+01 -1.585275E+02 -3.202989E+00 -1.318709E+00  2.658793E+00 -5.916303E+00
       231   2  6.056059E+00 -1.121213E+02  3.931767E+00 -8.453442E-01  2.771764E+00 -4.583677E+00
       231   3 -7.419153E+00 -1.567844E+02  2.042521E-02  1.220605E+01  2.446686E+00 -6.405990E+00
       231   4  8.372840E+00 -1.106484E+02  6.524446E+00  1.267941E+01  2.595130E+00 -5.029944E+00
       231   5 -1.043142E+01 -1.603276E+02 -3.952102E+00 -1.347983E+00 -1.733166E+00 -5.053924E+00
       231   6  5.716407E+00 -1.137371E+02  3.283441E+00 -8.342814E-01 -1.621698E+00 -3.928061E+00
       231   7 -7.724911E+00 -1.585246E+02 -6.485903E-01  1.203771E+01 -2.148662E+00 -5.550308E+00
       231   8  8.148901E+00 -1.122081E+02  5.947592E+00  1.255141E+01 -2.001237E+00 -4.380432E+00
       232   1 -1.086916E+01 -9.010711E+01 -3.006651E+00  5.382148E+00  2.893544E+00 -3.720335E+00
       232   2  5.708358E+00 -4.256374E+01  4.708356E+00  4.934391E+00  2.976378E+00 -2.694265E+00
       232   3 -1.161697E+01 -9.005664E+01 -2.090596E+00  1.918409E+01  2.740817E+00 -4.132418E+00
       232   4  4.709870E+00 -4.276394E+01  5.039512E+00  1.873633E+01  2.837061E+00 -3.056376E+00
       232   5 -1.136804E+01 -9.167548E+01 -3.674507E+00  5.111840E+00 -1.467902E+00 -3.210730E+00
       232   6  5.305338E+00 -4.392260E+01  4.150523E+00  4.679332E+00 -1.385636E+00 -2.376809E+00
       232   7 -1.204119E+01 -9.158794E+01 -2.709542E+00  1.877754E+01 -1.810274E+00 -3.628449E+00
       232   8  4.378085E+00 -4.408915E+01  4.522591E+00  1.834503E+01 -1.714415E+00 -2.743872E+00
       233   1 -1.032145E+01 -2.052860E+01 -1.870606E+00  6.082039E+00  2.844992E+00 -2.039514E+00
       233   2  5.313823E+00  2.470360E+01  5.014778E+00  5.182524E+00  2.918851E+00 -1.276767E+00
       233   3 -1.289643E+01 -2.149987E+01 -2.533185E+00  1.927383E+01  2.618555E+00 -2.373322E+00
       233   4  2.533261E+00  2.352675E+01  3.872498E+00  1.837431E+01  2.701157E+00 -1.583225E+00
       233   5 -1.075945E+01 -2.180645E+01 -2.402365E+00  5.654197E+00 -1.465039E+00 -1.849859E+00
       233   6  4.931187E+00  2.354332E+01  4.549998E+00  4.764623E+00 -1.391551E+00 -1.244125E+00
       233   7 -1.326280E+01 -2.274521E+01 -3.028214E+00  1.869535E+01 -1.849486E+00 -2.188233E+00
       233   8  2.219444E+00  2.239616E+01  3.437887E+00  1.780578E+01 -1.767135E+00 -1.554774E+00
       234   1 -8.615580E+00  4.642908E+01 -9.358186E-01  2.613933E+00  2.706681E+00 -7.417762E-01
       234   2  6.327188E+00  8.996650E+01  5.335984E+00  1.765761E+00  2.770654E+00 -4.289925E-02
       234   3 -1.137057E+01  4.518626E+01 -2.323561E+00  1.535900E+01  2.387549E+00 -1.036072E+00
       234   4  3.409991E+00  8.856147E+01  3.569760E+00  1.451082E+01  2.462933E+00 -3.313195E-01
       234   5 -8.999671E+00  4.531094E+01 -1.378503E+00  2.243945E+00 -1.569119E+00 -8.117040E-01
       234   6  5.959994E+00  8.887863E+01  4.919360E+00  1.408749E+00 -1.505629E+00 -2.360431E-01
       234   7 -1.168051E+01  4.409905E+01 -2.737296E+00  1.482292E+01 -2.015652E+00 -1.110025E+00
       234   8  3.114733E+00  8.750231E+01  3.176910E+00  1.398773E+01 -1.940595E+00 -5.284080E-01
       235   1 -7.181173E+00  1.118121E+02 -3.874942E-01 -3.078167E+00  2.508007E+00  5.168702E-01
       235   2  8.439052E+00  1.568731E+02  6.618950E+00 -3.681857E+00  2.546515E+00  1.347312E+00
       235   3 -9.445539E+00  1.106240E+02 -2.083366E+00  1.004401E+01  2.132577E+00  2.243654E-01
       235   4  6.036497E+00  1.555468E+02  4.600639E+00  9.440322E+00  2.190943E+00  1.037772E+00
       235   5 -7.607919E+00  1.106881E+02 -8.247469E-01 -3.186042E+00 -1.743478E+00  2.405458E-01
       235   6  7.989104E+00  1.556871E+02  6.166303E+00 -3.767150E+00 -1.705812E+00  9.669499E-01
       235   7 -9.782576E+00  1.095355E+02 -2.492093E+00  9.742054E+00 -2.228917E+00 -5.595952E-02
       235   8  5.674369E+00  1.543945E+02  4.172107E+00  9.160946E+00 -2.171120E+00  6.531765E-01
       236   1 -1.349037E+01 -1.737987E+02 -5.547961E+00  7.797347E-01  2.892199E+00 -6.354014E+00
       236   2  6.100480E+00 -1.185176E+02  4.473803E+00  1.135744E+00  3.073177E+00 -4.910269E+00
       236   3 -1.132246E+01 -1.722655E+02 -2.605234E+00  1.668742E+01  3.057894E+00 -6.915758E+00
       236   4  7.970570E+00 -1.172823E+02  6.721625E+00  1.704343E+01  3.285608E+00 -5.430299E+00
       236   5 -1.381439E+01 -1.757739E+02 -6.271976E+00  8.333229E-01 -1.864683E+00 -5.542101E+00
       236   6  5.853173E+00 -1.203213E+02  3.833923E+00  1.242476E+00 -1.684577E+00 -4.324907E+00
       236   7 -1.148344E+01 -1.741626E+02 -3.231831E+00  1.656807E+01 -1.917780E+00 -6.111528E+00
       236   8  7.882233E+00 -1.190118E+02  6.169658E+00  1.697722E+01 -1.690300E+00 -4.852050E+00
       237   1 -1.448476E+01 -9.394208E+01 -3.378589E+00  7.164731E+00  3.221966E+00 -3.979015E+00
       237   2  3.843192E+00 -4.172774E+01  5.500251E+00  6.061514E+00  3.343050E+00 -2.878527E+00
       237   3 -1.737326E+01 -9.486370E+01 -3.562155E+00  2.226842E+01  3.402864E+00 -4.471080E+00
       237   4  6.902627E-01 -4.291379E+01  4.699693E+00  2.116520E+01  3.541094E+00 -3.335903E+00
       237   5 -1.497407E+01 -9.575639E+01 -4.087604E+00  7.001576E+00 -1.477253E+00 -3.550186E+00
       237   6  3.417990E+00 -4.339905E+01  4.861933E+00  5.917856E+00 -1.356490E+00 -2.650805E+00
       237   7 -1.774855E+01 -9.662482E+01 -4.207880E+00  2.193615E+01 -1.491186E+00 -4.048982E+00
       237   8  3.754688E-01 -4.453552E+01  4.116225E+00  2.085243E+01 -1.353043E+00 -3.114437E+00
       238   1 -1.354491E+01 -1.823895E+01 -1.551792E+00  5.475854E+00  3.049676E+00 -2.198888E+00
       238   2  2.706365E+00  2.889831E+01  5.481858E+00  4.110753E+00  3.150329E+00 -1.442566E+00
       238   3 -1.768292E+01 -1.994317E+01 -3.094529E+00  1.924222E+01  3.106939E+00 -2.633885E+00
       238   4 -1.626206E+00  2.699953E+01  3.485146E+00  1.787712E+01  3.221668E+00 -1.851113E+00
       238   5 -1.401537E+01 -1.985516E+01 -2.181715E+00  5.147120E+00 -1.537138E+00 -2.098943E+00
       238   6  2.284660E+00  2.739102E+01  4.905536E+00  3.798026E+00 -1.436747E+00 -1.490611E+00
       238   7 -1.804499E+01 -2.151198E+01 -3.674842E+00  1.875418E+01 -1.625686E+00 -2.539891E+00
       238   8 -1.942180E+00  2.553697E+01  2.952223E+00  1.740509E+01 -1.511027E+00 -1.904746E+00
       239   1 -1.067725E+01  5.141844E+01 -4.589365E-01  2.647078E-01  2.756892E+00 -9.352538E-01
       239   2  4.020942E+00  9.474197E+01  5.211512E+00 -9.331341E-01  2.849732E+00 -3.055711E-01
       239   3 -1.460771E+01  4.962357E+01 -2.511379E+00  1.302347E+01  2.694585E+00 -1.330622E+00
       239   4 -4.207283E-02  9.281455E+01  2.849768E+00  1.182563E+01  2.803801E+00 -6.913849E-01
       239   5 -1.109197E+01  4.995824E+01 -1.015158E+00 -1.813039E-02 -1.738123E+00 -1.074314E+00
       239   6  3.624997E+00  9.332227E+01  4.677366E+00 -1.197351E+00 -1.645589E+00 -5.453006E-01
       239   7 -1.491732E+01  4.820690E+01 -3.027589E+00  1.257802E+01 -1.902606E+00 -1.475090E+00
       239   8 -3.347284E-01  9.143656E+01  2.351402E+00  1.139880E+01 -1.793472E+00 -9.363916E-01
       240   1 -7.878260E+00  1.167876E+02 -2.822167E-01 -5.295237E+00  2.472294E+00  1.929283E-01
       240   2  6.938882E+00  1.602757E+02  5.620144E+00 -5.660641E+00  2.543041E+00  9.251714E-01
       240   3 -9.432081E+00  1.158852E+02 -1.736248E+00  7.483863E+00  2.363123E+00 -1.917605E-01
       240   4  5.277146E+00  1.592654E+02  3.914308E+00  7.118459E+00  2.461398E+00  5.340023E-01
       240   5 -8.300094E+00  1.153614E+02 -8.232286E-01 -5.349273E+00 -1.968307E+00 -1.135490E-01
       240   6  6.508011E+00  1.588257E+02  5.072783E+00 -5.683373E+00 -1.898074E+00  5.370050E-01
       240   7 -9.747840E+00  1.145012E+02 -2.242579E+00  7.250912E+00 -2.161714E+00 -5.034996E-01
       240   8  4.950873E+00  1.578562E+02  3.398184E+00  6.916812E+00 -2.063576E+00  1.404855E-01
       241   1 -1.277038E+00 -3.259874E+01  1.773185E+00  6.169899E+00  1.887143E+00 -6.807536E+00
       241   2 -3.845716E-01 -2.787744E+01  2.677646E-02  6.898684E+00  1.835617E+00 -4.807392E+00
       241   3  1.249582E+00 -3.140181E+01  3.236336E+00  7.916352E+00  1.312049E+00 -6.557814E+00
       241   4  2.101989E+00 -2.672057E+01  1.396455E+00  8.645137E+00  1.212916E+00 -4.478412E+00
       241   5 -1.051536E+00 -3.170897E+01  2.109457E+00  5.797590E+00  5.572968E-01 -6.658454E+00
       241   6 -2.720388E-02 -2.667973E+01  4.946528E-01  6.473492E+00  5.055387E-01 -4.687588E+00
       241   7  1.280443E+00 -3.059394E+01  3.494272E+00  7.600273E+00 -7.293909E-02 -6.405395E+00
       241   8  2.264181E+00 -2.560529E+01  1.784746E+00  8.276175E+00 -1.729410E-01 -4.354213E+00
       242   1 -2.287508E+00 -2.369445E+01 -1.499010E+00  1.123149E+01  2.709758E+00 -3.481430E+00
       242   2  1.551422E+00 -1.273174E+01  3.347215E-01  1.162203E+01  2.677746E+00 -1.858979E+00
       242   3 -9.339313E-01 -2.305343E+01 -7.158744E-01  1.448087E+01  1.968912E+00 -3.165929E+00
       242   4  2.800222E+00 -1.219551E+01  8.733799E-01  1.487141E+01  1.895311E+00 -1.659561E+00
       242   5 -1.879352E+00 -2.251790E+01 -1.022695E+00  1.047880E+01  1.696771E+00 -3.400951E+00
       242   6  1.765645E+00 -1.200702E+01  6.164210E-01  1.082315E+01  1.664555E+00 -1.856660E+00
       242   7 -6.863524E-01 -2.194489E+01 -3.056650E-01  1.356926E+01  8.576932E-01 -3.081235E+00
       242   8  2.852469E+00 -1.154019E+01  1.085707E+00  1.391360E+01  7.833331E-01 -1.654577E+00
       243   1 -2.176086E+00 -7.107408E+00 -1.057530E+00  1.245931E+01  3.146841E+00 -7.147293E-01
       243   2  2.179504E+00  5.172263E+00  1.181434E+00  1.254267E+01  3.147437E+00  7.889695E-01
       243   3 -1.980500E+00 -7.063926E+00 -1.108175E+00  1.607374E+01  2.248795E+00 -6.224091E-01
       243   4  2.282036E+00  5.122691E+00  9.136611E-01  1.615710E+01  2.235469E+00  7.047744E-01
       243   5 -2.021803E+00 -6.748481E+00 -9.041656E-01  1.162180E+01  2.078297E+00 -7.665571E-01
       243   6  2.039217E+00  4.844467E+00  1.039621E+00  1.168970E+01  2.078825E+00  6.673671E-01
       243   7 -1.879394E+00 -6.728328E+00 -9.793975E-01  1.501206E+01  1.090262E+00 -6.730034E-01
       243   8  2.087328E+00  4.770322E+00  7.443609E-01  1.507996E+01  1.076683E+00  5.820471E-01
       244   1 -2.228731E+00  1.117387E+01 -5.133237E-01  1.001362E+01  2.889188E+00  1.938107E+00
       244   2  2.336459E+00  2.427559E+01  1.602251E+00  9.834148E+00  2.917359E+00  3.573911E+00
       244   3 -2.989910E+00  1.074015E+01 -1.197887E+00  1.390741E+01  2.001337E+00  1.740564E+00
       244   4  1.601453E+00  2.386805E+01  9.787601E-01  1.372794E+01  2.054776E+00  3.243209E+00
       244   5 -2.457440E+00  1.044837E+01 -8.011821E-01  9.274139E+00  1.654005E+00  1.797822E+00
       244   6  1.886004E+00  2.303251E+01  1.092817E+00  9.122732E+00  1.682300E+00  3.452358E+00
       244   7 -3.125140E+00  1.005327E+01 -1.450470E+00  1.298343E+01  7.552580E-01  1.597639E+00
       244   8  1.244828E+00  2.266394E+01  5.054174E-01  1.283202E+01  8.091582E-01  3.117236E+00
       245   1 -2.684588E-01  2.934646E+01 -3.228898E-01  5.957299E+00  2.063202E+00  4.908674E+00
       245   2  1.100615E+00  3.569190E+01 -2.104747E+00  5.402719E+00  2.104830E+00  6.919508E+00
       245   3 -2.157815E+00  2.846895E+01 -1.358565E+00  8.227177E+00  1.331312E+00  4.551332E+00
       245   4 -6.965298E-01  3.490660E+01 -2.925260E+00  7.672597E+00  1.424898E+00  6.622545E+00
       245   5 -7.102076E-01  2.802268E+01 -8.535526E-01  5.547871E+00  4.771289E-01  4.819079E+00
       245   6  7.599218E-01  3.460332E+01 -2.533752E+00  5.051006E+00  5.190116E-01  6.898496E+00
       245   7 -2.395951E+00  2.723153E+01 -1.804984E+00  7.848199E+00 -2.222663E-01  4.456963E+00
       245   8 -8.323778E-01  3.390561E+01 -3.267148E+00  7.351334E+00 -1.277322E-01  6.597565E+00
       246   1 -2.422907E+00 -4.284365E+01 -1.034509E+00  3.818823E+00  9.671341E-01 -8.151843E+00
       246   2  1.151518E+00 -3.181006E+01 -1.533473E-01  4.289476E+00  8.455920E-01 -5.441020E+00
       246   3 -5.515002E-01 -4.183096E+01  4.697076E-01  7.221185E+00  9.404031E-01 -7.660510E+00
       246   4  3.010713E+00 -3.080958E+01  1.322374E+00  7.691839E+00  8.199384E-01 -5.015859E+00
       246   5 -2.060870E+00 -4.112321E+01 -3.918526E-01  3.495140E+00 -4.537024E-01 -7.865069E+00
       246   6  1.402957E+00 -3.034723E+01  3.782540E-01  3.966990E+00 -5.752143E-01 -5.165145E+00
       246   7 -2.005787E-01 -4.011247E+01  1.116981E+00  6.786474E+00 -5.239400E-01 -7.367172E+00
       246   8  3.250873E+00 -2.934886E+01  1.858211E+00  7.258325E+00 -6.443600E-01 -4.734304E+00
       247   1 -1.572801E+00 -2.566359E+01 -1.482904E+00  1.054537E+01  1.449185E+00 -3.793197E+00
       247   2  2.743827E+00 -1.333298E+01  5.752463E-01  1.058594E+01  1.354124E+00 -2.002084E+00
       247   3 -1.149618E+00 -2.531443E+01 -7.422372E-01  1.420080E+01  1.137973E+00 -3.442219E+00
       247   4  3.007647E+00 -1.314319E+01  9.440667E-01  1.424137E+01  1.045791E+00 -1.787607E+00
       247   5 -1.316056E+00 -2.443493E+01 -1.023014E+00  9.612387E+00  2.537520E-01 -3.565909E+00
       247   6  2.768662E+00 -1.263948E+01  7.972697E-01  9.656159E+00  1.587718E-01 -1.896637E+00
       247   7 -8.805819E-01 -2.407826E+01 -2.696074E-01  1.308312E+01 -1.952490E-01 -3.210242E+00
       247   8  3.042644E+00 -1.244431E+01  1.173862E+00  1.312690E+01 -2.873118E-01 -1.679295E+00
       248   1 -2.038462E+00 -7.281096E+00 -1.227925E+00  1.189159E+01  1.623989E+00 -7.737523E-01
       248   2  2.855292E+00  6.469134E+00  1.334358E+00  1.185788E+01  1.603848E+00  7.909981E-01
       248   3 -2.115328E+00 -7.296466E+00 -1.202292E+00  1.593131E+01  1.212546E+00 -6.741881E-01
       248   4  2.654970E+00  6.330308E+00  1.071926E+00  1.589760E+01  1.194368E+00  7.131157E-01
       248   5 -1.939219E+00 -6.922077E+00 -1.088952E+00  1.084175E+01  3.950905E-01 -7.481878E-01
       248   6  2.655407E+00  6.134803E+00  1.169588E+00  1.081023E+01  3.750046E-01  7.201632E-01
       248   7 -2.007384E+00 -6.933483E+00 -1.058807E+00  1.465077E+01 -1.287588E-01 -6.472933E-01
       248   8  2.462137E+00  5.998292E+00  9.078200E-01  1.461924E+01 -1.468552E-01  6.412403E-01
       249   1 -2.469246E+00  1.262581E+01 -6.856982E-01  9.691223E+00  1.405882E+00  2.028438E+00
       249   2  2.236513E+00  2.604438E+01  1.581591E+00  9.641837E+00  1.471943E+00  3.844436E+00
       249   3 -2.805207E+00  1.237995E+01 -1.169253E+00  1.366542E+01  1.070825E+00  1.830267E+00
       249   4  1.790224E+00  2.568820E+01  8.406027E-01  1.361603E+01  1.138698E+00  3.495076E+00
       249   5 -2.568867E+00  1.195130E+01 -9.265970E-01  8.818098E+00  1.215576E-01  1.890862E+00
       249   6  1.881884E+00  2.477898E+01  1.081560E+00  8.770725E+00  1.876694E-01  3.620918E+00
       249   7 -2.898789E+00  1.170668E+01 -1.412101E+00  1.258871E+01 -3.180723E-01  1.690043E+00
       249   8  1.440159E+00  2.442255E+01  3.351834E-01  1.254133E+01 -2.501246E-01  3.266890E+00
       250   1 -1.414137E+00  3.246045E+01 -1.434688E-01  3.563035E+00  9.020189E-01  5.500234E+00
       250   2  2.508279E+00  4.454315E+01  8.485508E-01  3.175059E+00  1.018725E+00  8.207960E+00
       250   3 -2.961580E+00  3.162088E+01 -1.394593E+00  7.285201E+00  8.513761E-01  5.065101E+00
       250   4  1.016354E+00  4.375909E+01 -2.730311E-01  6.897225E+00  9.698085E-01  7.689681E+00
       250   5 -1.705081E+00  3.094980E+01 -6.989439E-01  3.283699E+00 -6.359632E-01  5.259455E+00
       250   6  2.080351E+00  4.271079E+01  1.581665E-01  2.897641E+00 -5.192086E-01  8.005963E+00
       250   7 -3.234273E+00  3.011569E+01 -1.950102E+00  6.873645E+00 -6.842819E-01  4.818508E+00
       250   8  6.074182E-01  4.193295E+01 -9.617183E-01  6.487587E+00 -5.657781E-01  7.480760E+00
       251   1 -3.517163E+00 -5.121298E+01 -2.700998E+00  2.706028E+00  7.114081E-01 -8.052970E+00
       251   2  1.520312E+00 -3.669421E+01 -4.281776E-01  3.157029E+00  6.002332E-01 -5.378953E+00
       251   3 -1.492405E+00 -5.001108E+01 -7.194439E-01  7.030747E+00  9.484467E-01 -7.488803E+00
       251   4  3.434576E+00 -3.560281E+01  1.295556E+00  7.481748E+00  8.638115E-01 -4.940128E+00
       251   5 -3.009039E+00 -4.918757E+01 -1.889072E+00  2.398823E+00 -7.981988E-01 -7.591068E+00
       251   6  1.813933E+00 -3.516178E+01  1.617063E-01  2.879305E+00 -9.080156E-01 -5.005292E+00
       251   7 -9.025659E-01 -4.794619E+01  1.423849E-01  6.541178E+00 -6.680560E-01 -7.019363E+00
       251   8  3.808435E+00 -3.403237E+01  1.931898E+00  7.021660E+00 -7.509784E-01 -4.560604E+00
       252   1 -2.614150E+00 -2.940948E+01 -2.042711E+00  9.781934E+00  7.663656E-01 -3.744859E+00
       252   2  2.514469E+00 -1.482813E+01  4.713349E-01  9.918888E+00  6.856124E-01 -1.954448E+00
       252   3 -1.805497E+00 -2.885070E+01 -9.887722E-01  1.409363E+01  8.973008E-01 -3.405051E+00
       252   4  3.152543E+00 -1.443993E+01  1.127255E+00  1.423058E+01  8.339210E-01 -1.759816E+00
       252   5 -2.333665E+00 -2.819994E+01 -1.562761E+00  8.802137E+00 -6.585103E-01 -3.452453E+00
       252   6  2.544328E+00 -1.419174E+01  6.890191E-01  8.958390E+00 -7.383745E-01 -1.795793E+00
       252   7 -1.465009E+00 -2.761261E+01 -4.736557E-01  1.291181E+01 -6.719972E-01 -3.108104E+00
       252   8  3.240126E+00 -1.377727E+01  1.374788E+00  1.306806E+01 -7.342558E-01 -1.598560E+00
       253   1 -2.336533E+00 -7.681445E+00 -1.329466E+00  1.183231E+01  7.917032E-01 -7.405817E-01
       253   2  3.020753E+00  7.436204E+00  1.410506E+00  1.178820E+01  7.753146E-01  7.853512E-01
       253   3 -2.399934E+00 -7.664360E+00 -1.209117E+00  1.628433E+01  8.738024E-01 -6.570385E-01
       253   4  2.790952E+00  7.286888E+00  1.142589E+00  1.624021E+01  8.615230E-01  7.105690E-01
       253   5 -2.243615E+00 -7.374211E+00 -1.202550E+00  1.069018E+01 -6.295111E-01 -6.789523E-01
       253   6  2.841349E+00  7.119374E+00  1.253745E+00  1.065063E+01 -6.456894E-01  7.156518E-01
       253   7 -2.289742E+00 -7.349132E+00 -1.072827E+00  1.492517E+01 -6.877334E-01 -5.942929E-01
       253   8  2.626599E+00  6.975830E+00  9.900152E-01  1.488562E+01 -6.997476E-01  6.398704E-01
       254   1 -2.148047E+00  1.460576E+01 -5.156891E-01  9.480561E+00  6.970775E-01  2.003483E+00
       254   2  3.168002E+00  2.970203E+01  2.108203E+00  9.291914E+00  7.557224E-01  3.805548E+00
       254   3 -2.953943E+00  1.414406E+01 -1.248808E+00  1.394163E+01  8.388782E-01  1.814701E+00
       254   4  2.215385E+00  2.909361E+01  1.032735E+00  1.375299E+01  8.863529E-01  3.463638E+00
       254   5 -2.237344E+00  1.396239E+01 -7.535464E-01  8.552026E+00 -7.644178E-01  1.843076E+00
       254   6  2.816051E+00  2.845581E+01  1.597680E+00  8.350971E+00 -7.063446E-01  3.528651E+00
       254   7 -3.077113E+00  1.348461E+01 -1.506364E+00  1.280115E+01 -7.505663E-01  1.651771E+00
       254   8  1.827600E+00  2.782935E+01  4.979398E-01  1.260010E+01 -7.038125E-01  3.182173E+00
       255   1 -1.558643E+00  3.702269E+01  2.434718E-01  2.799642E+00  6.149731E-01  5.435232E+00
       255   2  3.615019E+00  5.195674E+01  2.554958E+00  2.370928E+00  7.233354E-01  8.085547E+00
       255   3 -3.360515E+00  3.600302E+01 -1.353561E+00  7.251670E+00  8.709444E-01  4.990316E+00
       255   4  1.733821E+00  5.085774E+01  7.728318E-01  6.822956E+00  9.547059E-01  7.512340E+00
       255   5 -1.873741E+00  3.546292E+01 -3.573973E-01  2.541114E+00 -9.397639E-01  5.091792E+00
       255   6  3.082100E+00  4.989414E+01  1.730856E+00  2.085073E+00 -8.326605E-01  7.676796E+00
       255   7 -3.749453E+00  3.440830E+01 -1.997096E+00  6.806149E+00 -7.689614E-01  4.640931E+00
       255   8  1.126002E+00  4.875913E+01 -9.641050E-02  6.350108E+00 -6.867876E-01  7.095931E+00
       256   1 -4.157861E+00 -5.895750E+01 -3.335064E+00  2.107356E+00  6.368815E-01 -7.222030E+00
       256   2  1.778332E+00 -4.204118E+01 -4.640741E-01  2.561372E+00  5.684808E-01 -4.812867E+00
       256   3 -1.872996E+00 -5.753766E+01 -8.871414E-01  7.337417E+00  9.864891E-01 -6.704274E+00
       256   4  3.883531E+00 -4.080101E+01  1.564626E+00  7.791433E+00  9.353877E-01 -4.425040E+00
       256   5 -3.635183E+00 -5.716485E+01 -2.557118E+00  1.742502E+00 -1.042097E+00 -6.654201E+00
       256   6  2.086760E+00 -4.073351E+01  8.468297E-02  2.214541E+00 -1.109419E+00 -4.377927E+00
       256   7 -1.284101E+00 -5.571995E+01 -9.185965E-02  6.882254E+00 -7.946197E-01 -6.140338E+00
       256   8  4.259527E+00 -3.946692E+01  2.133872E+00  7.354293E+00 -8.447724E-01 -3.993017E+00
       257   1 -3.401700E+00 -3.373875E+01 -2.423700E+00  9.190991E+00  5.399811E-01 -3.342672E+00
       257   2  2.559106E+00 -1.680852E+01  5.154170E-01  9.391512E+00  4.919481E-01 -1.735189E+00
       257   3 -2.281235E+00 -3.300034E+01 -1.082774E+00  1.441596E+01  8.660130E-01 -3.049701E+00
       257   4  3.478072E+00 -1.627160E+01  1.386177E+00  1.461648E+01  8.316805E-01 -1.571436E+00
       257   5 -3.125810E+00 -3.273235E+01 -1.990165E+00  8.109440E+00 -1.112173E+00 -3.010549E+00
       257   6  2.620496E+00 -1.628586E+01  7.176971E-01  8.324233E+00 -1.159352E+00 -1.551075E+00
       257   7 -1.955725E+00 -3.197460E+01 -6.344448E-01  1.324477E+01 -9.034375E-01 -2.719780E+00
       257   8  3.590596E+00 -1.572810E+01  1.606786E+00  1.345956E+01 -9.370186E-01 -1.388554E+00
       258   1 -2.811739E+00 -8.541092E+00 -1.485979E+00  1.153956E+01  4.999999E-01 -6.474141E-01
       258   2  3.220203E+00  8.544054E+00  1.535345E+00  1.150931E+01  4.910875E-01  7.169573E-01
       258   3 -2.809592E+00 -8.481302E+00 -1.288828E+00  1.680443E+01  8.141422E-01 -5.799564E-01
       258   4  3.021254E+00  8.402748E+00  1.263273E+00  1.677418E+01  8.079529E-01  6.505527E-01
       258   5 -2.724751E+00 -8.299344E+00 -1.376223E+00  1.026610E+01 -1.143403E+00 -5.716539E-01
       258   6  3.085459E+00  8.285150E+00  1.406649E+00  1.023868E+01 -1.152146E+00  6.446990E-01
       258   7 -2.714612E+00 -8.236571E+00 -1.177121E+00  1.543699E+01 -9.466756E-01 -5.047034E-01
       258   8  2.896014E+00  8.148339E+00  1.140055E+00  1.540958E+01 -9.527155E-01  5.787937E-01
       259   1 -2.321858E+00  1.680306E+01 -5.332552E-01  9.209272E+00  4.957790E-01  1.805791E+00
       259   2  3.717432E+00  3.394440E+01  2.456366E+00  8.970462E+00  5.323340E-01  3.416169E+00
       259   3 -3.359825E+00  1.622010E+01 -1.438506E+00  1.449741E+01  8.340056E-01  1.641776E+00
       259   4  2.488129E+00  3.317010E+01  1.104664E+00  1.425860E+01  8.604631E-01  3.119340E+00
       259   5 -2.415268E+00  1.626620E+01 -7.484636E-01  8.155123E+00 -1.168660E+00  1.627681E+00
       259   6  3.404537E+00  3.291133E+01  2.005764E+00  7.905793E+00 -1.132735E+00  3.096884E+00
       259   7 -3.492791E+00  1.566732E+01 -1.667205E+00  1.335051E+01 -9.411598E-01  1.464899E+00
       259   8  2.137117E+00  3.212255E+01  6.439279E-01  1.310118E+01 -9.152560E-01  2.802287E+00
       260   1 -1.761500E+00  4.221432E+01  3.683134E-01  2.430048E+00  5.741138E-01  4.880105E+00
       260   2  4.201315E+00  5.922573E+01  3.232952E+00  1.979195E+00  6.413527E-01  7.269276E+00
       260   3 -3.829030E+00  4.100579E+01 -1.592581E+00  7.692723E+00  9.376623E-01  4.487964E+00
       260   4  1.966609E+00  5.785003E+01  8.819784E-01  7.241870E+00  9.881419E-01  6.749551E+00
       260   5 -2.079707E+00  4.089058E+01 -1.852657E-01  2.088032E+00 -1.118666E+00  4.463735E+00
       260   6  3.673303E+00  5.742635E+01  2.455667E+00  1.619718E+00 -1.052472E+00  6.728837E+00
       260   7 -4.213040E+00  3.965628E+01 -2.166280E+00  7.262990E+00 -8.492444E-01  4.074542E+00
       260   8  1.374050E+00  5.602612E+01  8.750637E-02  6.794677E+00 -7.996839E-01  6.213020E+00
       261   1 -4.692141E+00 -6.712889E+01 -3.536345E+00  1.707860E+00  7.542077E-01 -6.294134E+00
       261   2  2.087716E+00 -4.779996E+01 -2.657477E-01  2.194706E+00  7.163952E-01 -4.155883E+00
       261   3 -2.197207E+00 -6.556153E+01 -8.067620E-01  7.685243E+00  1.099385E+00 -5.939483E+00
       261   4  4.363748E+00 -4.645151E+01  1.953061E+00  8.172089E+00  1.076094E+00 -3.890806E+00
       261   5 -4.307951E+00 -6.588399E+01 -2.973074E+00  1.297928E+00 -1.107028E+00 -5.671220E+00
       261   6  2.321127E+00 -4.689248E+01  1.323434E-01  1.799903E+00 -1.144124E+00 -3.689427E+00
       261   7 -1.756445E+00 -6.429614E+01 -2.317301E-01  7.231023E+00 -8.915400E-01 -5.319236E+00
       261   8  4.655376E+00 -4.552189E+01  2.366754E+00  7.732998E+00 -9.142229E-01 -3.426342E+00
       262   1 -3.950387E+00 -3.836900E+01 -2.583314E+00  8.838915E+00  6.347897E-01 -2.864965E+00
       262   2  2.828458E+00 -1.905131E+01  6.951409E-01  9.070350E+00  6.096991E-01 -1.476363E+00
       262   3 -2.686185E+00 -3.754574E+01 -1.103335E+00  1.481143E+01  9.987616E-01 -2.665320E+00
       262   4  3.873822E+00 -1.844689E+01  1.664498E+00  1.504286E+01  9.809967E-01 -1.365909E+00
       262   5 -3.740271E+00 -3.767079E+01 -2.268695E+00  7.706946E+00 -1.220714E+00 -2.513021E+00
       262   6  2.888394E+00 -1.868912E+01  8.451851E-01  7.946012E+00 -1.245443E+00 -1.280812E+00
       262   7 -2.448287E+00 -3.683775E+01 -7.838632E-01  1.363552E+01 -9.865854E-01 -2.314876E+00
       262   8  3.963186E+00 -1.807327E+01  1.823234E+00  1.387458E+01 -1.004044E+00 -1.171188E+00
       263   1 -3.310399E+00 -9.651276E+00 -1.650770E+00  1.129437E+01  5.820464E-01 -5.423619E-01
       263   2  3.499342E+00  9.723927E+00  1.673164E+00  1.127914E+01  5.779259E-01  6.207746E-01
       263   3 -3.247491E+00 -9.559357E+00 -1.407282E+00  1.727956E+01  9.490043E-01 -4.972477E-01
       263   4  3.343881E+00  9.597476E+00  1.407124E+00  1.726433E+01  9.457596E-01  5.765672E-01
       263   5 -3.246187E+00 -9.486263E+00 -1.572281E+00  9.954766E+00 -1.265291E+00 -4.611822E-01
       263   6  3.413194E+00  9.552466E+00  1.586928E+00  9.940452E+00 -1.269369E+00  5.458798E-01
       263   7 -3.181453E+00 -9.394050E+00 -1.329639E+00  1.589598E+01 -1.027997E+00 -4.164071E-01
       263   8  3.261201E+00  9.427951E+00  1.323874E+00  1.588167E+01 -1.031206E+00  5.020048E-01
       264   1 -2.715472E+00  1.911183E+01 -7.027372E-01  9.014554E+00  6.126701E-01  1.554782E+00
       264   2  4.088737E+00  3.849620E+01  2.593588E+00  8.763733E+00  6.324419E-01  2.943401E+00
       264   3 -3.815366E+00  1.848982E+01 -1.676206E+00  1.500675E+01  9.827374E-01  1.444824E+00
       264   4  2.773082E+00  3.765843E+01  1.116678E+00  1.475592E+01  9.959818E-01  2.743132E+00
       264   5 -2.789535E+00  1.874535E+01 -8.574420E-01  7.894331E+00 -1.245979E+00  1.366278E+00
       264   6  3.862896E+00  3.778977E+01  2.272912E+00  7.636709E+00 -1.226529E+00  2.600585E+00
       264   7 -3.916630E+00  1.811282E+01 -1.838793E+00  1.384161E+01 -1.003795E+00  1.257147E+00
       264   8  2.521663E+00  3.694310E+01  7.919057E-01  1.358399E+01 -9.908232E-01  2.401822E+00
       265   1 -2.069096E+00  4.789343E+01  2.227357E-01  2.164665E+00  7.196274E-01  4.231704E+00
       265   2  4.702623E+00  6.721111E+01  3.477452E+00  1.676894E+00  7.565896E-01  6.362793E+00
       265   3 -4.332821E+00  4.655905E+01 -1.961484E+00  8.140567E+00  1.077478E+00  3.966526E+00
       265   4  2.222935E+00  6.566077E+01  7.893182E-01  7.652796E+00  1.099312E+00  6.010592E+00
       265   5 -2.304728E+00  4.698514E+01 -1.749503E-01  1.770316E+00 -1.144406E+00  3.775932E+00
       265   6  4.320342E+00  6.597485E+01  2.918909E+00  1.266784E+00 -1.108190E+00  5.752732E+00
       265   7 -4.628929E+00  4.562758E+01 -2.375960E+00  7.704468E+00 -9.144483E-01  3.512748E+00
       265   8  1.781801E+00  6.440294E+01  2.177744E-01  7.200937E+00 -8.932468E-01  5.403178E+00
       266   1 -5.130446E+00 -7.561133E+01 -3.539607E+00  1.343508E+00  9.230820E-01 -5.570890E+00
       266   2  2.478660E+00 -5.382829E+01  4.103825E-02  1.851100E+00  9.085167E-01 -3.628704E+00
       266   3 -2.520686E+00 -7.396868E+01 -6.738538E-01  8.094853E+00  1.223269E+00 -5.347470E+00
       266   4  4.854265E+00 -5.241979E+01  2.360427E+00  8.602445E+00  1.215893E+00 -3.463221E+00
       266   5 -4.860895E+00 -7.481174E+01 -3.161119E+00  9.060578E-01 -1.165487E+00 -4.925651E+00
       266   6  2.649168E+00 -5.324846E+01  3.091439E-01  1.421139E+00 -1.179791E+00 -3.148201E+00
       266   7 -2.220048E+00 -7.315970E+01 -2.951798E-01  7.650606E+00 -1.006014E+00 -4.703912E+00
       266   8  5.057619E+00 -5.182881E+01  2.632827E+00  8.165688E+00 -1.013183E+00 -2.983963E+00
       267   1 -4.426021E+00 -4.322892E+01 -2.678191E+00  8.502646E+00  8.385296E-01 -2.475251E+00
       267   2  3.189076E+00 -2.144475E+01  9.212953E-01  8.753866E+00  8.255305E-01 -1.266146E+00
       267   3 -3.074569E+00 -4.235611E+01 -1.120289E+00  1.525167E+01  1.160183E+00 -2.350961E+00
       267   4  4.312021E+00 -2.080045E+01  1.946013E+00  1.550289E+01  1.150851E+00 -1.196458E+00
       267   5 -4.289276E+00 -4.278969E+01 -2.473054E+00  7.333014E+00 -1.243586E+00 -2.113864E+00
       267   6  3.232194E+00 -2.121291E+01  1.021740E+00  7.588055E+00 -1.256452E+00 -1.065451E+00
       267   7 -2.922506E+00 -4.191252E+01 -9.159451E-01  1.407856E+01 -1.058888E+00 -1.990508E+00
       267   8  4.372175E+00 -2.056254E+01  2.049674E+00  1.433360E+01 -1.068114E+00 -9.962873E-01
       268   1 -3.780055E+00 -1.086894E+01 -1.810309E+00  1.100666E+01  7.932061E-01 -4.604711E-01
       268   2  3.850358E+00  1.093435E+01  1.821121E+00  1.100117E+01  7.905483E-01  5.315685E-01
       268   3 -3.679931E+00 -1.075835E+01 -1.541815E+00  1.775750E+01  1.120852E+00 -4.305912E-01
       268   4  3.723057E+00  1.081751E+01  1.558957E+00  1.775201E+01  1.117925E+00  5.072946E-01
       268   5 -3.737692E+00 -1.075938E+01 -1.757279E+00  9.623882E+00 -1.280457E+00 -3.771298E-01
       268   6  3.799834E+00  1.083818E+01  1.770253E+00  9.618110E+00 -1.283124E+00  4.549857E-01
       268   7 -3.639542E+00 -1.065015E+01 -1.491327E+00  1.637170E+01 -1.089072E+00 -3.474745E-01
       268   8  3.672270E+00  1.072169E+01  1.509536E+00  1.636593E+01 -1.092008E+00  4.308943E-01
       269   1 -3.146709E+00  2.150265E+01 -9.218326E-01  8.747913E+00  8.273992E-01  1.337678E+00
       269   2  4.474004E+00  4.330143E+01  2.681763E+00  8.489683E+00  8.362922E-01  2.547972E+00
       269   3 -4.283491E+00  2.085787E+01 -1.934323E+00  1.550123E+01  1.152108E+00  1.273507E+00
       269   4  3.108975E+00  4.242840E+01  1.136694E+00  1.524300E+01  1.156399E+00  2.428954E+00
       269   5 -3.194376E+00  2.128549E+01 -1.018642E+00  7.582083E+00 -1.255373E+00  1.143805E+00
       269   6  4.332337E+00  4.287599E+01  2.479901E+00  7.319060E+00 -1.246647E+00  2.193578E+00
       269   7 -4.351712E+00  2.063308E+01 -2.035992E+00  1.433170E+01 -1.067466E+00  1.080116E+00
       269   8  2.948468E+00  4.199705E+01  9.339760E-01  1.406868E+01 -1.063307E+00  2.075454E+00
       270   1 -2.468218E+00  5.388140E+01 -5.629113E-02  1.854683E+00  9.104977E-01  3.703254E+00
       270   2  5.128598E+00  7.563791E+01  3.509912E+00  1.345694E+00  9.228311E-01  5.649252E+00
       270   3 -4.838812E+00  5.248057E+01 -2.355118E+00  8.599246E+00  1.217451E+00  3.543593E+00
       270   4  2.523248E+00  7.400233E+01  6.633213E-01  8.090258E+00  1.221129E+00  5.433397E+00
       270   5 -2.636920E+00  5.331986E+01 -3.177564E-01  1.423742E+00 -1.179062E+00  3.229678E+00
       270   6  4.863555E+00  7.486295E+01  3.140739E+00  9.057373E-01 -1.167043E+00  5.010586E+00
       270   7 -5.045597E+00  5.190561E+01 -2.623260E+00  8.163202E+00 -1.013241E+00  3.071217E+00
       270   8  2.221887E+00  7.321571E+01  2.915899E-01  7.645197E+00 -1.009812E+00  4.796354E+00
       271   1 -5.555734E+00 -8.436134E+01 -3.513890E+00  9.625203E-01  1.107279E+00 -5.076580E+00
       271   2  2.901615E+00 -6.005334E+01  3.692727E-01  1.485997E+00  1.103932E+00 -3.267125E+00
       271   3 -2.877700E+00 -8.268068E+01 -5.897131E-01  8.512508E+00  1.334902E+00 -4.946078E+00
       271   4  5.341637E+00 -5.861069E+01  2.738090E+00  9.035985E+00  1.334286E+00 -3.171871E+00
       271   5 -5.382752E+00 -8.388634E+01 -3.281838E+00  5.094072E-01 -1.226440E+00 -4.425781E+00
       271   6  3.013970E+00 -5.971241E+01  5.333052E-01  1.035730E+00 -1.229724E+00 -2.782457E+00
       271   7 -2.688946E+00 -8.220292E+01 -3.642600E-01  8.081351E+00 -1.142439E+00 -4.296260E+00
       271   8  5.471553E+00 -5.826522E+01  2.899699E+00  8.607674E+00 -1.143012E+00 -2.687920E+00
       272   1 -4.865779E+00 -4.824142E+01 -2.758103E+00  8.142789E+00  1.057990E+00 -2.208407E+00
       272   2  3.604480E+00 -2.392928E+01  1.163951E+00  8.405277E+00  1.050560E+00 -1.125391E+00
       272   3 -3.468069E+00 -4.734382E+01 -1.163823E+00  1.568860E+01  1.300080E+00 -2.136984E+00
       272   4  4.769985E+00 -2.326388E+01  2.216417E+00  1.595109E+01  1.293407E+00 -1.083826E+00
       272   5 -4.788540E+00 -4.798876E+01 -2.638037E+00  6.956533E+00 -1.262890E+00 -1.843834E+00
       272   6  3.629649E+00 -2.379090E+01  1.224735E+00  7.219810E+00 -1.270303E+00 -9.227915E-01
       272   7 -3.385477E+00 -4.709112E+01 -1.048947E+00  1.452966E+01 -1.160504E+00 -1.772948E+00
       272   8  4.802253E+00 -2.312372E+01  2.276085E+00  1.479294E+01 -1.167165E+00 -8.815395E-01
       273   1 -4.229162E+00 -1.214348E+01 -1.969604E+00  1.066644E+01  1.022664E+00 -4.108957E-01
       273   2  4.255197E+00  1.218229E+01  1.985822E+00  1.066603E+01  1.019437E+00  4.581254E-01
       273   3 -4.109806E+00 -1.202333E+01 -1.688456E+00  1.821203E+01  1.268520E+00 -3.907536E-01
       273   4  4.143515E+00  1.207141E+01  1.727882E+00  1.821161E+01  1.264401E+00  4.495989E-01
       273   5 -4.206132E+00 -1.207204E+01 -1.936390E+00  9.263723E+00 -1.288636E+00 -3.265618E-01
       273   6  4.228044E+00  1.214381E+01  1.961678E+00  9.262376E+00 -1.291883E+00  3.813251E-01
       273   7 -4.090818E+00 -1.195414E+01 -1.658704E+00  1.683781E+01 -1.181685E+00 -3.065712E-01
       273   8  4.114057E+00  1.203241E+01  1.704330E+00  1.683647E+01 -1.185818E+00  3.728628E-01
       274   1 -3.589379E+00  2.396595E+01 -1.152287E+00  8.417108E+00  1.051843E+00  1.173656E+00
       274   2  4.883837E+00  4.828633E+01  2.771392E+00  8.153688E+00  1.053342E+00  2.259500E+00
       274   3 -4.747833E+00  2.330939E+01 -2.182387E+00  1.596543E+01  1.294622E+00  1.143647E+00
       274   4  3.492355E+00  4.739673E+01  1.197558E+00  1.570201E+01  1.293448E+00  2.199467E+00
       274   5 -3.616941E+00  2.386109E+01 -1.203327E+00  7.229781E+00 -1.269789E+00  9.783792E-01
       274   6  4.803929E+00  4.806656E+01  2.660768E+00  6.963577E+00 -1.268353E+00  1.901674E+00
       274   7 -4.789298E+00  2.319977E+01 -2.235373E+00  1.480527E+01 -1.167234E+00  9.485958E-01
       274   8  3.400295E+00  4.717396E+01  1.089078E+00  1.453907E+01 -1.168450E+00  1.842094E+00
       275   1 -2.895832E+00  6.009209E+01 -3.640947E-01  1.498497E+00  1.105972E+00  3.323145E+00
       275   2  5.554421E+00  8.438762E+01  3.507883E+00  9.730854E-01  1.104349E+00  5.143234E+00
       275   3 -5.334059E+00  5.865492E+01 -2.716433E+00  9.045927E+00  1.336762E+00  3.239537E+00
       275   4  2.876038E+00  8.271030E+01  5.951822E-01  8.520515E+00  1.330434E+00  5.025238E+00
       275   5 -3.007039E+00  5.978642E+01 -5.168696E-01  1.046781E+00 -1.230000E+00  2.844477E+00
       275   6  5.383882E+00  8.395097E+01  3.288317E+00  5.164672E-01 -1.231732E+00  4.496966E+00
       275   7 -5.469847E+00  5.834167E+01 -2.869912E+00  8.617008E+00 -1.144194E+00  2.761497E+00
       275   8  2.682723E+00  8.226787E+01  3.791258E-01  8.086694E+00 -1.150596E+00  4.379857E+00
       276   1 -5.975380E+00 -9.327918E+01 -3.509058E+00  5.626349E-01  1.294935E+00 -4.768351E+00
       276   2  3.348711E+00 -6.639839E+01  6.904501E-01  1.095499E+00  1.295505E+00 -3.047312E+00
       276   3 -3.264023E+00 -9.158308E+01 -5.667517E-01  8.925263E+00  1.428478E+00 -4.702901E+00
       276   4  5.822808E+00 -6.493955E+01  3.079150E+00  9.458127E+00  1.429235E+00 -3.000749E+00
       276   5 -5.879891E+00 -9.303796E+01 -3.391405E+00  1.014555E-01 -1.288015E+00 -4.118517E+00
       276   6  3.412248E+00 -6.622847E+01  7.729022E-01  6.345152E-01 -1.287443E+00 -2.562460E+00
       276   7 -3.161446E+00 -9.134283E+01 -4.594454E-01  8.508543E+00 -1.297522E+00 -4.053559E+00
       276   8  5.895217E+00 -6.476882E+01  3.155417E+00  9.041602E+00 -1.296764E+00 -2.516247E+00
       277   1 -5.292533E+00 -5.335011E+01 -2.845939E+00  7.750090E+00  1.268258E+00 -2.051024E+00
       277   2  4.050216E+00 -2.646444E+01  1.410884E+00  8.019325E+00  1.261644E+00 -1.050154E+00
       277   3 -3.869490E+00 -5.244004E+01 -1.235399E+00  1.610615E+01  1.409063E+00 -2.016042E+00
       277   4  5.240478E+00 -2.578715E+01  2.478267E+00  1.637539E+01  1.401625E+00 -1.027924E+00
       277   5 -5.264906E+00 -5.323106E+01 -2.792584E+00  6.561091E+00 -1.295440E+00 -1.685786E+00
       277   6  4.055525E+00 -2.639428E+01  1.438734E+00  6.829466E+00 -1.302061E+00 -8.467246E-01
       277   7 -3.841900E+00 -5.232326E+01 -1.189583E+00  1.496770E+01 -1.294643E+00 -1.651067E+00
       277   8  5.247500E+00 -2.571751E+01  2.502661E+00  1.523608E+01 -1.302084E+00 -8.246615E-01
       278   1 -4.666145E+00 -1.344410E+01 -2.127637E+00  1.028428E+01  1.238590E+00 -3.951754E-01
       278   2  4.695815E+00  1.346457E+01  2.170228E+00  1.028651E+01  1.233758E+00  3.933905E-01
       278   3 -4.536208E+00 -1.331842E+01 -1.838635E+00  1.864215E+01  1.380450E+00 -3.817613E-01
       278   4  4.593875E+00  1.335837E+01  1.918184E+00  1.864438E+01  1.374471E+00  3.954706E-01
       278   5 -4.660914E+00 -1.340121E+01 -2.111020E+00  8.878617E+00 -1.314235E+00 -3.099625E-01
       278   6  4.680952E+00  1.346375E+01  2.163575E+00  8.879655E+00 -1.319079E+00  3.174378E-01
       278   7 -4.535856E+00 -1.327814E+01 -1.825863E+00  1.728846E+01 -1.311749E+00 -2.966492E-01
       278   8  4.575876E+00  1.335668E+01  1.911754E+00  1.728950E+01 -1.317731E+00  3.195022E-01
       279   1 -4.032834E+00  2.648836E+01 -1.372639E+00  8.043130E+00  1.263048E+00  1.049700E+00
       279   2  5.320545E+00  5.340239E+01  2.891254E+00  7.775313E+00  1.260284E+00  2.054206E+00
       279   3 -5.205833E+00  2.582563E+01 -2.408746E+00  1.640764E+01  1.403424E+00  1.042805E+00
       279   4  3.913213E+00  5.250533E+01  1.308369E+00  1.613982E+01  1.399139E+00  2.034122E+00
       279   5 -4.046920E+00  2.646015E+01 -1.390312E+00  6.850454E+00 -1.302501E+00  8.551346E-01
       279   6  5.283443E+00  5.332369E+01  2.847357E+00  6.581053E+00 -1.305281E+00  1.696749E+00
       279   7 -5.229899E+00  2.579435E+01 -2.426685E+00  1.526514E+01 -1.303116E+00  8.482909E-01
       279   8  3.867893E+00  5.242532E+01  1.268316E+00  1.499574E+01 -1.307405E+00  1.676817E+00
       280   1 -3.338627E+00  6.645689E+01 -6.549338E-01  1.114421E+00  1.298641E+00  3.056928E+00
       280   2  5.987841E+00  9.335288E+01  3.537299E+00  5.769476E-01  1.289558E+00  4.791910E+00
       280   3 -5.818957E+00  6.500060E+01 -3.028906E+00  9.483156E+00  1.433474E+00  3.025086E+00
       280   4  3.266750E+00  9.165583E+01  6.015511E-01  8.945683E+00  1.421984E+00  4.741132E+00
       280   5 -3.408700E+00  6.632804E+01 -7.268626E-01  6.518081E-01 -1.289286E+00  2.578571E+00
       280   6  5.885703E+00  9.315251E+01  3.430009E+00  1.118263E-01 -1.298393E+00  4.146139E+00
       280   7 -5.905858E+00  6.486749E+01 -3.098191E+00  9.064999E+00 -1.299727E+00  2.546969E+00
       280   8  3.149594E+00  9.145301E+01  5.011277E-01  8.525018E+00 -1.311224E+00  4.095743E+00
       281   1 -6.388424E+00 -1.022694E+02 -3.525894E+00  1.468779E-01  1.484510E+00 -4.599796E+00
       281   2  3.812264E+00 -7.279651E+01  1.003474E+00  6.831178E-01  1.485041E+00 -2.937963E+00
       281   3 -3.668793E+00 -1.005715E+02 -5.857192E-01  9.326650E+00  1.504048E+00 -4.584273E+00
       281   4  6.297078E+00 -7.133338E+01  3.395741E+00  9.862890E+00  1.503775E+00 -2.928870E+00
       281   5 -6.359911E+00 -1.022125E+02 -3.504695E+00 -3.184238E-01 -1.345464E+00 -3.952747E+00
       281   6  3.831375E+00 -7.276235E+01  1.016132E+00  2.169776E-01 -1.344931E+00 -2.453989E+00
       281   7 -3.636557E+00 -1.005169E+02 -5.762665E-01  8.924454E+00 -1.466938E+00 -3.937340E+00
       281   8  6.321676E+00 -7.129986E+01  3.400772E+00  9.459856E+00 -1.467203E+00 -2.444963E+00
       282   1 -5.707633E+00 -5.850176E+01 -2.938293E+00  7.328474E+00  1.468727E+00 -1.982340E+00
       282   2  4.517476E+00 -2.902015E+01  1.663791E+00  7.601090E+00  1.460504E+00 -1.033359E+00
       282   3 -4.272594E+00 -5.758613E+01 -1.321239E+00  1.650075E+01  1.490925E+00 -1.975799E+00
       282   4  5.720732E+00 -2.833630E+01  2.740018E+00  1.677337E+01  1.481383E+00 -1.027362E+00
       282   5 -5.725120E+00 -5.849061E+01 -2.942703E+00  6.144198E+00 -1.337084E+00 -1.616978E+00
       282   6  4.499777E+00 -2.901034E+01  1.660019E+00  6.415440E+00 -1.345303E+00 -8.289802E-01
       282   7 -4.291765E+00 -5.757797E+01 -1.333905E+00  1.538541E+01 -1.453830E+00 -1.610486E+00
       282   8  5.703092E+00 -2.832774E+01  2.732057E+00  1.565665E+01 -1.463358E+00 -8.230281E-01
       283   1 -5.093135E+00 -1.475213E+01 -2.278992E+00  9.873278E+00  1.440329E+00 -4.158262E-01
       283   2  5.162725E+00  1.477762E+01  2.377458E+00  9.876885E+00  1.433564E+00  3.223259E-01
       283   3 -4.956397E+00 -1.462227E+01 -1.982844E+00  1.905384E+01  1.462061E+00 -4.097429E-01
       283   4  5.067959E+00  1.467598E+01  2.133432E+00  1.905744E+01  1.454295E+00  3.291882E-01
       283   5 -5.107617E+00 -1.474043E+01 -2.280420E+00  8.474153E+00 -1.353663E+00 -3.292248E-01
       283   6  5.150097E+00  1.479280E+01  2.378734E+00  8.476718E+00 -1.360426E+00  2.481350E-01
       283   7 -4.975229E+00 -1.461296E+01 -1.987922E+00  1.772503E+01 -1.470660E+00 -3.231872E-01
       283   8  5.052722E+00  1.469050E+01  2.135119E+00  1.772760E+01 -1.478416E+00  2.549458E-01
       284   1 -4.474591E+00  2.905759E+01 -1.573417E+00  7.646906E+00  1.462831E+00  9.409759E-01
       284   2  5.780035E+00  5.861578E+01  3.050476E+00  7.375405E+00  1.457690E+00  1.893007E+00
       284   3 -5.657199E+00  2.839226E+01 -2.608550E+00  1.684160E+01  1.484757E+00  9.475972E-01
       284   4  4.362935E+00  5.771596E+01  1.468199E+00  1.657010E+01  1.478797E+00  1.898191E+00
       284   5 -4.483982E+00  2.907371E+01 -1.570076E+00  6.458008E+00 -1.346813E+00  7.483199E-01
       284   6  5.769042E+00  5.862730E+01  3.053077E+00  6.185654E+00 -1.351952E+00  1.537490E+00
       284   7 -5.674231E+00  2.840630E+01 -2.604510E+00  1.572091E+01 -1.465581E+00  7.548914E-01
       284   8  4.346066E+00  5.772717E+01  1.475611E+00  1.544856E+01 -1.471532E+00  1.542635E+00
       285   1 -3.786479E+00  7.293587E+01 -9.102961E-01  7.180752E-01  1.490449E+00  2.854770E+00
       285   2  6.435773E+00  1.024779E+02  3.621814E+00  1.705169E-01  1.477605E+00  4.530322E+00
       285   3 -6.297895E+00  7.146771E+01 -3.292753E+00  9.920508E+00  1.511272E+00  2.856574E+00
       285   4  3.683816E+00  1.007692E+02  6.780956E-01  9.372949E+00  1.497139E+00  4.524331E+00
       285   5 -3.831787E+00  7.292290E+01 -9.245082E-01  2.505513E-01 -1.348894E+00  2.378499E+00
       285   6  6.378945E+00  1.024372E+02  3.596964E+00 -2.983502E-01 -1.361734E+00  3.887006E+00
       285   7 -6.356389E+00  7.145203E+01 -3.302797E+00  9.514896E+00 -1.472783E+00  2.380290E+00
       285   8  3.615610E+00  1.007276E+02  6.616331E-01  8.965994E+00 -1.486902E+00  3.881060E+00
       286   1 -6.786691E+00 -1.112400E+02 -3.542486E+00 -2.817091E-01  1.677007E+00 -4.542739E+00
       286   2  4.287775E+00 -7.918816E+01  1.320536E+00  2.516474E-01  1.676268E+00 -2.920473E+00
       286   3 -4.081210E+00 -1.095507E+02 -6.170084E-01  9.710252E+00  1.562276E+00 -4.573783E+00
       286   4  6.761767E+00 -7.773036E+01  3.705870E+00  1.024361E+01  1.560970E+00 -2.947448E+00
       286   5 -6.824154E+00 -1.113568E+02 -3.614120E+00 -7.500372E-01 -1.394658E+00 -3.898305E+00
       286   6  4.260325E+00 -7.928649E+01  1.263783E+00 -2.172707E-01 -1.395388E+00 -2.436885E+00
       286   7 -4.114152E+00 -1.096696E+02 -6.999840E-01  9.321694E+00 -1.647481E+00 -3.929116E+00
       286   8  6.740577E+00 -7.782900E+01  3.641836E+00  9.854461E+00 -1.648774E+00 -2.463656E+00
       287   1 -6.108331E+00 -6.365024E+01 -3.022115E+00  6.884048E+00  1.665131E+00 -1.991234E+00
       287   2  5.000955E+00 -3.157183E+01  1.930421E+00  7.156062E+00  1.654852E+00 -1.074771E+00
       287   3 -4.674579E+00 -6.273476E+01 -1.404237E+00  1.687207E+01  1.551006E+00 -2.013445E+00
       287   4  6.204864E+00 -3.088618E+01  3.011998E+00  1.714408E+01  1.540009E+00 -1.088038E+00
       287   5 -6.172914E+00 -6.374879E+01 -3.085456E+00  5.707050E+00 -1.379144E+00 -1.625002E+00
       287   6  4.953974E+00 -3.163413E+01  1.889517E+00  5.978316E+00 -1.389412E+00 -8.683173E-01
       287   7 -4.738766E+00 -6.283539E+01 -1.474952E+00  1.577969E+01 -1.630243E+00 -1.647046E+00
       287   8  6.160007E+00 -3.094885E+01  2.967751E+00  1.605095E+01 -1.641224E+00 -8.814848E-01
       288   1 -5.509934E+00 -1.605194E+01 -2.414732E+00  9.446420E+00  1.635909E+00 -4.807658E-01
       288   2  5.650433E+00  1.612189E+01  2.612669E+00  9.448253E+00  1.627731E+00  2.256240E-01
       288   3 -5.375414E+00 -1.592091E+01 -2.112487E+00  1.945556E+01  1.521223E+00 -4.870956E-01
       288   4  5.554346E+00  1.602231E+01  2.376830E+00  1.945739E+01  1.512858E+00  2.293037E-01
       288   5 -5.550380E+00 -1.608927E+01 -2.441576E+00  8.058080E+00 -1.396450E+00 -3.914782E-01
       288   6  5.629268E+00  1.612469E+01  2.609955E+00  8.059718E+00 -1.404625E+00  1.545858E-01
       288   7 -5.417431E+00 -1.595947E+01 -2.141844E+00  1.815306E+01 -1.648609E+00 -3.977605E-01
       288   8  5.533343E+00  1.602562E+01  2.375648E+00  1.815469E+01 -1.656969E+00  1.582378E-01
       289   1 -4.912568E+00  3.166974E+01 -1.746829E+00  7.244801E+00  1.659327E+00  8.195201E-01
       289   2  6.261026E+00  6.391313E+01  3.255091E+00  6.967957E+00  1.653115E+00  1.735685E+00
       289   3 -6.108103E+00  3.100167E+01 -2.778193E+00  1.728077E+01  1.546268E+00  8.295756E-01
       289   4  4.830900E+00  6.301047E+01  1.676349E+00  1.700393E+01  1.540005E+00  1.753150E+00
       289   5 -4.928968E+00  3.169510E+01 -1.736692E+00  6.064381E+00 -1.392351E+00  6.301177E-01
       289   6  6.259906E+00  6.396921E+01  3.285442E+00  5.787484E+00 -1.398562E+00  1.383231E+00
       289   7 -6.129627E+00  3.102600E+01 -2.766350E+00  1.618380E+01 -1.645521E+00  6.400976E-01
       289   8  4.826420E+00  6.306729E+01  1.712521E+00  1.590690E+01 -1.651783E+00  1.400565E+00
       290   1 -4.234565E+00  7.951651E+01 -1.120929E+00  3.201218E-01  1.686021E+00  2.667417E+00
       290   2  6.905089E+00  1.117542E+02  3.773527E+00 -2.384995E-01  1.671334E+00  4.296790E+00
       290   3 -6.778237E+00  7.803717E+01 -3.508397E+00  1.036956E+01  1.574168E+00  2.687695E+00
       290   4  4.120541E+00  1.100340E+02  8.240167E-01  9.810939E+00  1.558877E+00  4.317344E+00
       290   5 -4.273140E+00  7.956648E+01 -1.098890E+00 -1.487498E-01 -1.402390E+00  2.194045E+00
       290   6  6.870744E+00  1.118090E+02  3.804863E+00 -7.079998E-01 -1.417068E+00  3.656115E+00
       290   7 -6.827915E+00  7.808531E+01 -3.481361E+00  9.977100E+00 -1.658531E+00  2.214170E+00
       290   8  4.076905E+00  1.100888E+02  8.645755E-01  9.417850E+00 -1.673808E+00  3.676514E+00
       291   1 -7.159859E+00 -1.200962E+02 -3.525454E+00 -7.179984E-01  1.872387E+00 -4.592871E+00
       291   2  4.768517E+00 -8.551961E+01  1.659195E+00 -1.951789E-01  1.871516E+00 -2.993943E+00
       291   3 -4.492007E+00 -1.184245E+02 -6.208656E-01  1.006983E+01  1.602616E+00 -4.678316E+00
       291   4  7.208288E+00 -8.407596E+01  4.031593E+00  1.059265E+01  1.602781E+00 -3.065331E+00
       291   5 -7.272479E+00 -1.204140E+02 -3.700739E+00 -1.190762E+00 -1.433560E+00 -3.948204E+00
       291   6  4.684433E+00 -8.577960E+01  1.521204E+00 -6.668632E-01 -1.434460E+00 -2.508094E+00
       291   7 -4.594748E+00 -1.187420E+02 -8.051595E-01  9.692857E+00 -1.838174E+00 -4.033006E+00
       291   8  7.135797E+00 -8.433397E+01  3.888594E+00  1.021676E+01 -1.838046E+00 -2.578945E+00
       292   1 -6.500336E+00 -6.875685E+01 -3.082709E+00  6.428988E+00  1.861902E+00 -2.080382E+00
       292   2  5.491301E+00 -3.409085E+01  2.223415E+00  6.691294E+00  1.851478E+00 -1.183416E+00
       292   3 -5.095891E+00 -6.785217E+01 -1.471562E+00  1.722927E+01  1.592443E+00 -2.140359E+00
       292   4  6.668372E+00 -3.341355E+01  3.304022E+00  1.749157E+01  1.583644E+00 -1.226274E+00
       292   5 -6.620427E+00 -6.899556E+01 -3.216798E+00  5.258500E+00 -1.415045E+00 -1.710649E+00
       292   6  5.404509E+00 -3.426060E+01  2.131356E+00  5.522499E+00 -1.425515E+00 -9.720968E-01
       292   7 -5.207654E+00 -6.808959E+01 -1.609671E+00  1.615772E+01 -1.818904E+00 -1.770174E+00
       292   8  6.591617E+00 -3.358029E+01  3.211932E+00  1.642172E+01 -1.827762E+00 -1.014633E+00
       293   1 -5.927926E+00 -1.732120E+01 -2.523587E+00  9.016987E+00  1.832580E+00 -6.042742E-01
       293   2  6.144646E+00  1.751212E+01  2.885003E+00  9.005120E+00  1.825141E+00  8.100253E-02
       293   3 -5.832219E+00 -1.720288E+01 -2.224909E+00  1.985841E+01  1.563696E+00 -6.342254E-01
       293   4  6.010913E+00  1.740100E+01  2.648321E+00  1.984655E+01  1.558040E+00  6.919533E-02
       293   5 -6.005809E+00 -1.744595E+01 -2.591131E+00  7.641405E+00 -1.433752E+00 -5.094591E-01
       293   6  6.101724E+00  1.746013E+01  2.861230E+00  7.631396E+00 -1.441241E+00  1.593847E-02
       293   7 -5.905179E+00 -1.732611E+01 -2.292280E+00  1.858311E+01 -1.838452E+00 -5.391852E-01
       293   8  5.974640E+00  1.735226E+01  2.628746E+00  1.857310E+01 -1.844172E+00  4.220049E-03
       294   1 -5.352744E+00  3.433833E+01 -1.881292E+00  6.844545E+00  1.859481E+00  6.563360E-01
       294   2  6.753922E+00  6.929965E+01  3.512943E+00  6.553650E+00  1.853996E+00  1.542900E+00
       294   3 -6.586774E+00  3.365854E+01 -2.913232E+00  1.773070E+01  1.592411E+00  6.564609E-01
       294   4  5.285037E+00  6.838501E+01  1.933007E+00  1.743981E+01  1.588144E+00  1.557479E+00
       294   5 -5.392283E+00  3.432610E+01 -1.883638E+00  5.675670E+00 -1.431189E+00  4.728945E-01
       294   6  6.743736E+00  6.934690E+01  3.548966E+00  5.386044E+00 -1.436709E+00  1.195924E+00
       294   7 -6.627412E+00  3.364698E+01 -2.912267E+00  1.665876E+01 -1.837715E+00  4.730184E-01
       294   8  5.275518E+00  6.843468E+01  1.976462E+00  1.636913E+01 -1.842026E+00  1.210394E+00
       295   1 -4.683559E+00  8.621070E+01 -1.275056E+00 -7.627309E-02  1.889037E+00  2.447363E+00
       295   2  7.402020E+00  1.212112E+02  4.009664E+00 -6.508833E-01  1.874124E+00  4.031841E+00
       295   3 -7.273008E+00  8.471605E+01 -3.667782E+00  1.083861E+01  1.623572E+00  2.469217E+00
       295   4  4.570444E+00  1.194745E+02  1.051974E+00  1.026400E+01  1.609203E+00  4.059110E+00
       295   5 -4.737798E+00  8.626359E+01 -1.241841E+00 -5.441897E-01 -1.445908E+00  1.978919E+00
       295   6  7.363217E+00  1.212909E+02  4.067612E+00 -1.118234E+00 -1.460837E+00  3.395072E+00
       295   7 -7.334795E+00  8.476860E+01 -3.628155E+00  1.045880E+01 -1.855692E+00  2.000608E+00
       295   8  4.525913E+00  1.195556E+02  1.120582E+00  9.884759E+00 -1.870082E+00  3.422136E+00
       296   1 -7.506624E+00 -1.287540E+02 -3.434134E+00 -1.141878E+00  2.067437E+00 -4.767495E+00
       296   2  5.237476E+00 -9.174796E+01  2.040146E+00 -6.408418E-01  2.070683E+00 -3.173862E+00
       296   3 -4.904043E+00 -1.271060E+02 -5.434942E-01  1.041458E+01  1.620529E+00 -4.926497E+00
       296   4  7.612887E+00 -9.032717E+01  4.400721E+00  1.091562E+01  1.628927E+00 -3.310070E+00
       296   5 -7.712320E+00 -1.293377E+02 -3.738518E+00 -1.625387E+00 -1.464545E+00 -4.113524E+00
       296   6  5.076901E+00 -9.223906E+01  1.793550E+00 -1.118984E+00 -1.461514E+00 -2.678625E+00
       296   7 -5.086062E+00 -1.276836E+02 -8.510798E-01  1.004142E+01 -2.044394E+00 -4.271330E+00
       296   8  7.477698E+00 -9.081042E+01  4.154910E+00  1.054782E+01 -2.036250E+00 -2.813808E+00
       297   1 -6.925563E+00 -7.379306E+01 -3.111784E+00  6.001886E+00  2.059775E+00 -2.265079E+00
       297   2  5.958926E+00 -3.652028E+01  2.563730E+00  6.230052E+00  2.055310E+00 -1.375871E+00
       297   3 -5.625591E+00 -7.292781E+01 -1.527582E+00  1.761853E+01  1.615089E+00 -2.383512E+00
       297   4  7.033579E+00 -3.588034E+01  3.622189E+00  1.784669E+01  1.617345E+00 -1.468538E+00
       297   5 -7.116762E+00 -7.424042E+01 -3.342439E+00  4.834019E+00 -1.442488E+00 -1.885618E+00
       297   6  5.817415E+00 -3.686426E+01  2.395327E+00  5.069186E+00 -1.447233E+00 -1.153981E+00
       297   7 -5.791559E+00 -7.336667E+01 -1.755146E+00  1.656443E+01 -2.019006E+00 -2.003160E+00
       297   8  6.918994E+00 -3.621414E+01  3.460830E+00  1.679960E+01 -2.017082E+00 -1.245951E+00
       298   1 -6.398638E+00 -1.850453E+01 -2.591217E+00  8.603461E+00  2.034211E+00 -8.048230E-01
       298   2  6.593220E+00  1.900168E+01  3.208769E+00  8.542494E+00  2.033046E+00 -1.339008E-01
       298   3 -6.453903E+00 -1.844364E+01 -2.332969E+00  2.028014E+01  1.591029E+00 -8.781391E-01
       298   4  6.310083E+00  1.883470E+01  2.935315E+00  2.021918E+01  1.595316E+00 -1.801150E-01
       298   5 -6.532048E+00 -1.878348E+01 -2.725653E+00  7.241633E+00 -1.460375E+00 -6.989537E-01
       298   6  6.511694E+00  1.883108E+01  3.138922E+00  7.186346E+00 -1.461769E+00 -1.874330E-01
       298   7 -6.570883E+00 -1.871618E+01 -2.462484E+00  1.903388E+01 -2.037250E+00 -7.717185E-01
       298   8  6.246699E+00  1.867222E+01  2.874387E+00  1.897860E+01 -2.033233E+00 -2.332997E-01
       299   1 -5.825232E+00  3.711483E+01 -1.955847E+00  6.432345E+00  2.065466E+00  4.237670E-01
       299   2  7.213654E+00  7.479123E+01  3.830710E+00  6.102720E+00  2.064369E+00  1.276422E+00
       299   3 -7.173202E+00  3.639489E+01 -3.007681E+00  1.816769E+01  1.619084E+00  3.948177E-01
       299   4  5.631671E+00  7.383728E+01  2.232847E+00  1.783807E+01  1.621460E+00  1.267539E+00
       299   5 -5.910214E+00  3.699819E+01 -1.998291E+00  5.276318E+00 -1.460215E+00  2.520915E-01
       299   6  7.169817E+00  7.475754E+01  3.842460E+00  4.950312E+00 -1.461458E+00  9.413741E-01
       299   7 -7.252480E+00  3.628176E+01 -3.044115E+00  1.712064E+01 -2.044540E+00  2.233598E-01
       299   8  5.595298E+00  7.380886E+01  2.254712E+00  1.679463E+01 -2.042334E+00  9.325578E-01
       300   1 -5.144845E+00  9.304223E+01 -1.353520E+00 -4.864578E-01  2.099006E+00  2.146067E+00
       300   2  7.920756E+00  1.308864E+02  4.354285E+00 -1.085433E+00  2.087007E+00  3.669329E+00
       300   3 -7.799486E+00  9.152880E+01 -3.743628E+00  1.131609E+01  1.651181E+00  2.145975E+00
       300   4  5.023164E+00  1.291300E+02  1.397292E+00  1.071712E+01  1.642621E+00  3.673188E+00
       300   5 -5.243640E+00  9.301532E+01 -1.343566E+00 -9.549750E-01 -1.479974E+00  1.689398E+00
       300   6  7.838296E+00  1.308841E+02  4.394122E+00 -1.550368E+00 -1.492117E+00  3.043753E+00
       300   7 -7.896432E+00  9.150552E+01 -3.723465E+00  1.094094E+01 -2.071801E+00  1.689306E+00
       300   8  4.944380E+00  1.291332E+02  1.451600E+00  1.034555E+01 -2.080531E+00  3.047583E+00
       301   1 -7.864445E+00 -1.371975E+02 -3.229173E+00 -1.499003E+00  2.256560E+00 -5.094248E+00
       301   2  5.652888E+00 -9.785736E+01  2.488422E+00 -1.037373E+00  2.273350E+00 -3.490693E+00
       301   3 -5.354055E+00 -1.355667E+02 -3.033896E-01  1.080096E+01  1.620825E+00 -5.363722E+00
       301   4  7.926738E+00 -9.646305E+01  4.862279E+00  1.126259E+01  1.650010E+00 -3.731122E+00
       301   5 -8.195004E+00 -1.381718E+02 -3.712935E+00 -1.990888E+00 -1.497219E+00 -4.404926E+00
       301   6  5.380692E+00 -9.871271E+01  2.080320E+00 -1.516345E+00 -1.481109E+00 -2.967252E+00
       301   7 -5.636876E+00 -1.365246E+02 -7.805994E-01  1.043129E+01 -2.270622E+00 -4.672374E+00
       301   8  7.704058E+00 -9.730033E+01  4.464878E+00  1.090584E+01 -2.242210E+00 -3.205873E+00
       302   1 -7.528181E+00 -7.874340E+01 -3.122043E+00  5.700216E+00  2.261791E+00 -2.573472E+00
       302   2  6.318740E+00 -3.870230E+01  2.993258E+00  5.825491E+00  2.275729E+00 -1.671132E+00
       302   3 -6.546004E+00 -7.799991E+01 -1.625911E+00  1.817706E+01  1.640489E+00 -2.788098E+00
       302   4  7.072519E+00 -3.818720E+01  3.956463E+00  1.830233E+01  1.665566E+00 -1.844308E+00
       302   5 -7.822679E+00 -7.952617E+01 -3.498884E+00  4.545679E+00 -1.459445E+00 -2.169643E+00
       302   6  6.101543E+00 -3.932140E+01  2.710421E+00  4.682559E+00 -1.446118E+00 -1.428209E+00
       302   7 -6.802594E+00 -7.876885E+01 -1.994589E+00  1.715848E+01 -2.213193E+00 -2.382656E+00
       302   8  6.894947E+00 -3.879077E+01  3.685795E+00  1.729536E+01 -2.188811E+00 -1.600084E+00
       303   1 -7.060040E+00 -1.943414E+01 -2.590436E+00  8.204877E+00  2.244104E+00 -1.097534E+00
       303   2  6.843946E+00  2.072455E+01  3.597504E+00  8.010221E+00  2.261251E+00 -4.327738E-01
       303   3 -7.539399E+00 -1.954262E+01 -2.472686E+00  2.071054E+01  1.612825E+00 -1.242442E+00
       303   4  6.138350E+00  2.038983E+01  3.187368E+00  2.051588E+01  1.641392E+00 -5.419034E-01
       303   5 -7.271650E+00 -1.996148E+01 -2.828253E+00  6.865395E+00 -1.472032E+00 -9.717393E-01
       303   6  6.700656E+00  2.034007E+01  3.444551E+00  6.682636E+00 -1.455512E+00 -4.660737E-01
       303   7 -7.717231E+00 -2.005622E+01 -2.698456E+00  1.950157E+01 -2.234686E+00 -1.115559E+00
       303   8  6.030540E+00  2.002080E+01  3.050431E+00  1.931881E+01 -2.206831E+00 -5.743830E-01
       304   1 -6.408906E+00  4.012010E+01 -1.936164E+00  5.916952E+00  2.275098E+00  1.058276E-01
       304   2  7.514675E+00  8.039465E+01  4.201221E+00  5.502341E+00  2.287474E+00  9.125541E-01
       304   3 -8.014439E+00  3.930452E+01 -3.049237E+00  1.846847E+01  1.625854E+00  1.948482E-02
       304   4  5.680338E+00  7.935027E+01  2.554272E+00  1.805386E+01  1.650464E+00  8.526870E-01
       304   5 -6.564677E+00  3.980333E+01 -2.056718E+00  4.782822E+00 -1.479316E+00 -4.440335E-02
       304   6  7.412827E+00  8.018697E+01  4.151321E+00  4.380957E+00 -1.467611E+00  6.019560E-01
       304   7 -8.136185E+00  3.900328E+01 -3.152014E+00  1.745590E+01 -2.262085E+00 -1.300970E-01
       304   8  5.614235E+00  7.915984E+01  2.526163E+00  1.705403E+01 -2.238239E+00  5.425390E-01
       305   1 -5.646888E+00  1.000047E+02 -1.332684E+00 -9.854066E-01  2.306417E+00  1.721851E+00
       305   2  8.407163E+00  1.407068E+02  4.812033E+00 -1.614604E+00  2.304637E+00  3.126166E+00
       305   3 -8.367719E+00  9.848268E+01 -3.685285E+00  1.170763E+01  1.639119E+00  1.667147E+00
       305   4  5.447939E+00  1.389464E+02  1.903179E+00  1.107843E+01  1.648293E+00  3.059092E+00
       305   5 -5.820373E+00  9.978705E+01 -1.390810E+00 -1.451837E+00 -1.512845E+00  1.292198E+00
       305   6  8.227422E+00  1.404571E+02  4.765083E+00 -2.069623E+00 -1.515227E+00  2.531615E+00
       305   7 -8.514073E+00  9.827932E+01 -3.722864E+00  1.132498E+01 -2.320511E+00  1.237905E+00
       305   8  5.297120E+00  1.387128E+02  1.880959E+00  1.070719E+01 -2.312021E+00  2.465045E+00
       306   1 -8.488090E+00 -1.459027E+02 -3.044818E+00 -1.381930E+00  2.528178E+00 -5.685879E+00
       306   2  5.975655E+00 -1.037890E+02  3.053993E+00 -9.549660E-01  2.577585E+00 -4.006357E+00
       306   3 -6.117455E+00 -1.443111E+02 -1.100283E-01  1.123008E+01  2.005579E+00 -6.115018E+00
       306   4  8.088257E+00 -1.024554E+02  5.386707E+00  1.165705E+01  2.091921E+00 -4.364836E+00
       306   5 -9.008400E+00 -1.475248E+02 -3.800235E+00 -1.750619E+00 -1.488629E+00 -4.912179E+00
       306   6  5.589732E+00 -1.051198E+02  2.455166E+00 -1.282627E+00 -1.441605E+00 -3.428302E+00
       306   7 -6.513008E+00 -1.458720E+02 -7.863430E-01  1.076577E+01 -2.217544E+00 -5.347051E+00
       306   8  7.823644E+00 -1.037285E+02  4.858939E+00  1.123377E+01 -2.133093E+00 -3.791570E+00
       307   1 -8.584153E+00 -8.343258E+01 -3.121086E+00  6.027180E+00  2.576048E+00 -3.037129E+00
       307   2  6.368142E+00 -4.027680E+01  3.564117E+00  5.942671E+00  2.626803E+00 -2.068671E+00
       307   3 -8.283521E+00 -8.297776E+01 -1.905648E+00  1.889169E+01  2.094879E+00 -3.352686E+00
       307   4  6.438107E+00 -4.005265E+01  4.241335E+00  1.880718E+01  2.168829E+00 -2.337623E+00
       307   5 -8.986299E+00 -8.462747E+01 -3.664011E+00  5.048180E+00 -1.396757E+00 -2.594310E+00
       307   6  6.058537E+00 -4.127561E+01  3.133582E+00  4.989435E+00 -1.347499E+00 -1.799679E+00
       307   7 -8.593309E+00 -8.412871E+01 -2.394473E+00  1.778969E+01 -2.064980E+00 -2.914083E+00
       307   8  6.217779E+00 -4.101060E+01  3.857709E+00  1.773094E+01 -1.992217E+00 -2.072223E+00
       308   1 -8.208920E+00 -1.975436E+01 -2.502890E+00  8.134894E+00  2.556108E+00 -1.465808E+00
       308   2  6.573541E+00  2.296964E+01  4.047976E+00  7.650587E+00  2.614207E+00 -7.872120E-01
       308   3 -9.577148E+00 -2.023896E+01 -2.749990E+00  2.087992E+01  2.038986E+00 -1.704001E+00
       308   4  4.994280E+00  2.227401E+01  3.308466E+00  2.039562E+01  2.116888E+00 -9.879775E-01
       308   5 -8.512434E+00 -2.064698E+01 -2.881655E+00  6.983756E+00 -1.406230E+00 -1.318527E+00
       308   6  6.346009E+00  2.223616E+01  3.763353E+00  6.521448E+00 -1.349409E+00 -7.986261E-01
       308   7 -9.788583E+00 -2.109076E+01 -3.084759E+00  1.959818E+01 -2.095810E+00 -1.559902E+00
       308   8  4.856008E+00  2.157853E+01  3.061259E+00  1.913587E+01 -2.018921E+00 -1.002074E+00
       309   1 -7.257789E+00  4.356226E+01 -1.786002E+00  5.410215E+00  2.571471E+00 -2.636278E-01
       309   2  7.323807E+00  8.587777E+01  4.503814E+00  4.806924E+00  2.619620E+00  4.882352E-01
       309   3 -9.365903E+00  4.255487E+01 -3.035865E+00  1.806053E+01  1.999333E+00 -4.444883E-01
       309   4  5.019806E+00  8.467449E+01  2.796881E+00  1.745724E+01  2.067340E+00  3.243287E-01
       309   5 -7.501562E+00  4.289049E+01 -2.040325E+00  4.462366E+00 -1.428864E+00 -3.866258E-01
       309   6  7.120925E+00  8.528455E+01  4.307238E+00  3.881134E+00 -1.381997E+00  2.190795E-01
       309   7 -9.517205E+00  4.192134E+01 -3.255185E+00  1.696286E+01 -2.161726E+00 -5.699026E-01
       309   8  4.906778E+00  8.411689E+01  2.629201E+00  1.638162E+01 -2.094735E+00  5.298315E-02
       310   1 -6.282299E+00  1.068461E+02 -1.243542E+00 -1.439551E+00  2.578115E+00  1.211770E+00
       310   2  8.797213E+00  1.504600E+02  5.407579E+00 -2.114173E+00  2.599467E+00  2.436640E+00
       310   3 -8.958799E+00  1.054004E+02 -3.385817E+00  1.157590E+01  1.959092E+00  1.050759E+00
       310   4  5.921157E+00  1.488148E+02  2.799670E+00  1.090128E+01  1.995007E+00  2.266588E+00
       310   5 -6.579307E+00  1.062270E+02 -1.459907E+00 -1.768112E+00 -1.497674E+00  8.352384E-01
       310   6  8.498019E+00  1.498187E+02  5.206199E+00 -2.426557E+00 -1.477262E+00  1.912911E+00
       310   7 -9.183417E+00  1.048084E+02 -3.584455E+00  1.106670E+01 -2.278388E+00  6.720770E-01
       310   8  5.691686E+00  1.481978E+02  2.609796E+00  1.040826E+01 -2.243218E+00  1.740587E+00
       311   1 -9.679430E+00 -1.554877E+02 -3.124164E+00 -9.144633E-01  2.656094E+00 -6.503486E+00
       311   2  6.105490E+00 -1.096439E+02  3.648418E+00 -5.405912E-01  2.778570E+00 -4.617629E+00
       311   3 -7.301548E+00 -1.537920E+02  1.504253E-01  1.279637E+01  2.476594E+00 -7.108310E+00
       311   4  8.142013E+00 -1.082895E+02  6.126502E+00  1.317025E+01  2.654812E+00 -5.140615E+00
       311   5 -1.025879E+01 -1.576836E+02 -4.041701E+00 -1.200658E+00 -1.748263E+00 -5.601541E+00
       311   6  5.676617E+00 -1.115075E+02  2.900213E+00 -7.648669E-01 -1.628095E+00 -3.971864E+00
       311   7 -7.685733E+00 -1.558952E+02 -6.533241E-01  1.241122E+01 -2.188203E+00 -6.214447E+00
       311   8  7.903756E+00 -1.100650E+02  5.481440E+00  1.284701E+01 -2.011547E+00 -4.501840E+00
       312   1 -1.068770E+01 -8.783595E+01 -3.334888E+00  6.728026E+00  2.779266E+00 -3.533503E+00
       312   2  5.765311E+00 -4.062030E+01  4.292829E+00  6.215937E+00  2.893648E+00 -2.457474E+00
       312   3 -1.170363E+01 -8.791755E+01 -2.590984E+00  2.075986E+01  2.624803E+00 -4.007046E+00
       312   4  4.479739E+00 -4.097155E+01  4.407564E+00  2.024777E+01  2.777780E+00 -2.877773E+00
       312   5 -1.116881E+01 -8.955970E+01 -4.040772E+00  5.816899E+00 -1.537970E+00 -3.055404E+00
       312   6  5.384077E+00 -4.212588E+01  3.701708E+00  5.347682E+00 -1.425185E+00 -2.181263E+00
       312   7 -1.201982E+01 -8.956590E+01 -3.210431E+00  1.971695E+01 -1.902995E+00 -3.535275E+00
       312   8  4.259818E+00 -4.240533E+01  3.894472E+00  1.924773E+01 -1.751100E+00 -2.607178E+00
       313   1 -1.024401E+01 -1.874012E+01 -2.292468E+00  7.697826E+00  2.705389E+00 -1.811394E+00
       313   2  5.318432E+00  2.628790E+01  4.554338E+00  6.737974E+00  2.823981E+00 -1.122299E+00
       313   3 -1.313409E+01 -1.987891E+01 -3.198380E+00  2.113803E+01  2.451440E+00 -2.199121E+00
       313   4  2.220366E+00  2.494111E+01  3.163115E+00  2.017817E+01  2.607258E+00 -1.474281E+00
       313   5 -1.060741E+01 -2.013054E+01 -2.831146E+00  6.631080E+00 -1.566541E+00 -1.665998E+00
       313   6  5.023207E+00  2.504505E+01  4.095307E+00  5.712580E+00 -1.449490E+00 -1.132409E+00
       313   7 -1.332444E+01 -2.119385E+01 -3.658453E+00  1.992980E+01 -1.986877E+00 -2.058906E+00
       313   8  2.095401E+00  2.377098E+01  2.776204E+00  1.901129E+01 -1.832103E+00 -1.489095E+00
       314   1 -8.576062E+00  4.792792E+01 -1.416619E+00  3.929422E+00  2.638322E+00 -6.303148E-01
       314   2  6.289779E+00  9.133103E+01  4.733081E+00  3.026272E+00  2.738170E+00  2.471603E-02
       314   3 -1.162674E+01  4.652507E+01 -3.042130E+00  1.694619E+01  2.278045E+00 -9.629020E-01
       314   4  3.081916E+00  8.977099E+01  2.740816E+00  1.604304E+01  2.410890E+00 -2.906266E-01
       314   5 -8.891644E+00  4.674107E+01 -1.855369E+00  3.066755E+00 -1.643378E+00 -7.402109E-01
       314   6  6.009438E+00  9.021772E+01  4.338247E+00  2.200258E+00 -1.544896E+00 -2.022938E-01
       314   7 -1.179104E+01  4.540177E+01 -3.420293E+00  1.592912E+01 -2.133095E+00 -1.077242E+00
       314   8  2.950759E+00  8.871915E+01  2.401666E+00  1.506263E+01 -2.001175E+00 -5.218502E-01
       315   1 -7.063537E+00  1.132545E+02 -1.048748E+00 -2.649689E+00  2.574829E+00  6.371513E-01
       315   2  8.508538E+00  1.584275E+02  5.685236E+00 -3.313616E+00  2.628141E+00  1.655325E+00
       315   3 -9.609445E+00  1.119200E+02 -2.951352E+00  1.085222E+01  2.151730E+00  3.105753E-01
       315   4  5.841504E+00  1.569718E+02  3.500005E+00  1.018829E+01  2.239224E+00  1.280814E+00
       315   5 -7.490056E+00  1.120453E+02 -1.508894E+00 -2.933439E+00 -1.775147E+00  3.351687E-01
       315   6  8.007163E+00  1.570369E+02  5.156919E+00 -3.559396E+00 -1.723250E+00  1.265627E+00
       315   7 -9.894066E+00  1.107683E+02 -3.361528E+00  1.034249E+01 -2.301293E+00  4.228818E-03
       315   8  5.480407E+00  1.556372E+02  3.017880E+00  9.716536E+00 -2.214758E+00  8.861113E-01
       316   1 -1.302225E+01 -1.696598E+02 -4.759367E+00  9.782528E-01  2.991427E+00 -7.299490E+00
       316   2  6.135852E+00 -1.150959E+02  4.537055E+00  1.194817E+00  3.222214E+00 -5.118815E+00
       316   3 -1.102653E+01 -1.680592E+02 -1.419782E+00  1.712797E+01  3.282799E+00 -8.097815E+00
       316   4  7.683032E+00 -1.139439E+02  6.830049E+00  1.734453E+01  3.592511E+00 -5.835062E+00
       316   5 -1.355604E+01 -1.724359E+02 -5.793583E+00  8.205769E-01 -1.896213E+00 -6.319066E+00
       316   6  5.747010E+00 -1.175447E+02  3.658702E+00  1.124813E+00 -1.666867E+00 -4.472053E+00
       316   7 -1.127577E+01 -1.707034E+02 -2.298858E+00  1.683945E+01 -1.935490E+00 -7.128056E+00
       316   8  7.572744E+00 -1.162667E+02  6.092852E+00  1.714369E+01 -1.626164E+00 -5.197869E+00
       317   1 -1.429228E+01 -9.073906E+01 -3.482336E+00  8.315561E+00  3.132749E+00 -3.881450E+00
       317   2  3.894314E+00 -3.883501E+01  5.235592E+00  7.128912E+00  3.332251E+00 -2.681581E+00
       317   3 -1.750179E+01 -9.178349E+01 -3.754273E+00  2.369517E+01  3.353986E+00 -4.550782E+00
       317   4  3.783861E-01 -4.018587E+01  4.248675E+00  2.250852E+01  3.603609E+00 -3.304816E+00
       317   5 -1.478809E+01 -9.308190E+01 -4.352260E+00  7.518524E+00 -1.564224E+00 -3.440183E+00
       317   6  3.480899E+00 -4.099304E+01  4.455524E+00  6.387549E+00 -1.365637E+00 -2.468073E+00
       317   7 -1.776448E+01 -9.402200E+01 -4.509546E+00  2.274146E+01 -1.574616E+00 -4.118457E+00
       317   8  1.939937E-01 -4.224366E+01  3.573706E+00  2.161048E+01 -1.325238E+00 -3.099634E+00
       318   1 -1.353089E+01 -1.552736E+01 -1.877863E+00  6.875949E+00  2.878859E+00 -1.990530E+00
       318   2  2.629222E+00  3.136911E+01  5.092705E+00  5.418742E+00  3.079392E+00 -1.302412E+00
       318   3 -1.809577E+01 -1.743353E+01 -3.666878E+00  2.089578E+01  2.916773E+00 -2.581528E+00
       318   4 -2.134905E+00  2.926369E+01  2.838783E+00  1.943857E+01  3.173937E+00 -1.851433E+00
       318   5 -1.389916E+01 -1.756180E+01 -2.601457E+00  5.940476E+00 -1.685088E+00 -1.914675E+00
       318   6  2.334530E+00  2.950151E+01  4.447540E+00  4.546177E+00 -1.485589E+00 -1.374874E+00
       318   7 -1.820332E+01 -1.935555E+01 -4.276495E+00  1.981744E+01 -1.802569E+00 -2.513569E+00
       318   8 -2.171534E+00  2.750584E+01  2.301383E+00  1.842315E+01 -1.545682E+00 -1.931230E+00
       319   1 -1.066788E+01  5.380231E+01 -8.455689E-01  1.349547E+00  2.626923E+00 -8.486311E-01
       319   2  3.946534E+00  9.695288E+01  4.718572E+00  8.345256E-02  2.794185E+00 -2.969963E-01
       319   3 -1.493489E+01  5.184533E+01 -3.101843E+00  1.436580E+01  2.510359E+00 -1.372521E+00
       319   4 -4.301868E-01  9.488618E+01  2.206304E+00  1.309970E+01  2.717992E+00 -7.942032E-01
       319   5 -1.102409E+01  5.198929E+01 -1.489241E+00  6.321981E-01 -1.873512E+00 -1.005298E+00
       319   6  3.636781E+00  9.524559E+01  4.124032E+00 -5.890506E-01 -1.706987E+00 -5.353966E-01
       319   7 -1.509950E+01  5.011270E+01 -3.669112E+00  1.350352E+01 -2.081299E+00 -1.536187E+00
       319   8 -5.498054E-01  9.325783E+01  1.684746E+00  1.228227E+01 -1.873864E+00 -1.039246E+00
       320   1 -7.802002E+00  1.190277E+02 -8.029965E-01 -4.950596E+00  2.453142E+00  1.863522E-01
       320   2  6.957920E+00  1.625316E+02  4.892770E+00 -5.403237E+00  2.566986E+00  9.552498E-01
       320   3 -9.631441E+00  1.180241E+02 -2.318833E+00  8.160481E+00  2.245903E+00 -3.092235E-01
       320   4  5.101557E+00  1.615011E+02  3.314111E+00  7.707840E+00  2.409580E+00  4.374482E-01
       320   5 -8.248309E+00  1.172676E+02 -1.452768E+00 -5.187609E+00 -2.058529E+00 -8.911430E-02
       320   6  6.475070E+00  1.606856E+02  4.207111E+00 -5.584894E+00 -1.945595E+00  6.602505E-01
       320   7 -9.889409E+00  1.163418E+02 -2.897666E+00  7.728384E+00 -2.298656E+00 -5.913109E-01
       320   8  4.806687E+00  1.597325E+02  2.698552E+00  7.331099E+00 -2.135223E+00  1.355308E-01
       321   1 -1.623490E+00 -3.542317E+01  3.725410E-02  7.614211E+00  5.076895E-01 -3.082432E+00
       321   2 -4.302358E-02 -2.997993E+01 -1.377639E-01  8.362332E+00  2.379929E-01 -1.836764E+00
       321   3  1.253867E+00 -3.394196E+01  2.097290E+00  9.416383E+00  5.491089E-01 -2.581608E+00
       321   4  2.586666E+00 -2.874638E+01  1.344382E+00  1.016450E+01  2.791934E-01 -1.368565E+00
       321   5 -1.761268E+00 -3.392749E+01  4.482234E-01  6.654625E+00 -3.797240E-01 -2.765829E+00
       321   6 -2.351169E-01 -2.860941E+01  2.173116E-01  7.402508E+00 -6.494217E-01 -1.699577E+00
       321   7  1.089498E+00 -3.245443E+01  2.507661E+00  8.400941E+00 -5.298384E-01 -2.258464E+00
       321   8  2.364748E+00 -2.738725E+01  1.691312E+00  9.148824E+00 -7.997579E-01 -1.225264E+00
       322   1 -1.881964E+00 -2.537126E+01 -1.209136E+00  1.342870E+01  1.178187E+00 -1.177479E+00
       322   2  2.179481E+00 -1.365222E+01  6.099790E-01  1.382696E+01  9.576431E-01 -6.219457E-01
       322   3 -5.134485E-01 -2.474597E+01 -4.933454E-01  1.700134E+01  9.912390E-01 -7.753952E-01
       322   4  3.471718E+00 -1.310321E+01  1.147786E+00  1.739960E+01  7.766654E-01 -3.678667E-01
       322   5 -2.004868E+00 -2.417649E+01 -8.870136E-01  1.201943E+01  4.844535E-02 -1.126430E+00
       322   6  1.815181E+00 -1.302023E+01  6.902185E-01  1.242417E+01 -1.720695E-01 -6.268145E-01
       322   7 -6.313372E-01 -2.354854E+01 -1.673857E-01  1.539802E+01 -2.127842E-01 -7.190957E-01
       322   8  3.111437E+00 -1.246955E+01  1.229539E+00  1.580275E+01 -4.272512E-01 -3.694175E-01
       323   1 -1.901466E+00 -7.712381E+00 -9.966775E-01  1.467670E+01  1.375720E+00 -2.525458E-01
       323   2  2.677406E+00  5.277820E+00  1.276029E+00  1.470756E+01  1.252512E+00  2.011403E-01
       323   3 -1.872603E+00 -7.741121E+00 -1.121342E+00  1.860099E+01  1.130304E+00 -9.516738E-02
       323   4  2.608958E+00  5.151768E+00  9.243041E-01  1.863186E+01  1.046056E+00  2.423326E-01
       323   5 -2.077214E+00 -7.299712E+00 -9.261974E-01  1.327494E+01  2.145496E-01 -3.038656E-01
       323   6  2.311979E+00  5.248524E+00  1.156210E+00  1.334811E+01  9.152855E-02  7.883127E-02
       323   7 -1.914231E+00 -7.271510E+00 -9.951712E-01  1.703247E+01 -1.178350E-01 -1.444320E-01
       323   8  2.376380E+00  5.178145E+00  8.572102E-01  1.710563E+01 -2.013878E-01  1.205615E-01
       324   1 -2.392480E+00  1.152253E+01 -7.510050E-01  1.184037E+01  1.281009E+00  5.466674E-01
       324   2  2.476774E+00  2.557863E+01  1.423749E+00  1.157632E+01  1.327566E+00  1.036979E+00
       324   3 -3.444902E+00  1.096288E+01 -1.564079E+00  1.612648E+01  9.702104E-01  4.785286E-01
       324   4  1.464798E+00  2.505942E+01  7.050483E-01  1.586243E+01  1.066752E+00  7.863281E-01
       324   5 -2.337339E+00  1.133428E+01 -7.925129E-01  1.069790E+01 -7.334019E-02  4.087704E-01
       324   6  2.234880E+00  2.469703E+01  1.085464E+00  1.048811E+01 -2.654457E-02  9.274842E-01
       324   7 -3.206179E+00  1.085189E+01 -1.531637E+00  1.474624E+01 -3.765709E-01  3.397418E-01
       324   8  1.407014E+00  2.425562E+01  4.419453E-01  1.453646E+01 -2.791376E-01  6.735601E-01
       325   1 -5.523177E-01  3.101299E+01 -2.239035E-01  6.993856E+00  3.935135E-01  1.632456E+00
       325   2  1.621056E+00  3.836883E+01 -3.351603E-01  6.393156E+00  6.081117E-01  2.769017E+00
       325   3 -2.689884E+00  2.999645E+01 -1.474813E+00  9.411727E+00  3.868099E-01  1.283768E+00
       325   4 -6.284031E-01  3.724039E+01 -1.847152E+00  8.811027E+00  6.184352E-01  2.334999E+00
       325   5 -3.606610E-01  3.001302E+01 -4.678526E-01  6.341300E+00 -7.566282E-01  1.503564E+00
       325   6  1.673214E+00  3.704408E+01 -7.193208E-01  5.759085E+00 -5.419486E-01  2.558730E+00
       325   7 -2.415640E+00  2.903057E+01 -1.687739E+00  8.642674E+00 -8.593089E-01  1.150323E+00
       325   8 -4.951183E-01  3.594826E+01 -2.203699E+00  8.060459E+00 -6.273799E-01  2.119044E+00
       326   1 -2.502870E+00 -4.570405E+01 -1.926480E+00  5.913691E+00  5.462637E-01 -4.425988E+00
       326   2  1.522025E+00 -3.399858E+01 -2.156315E-01  6.268075E+00  2.965178E-01 -2.600343E+00
       326   3 -6.003975E-01 -4.446292E+01  3.081280E-01  9.497053E+00  8.086298E-01 -3.894642E+00
       326   4  3.152595E+00 -3.302935E+01  1.384537E+00  9.851436E+00  6.366177E-01 -2.125555E+00
       326   5 -2.522547E+00 -4.405259E+01 -1.401559E+00  4.466690E+00 -6.909019E-01 -3.872120E+00
       326   6  1.402792E+00 -3.256948E+01  1.998002E-01  4.905469E+00 -9.385180E-01 -2.244826E+00
       326   7 -3.531948E-01 -4.269152E+01  9.659604E-01  7.947301E+00 -6.480036E-01 -3.333835E+00
       326   8  3.296691E+00 -3.148387E+01  1.924595E+00  8.386079E+00 -8.168707E-01 -1.763838E+00
       327   1 -1.264786E+00 -2.743283E+01 -1.344670E+00  1.359985E+01  8.059460E-01 -1.648593E+00
       327   2  3.344310E+00 -1.423703E+01  8.231913E-01  1.355083E+01  6.059639E-01 -8.740102E-01
       327   3 -1.110823E+00 -2.718738E+01 -6.804640E-01  1.760596E+01  8.381538E-01 -1.251454E+00
       327   4  3.335388E+00 -1.415447E+01  1.107330E+00  1.755694E+01  6.975242E-01 -6.324553E-01
       327   5 -1.305031E+00 -2.621324E+01 -9.759516E-01  1.161297E+01 -4.816250E-01 -1.410392E+00
       327   6  3.046228E+00 -1.361312E+01  9.281213E-01  1.162838E+01 -6.799809E-01 -7.579682E-01
       327   7 -9.371680E-01 -2.587377E+01 -2.122620E-01  1.541185E+01 -5.899211E-01 -1.008067E+00
       327   8  3.249077E+00 -1.343866E+01  1.306780E+00  1.542727E+01 -7.281494E-01 -5.132587E-01
       328   1 -1.961606E+00 -7.837633E+00 -1.218476E+00  1.483692E+01  8.954920E-01 -3.480121E-01
       328   2  3.255165E+00  6.873729E+00  1.459396E+00  1.477125E+01  8.311529E-01  3.144585E-01
       328   3 -2.139184E+00 -7.892650E+00 -1.224288E+00  1.926661E+01  8.876667E-01 -2.243686E-01
       328   4  2.928263E+00  6.669390E+00  1.105165E+00  1.920094E+01  8.442545E-01  2.715461E-01
       328   5 -1.978622E+00 -7.460808E+00 -1.108780E+00  1.296082E+01 -4.349969E-01 -3.179135E-01
       328   6  2.962814E+00  6.613562E+00  1.288302E+00  1.291786E+01 -4.987627E-01  2.319146E-01
       328   7 -2.079710E+00 -7.482768E+00 -1.080893E+00  1.716685E+01 -5.714649E-01 -1.926553E-01
       328   8  2.710453E+00  6.440330E+00  9.632199E-01  1.712389E+01 -6.140305E-01  1.884417E-01
       329   1 -2.760442E+00  1.335365E+01 -8.686160E-01  1.243786E+01  7.277726E-01  8.387487E-01
       329   2  2.292730E+00  2.779073E+01  1.538216E+00  1.243005E+01  8.375580E-01  1.608665E+00
       329   3 -2.990717E+00  1.313795E+01 -1.357363E+00  1.681590E+01  7.666636E-01  6.672846E-01
       329   4  1.959440E+00  2.747201E+01  8.091014E-01  1.680810E+01  8.480620E-01  1.252548E+00
       329   5 -2.660350E+00  1.286147E+01 -9.959704E-01  1.065978E+01 -6.567095E-01  6.858314E-01
       329   6  2.089282E+00  2.659404E+01  1.103560E+00  1.062116E+01 -5.477019E-01  1.376127E+00
       329   7 -2.992326E+00  1.260064E+01 -1.533398E+00  1.479674E+01 -7.157192E-01  5.121282E-01
       329   8  1.652947E+00  2.622886E+01  3.226260E-01  1.475811E+01 -6.354693E-01  1.015359E+00
       330   1 -1.696175E+00  3.457933E+01 -9.826088E-02  5.338756E+00  3.668439E-01  2.527794E+00
       330   2  2.707482E+00  4.741250E+01  1.747419E+00  5.045175E+00  5.877452E-01  4.268982E+00
       330   3 -3.074885E+00  3.374850E+01 -1.488986E+00  9.271537E+00  6.831231E-01  2.079178E+00
       330   4  1.125452E+00  4.637835E+01 -1.177183E-01  8.977956E+00  8.402187E-01  3.752311E+00
       330   5 -1.639185E+00  3.320558E+01 -5.132312E-01  4.112676E+00 -9.843415E-01  2.211565E+00
       330   6  2.648070E+00  4.577458E+01  1.208619E+00  3.749822E+00 -7.651884E-01  3.803726E+00
       330   7 -3.234339E+00  3.227885E+01 -2.007164E+00  7.926704E+00 -8.380211E-01  1.757090E+00
       330   8  8.469411E-01  4.464188E+01 -7.659208E-01  7.563849E+00 -6.835069E-01  3.280308E+00
       331   1 -3.308499E+00 -5.303699E+01 -2.252998E+00  4.920088E+00  7.093538E-01 -4.308324E+00
       331   2  1.831570E+00 -3.815127E+01 -5.149365E-03  5.277932E+00  5.862169E-01 -2.558517E+00
       331   3 -1.479063E+00 -5.187536E+01 -2.103354E-01  9.466907E+00  1.035546E+00 -3.937879E+00
       331   4  3.494721E+00 -3.715593E+01  1.649515E+00  9.824750E+00  9.678106E-01 -2.243185E+00
       331   5 -3.160844E+00 -5.180571E+01 -1.782030E+00  3.382107E+00 -8.778810E-01 -3.811529E+00
       331   6  1.881154E+00 -3.713774E+01  3.566578E-01  3.800100E+00 -9.982469E-01 -2.184835E+00
       331   7 -1.143938E+00 -5.055880E+01  3.574124E-01  7.815202E+00 -6.993907E-01 -3.436247E+00
       331   8  3.729604E+00 -3.605929E+01  2.103036E+00  8.233195E+00 -7.636314E-01 -1.865386E+00
       332   1 -2.440544E+00 -3.061646E+01 -1.737171E+00  1.325300E+01  6.428270E-01 -1.634155E+00
       332   2  2.861948E+00 -1.543918E+01  7.605209E-01  1.332007E+01  5.442220E-01 -8.585587E-01
       332   3 -1.852095E+00 -3.015316E+01 -7.812844E-01  1.786007E+01  9.313866E-01 -1.376591E+00
       332   4  3.275037E+00 -1.515124E+01  1.307235E+00  1.792714E+01  8.750279E-01 -7.037044E-01
       332   5 -2.358542E+00 -2.977180E+01 -1.427142E+00  1.097480E+01 -8.897810E-01 -1.353874E+00
       332   6  2.767911E+00 -1.499358E+01  8.828166E-01  1.108773E+01 -9.862729E-01 -7.103392E-01
       332   7 -1.620230E+00 -2.924152E+01 -3.978392E-01  1.541977E+01 -7.521229E-01 -1.092946E+00
       332   8  3.328574E+00 -1.464095E+01  1.497603E+00  1.553270E+01 -8.058168E-01 -5.534627E-01
       333   1 -2.300265E+00 -8.016600E+00 -1.259761E+00  1.529320E+01  6.729214E-01 -3.299616E-01
       333   2  3.239710E+00  7.776092E+00  1.414131E+00  1.523134E+01  6.412846E-01  3.385962E-01
       333   3 -2.430240E+00 -8.031125E+00 -1.178204E+00  2.007659E+01  9.302514E-01 -2.576397E-01
       333   4  2.951736E+00  7.603567E+00  1.127024E+00  2.001473E+01  9.094252E-01  2.881450E-01
       333   5 -2.279635E+00 -7.781357E+00 -1.176752E+00  1.306576E+01 -8.826570E-01 -2.741861E-01
       333   6  3.052496E+00  7.536902E+00  1.278760E+00  1.301564E+01 -9.137531E-01  2.738719E-01
       333   7 -2.368228E+00 -7.777610E+00 -1.075667E+00  1.766472E+01 -7.626518E-01 -2.009198E-01
       333   8  2.803841E+00  7.380587E+00  1.006366E+00  1.761459E+01 -7.827962E-01  2.227618E-01
       334   1 -2.325854E+00  1.520970E+01 -7.616181E-01  1.277829E+01  5.867506E-01  8.677719E-01
       334   2  3.198722E+00  3.098455E+01  1.878784E+00  1.263363E+01  6.423469E-01  1.644949E+00
       334   3 -2.997461E+00  1.480805E+01 -1.428849E+00  1.756054E+01  8.976375E-01  7.296735E-01
       334   4  2.375716E+00  3.043150E+01  8.582898E-01  1.741589E+01  9.267068E-01  1.390167E+00
       334   5 -2.342804E+00  1.476836E+01 -9.163726E-01  1.061304E+01 -9.800152E-01  7.166957E-01
       334   6  2.984176E+00  3.009225E+01  1.516336E+00  1.043958E+01 -9.257457E-01  1.378455E+00
       334   7 -3.103767E+00  1.432693E+01 -1.626853E+00  1.521696E+01 -8.026121E-01  5.767939E-01
       334   8  2.069837E+00  2.949744E+01  4.479792E-01  1.504351E+01 -7.752160E-01  1.120346E+00
       335   1 -1.810849E+00  3.852359E+01 -1.571306E-01  4.828114E+00  6.149651E-01  2.549406E+00
       335   2  3.473929E+00  5.384396E+01  2.138428E+00  4.481998E+00  7.286422E-01  4.243250E+00
       335   3 -3.394986E+00  3.758537E+01 -1.700384E+00  9.510206E+00  9.772538E-01  2.230700E+00
       335   4  1.759258E+00  5.277521E+01  2.905947E-01  9.164090E+00  1.042096E+00  3.866584E+00
       335   5 -1.898893E+00  3.748427E+01 -5.346819E-01  3.412650E+00 -1.012239E+00  2.205023E+00
       335   6  3.284965E+00  5.257786E+01  1.651251E+00  3.013513E+00 -9.010049E-01  3.801488E+00
       335   7 -3.645309E+00  3.647311E+01 -2.158771E+00  7.976427E+00 -7.715914E-01  1.882155E+00
       335   8  1.406311E+00  5.143447E+01 -2.813946E-01  7.577291E+00 -7.098301E-01  3.419903E+00
       336   1 -3.955592E+00 -6.009042E+01 -2.541507E+00  4.378762E+00  7.470132E-01 -3.913916E+00
       336   2  2.003551E+00 -4.289216E+01  1.240396E-01  4.791836E+00  7.117335E-01 -2.276406E+00
       336   3 -1.866142E+00 -5.877767E+01 -2.551109E-01  9.661943E+00  1.115727E+00 -3.669705E+00
       336   4  3.907404E+00 -4.176500E+01  1.977374E+00  1.007502E+01  1.104285E+00 -2.087439E+00
       336   5 -3.732802E+00 -5.923206E+01 -2.137186E+00  2.813191E+00 -1.071381E+00 -3.384613E+00
       336   6  2.127144E+00 -4.224962E+01  4.135274E-01  3.251428E+00 -1.105155E+00 -1.881201E+00
       336   7 -1.555049E+00 -5.788464E+01  1.764585E-01  8.081684E+00 -8.057112E-01 -3.142263E+00
       336   8  4.120713E+00 -4.108638E+01  2.297409E+00  8.519921E+00 -8.158288E-01 -1.693674E+00
       337   1 -3.300550E+00 -3.443118E+01 -2.023780E+00  1.290573E+01  6.328411E-01 -1.428614E+00
       337   2  2.721934E+00 -1.716818E+01  7.881659E-01  1.307132E+01  6.056526E-01 -7.499119E-01
       337   3 -2.345867E+00 -3.378784E+01 -8.340065E-01  1.818957E+01  9.927916E-01 -1.281697E+00
       337   4  3.493917E+00 -1.670754E+01  1.551638E+00  1.835516E+01  9.862277E-01 -6.626342E-01
       337   5 -3.171886E+00 -3.391815E+01 -1.786388E+00  1.047564E+01 -1.138378E+00 -1.130931E+00
       337   6  2.744625E+00 -1.688703E+01  9.041922E-01  1.066300E+01 -1.164264E+00 -5.845657E-01
       337   7 -2.143955E+00 -3.324521E+01 -5.711702E-01  1.574040E+01 -8.802205E-01 -9.851333E-01
       337   8  3.591247E+00 -1.639540E+01  1.696357E+00  1.592776E+01 -8.856383E-01 -4.979529E-01
       338   1 -2.791052E+00 -8.718847E+00 -1.396228E+00  1.535222E+01  6.282884E-01 -2.832714E-01
       338   2  3.312433E+00  8.754043E+00  1.475836E+00  1.531405E+01  6.146484E-01  3.129123E-01
       338   3 -2.822790E+00 -8.678808E+00 -1.231028E+00  2.069665E+01  9.856697E-01 -2.449388E-01
       338   4  3.099334E+00  8.612720E+00  1.217859E+00  2.065847E+01  9.768074E-01  2.771634E-01
       338   5 -2.764170E+00 -8.588329E+00 -1.338727E+00  1.290190E+01 -1.149413E+00 -2.147914E-01
       338   6  3.210560E+00  8.599408E+00  1.389301E+00  1.286877E+01 -1.162752E+00  2.490857E-01
       338   7 -2.780865E+00 -8.542252E+00 -1.168443E+00  1.821327E+01 -8.934093E-01 -1.767509E-01
       338   8  3.013885E+00  8.465505E+00  1.139633E+00  1.818014E+01 -9.020062E-01  2.136091E-01
       339   1 -2.411616E+00  1.718968E+01 -7.890196E-01  1.284696E+01  6.211557E-01  7.797383E-01
       339   2  3.706590E+00  3.470343E+01  2.091254E+00  1.263220E+01  6.310011E-01  1.458947E+00
       339   3 -3.335323E+00  1.666977E+01 -1.598344E+00  1.820367E+01  9.934517E-01  6.925460E-01
       339   4  2.610250E+00  3.401089E+01  8.791205E-01  1.798891E+01  9.892726E-01  1.305290E+00
       339   5 -2.483936E+00  1.688789E+01 -9.250268E-01  1.046597E+01 -1.160574E+00  6.214809E-01
       339   6  3.518125E+00  3.414517E+01  1.824559E+00  1.023641E+01 -1.151615E+00  1.175007E+00
       339   7 -3.460500E+00  1.634627E+01 -1.753854E+00  1.579733E+01 -8.837431E-01  5.349527E-01
       339   8  2.370243E+00  3.343224E+01  5.959901E-01  1.556777E+01 -8.887016E-01  1.022520E+00
       340   1 -1.962315E+00  4.311780E+01 -2.029934E-01  4.624980E+00  7.168371E-01  2.298184E+00
       340   2  4.033123E+00  6.042171E+01  2.477894E+00  4.212635E+00  7.515058E-01  3.911813E+00
       340   3 -3.835802E+00  4.201964E+01 -1.990046E+00  9.940760E+00  1.102112E+00  2.099637E+00
       340   4  1.985369E+00  5.914928E+01  2.842174E-01  9.528415E+00  1.114490E+00  3.657088E+00
       340   5 -2.101602E+00  4.244065E+01 -5.045094E-01  3.109320E+00 -1.107493E+00  1.922054E+00
       340   6  3.793877E+00  5.952600E+01  2.061738E+00  2.673447E+00 -1.074233E+00  3.409499E+00
       340   7 -4.059582E+00  4.130853E+01 -2.320277E+00  8.409728E+00 -8.182562E-01  1.725019E+00
       340   8  1.662956E+00  5.822094E+01 -1.575562E-01  7.973855E+00 -8.071160E-01  3.156715E+00
       341   1 -4.502700E+00 -6.770352E+01 -2.735308E+00  3.979463E+00  8.812060E-01 -3.517224E+00
       341   2  2.236633E+00 -4.823911E+01  2.647226E-01  4.444066E+00  8.853032E-01 -2.001615E+00
       341   3 -2.177751E+00 -6.625216E+01 -2.223742E-01  9.961151E+00  1.211258E+00 -3.379069E+00
       341   4  4.355313E+00 -4.699402E+01  2.296364E+00  1.042575E+01  1.226934E+00 -1.900661E+00
       341   5 -4.306820E+00 -6.718017E+01 -2.450549E+00  2.425644E+00 -1.119539E+00 -2.950039E+00
       341   6  2.363299E+00 -4.786351E+01  4.665196E-01  2.902468E+00 -1.114863E+00 -1.581443E+00
       341   7 -1.935678E+00 -6.571247E+01  7.062938E-02  8.416048E+00 -9.070219E-01 -2.812936E+00
       341   8  4.529743E+00 -4.660051E+01  2.510072E+00  8.892871E+00 -8.908559E-01 -1.481258E+00
       342   1 -3.910366E+00 -3.873790E+01 -2.241321E+00  1.259204E+01  7.615827E-01 -1.230799E+00
       342   2  2.881548E+00 -1.924801E+01  9.085051E-01  1.280950E+01  7.680002E-01 -6.404973E-01
       342   3 -2.752100E+00 -3.798852E+01 -9.016631E-01  1.856099E+01  1.097239E+00 -1.154966E+00
       342   4  3.843930E+00 -1.869452E+01  1.791103E+00  1.877845E+01  1.111411E+00 -5.960966E-01
       342   5 -3.781749E+00 -3.844143E+01 -2.075433E+00  1.014713E+01 -1.188965E+00 -9.154671E-01
       342   6  2.950604E+00 -1.907746E+01  1.001776E+00  1.037278E+01 -1.182160E+00 -4.645822E-01
       342   7 -2.594221E+00 -3.768144E+01 -7.296582E-01  1.613046E+01 -9.641631E-01 -8.402118E-01
       342   8  3.943741E+00 -1.851186E+01  1.893973E+00  1.635611E+01 -9.496623E-01 -4.205198E-01
       343   1 -3.289873E+00 -9.736957E+00 -1.563099E+00  1.520678E+01  7.587178E-01 -2.376067E-01
       343   2  3.521414E+00  9.813778E+00  1.590455E+00  1.518905E+01  7.531777E-01  2.728097E-01
       343   3 -3.244664E+00 -9.658411E+00 -1.346488E+00  2.119522E+01  1.097871E+00 -2.180950E-01
       343   4  3.371060E+00  9.696761E+00  1.350753E+00  2.117749E+01  1.093837E+00  2.557559E-01
       343   5 -3.270254E+00 -9.666745E+00 -1.527177E+00  1.270090E+01 -1.198710E+00 -1.637629E-01
       343   6  3.473361E+00  9.739123E+00  1.545670E+00  1.268476E+01 -1.204175E+00  2.072060E-01
       343   7 -3.221010E+00 -9.586921E+00 -1.310340E+00  1.869874E+01 -9.703411E-01 -1.443998E-01
       343   8  3.328532E+00  9.624874E+00  1.309671E+00  1.868260E+01 -9.743110E-01  1.902821E-01
       344   1 -2.744797E+00  1.931062E+01 -9.168321E-01  1.273914E+01  7.732604E-01  6.759398E-01
       344   2  4.081710E+00  3.888750E+01  2.261321E+00  1.249991E+01  7.604143E-01  1.266896E+00
       344   3 -3.766194E+00  1.873905E+01 -1.800671E+00  1.873271E+01  1.113378E+00  6.326967E-01
       344   4  2.867414E+00  3.812302E+01  9.273815E-01  1.849348E+01  1.094222E+00  1.188667E+00
       344   5 -2.830281E+00  1.913688E+01 -1.014894E+00  1.031198E+01 -1.179552E+00  5.089681E-01
       344   6  3.931190E+00  3.857486E+01  2.085365E+00  1.006609E+01 -1.192714E+00  9.624288E-01
       344   7 -3.878021E+00  1.855504E+01 -1.906624E+00  1.631658E+01 -9.484326E-01  4.660544E-01
       344   8  2.692019E+00  3.780159E+01  7.469625E-01  1.607068E+01 -9.678561E-01  8.847965E-01
       345   1 -2.214346E+00  4.834971E+01 -3.028501E-01  4.404054E+00  8.839228E-01  2.036179E+00
       345   2  4.524200E+00  6.780962E+01  2.699065E+00  3.940434E+00  8.809152E-01  3.546946E+00
       345   3 -4.312525E+00  4.712327E+01 -2.292813E+00  1.038399E+01  1.223665E+00  1.931357E+00
       345   4  2.221302E+00  6.637846E+01  2.314230E-01  9.920373E+00  1.207915E+00  3.404451E+00
       345   5 -2.342623E+00  4.796225E+01 -5.071928E-01  2.869639E+00 -1.114342E+00  1.627966E+00
       345   6  4.326041E+00  6.727274E+01  2.411195E+00  2.392569E+00 -1.117987E+00  2.992785E+00
       345   7 -4.492748E+00  4.671603E+01 -2.511110E+00  8.857810E+00 -8.912775E-01  1.523942E+00
       345   8  1.972756E+00  6.582337E+01 -6.676215E-02  8.380740E+00 -9.075674E-01  2.851376E+00
       346   1 -4.998857E+00 -7.586544E+01 -2.887483E+00  3.575008E+00  1.021907E+00 -3.203182E+00
       346   2  2.545461E+00 -5.403421E+01  4.290082E-01  4.074318E+00  1.044525E+00 -1.782476E+00
       346   3 -2.506021E+00 -7.431145E+01 -2.003453E-01  1.029087E+01  1.304980E+00 -3.132189E+00
       346   4  4.817034E+00 -5.270148E+01  2.599867E+00  1.079018E+01  1.331432E+00 -1.735245E+00
       346   5 -4.836934E+00 -7.556407E+01 -2.694292E+00  2.057861E+00 -1.185736E+00 -2.602515E+00
       346   6  2.661619E+00 -5.382876E+01  5.655803E-01  2.561217E+00 -1.162977E+00 -1.338388E+00
       346   7 -2.324543E+00 -7.400540E+01 -1.110522E-02  8.801520E+00 -1.030764E+00 -2.532062E+00
       346   8  4.954433E+00 -5.248967E+01  2.736421E+00  9.304876E+00 -1.004201E+00 -1.291517E+00
       347   1 -4.424663E+00 -4.340891E+01 -2.439287E+00  1.222105E+01  9.133496E-01 -1.072775E+00
       347   2  3.181259E+00 -2.155714E+01  1.062027E+00  1.246725E+01  9.323557E-01 -5.545418E-01
       347   3 -3.143214E+00 -4.259039E+01 -9.923384E-01  1.891760E+01  1.199807E+00 -1.038656E+00
       347   4  4.254287E+00 -2.094705E+01  2.022659E+00  1.916380E+01  1.221320E+00 -5.324848E-01
       347   5 -4.316814E+00 -4.324987E+01 -2.329162E+00  9.811586E+00 -1.232355E+00 -7.398458E-01
       347   6  3.262340E+00 -2.145035E+01  1.135158E+00  1.006043E+01 -1.213257E+00 -3.687240E-01
       347   7 -3.023962E+00 -4.242852E+01 -8.841662E-01  1.654749E+01 -1.065507E+00 -7.059866E-01
       347   8  4.348359E+00 -2.083582E+01  2.097544E+00  1.679633E+01 -1.043921E+00 -3.468351E-01
       348   1 -3.762754E+00 -1.092033E+01 -1.743251E+00  1.490784E+01  9.185285E-01 -2.040692E-01
       348   2  3.839107E+00  1.093646E+01  1.739496E+00  1.490267E+01  9.154615E-01  2.352063E-01
       348   3 -3.669537E+00 -1.081739E+01 -1.493353E+00  2.160866E+01  1.209417E+00 -1.915604E-01
       348   4  3.723619E+00  1.083069E+01  1.502416E+00  2.160350E+01  1.206198E+00  2.336911E-01
       348   5 -3.748997E+00 -1.087439E+01 -1.718312E+00  1.242169E+01 -1.234344E+00 -1.260442E-01
       348   6  3.822980E+00  1.092291E+01  1.724311E+00  1.241636E+01 -1.237417E+00  1.658475E-01
       348   7 -3.657283E+00 -1.077258E+01 -1.470658E+00  1.915993E+01 -1.063271E+00 -1.136308E-01
       348   8  3.707579E+00  1.081761E+01  1.488698E+00  1.915460E+01 -1.066495E+00  1.643439E-01
       349   1 -3.140541E+00  2.156555E+01 -1.078920E+00  1.246091E+01  9.339307E-01  5.861536E-01
       349   2  4.476050E+00  4.344247E+01  2.432794E+00  1.220967E+01  9.106855E-01  1.105684E+00
       349   3 -4.218346E+00  2.096013E+01 -2.019166E+00  1.916427E+01  1.222259E+00  5.744143E-01
       349   4  3.189927E+00  4.262874E+01  1.006472E+00  1.891304E+01  1.195382E+00  1.080036E+00
       349   5 -3.219075E+00  2.149121E+01 -1.140799E+00  1.005438E+01 -1.211842E+00  4.090036E-01
       349   6  4.367829E+00  4.330908E+01  2.331007E+00  9.799315E+00 -1.235221E+00  7.814267E-01
       349   7 -4.314026E+00  2.087953E+01 -2.084750E+00  1.679530E+01 -1.043068E+00  3.973538E-01
       349   8  3.066146E+00  4.249068E+01  9.046841E-01  1.654023E+01 -1.070052E+00  7.559741E-01
       350   1 -2.542587E+00  5.404750E+01 -4.536260E-01  4.080717E+00  1.042716E+00  1.817762E+00
       350   2  4.994573E+00  7.585648E+01  2.861254E+00  3.584144E+00  1.018755E+00  3.243666E+00
       350   3 -4.793814E+00  5.272997E+01 -2.594159E+00  1.078949E+01  1.330232E+00  1.778264E+00
       350   4  2.520511E+00  7.431612E+01  2.007746E-01  1.029291E+01  1.299956E+00  3.180235E+00
       350   5 -2.651119E+00  5.386888E+01 -5.791385E-01  2.565816E+00 -1.162266E+00  1.381941E+00
       350   6  4.839949E+00  7.558125E+01  2.678717E+00  2.062576E+00 -1.186459E+00  2.650153E+00
       350   7 -4.932290E+00  5.254121E+01 -2.723547E+00  9.302156E+00 -1.003876E+00  1.342743E+00
       350   8  2.337641E+00  7.403244E+01  1.832311E-02  8.798916E+00 -1.034336E+00  2.587206E+00
       351   1 -5.475839E+00 -8.443863E+01 -3.018316E+00  3.151597E+00  1.178850E+00 -2.985691E+00
       351   2  2.901654E+00 -6.014597E+01  6.140069E-01  3.673552E+00  1.207390E+00 -1.635254E+00
       351   3 -2.876282E+00 -8.282049E+01 -2.240979E-01  1.063285E+01  1.393720E+00 -2.953809E+00
       351   4  5.272390E+00 -5.875666E+01  2.874309E+00  1.115480E+01  1.422586E+00 -1.616358E+00
       351   5 -5.345497E+00 -8.427472E+01 -2.893957E+00  1.669691E+00 -1.253083E+00 -2.364219E+00
       351   6  3.006033E+00 -6.003544E+01  7.052024E-01  2.191991E+00 -1.224535E+00 -1.175113E+00
       351   7 -2.738335E+00 -8.265717E+01 -1.092781E-01  9.195378E+00 -1.171606E+00 -2.332580E+00
       351   8  5.386116E+00 -5.864497E+01  2.960033E+00  9.717677E+00 -1.142735E+00 -1.156362E+00
       352   1 -4.903111E+00 -4.833709E+01 -2.628031E+00  1.179972E+01  1.075352E+00 -9.691413E-01
       352   2  3.552488E+00 -2.401464E+01  1.234850E+00  1.206186E+01  1.098194E+00 -4.997255E-01
       352   3 -3.550437E+00 -4.747732E+01 -1.114830E+00  1.925826E+01  1.288901E+00 -9.552485E-01
       352   4  4.688210E+00 -2.337183E+01  2.241832E+00  1.952040E+01  1.311776E+00 -4.865128E-01
       352   5 -4.810115E+00 -4.824872E+01 -2.553575E+00  9.439704E+00 -1.280302E+00 -6.239390E-01
       352   6  3.639287E+00 -2.393391E+01  1.296283E+00  9.701887E+00 -1.257460E+00 -3.072104E-01
       352   7 -3.454435E+00 -4.738980E+01 -1.046196E+00  1.695481E+01 -1.192250E+00 -6.101520E-01
       352   8  4.779668E+00 -2.329029E+01  2.301298E+00  1.721700E+01 -1.169374E+00 -2.940984E-01
       353   1 -4.216276E+00 -1.219437E+01 -1.927693E+00  1.451644E+01  1.088312E+00 -1.851404E-01
       353   2  4.227431E+00  1.211559E+01  1.908039E+00  1.451787E+01  1.084819E+00  2.049062E-01
       353   3 -4.097529E+00 -1.207832E+01 -1.659588E+00  2.197470E+01  1.304928E+00 -1.725268E-01
       353   4  4.128486E+00  1.201395E+01  1.668195E+00  2.197613E+01  1.300388E+00  2.165632E-01
       353   5 -4.205951E+00 -1.215037E+01 -1.906729E+00  1.207309E+01 -1.275061E+00 -1.045934E-01
       353   6  4.231105E+00  1.215092E+01  1.915500E+00  1.207342E+01 -1.278578E+00  1.322380E-01
       353   7 -4.091698E+00 -1.203673E+01 -1.642204E+00  1.958764E+01 -1.184406E+00 -9.207587E-02
       353   8  4.129323E+00  1.204852E+01  1.675945E+00  1.958797E+01 -1.188962E+00  1.438062E-01
       354   1 -3.554112E+00  2.393484E+01 -1.258842E+00  1.208084E+01  1.099469E+00  5.201307E-01
       354   2  4.907667E+00  4.827213E+01  2.609801E+00  1.182210E+01  1.070146E+00  9.912934E-01
       354   3 -4.668629E+00  2.330683E+01 -2.237690E+00  1.954345E+01  1.313615E+00  5.307739E-01
       354   4  3.575152E+00  4.742612E+01  1.122291E+00  1.928471E+01  1.281755E+00  1.000124E+00
       354   5 -3.625853E+00  2.393264E+01 -1.291787E+00  9.716129E+00 -1.256536E+00  3.352150E-01
       354   6  4.827910E+00  4.825809E+01  2.561980E+00  9.454709E+00 -1.285919E+00  6.529272E-01
       354   7 -4.753779E+00  2.330003E+01 -2.272564E+00  1.723421E+01 -1.168538E+00  3.457772E-01
       354   8  3.483647E+00  4.740914E+01  1.076416E+00  1.697279E+01 -1.200439E+00  6.616902E-01
       355   1 -2.910784E+00  6.007692E+01 -6.369337E-01  3.695580E+00  1.207564E+00  1.661808E+00
       355   2  5.463777E+00  8.436098E+01  2.994213E+00  3.177038E+00  1.173141E+00  3.022527E+00
       355   3 -5.262609E+00  5.870010E+01 -2.874511E+00  1.117417E+01  1.424106E+00  1.665174E+00
       355   4  2.880690E+00  8.275290E+01  2.170226E-01  1.065563E+01  1.386165E+00  3.012777E+00
       355   5 -3.000596E+00  6.003988E+01 -7.014000E-01  2.207427E+00 -1.223862E+00  1.207594E+00
       355   6  5.347740E+00  8.427002E+01  2.896244E+00  1.685173E+00 -1.258369E+00  2.405261E+00
       355   7 -5.372911E+00  5.865709E+01 -2.938392E+00  9.730302E+00 -1.142221E+00  1.210935E+00
       355   8  2.745924E+00  8.265773E+01  1.237497E-01  9.208048E+00 -1.180218E+00  2.395585E+00
       356   1 -5.936339E+00 -9.325546E+01 -3.139136E+00  2.714522E+00  1.347453E+00 -2.847640E+00
       356   2  3.294261E+00 -6.644120E+01  8.152710E-01  3.248722E+00  1.376232E+00 -1.547248E+00
       356   3 -3.280865E+00 -9.160444E+01 -2.911940E-01  1.098009E+01  1.473457E+00 -2.838705E+00
       356   4  5.717729E+00 -6.502218E+01  3.121865E+00  1.151429E+01  1.501257E+00 -1.542625E+00
       356   5 -5.830556E+00 -9.317784E+01 -3.067923E+00  1.262005E+00 -1.316930E+00 -2.215834E+00
       356   6  3.390802E+00 -6.638193E+01  8.740232E-01  1.795171E+00 -1.288161E+00 -1.078752E+00
       356   7 -3.171857E+00 -9.152934E+01 -2.316243E-01  9.586712E+00 -1.326354E+00 -2.206968E+00
       356   8  5.819263E+00 -6.496367E+01  3.173098E+00  1.011988E+01 -1.298557E+00 -1.074165E+00
       357   1 -5.364177E+00 -5.341648E+01 -2.810765E+00  1.134292E+01  1.240569E+00 -9.107746E-01
       357   2  3.963430E+00 -2.655503E+01  1.419814E+00  1.161368E+01  1.263259E+00 -4.722898E-01
       357   3 -3.973569E+00 -5.253497E+01 -1.262995E+00  1.958507E+01  1.361578E+00 -9.053232E-01
       357   4  5.132553E+00 -2.589501E+01  2.450787E+00  1.985582E+01  1.383432E+00 -4.602616E-01
       357   5 -5.280274E+00 -5.336111E+01 -2.759969E+00  9.030575E+00 -1.334213E+00 -5.590788E-01
       357   6  4.055442E+00 -2.647767E+01  1.475646E+00  9.300447E+00 -1.311532E+00 -2.763868E-01
       357   7 -3.889558E+00 -5.248172E+01 -1.219403E+00  1.734257E+01 -1.341631E+00 -5.536691E-01
       357   8  5.226361E+00 -2.581808E+01  2.503350E+00  1.761244E+01 -1.319779E+00 -2.644502E-01
       358   1 -4.658856E+00 -1.351446E+01 -2.113606E+00  1.407265E+01  1.258593E+00 -1.803448E-01
       358   2  4.657232E+00  1.333742E+01  2.088141E+00  1.407761E+01  1.253133E+00  1.787790E-01
       358   3 -4.526992E+00 -1.339192E+01 -1.837025E+00  2.231572E+01  1.381543E+00 -1.634086E-01
       358   4  4.566151E+00  1.323701E+01  1.844518E+00  2.232068E+01  1.374492E+00  2.025473E-01
       358   5 -4.650121E+00 -1.345895E+01 -2.092248E+00  1.167521E+01 -1.324903E+00 -9.886499E-02
       358   6  4.674465E+00  1.341585E+01  2.114902E+00  1.167850E+01 -1.330380E+00  1.034415E-01
       358   7 -4.524578E+00 -1.333963E+01 -1.820053E+00  1.998839E+01 -1.331312E+00 -8.205775E-02
       358   8  4.578761E+00  1.331393E+01  1.870856E+00  1.999168E+01 -1.338367E+00  1.270288E-01
       359   1 -3.975993E+00  2.638385E+01 -1.448344E+00  1.164936E+01  1.265893E+00  4.714850E-01
       359   2  5.365037E+00  5.327985E+01  2.792424E+00  1.138583E+01  1.232102E+00  9.120487E-01
       359   3 -5.113935E+00  2.574142E+01 -2.451851E+00  1.990144E+01  1.387415E+00  4.997715E-01
       359   4  4.003635E+00  5.241396E+01  1.267511E+00  1.963791E+01  1.351049E+00  9.458472E-01
       359   5 -4.043197E+00  2.643875E+01 -1.456921E+00  9.328186E+00 -1.310613E+00  2.812115E-01
       359   6  5.304234E+00  5.335279E+01  2.787148E+00  9.061940E+00 -1.344431E+00  5.645817E-01
       359   7 -5.194747E+00  2.579166E+01 -2.462330E+00  1.764913E+01 -1.318756E+00  3.092826E-01
       359   8  3.930927E+00  5.248394E+01  1.264305E+00  1.738288E+01 -1.355129E+00  5.981227E-01
       360   1 -3.307240E+00  6.631579E+01 -8.380070E-01  3.281649E+00  1.379076E+00  1.554248E+00
       360   2  5.930551E+00  9.315118E+01  3.119240E+00  2.749237E+00  1.338622E+00  2.868205E+00
       360   3 -5.721421E+00  6.490269E+01 -3.134152E+00  1.155377E+01  1.505956E+00  1.588348E+00
       360   4  3.280786E+00  9.150250E+01  2.734017E-01  1.102136E+01  1.462627E+00  2.897618E+00
       360   5 -3.383357E+00  6.638208E+01 -8.529040E-01  1.818272E+00 -1.287722E+00  1.088546E+00
       360   6  5.844560E+00  9.319770E+01  3.091201E+00  1.282826E+00 -1.328206E+00  2.236672E+00
       360   7 -5.816006E+00  6.496395E+01 -3.147352E+00  1.014921E+01 -1.298479E+00  1.122386E+00
       360   8  3.178124E+00  9.154578E+01  2.512471E-01  9.613761E+00 -1.341816E+00  2.265861E+00
       361   1 -6.380103E+00 -1.021745E+02 -3.250766E+00  2.268868E+00  1.525587E+00 -2.766953E+00
       361   2  3.711795E+00 -7.281467E+01  1.029052E+00  2.807269E+00  1.552557E+00 -1.502774E+00
       361   3 -3.707410E+00 -1.005142E+02 -3.889681E-01  1.132617E+01  1.542004E+00 -2.773756E+00
       361   4  6.152295E+00 -7.138652E+01  3.349066E+00  1.186457E+01  1.567687E+00 -1.506361E+00
       361   5 -6.294015E+00 -1.021596E+02 -3.224813E+00  8.393515E-01 -1.373270E+00 -2.132828E+00
       361   6  3.803622E+00 -7.278720E+01  1.061609E+00  1.376394E+00 -1.346296E+00 -1.032055E+00
       361   7 -3.619091E+00 -1.005022E+02 -3.751341E-01  9.969398E+00 -1.492023E+00 -2.139579E+00
       361   8  6.248122E+00 -7.136025E+01  3.373631E+00  1.050644E+01 -1.466327E+00 -1.035615E+00
       362   1 -5.810455E+00 -5.856125E+01 -2.986262E+00  1.086451E+01  1.409341E+00 -8.867192E-01
       362   2  4.398923E+00 -2.913008E+01  1.613827E+00  1.113916E+01  1.430499E+00 -4.678045E-01
       362   3 -4.404429E+00 -5.767166E+01 -1.426987E+00  1.990011E+01  1.418825E+00 -8.846582E-01
       362   4  5.581897E+00 -2.846354E+01  2.652647E+00  2.017477E+01  1.438916E+00 -4.535289E-01
       362   5 -5.732000E+00 -5.852222E+01 -2.953441E+00  8.592485E+00 -1.388128E+00 -5.332767E-01
       362   6  4.497340E+00 -2.904529E+01  1.667438E+00  8.866017E+00 -1.366967E+00 -2.713603E-01
       362   7 -4.326597E+00 -5.763508E+01 -1.401721E+00  1.770967E+01 -1.507741E+00 -5.312313E-01
       362   8  5.681391E+00 -2.837951E+01  2.702668E+00  1.798320E+01 -1.487639E+00 -2.571935E-01
       363   1 -5.092536E+00 -1.485099E+01 -2.298139E+00  1.360416E+01  1.430639E+00 -1.899402E-01
       363   2  5.112600E+00  1.459148E+01  2.276512E+00  1.361094E+01  1.422295E+00  1.502846E-01
       363   3 -4.955204E+00 -1.472641E+01 -2.020217E+00  2.264707E+01  1.441823E+00 -1.666174E-01
       363   4  5.024375E+00  1.449050E+01  2.028134E+00  2.265385E+01  1.431538E+00  1.861104E-01
       363   5 -5.085068E+00 -1.477763E+01 -2.274447E+00  1.124707E+01 -1.377411E+00 -1.090721E-01
       363   6  5.140493E+00  1.471166E+01  2.321467E+00  1.125180E+01 -1.385749E+00  7.239123E-02
       363   7 -4.955236E+00 -1.465677E+01 -2.001409E+00  2.037190E+01 -1.496947E+00 -8.592693E-02
       363   8  5.046487E+00  1.460868E+01  2.072216E+00  2.037664E+01 -1.507212E+00  1.079441E-01
       364   1 -4.401966E+00  2.888611E+01 -1.641812E+00  1.120063E+01  1.435902E+00  4.290170E-01
       364   2  5.839382E+00  5.840046E+01  2.981660E+00  1.093387E+01  1.397467E+00  8.503031E-01
       364   3 -5.555800E+00  2.823385E+01 -2.662152E+00  2.026031E+01  1.446848E+00  4.734497E-01
       364   4  4.458901E+00  5.752156E+01  1.432478E+00  1.999355E+01  1.405334E+00  9.057474E-01
       364   5 -4.467834E+00  2.899232E+01 -1.628374E+00  8.916890E+00 -1.365822E+00  2.346228E-01
       364   6  5.791581E+00  5.854799E+01  3.014008E+00  8.646881E+00 -1.404249E+00  4.963843E-01
       364   7 -5.637078E+00  2.833467E+01 -2.651312E+00  1.805713E+01 -1.486267E+00  2.787170E-01
       364   8  4.397417E+00  5.766541E+01  1.466257E+00  1.778712E+01 -1.527749E+00  5.514063E-01
       365   1 -3.720827E+00  7.268757E+01 -1.045717E+00  2.860242E+00  1.559116E+00  1.473275E+00
       365   2  6.398863E+00  1.021263E+02  3.247818E+00  2.318106E+00  1.513481E+00  2.753979E+00
       365   3 -6.177792E+00  7.124997E+01 -3.380735E+00  1.194158E+01  1.577473E+00  1.533608E+00
       365   4  3.703127E+00  1.004500E+02  3.556665E-01  1.139944E+01  1.528412E+00  2.816657E+00
       365   5 -3.788159E+00  7.284174E+01 -1.016411E+00  1.416531E+00 -1.346697E+00  9.994619E-01
       365   6  6.335910E+00  1.022898E+02  3.282390E+00  8.707792E-01 -1.392323E+00  2.112134E+00
       365   7 -6.265679E+00  7.139827E+01 -3.350472E+00  1.056993E+01 -1.467674E+00  1.059335E+00
       365   8  3.621437E+00  1.006094E+02  3.954408E-01  1.002417E+01 -1.516699E+00  2.174334E+00
       366   1 -6.803516E+00 -1.110782E+02 -3.347985E+00  1.817378E+00  1.711561E+00 -2.729911E+00
       366   2  4.145355E+00 -7.918438E+01  1.254451E+00  2.352859E+00  1.736324E+00 -1.493012E+00
       366   3 -4.146697E+00 -1.094282E+02 -5.049269E-01  1.166297E+01  1.597329E+00 -2.750626E+00
       366   4  6.572539E+00 -7.776405E+01  3.561695E+00  1.219846E+01  1.620766E+00 -1.503527E+00
       366   5 -6.735568E+00 -1.111197E+02 -3.364849E+00  4.054541E-01 -1.419147E+00 -2.099884E+00
       366   6  4.233123E+00 -7.918455E+01  1.262301E+00  9.395357E-01 -1.394363E+00 -1.024744E+00
       366   7 -4.076682E+00 -1.094728E+02 -5.338881E-01  1.033682E+01 -1.666210E+00 -2.120441E+00
       366   8  6.664124E+00 -7.776548E+01  3.561529E+00  1.087090E+01 -1.642741E+00 -1.035179E+00
       367   1 -6.241128E+00 -6.370488E+01 -3.151243E+00  1.037344E+01  1.583196E+00 -8.916839E-01
       367   2  4.850648E+00 -3.170058E+01  1.817045E+00  1.064705E+01  1.602572E+00 -4.857254E-01
       367   3 -4.841089E+00 -6.281931E+01 -1.599408E+00  2.020380E+01  1.461581E+00 -8.921376E-01
       367   4  6.028218E+00 -3.103748E+01  2.849787E+00  2.047742E+01  1.480035E+00 -4.688912E-01
       367   5 -6.167516E+00 -6.367926E+01 -3.135319E+00  8.133625E+00 -1.436088E+00 -5.400283E-01
       367   6  4.955188E+00 -3.160754E+01  1.868639E+00  8.406269E+00 -1.416697E+00 -2.909001E-01
       367   7 -4.767600E+00 -6.279593E+01 -1.590786E+00  1.805673E+01 -1.685780E+00 -5.404785E-01
       367   8  6.134330E+00 -3.094498E+01  2.898032E+00  1.832937E+01 -1.667304E+00 -2.741941E-01
       368   1 -5.517367E+00 -1.617749E+01 -2.477173E+00  1.312811E+01  1.607734E+00 -2.169899E-01
       368   2  5.585119E+00  1.587959E+01  2.474035E+00  1.313278E+01  1.596061E+00  1.112506E-01
       368   3 -5.389135E+00 -1.605804E+01 -2.207240E+00  2.297825E+01  1.488552E+00 -1.873176E-01
       368   4  5.486742E+00  1.577243E+01  2.215215E+00  2.298292E+01  1.474955E+00  1.587092E-01
       368   5 -5.512798E+00 -1.608708E+01 -2.451804E+00  1.080415E+01 -1.425343E+00 -1.380416E-01
       368   6  5.621471E+00  1.603933E+01  2.536017E+00  1.080679E+01 -1.436986E+00  3.044766E-02
       368   7 -5.392043E+00 -1.597132E+01 -2.186713E+00  2.074768E+01 -1.675313E+00 -1.085953E-01
       368   8  5.517344E+00  1.593021E+01  2.276382E+00  2.075032E+01 -1.688866E+00  7.754479E-02
       369   1 -4.828588E+00  3.143457E+01 -1.833062E+00  1.075345E+01  1.613115E+00  3.808033E-01
       369   2  6.327383E+00  6.360703E+01  3.181050E+00  1.048178E+01  1.569223E+00  7.889945E-01
       369   3 -6.003017E+00  3.077095E+01 -2.870692E+00  2.063268E+01  1.494982E+00  4.408310E-01
       369   4  4.923958E+00  6.271441E+01  1.609097E+00  2.036102E+01  1.447504E+00  8.655752E-01
       369   5 -4.897080E+00  3.158882E+01 -1.799564E+00  8.500443E+00 -1.415109E+00  1.824464E-01
       369   6  6.288761E+00  6.382609E+01  3.249298E+00  8.224990E+00 -1.458943E+00  4.292256E-01
       369   7 -6.088785E+00  3.091902E+01 -2.840528E+00  1.847206E+01 -1.665554E+00  2.420169E-01
       369   8  4.869804E+00  6.292904E+01  1.678080E+00  1.819661E+01 -1.712947E+00  5.052230E-01
       370   1 -4.143824E+00  7.916339E+01 -1.251259E+00  2.442010E+00  1.749846E+00  1.397985E+00
       370   2  6.876405E+00  1.112563E+02  3.389934E+00  1.890039E+00  1.698021E+00  2.653588E+00
       370   3 -6.642283E+00  7.770279E+01 -3.621461E+00  1.234766E+01  1.640636E+00  1.483830E+00
       370   4  4.135125E+00  1.095529E+02  4.531483E-01  1.179569E+01  1.584347E+00  2.748188E+00
       370   5 -4.207641E+00  7.940116E+01 -1.180170E+00  1.013505E+00 -1.396613E+00  9.165393E-01
       370   6  6.830334E+00  1.115303E+02  3.483942E+00  4.568229E-01 -1.448367E+00  2.001126E+00
       370   7 -6.730466E+00  7.793309E+01 -3.550917E+00  1.100394E+01 -1.647184E+00  1.001730E+00
       370   8  4.066536E+00  1.098213E+02  5.509278E-01  1.044726E+01 -1.703368E+00  2.095005E+00
       371   1 -7.201367E+00 -1.198550E+02 -3.419942E+00  1.366707E+00  1.902548E+00 -2.734848E+00
       371   2  4.585919E+00 -8.547850E+01  1.494473E+00  1.890664E+00  1.925396E+00 -1.518163E+00
       371   3 -4.596664E+00 -1.182355E+02 -6.262614E-01  1.198526E+01  1.635820E+00 -2.771327E+00
       371   4  6.966922E+00 -8.408268E+01  3.766187E+00  1.250921E+01  1.657600E+00 -1.537902E+00
       371   5 -7.154160E+00 -1.199595E+02 -3.481657E+00 -3.348144E-02 -1.452924E+00 -2.114079E+00
       371   6  4.666160E+00 -8.551459E+01  1.474494E+00  4.893477E-01 -1.430044E+00 -1.055303E+00
       371   7 -4.546671E+00 -1.183426E+02 -6.995614E-01  1.068333E+01 -1.847646E+00 -2.150280E+00
       371   8  7.051653E+00 -8.411971E+01  3.738600E+00  1.120616E+01 -1.825826E+00 -1.074891E+00
       372   1 -6.663968E+00 -6.879030E+01 -3.301698E+00  9.883575E+00  1.762331E+00 -9.274110E-01
       372   2  5.308683E+00 -3.421875E+01  2.035589E+00  1.014545E+01  1.780691E+00 -5.301295E-01
       372   3 -5.307950E+00 -6.792668E+01 -1.778991E+00  2.050666E+01  1.489408E+00 -9.330959E-01
       372   4  6.444151E+00 -3.357568E+01  3.043681E+00  2.076853E+01  1.507633E+00 -5.141605E-01
       372   5 -6.597795E+00 -6.878733E+01 -3.305954E+00  7.667508E+00 -1.474481E+00 -5.793886E-01
       372   6  5.415576E+00 -3.412934E+01  2.080634E+00  7.929240E+00 -1.456117E+00 -3.379418E-01
       372   7 -5.239404E+00 -6.792484E+01 -1.789402E+00  1.839380E+01 -1.873322E+00 -5.850303E-01
       372   8  6.555098E+00 -3.348573E+01  3.086491E+00  1.865553E+01 -1.855092E+00 -3.220945E-01
       373   1 -5.944844E+00 -1.745365E+01 -2.643829E+00  1.265721E+01  1.791973E+00 -2.676622E-01
       373   2  6.059557E+00  1.723032E+01  2.686874E+00  1.264578E+01  1.777789E+00  5.213003E-02
       373   3 -5.872431E+00 -1.735973E+01 -2.403196E+00  2.331821E+01  1.522415E+00 -2.352148E-01
       373   4  5.905204E+00  1.709747E+01  2.398385E+00  2.330678E+01  1.507453E+00  1.079436E-01
       373   5 -5.947430E+00 -1.735873E+01 -2.621695E+00  1.036019E+01 -1.463880E+00 -1.911732E-01
       373   6  6.100585E+00  1.741818E+01  2.761443E+00  1.034794E+01 -1.478042E+00 -3.164076E-02
       373   7 -5.878866E+00 -1.726695E+01 -2.384309E+00  2.112641E+01 -1.863467E+00 -1.589730E-01
       373   8  5.944110E+00  1.728493E+01  2.473738E+00  2.111415E+01 -1.878400E+00  2.374759E-02
       374   1 -5.259956E+00  3.405392E+01 -2.011676E+00  1.031131E+01  1.800260E+00  3.145385E-01
       374   2  6.818525E+00  6.890789E+01  3.395958E+00  1.002465E+01  1.750646E+00  7.116595E-01
       374   3 -6.487621E+00  3.336525E+01 -3.079570E+00  2.101741E+01  1.532852E+00  3.875629E-01
       374   4  5.359482E+00  6.798784E+01  1.788182E+00  2.073075E+01  1.479964E+00  8.083385E-01
       374   5 -5.337417E+00  3.424570E+01 -1.962996E+00  8.085872E+00 -1.453971E+00  1.122586E-01
       374   6  6.785269E+00  6.919381E+01  3.497843E+00  7.795759E+00 -1.503490E+00  3.458664E-01
       374   7 -6.581614E+00  3.355118E+01 -3.033849E+00  1.889781E+01 -1.854432E+00  1.847266E-01
       374   8  5.311457E+00  6.826968E+01  1.891223E+00  1.860770E+01 -1.907199E+00  4.418089E-01
       375   1 -4.574170E+00  8.575617E+01 -1.444717E+00  2.025842E+00  1.953741E+00  1.308034E+00
       375   2  7.369868E+00  1.205674E+02  3.557510E+00  1.459086E+00  1.894135E+00  2.540237E+00
       375   3 -7.130638E+00  8.426537E+01 -3.857605E+00  1.277504E+01  1.697026E+00  1.418920E+00
       375   4  4.564585E+00  1.188278E+02  5.640533E-01  1.220829E+01  1.631812E+00  2.666283E+00
       375   5 -4.641871E+00  8.607311E+01 -1.334972E+00  6.115508E-01 -1.435276E+00  8.181397E-01
       375   6  7.333429E+00  1.209476E+02  3.708198E+00  3.887542E-02 -1.494718E+00  1.874807E+00
       375   7 -7.227015E+00  8.457302E+01 -3.750113E+00  1.145843E+01 -1.836486E+00  9.281810E-01
       375   8  4.501365E+00  1.192006E+02  7.169098E-01  1.088576E+01 -1.901494E+00  1.999892E+00
       376   1 -7.577309E+00 -1.284007E+02 -3.450719E+00  9.439871E-01  2.093181E+00 -2.796488E+00
       376   2  5.016950E+00 -9.162885E+01  1.758284E+00  1.444115E+00  2.115189E+00 -1.587909E+00
       376   3 -5.065226E+00 -1.268290E+02 -7.237983E-01  1.230917E+01  1.653832E+00 -2.855388E+00
       376   4  7.312506E+00 -9.027368E+01  3.979974E+00  1.280930E+01  1.675092E+00 -1.623586E+00
       376   5 -7.559984E+00 -1.285919E+02 -3.566513E+00 -4.541439E-01 -1.475331E+00 -2.184286E+00
       376   6  5.080220E+00 -9.172507E+01  1.700668E+00  4.519376E-02 -1.453290E+00 -1.129064E+00
       376   7 -5.044490E+00 -1.270225E+02 -8.507006E-01  1.102150E+01 -2.036719E+00 -2.242738E+00
       376   8  7.380837E+00 -9.037055E+01  3.915098E+00  1.152083E+01 -2.015421E+00 -1.164469E+00
       377   1 -7.124146E+00 -7.376178E+01 -3.437033E+00  9.440752E+00  1.944404E+00 -1.001680E+00
       377   2  5.744654E+00 -3.659140E+01  2.288588E+00  9.661435E+00  1.965370E+00 -6.086513E-01
       377   3 -5.907530E+00 -7.296011E+01 -1.981416E+00  2.086421E+01  1.499912E+00 -1.020347E+00
       377   4  6.742236E+00 -3.600876E+01  3.233124E+00  2.108489E+01  1.524280E+00 -6.040705E-01
       377   5 -7.070101E+00 -7.380679E+01 -3.470345E+00  7.235502E+00 -1.503307E+00 -6.557462E-01
       377   6  5.844791E+00 -3.654124E+01  2.313741E+00  7.459777E+00 -1.482486E+00 -4.178399E-01
       377   7 -5.839736E+00 -7.300136E+01 -2.015952E+00  1.876989E+01 -2.071553E+00 -6.742711E-01
       377   8  6.857789E+00 -3.595318E+01  3.260947E+00  1.899417E+01 -2.047355E+00 -4.132939E-01
       378   1 -6.426003E+00 -1.858700E+01 -2.784289E+00  1.220746E+01  1.982814E+00 -3.501579E-01
       378   2  6.482816E+00  1.872946E+01  2.928651E+00  1.213947E+01  1.970942E+00 -3.696927E-02
       378   3 -6.541309E+00 -1.857446E+01 -2.627176E+00  2.368078E+01  1.541828E+00 -3.261438E-01
       378   4  6.141227E+00  1.851572E+01  2.557770E+00  2.361278E+01  1.533383E+00  1.688932E-02
       378   5 -6.443679E+00 -1.852478E+01 -2.778888E+00  9.933281E+00 -1.491600E+00 -2.748732E-01
       378   6  6.521984E+00  1.891153E+01  3.003679E+00  9.868904E+00 -1.503617E+00 -1.221875E-01
       378   7 -6.549537E+00 -1.850866E+01 -2.619299E+00  2.152451E+01 -2.061235E+00 -2.510421E-01
       378   8  6.191566E+00  1.870309E+01  2.639295E+00  2.146013E+01 -2.069852E+00 -6.873921E-02
       379   1 -5.722963E+00  3.682695E+01 -2.155864E+00  9.850829E+00  1.997616E+00  2.177796E-01
       379   2  7.268922E+00  7.434553E+01  3.631833E+00  9.521681E+00  1.944662E+00  6.005778E-01
       379   3 -7.092104E+00  3.607670E+01 -3.287549E+00  2.138011E+01  1.556900E+00  2.946970E-01
       379   4  5.666472E+00  7.336198E+01  1.955760E+00  2.105096E+01  1.502684E+00  7.106487E-01
       379   5 -5.820640E+00  3.702399E+01 -2.105044E+00  7.657299E+00 -1.481299E+00  1.320402E-02
       379   6  7.233625E+00  7.467495E+01  3.758214E+00  7.326818E+00 -1.534200E+00  2.304150E-01
       379   7 -7.200332E+00  3.627046E+01 -3.237100E+00  1.930823E+01 -2.055411E+00  8.953558E-02
       379   8  5.622401E+00  7.368989E+01  2.085916E+00  1.897775E+01 -2.109565E+00  3.396475E-01
       380   1 -5.019287E+00  9.251484E+01 -1.609711E+00  1.587963E+00  2.173348E+00  1.180322E+00
       380   2  7.873473E+00  1.301171E+02  3.763851E+00  9.947124E-01  2.105281E+00  2.381413E+00
       380   3 -7.670757E+00  9.097885E+01 -4.078209E+00  1.320320E+01  1.746574E+00  1.310929E+00
       380   4  4.963561E+00  1.283227E+02  6.923218E-01  1.260994E+01  1.673604E+00  2.534973E+00
       380   5 -5.104440E+00  9.288918E+01 -1.471589E+00  1.941104E-01 -1.462177E+00  6.826251E-01
       380   6  7.835614E+00  1.305872E+02  3.963867E+00 -4.043152E-01 -1.530037E+00  1.700875E+00
       380   7 -7.782723E+00  9.134474E+01 -3.941432E+00  1.192145E+01 -2.038942E+00  8.122375E-01
       380   8  4.900856E+00  1.287863E+02  8.955870E-01  1.132302E+01 -2.111666E+00  1.853266E+00
       381   1 -7.994677E+00 -1.367227E+02 -3.444374E+00  6.580169E-01  2.264204E+00 -2.936075E+00
       381   2  5.403784E+00 -9.757290E+01  2.067410E+00  1.113309E+00  2.287830E+00 -1.718594E+00
       381   3 -5.625848E+00 -1.352099E+02 -7.707020E-01  1.276295E+01  1.606079E+00 -3.018612E+00
       381   4  7.555379E+00 -9.627739E+01  4.234203E+00  1.321824E+01  1.630792E+00 -1.784032E+00
       381   5 -8.007170E+00 -1.370046E+02 -3.616560E+00 -7.900643E-01 -1.503137E+00 -2.318773E+00
       381   6  5.430437E+00 -9.777958E+01  1.950465E+00 -3.336245E-01 -1.479572E+00 -1.255113E+00
       381   7 -5.629668E+00 -1.354919E+02 -9.518056E-01  1.142489E+01 -2.281954E+00 -2.400682E+00
       381   8  7.592360E+00 -9.648248E+01  4.112202E+00  1.188133E+01 -2.257310E+00 -1.320052E+00
       382   1 -7.763244E+00 -7.854019E+01 -3.565871E+00  9.191814E+00  2.113039E+00 -1.127663E+00
       382   2  6.074454E+00 -3.860197E+01  2.621570E+00  9.299339E+00  2.147737E+00 -7.306881E-01
       382   3 -6.915892E+00 -7.789502E+01 -2.262641E+00  2.146091E+01  1.453562E+00 -1.178986E+00
       382   4  6.702140E+00 -3.817646E+01  3.412245E+00  2.156843E+01  1.497619E+00 -7.605499E-01
       382   5 -7.730678E+00 -7.869669E+01 -3.650586E+00  6.944265E+00 -1.536716E+00 -7.775007E-01
       382   6  6.153207E+00 -3.866698E+01  2.599316E+00  7.061670E+00 -1.502538E+00 -5.363000E-01
       382   7 -6.851612E+00 -7.804007E+01 -2.340927E+00  1.932901E+01 -2.318593E+00 -8.284327E-01
       382   8  6.814280E+00 -3.822835E+01  3.400326E+00  1.944641E+01 -2.275128E+00 -5.659342E-01
       383   1 -7.103812E+00 -1.935055E+01 -2.868325E+00  1.182121E+01  2.164159E+00 -4.723564E-01
       383   2  6.704791E+00  2.058567E+01  3.224132E+00  1.160159E+01  2.169783E+00 -1.635558E-01
       383   3 -7.715210E+00 -1.954899E+01 -2.918412E+00  2.410304E+01  1.497621E+00 -4.816978E-01
       383   4  5.868810E+00  2.016264E+01  2.650020E+00  2.388342E+01  1.517548E+00 -1.382957E-01
       383   5 -7.145563E+00 -1.940015E+01 -2.906447E+00  9.531902E+00 -1.520946E+00 -3.935361E-01
       383   6  6.730305E+00  2.067639E+01  3.269914E+00  9.327377E+00 -1.516116E+00 -2.446988E-01
       383   7 -7.713298E+00 -1.958036E+01 -2.939435E+00  2.194262E+01 -2.313491E+00 -4.028064E-01
       383   8  5.939699E+00  2.027330E+01  2.716893E+00  2.173809E+01 -2.294467E+00 -2.196312E-01
       384   1 -6.291001E+00  3.994903E+01 -2.218430E+00  9.307007E+00  2.187926E+00  8.077503E-02
       384   2  7.549851E+00  7.998075E+01  3.886024E+00  8.874637E+00  2.141729E+00  4.394986E-01
       384   3 -7.993096E+00  3.905991E+01 -3.480055E+00  2.161857E+01  1.511419E+00  1.364806E-01
       384   4  5.618629E+00  7.886250E+01  2.089770E+00  2.118620E+01  1.474295E+00  5.437817E-01
       384   5 -6.428626E+00  4.006692E+01 -2.197441E+00  7.128330E+00 -1.510414E+00 -1.189242E-01
       384   6  7.501873E+00  8.029084E+01  4.013635E+00  6.705536E+00 -1.557115E+00  7.586098E-02
       384   7 -8.107759E+00  3.918886E+01 -3.445171E+00  1.958298E+01 -2.316383E+00 -6.364295E-02
       384   8  5.595359E+00  7.918540E+01  2.235349E+00  1.916019E+01 -2.354080E+00  1.793496E-01
       385   1 -5.504270E+00  9.950480E+01 -1.715783E+00  1.075636E+00  2.395653E+00  9.840205E-01
       385   2  8.361091E+00  1.399727E+02  4.034227E+00  4.393969E-01  2.323757E+00  2.112959E+00
       385   3 -8.289003E+00  9.791637E+01 -4.225796E+00  1.358070E+01  1.733119E+00  1.113097E+00
       385   4  5.306386E+00  1.381143E+02  8.942803E-01  1.294446E+01  1.663184E+00  2.261196E+00
       385   5 -5.630350E+00  9.986199E+01 -1.579877E+00 -3.090674E-01 -1.492843E+00  4.904494E-01
       385   6  8.280350E+00  1.404156E+02  4.235474E+00 -9.432356E-01 -1.564848E+00  1.428341E+00
       385   7 -8.419023E+00  9.827489E+01 -4.081548E+00  1.231115E+01 -2.312164E+00  6.185428E-01
       385   8  5.223762E+00  1.385606E+02  1.108667E+00  1.167698E+01 -2.382222E+00  1.575448E+00
       386   1 -8.612507E+00 -1.449883E+02 -3.421734E+00  6.914764E-01  2.473316E+00 -3.261243E+00
       386   2  5.714523E+00 -1.031541E+02  2.500797E+00  1.068522E+00  2.511955E+00 -1.972297E+00
       386   3 -6.483542E+00 -1.435630E+02 -7.996165E-01  1.352493E+01  1.880883E+00 -3.421075E+00
       386   4  7.616839E+00 -1.019554E+02  4.594067E+00  1.390197E+01  1.943124E+00 -2.103176E+00
       386   5 -8.717508E+00 -1.455614E+02 -3.723314E+00 -7.258425E-01 -1.525285E+00 -2.601486E+00
       386   6  5.670969E+00 -1.036029E+02  2.279726E+00 -3.231735E-01 -1.488134E+00 -1.478414E+00
       386   7 -6.510091E+00 -1.440958E+02 -1.045247E+00  1.197112E+01 -2.310980E+00 -2.763404E+00
       386   8  7.648777E+00 -1.023668E+02  4.422039E+00  1.237379E+01 -2.249920E+00 -1.611001E+00
       387   1 -8.877445E+00 -8.290257E+01 -3.689348E+00  9.361430E+00  2.341461E+00 -1.339325E+00
       387   2  6.109562E+00 -3.976014E+01  3.124915E+00  9.217873E+00  2.416865E+00 -8.989568E-01
       387   3 -8.842872E+00 -8.260009E+01 -2.715662E+00  2.249730E+01  1.772892E+00 -1.458273E+00
       387   4  5.913058E+00 -3.968874E+01  3.559421E+00  2.235375E+01  1.881704E+00 -1.014266E+00
       387   5 -8.868189E+00 -8.328572E+01 -3.856556E+00  7.184725E+00 -1.545349E+00 -9.674579E-01
       387   6  6.139320E+00 -4.011489E+01  2.997643E+00  7.077440E+00 -1.472053E+00 -6.945724E-01
       387   7 -8.704067E+00 -8.292397E+01 -2.814827E+00  2.015490E+01 -2.309288E+00 -1.087960E+00
       387   8  6.069347E+00 -3.998723E+01  3.493151E+00  2.004762E+01 -2.202146E+00 -8.113879E-01
       388   1 -8.290317E+00 -1.924402E+01 -2.844782E+00  1.148262E+01  2.398484E+00 -6.221997E-01
       388   2  6.390269E+00  2.323985E+01  3.606636E+00  1.092835E+01  2.459804E+00 -3.064531E-01
       388   3 -9.990828E+00 -1.991015E+01 -3.364717E+00  2.445420E+01  1.792910E+00 -7.228681E-01
       388   4  4.476384E+00  2.236034E+01  2.588830E+00  2.389993E+01  1.895873E+00 -3.707602E-01
       388   5 -8.359261E+00 -1.958979E+01 -2.981185E+00  9.342063E+00 -1.526473E+00 -5.364862E-01
       388   6  6.394000E+00  2.304571E+01  3.560853E+00  8.833004E+00 -1.467779E+00 -3.774721E-01
       388   7 -9.889253E+00 -2.018203E+01 -3.425313E+00  2.218279E+01 -2.313556E+00 -6.384693E-01
       388   8  4.647847E+00  2.223731E+01  2.612352E+00  2.167373E+01 -2.212676E+00 -4.426190E-01
       389   1 -7.136097E+00  4.379880E+01 -2.121965E+00  8.424413E+00  2.429626E+00 -7.105311E-02
       389   2  7.338075E+00  8.581565E+01  4.108419E+00  7.765344E+00  2.421744E+00  2.563250E-01
       389   3 -9.545128E+00  4.261971E+01 -3.643204E+00  2.127441E+01  1.789179E+00 -1.002297E-01
       389   4  4.724703E+00  8.443223E+01  2.110383E+00  2.061535E+01  1.813405E+00  2.867653E-01
       389   5 -7.329028E+00  4.363485E+01 -2.200970E+00  6.473371E+00 -1.513416E+00 -2.549524E-01
       389   6  7.255122E+00  8.589114E+01  4.156577E+00  5.849162E+00 -1.523323E+00 -7.923632E-02
       389   7 -9.601285E+00  4.251248E+01 -3.669975E+00  1.921734E+01 -2.327120E+00 -2.845100E-01
       389   8  4.775855E+00  8.456175E+01  2.204549E+00  1.859313E+01 -2.304500E+00 -4.839853E-02
       390   1 -6.109141E+00  1.066636E+02 -1.737980E+00  2.768134E-01  2.678188E+00  7.360980E-01
       390   2  8.685515E+00  1.498933E+02  4.347822E+00 -4.229807E-01  2.617698E+00  1.719484E+00
       390   3 -9.018606E+00  1.050601E+02 -4.173560E+00  1.354315E+01  2.040307E+00  8.014472E-01
       390   4  5.534821E+00  1.480486E+02  1.349376E+00  1.284336E+01  1.992806E+00  1.820590E+00
       390   5 -6.317366E+00  1.067996E+02 -1.691430E+00 -8.901673E-01 -1.503320E+00  2.802908E-01
       390   6  8.550735E+00  1.501804E+02  4.488106E+00 -1.575859E+00 -1.564630E+00  1.086821E+00
       390   7 -9.160058E+00  1.052200E+02 -4.113915E+00  1.224091E+01 -2.337821E+00  3.464935E-01
       390   8  5.463665E+00  1.483565E+02  1.495403E+00  1.155522E+01 -2.385971E+00  1.189247E+00
       391   1 -9.836208E+00 -1.538023E+02 -3.542090E+00  1.351657E+00  2.496131E+00 -3.898523E+00
       391   2  5.866403E+00 -1.081353E+02  3.132972E+00  1.584840E+00  2.602094E+00 -2.314092E+00
       391   3 -7.942564E+00 -1.523438E+02 -5.741382E-01  1.533150E+01  2.266519E+00 -4.215953E+00
       391   4  7.381089E+00 -1.070558E+02  5.216692E+00  1.556468E+01  2.451955E+00 -2.621731E+00
       391   5 -9.997676E+00 -1.548823E+02 -3.993931E+00 -2.280622E-01 -1.878931E+00 -3.066268E+00
       391   6  5.736211E+00 -1.091628E+02  2.732850E+00  9.140425E-02 -1.776183E+00 -1.756520E+00
       391   7 -7.820909E+00 -1.532941E+02 -8.764819E-01  1.358137E+01 -2.405952E+00 -3.387843E+00
       391   8  7.529073E+00 -1.079585E+02  4.954520E+00  1.390084E+01 -2.222693E+00 -2.068177E+00
       392   1 -1.106432E+01 -8.643397E+01 -3.886130E+00  1.017934E+01  2.394749E+00 -1.548371E+00
       392   2  5.443980E+00 -3.918320E+01  3.890767E+00  9.511919E+00  2.571985E+00 -1.040814E+00
       392   3 -1.272547E+01 -8.684959E+01 -3.610374E+00  2.452220E+01  2.115136E+00 -1.855172E+00
       392   4  3.520798E+00 -3.986085E+01  3.555125E+00  2.385478E+01  2.386264E+00 -1.355115E+00
       392   5 -1.105166E+01 -8.739222E+01 -4.206169E+00  7.899185E+00 -1.845728E+00 -1.160648E+00
       392   6  5.455028E+00 -4.015935E+01  3.583249E+00  7.333704E+00 -1.672291E+00 -8.424425E-01
       392   7 -1.234932E+01 -8.764819E+01 -3.761734E+00  2.204967E+01 -2.340445E+00 -1.471455E+00
       392   8  3.891916E+00 -4.068077E+01  3.408302E+00  2.148419E+01 -2.071889E+00 -1.160847E+00
       393   1 -1.048336E+01 -1.733690E+01 -2.635402E+00  1.091288E+01  2.412426E+00 -7.390460E-01
       393   2  4.974111E+00  2.744612E+01  4.106478E+00  9.796761E+00  2.588773E+00 -4.221562E-01
       393   3 -1.404308E+01 -1.881373E+01 -3.998436E+00  2.459468E+01  2.058549E+00 -1.042402E+00
       393   4  1.208801E+00  2.576370E+01  2.263737E+00  2.347856E+01  2.329782E+00 -6.881105E-01
       393   5 -1.050919E+01 -1.829095E+01 -2.935351E+00  8.846882E+00 -1.836214E+00 -6.650014E-01
       393   6  5.017505E+00  2.664251E+01  3.886846E+00  7.833782E+00 -1.663706E+00 -4.984289E-01
       393   7 -1.368871E+01 -1.960420E+01 -4.133319E+00  2.238973E+01 -2.362382E+00 -9.723186E-01
       393   8  1.629713E+00  2.512099E+01  2.202907E+00  2.137663E+01 -2.093748E+00 -7.678561E-01
       394   1 -8.556471E+00  4.904672E+01 -1.749552E+00  6.605761E+00  2.407997E+00 -2.125977E-01
       394   2  6.153500E+00  9.204923E+01  4.281174E+00  5.567143E+00  2.489827E+00  4.303702E-02
       394   3 -1.220175E+01  4.733970E+01 -3.794335E+00  1.980561E+01  1.983904E+00 -4.364989E-01
       394   4  2.350230E+00  9.018423E+01  1.867756E+00  1.876699E+01  2.147798E+00 -1.033747E-01
       394   5 -8.759908E+00  4.827085E+01 -2.025579E+00  4.878950E+00 -1.838109E+00 -3.868929E-01
       394   6  6.082650E+00  9.157421E+01  4.146256E+00  3.929428E+00 -1.759599E+00 -2.487433E-01
       394   7 -1.207756E+01  4.670236E+01 -3.936248E+00  1.798615E+01 -2.397710E+00 -6.137179E-01
       394   8  2.604952E+00  8.984567E+01  1.862138E+00  1.703663E+01 -2.236064E+00 -3.970669E-01
       395   1 -6.884253E+00  1.139171E+02 -1.570616E+00 -1.297850E+00  2.672874E+00  4.027640E-01
       395   2  8.406651E+00  1.587817E+02  4.534419E+00 -2.066094E+00  2.655250E+00  1.129922E+00
       395   3 -9.908676E+00  1.123263E+02 -3.848626E+00  1.249974E+01  2.221905E+00  2.927465E-01
       395   4  5.255668E+00  1.570644E+02  1.961102E+00  1.173150E+01  2.265123E+00  1.041846E+00
       395   5 -7.204450E+00  1.134505E+02 -1.770503E+00 -2.210573E+00 -1.838420E+00  3.412709E-02
       395   6  8.127308E+00  1.584036E+02  4.382212E+00 -2.912761E+00 -1.858506E+00  6.687936E-01
       395   7 -9.990315E+00  1.119581E+02 -3.959095E+00  1.143112E+01 -2.400113E+00 -7.732697E-02
       395   8  5.213230E+00  1.567831E+02  1.894458E+00  1.072893E+01 -2.358562E+00  5.795677E-01
       396   1 -1.303487E+01 -1.658273E+02 -4.448154E+00  3.577717E+00  2.766776E+00 -4.725353E+00
       396   2  5.850463E+00 -1.116886E+02  4.364209E+00  3.473976E+00  3.059253E+00 -2.633826E+00
       396   3 -1.184573E+01 -1.644446E+02 -1.028163E+00  2.002515E+01  3.060174E+00 -5.477477E+00
       396   4  6.357725E+00 -1.109877E+02  6.193154E+00  1.992141E+01  3.546443E+00 -3.356811E+00
       396   5 -1.326929E+01 -1.682764E+02 -5.300463E+00  1.720926E+00 -2.200075E+00 -3.606018E+00
       396   6  5.675660E+00 -1.140148E+02  3.587737E+00  1.827584E+00 -1.911055E+00 -2.008551E+00
       396   7 -1.137756E+01 -1.665812E+02 -1.541354E+00  1.798547E+01 -2.412237E+00 -4.367964E+00
       396   8  6.876609E+00 -1.130103E+02  5.735022E+00  1.809213E+01 -1.926895E+00 -2.740978E+00
       397   1 -1.494687E+01 -8.762451E+01 -3.898747E+00  1.187010E+01  2.512806E+00 -1.659740E+00
       397   2  3.269843E+00 -3.576700E+01  4.966108E+00  1.039516E+01  2.901018E+00 -1.090016E+00
       397   3 -1.927164E+01 -8.919677E+01 -4.814833E+00  2.756517E+01  2.532916E+00 -2.367167E+00
       397   4 -1.340017E+00 -3.762434E+01  3.384818E+00  2.609024E+01  3.101151E+00 -1.784076E+00
       397   5 -1.483380E+01 -8.977550E+01 -4.525342E+00  9.484412E+00 -2.110020E+00 -1.290919E+00
       397   6  3.409763E+00 -3.786211E+01  4.373148E+00  8.204927E+00 -1.725019E+00 -9.277787E-01
       397   7 -1.845997E+01 -9.104469E+01 -5.129786E+00  2.499053E+01 -2.318841E+00 -2.007585E+00
       397   8 -5.052195E-01 -3.942010E+01  3.094814E+00  2.371104E+01 -1.751467E+00 -1.630903E+00
       398   1 -1.410195E+01 -1.256297E+01 -2.106556E+00  9.853182E+00  2.428178E+00 -7.631817E-01
       398   2  1.908206E+00  3.398303E+01  4.714646E+00  8.152098E+00  2.800677E+00 -4.399776E-01
       398   3 -1.963057E+01 -1.491703E+01 -4.424801E+00  2.409964E+01  2.370970E+00 -1.431841E+00
       398   4 -3.827587E+00  3.142179E+01  1.912978E+00  2.239855E+01  2.891948E+00 -1.052607E+00
       398   5 -1.398546E+01 -1.458749E+01 -2.679791E+00  7.926114E+00 -2.125204E+00 -7.318131E-01
       398   6  2.119648E+00  3.217512E+01  4.241281E+00  6.386233E+00 -1.755354E+00 -5.595655E-01
       398   7 -1.892242E+01 -1.668778E+01 -4.743808E+00  2.204495E+01 -2.350619E+00 -1.409204E+00
       398   8 -3.027207E+00  2.986494E+01  1.687529E+00  2.050507E+01 -1.830350E+00 -1.180195E+00
       399   1 -1.092116E+01  5.638445E+01 -1.079821E+00  3.538188E+00  2.314655E+00 -2.435254E-01
       399   2  3.524457E+00  9.911438E+01  4.342315E+00  2.046181E+00  2.569561E+00 -3.001225E-02
       399   3 -1.609786E+01  5.399213E+01 -3.877515E+00  1.673420E+01  2.166513E+00 -8.073346E-01
       399   4 -1.783039E+00  9.659126E+01  1.239411E+00  1.524219E+01  2.562200E+00 -5.164725E-01
       399   5 -1.102756E+01  5.459302E+01 -1.639767E+00  2.129129E+00 -2.166608E+00 -4.535260E-01
       399   6  3.546360E+00  9.761921E+01  3.913780E+00  7.899663E-01 -1.914213E+00 -3.360684E-01
       399   7 -1.565268E+01  5.243483E+01 -4.208635E+00  1.523238E+01 -2.424265E+00 -1.024698E+00
       399   8 -1.211270E+00  9.532850E+01  1.035716E+00  1.389321E+01 -2.029252E+00 -8.288815E-01
       400   1 -7.704838E+00  1.212006E+02 -1.126669E+00 -4.067349E+00  2.473524E+00  1.505562E-01
       400   2  6.803428E+00  1.643682E+02  4.066606E+00 -4.734945E+00  2.584825E+00  4.303652E-01
       400   3 -1.030738E+01  1.198439E+02 -3.046389E+00  9.303630E+00  2.102910E+00 -2.950100E-01
       400   4  4.365995E+00  1.631766E+02  2.532146E+00  8.636033E+00  2.345103E+00  1.917477E-02
       400   5 -8.071768E+00  1.196655E+02 -1.684218E+00 -4.650360E+00 -2.165926E+00 -1.471405E-01
       400   6  6.489535E+00  1.629608E+02  3.558167E+00 -5.175847E+00 -2.056960E+00  2.515626E-01
       400   7 -1.019360E+01  1.185117E+02 -3.408422E+00  8.582631E+00 -2.439676E+00 -5.985255E-01
       400   8  4.534972E+00  1.619742E+02  2.224255E+00  8.057143E+00 -2.198108E+00 -1.649977E-01
       401   1 -1.617304E+00 -3.555094E+01  4.345822E-02 -7.648481E+00 -5.062695E-01 -3.095072E+00
       401   2 -4.879543E-02 -3.013668E+01 -1.424398E-01 -8.399695E+00 -2.305995E-01 -1.845688E+00
       401   3 -1.761078E+00 -3.402934E+01  4.604162E-01 -6.685412E+00  3.806372E-01 -2.777264E+00
       401   4 -2.449854E-01 -2.873579E+01  2.205112E-01 -7.437213E+00  6.563046E-01 -1.708657E+00
       401   5  1.271759E+00 -3.406379E+01  2.111566E+00 -9.442712E+00 -5.487811E-01 -2.585067E+00
       401   6  2.590713E+00 -2.889908E+01  1.343375E+00 -1.019393E+01 -2.736522E-01 -1.367137E+00
       401   7  1.103945E+00 -3.254924E+01  2.529059E+00 -8.425061E+00  5.310047E-01 -2.260599E+00
       401   8  2.367224E+00 -2.750851E+01  1.699256E+00 -9.176862E+00  8.061239E-01 -1.223856E+00
       402   1 -1.856545E+00 -2.552519E+01 -1.204049E+00 -1.346775E+01 -1.178389E+00 -1.183070E+00
       402   2  2.201238E+00 -1.381269E+01  6.094044E-01 -1.386726E+01 -9.494353E-01 -6.221482E-01
       402   3 -1.992408E+00 -2.430454E+01 -8.780618E-01 -1.206198E+01 -4.764009E-02 -1.133016E+00
       402   4  1.821098E+00 -1.316153E+01  6.906194E-01 -1.247009E+01  1.812762E-01 -6.289428E-01
       402   5 -4.853753E-01 -2.489958E+01 -4.898649E-01 -1.703904E+01 -9.910842E-01 -7.708516E-01
       402   6  3.494854E+00 -1.326464E+01  1.142629E+00 -1.743855E+01 -7.700502E-01 -3.596996E-01
       402   7 -6.094684E-01 -2.367339E+01 -1.571816E-01 -1.543747E+01  2.148203E-01 -7.154141E-01
       402   8  3.125471E+00 -1.260895E+01  1.228178E+00 -1.584557E+01  4.357130E-01 -3.630670E-01
       403   1 -1.854235E+00 -7.852463E+00 -9.875605E-01 -1.467479E+01 -1.382262E+00 -2.493209E-01
       403   2  2.737398E+00  5.174063E+00  1.291358E+00 -1.470199E+01 -1.250356E+00  2.083404E-01
       403   3 -2.049415E+00 -7.427228E+00 -9.191683E-01 -1.328519E+01 -2.178540E-01 -3.030933E-01
       403   4  2.348156E+00  5.147110E+00  1.165063E+00 -1.335725E+01 -8.614511E-02  8.307090E-02
       403   5 -1.840800E+00 -7.889777E+00 -1.125376E+00 -1.861008E+01 -1.134146E+00 -8.520345E-02
       403   6  2.652837E+00  5.038753E+00  9.248860E-01 -1.863728E+01 -1.043565E+00  2.535821E-01
       403   7 -1.893470E+00 -7.404029E+00 -9.977833E-01 -1.705088E+01  1.175882E-01 -1.368328E-01
       403   8  2.404825E+00  5.071034E+00  8.548061E-01 -1.712294E+01  2.074320E-01  1.289035E-01
       404   1 -2.377014E+00  1.144537E+01 -7.534098E-01 -1.177535E+01 -1.295381E+00  5.546671E-01
       404   2  2.531368E+00  2.561218E+01  1.441054E+00 -1.150969E+01 -1.337791E+00  1.043188E+00
       404   3 -2.332986E+00  1.125880E+01 -7.977750E-01 -1.065118E+01  6.858845E-02  4.144286E-01
       404   4  2.273992E+00  2.472206E+01  1.095563E+00 -1.044105E+01  2.593329E-02  9.335505E-01
       404   5 -3.437942E+00  1.088022E+01 -1.576318E+00 -1.609485E+01 -9.780192E-01  4.886083E-01
       404   6  1.513941E+00  2.509053E+01  7.196492E-01 -1.582919E+01 -1.071578E+00  7.919261E-01
       404   7 -3.206236E+00  1.077264E+01 -1.545058E+00 -1.472980E+01  3.761012E-01  3.475072E-01
       404   8  1.444812E+00  2.427997E+01  4.511086E-01 -1.451967E+01  2.816299E-01  6.790074E-01
       405   1 -5.656895E-01  3.107402E+01 -2.378229E-01 -6.951737E+00 -3.984159E-01  1.635806E+00
       405   2  1.628690E+00  3.849954E+01 -3.487432E-01 -6.354596E+00 -6.140719E-01  2.766348E+00
       405   3 -3.731891E-01  3.006906E+01 -4.829982E-01 -6.311255E+00  7.619805E-01  1.508558E+00
       405   4  1.681121E+00  3.716844E+01 -7.346778E-01 -5.732251E+00  5.462446E-01  2.560387E+00
       405   5 -2.689349E+00  3.006474E+01 -1.478424E+00 -9.392319E+00 -3.900277E-01  1.285390E+00
       405   6 -6.031544E-01  3.738207E+01 -1.841777E+00 -8.795178E+00 -6.223893E-01  2.330240E+00
       405   7 -2.415506E+00  2.909334E+01 -1.693054E+00 -8.634685E+00  8.636554E-01  1.153566E+00
       405   8 -4.707945E-01  3.608313E+01 -2.200462E+00 -8.055681E+00  6.309958E-01  2.118583E+00
       406   1 -1.273828E+00 -3.268180E+01  1.807268E+00 -6.199327E+00 -1.891285E+00 -6.830635E+00
       406   2 -3.960094E-01 -2.798660E+01  3.812123E-02 -6.932266E+00 -1.836117E+00 -4.825156E+00
       406   3 -1.058473E+00 -3.179133E+01  2.140729E+00 -5.826776E+00 -5.573692E-01 -6.679943E+00
       406   4 -4.443961E-02 -2.677801E+01  5.075265E-01 -6.506633E+00 -5.019674E-01 -4.704811E+00
       406   5  1.268220E+00 -3.147703E+01  3.281152E+00 -7.940561E+00 -1.314628E+00 -6.579319E+00
       406   6  2.104519E+00 -2.682334E+01  1.415126E+00 -8.673501E+00 -1.211673E+00 -4.491968E+00
       406   7  1.288163E+00 -3.066875E+01  3.536002E+00 -7.626923E+00  7.547071E-02 -6.425269E+00
       406   8  2.260122E+00 -2.569751E+01  1.804625E+00 -8.306781E+00  1.792973E-01 -4.367171E+00
       407   1 -2.282733E+00 -2.380835E+01 -1.488254E+00 -1.127773E+01 -2.719413E+00 -3.493969E+00
       407   2  1.549629E+00 -1.286059E+01  3.385309E-01 -1.167271E+01 -2.682733E+00 -1.862575E+00
       407   3 -1.882557E+00 -2.261916E+01 -1.010551E+00 -1.053164E+01 -1.706226E+00 -3.414141E+00
       407   4  1.755370E+00 -1.212439E+01  6.210961E-01 -1.088118E+01 -1.669346E+00 -1.863095E+00
       407   5 -9.159149E-01 -2.316218E+01 -7.011814E-01 -1.452329E+01 -1.974070E+00 -3.173409E+00
       407   6  2.808717E+00 -1.232215E+01  8.742341E-01 -1.491827E+01 -1.896484E+00 -1.658391E+00
       407   7 -6.741267E-01 -2.204007E+01 -2.886692E-01 -1.361803E+01 -8.606540E-01 -3.089298E+00
       407   8  2.854631E+00 -1.165447E+01  1.088250E+00 -1.396757E+01 -7.823213E-01 -1.656183E+00
       408   1 -2.154426E+00 -7.224024E+00 -1.045454E+00 -1.247844E+01 -3.166249E+00 -7.121044E-01
       408   2  2.208168E+00  5.076734E+00  1.195769E+00 -1.256163E+01 -3.164050E+00  7.996453E-01
       408   3 -2.003309E+00 -6.853815E+00 -8.897015E-01 -1.165295E+01 -2.095350E+00 -7.680308E-01
       408   4  2.061652E+00  4.753081E+00  1.053270E+00 -1.172062E+01 -2.093082E+00  6.726941E-01
       408   5 -1.964943E+00 -7.186335E+00 -1.109307E+00 -1.609929E+01 -2.259723E+00 -6.157973E-01
       408   6  2.302920E+00  5.019692E+00  9.108774E-01 -1.618248E+01 -2.243546E+00  7.176034E-01
       408   7 -1.867268E+00 -6.839612E+00 -9.783963E-01 -1.504771E+01 -1.097767E+00 -6.704368E-01
       408   8  2.101696E+00  4.671289E+00  7.405828E-01 -1.511538E+01 -1.081335E+00  5.895560E-01
       409   1 -2.224890E+00  1.110418E+01 -5.108263E-01 -9.976940E+00 -2.914091E+00  1.952620E+00
       409   2  2.372225E+00  2.430118E+01  1.615895E+00 -9.797387E+00 -2.941591E+00  3.590854E+00
       409   3 -2.453681E+00  1.038301E+01 -7.974671E-01 -9.246398E+00 -1.668549E+00  1.807504E+00
       409   4  1.921239E+00  2.306135E+01  1.107254E+00 -9.094348E+00 -1.696170E+00  3.467136E+00
       409   5 -2.992854E+00  1.066382E+01 -1.210739E+00 -1.389962E+01 -2.014816E+00  1.756455E+00
       409   6  1.634036E+00  2.389059E+01  9.854594E-01 -1.372007E+01 -2.067076E+00  3.261250E+00
       409   7 -3.130026E+00  9.980422E+00 -1.463069E+00 -1.298392E+01 -7.608592E-01  1.608718E+00
       409   8  1.275067E+00  2.268894E+01  5.120570E-01 -1.283187E+01 -8.135712E-01  3.133128E+00
       410   1 -2.810066E-01  2.940204E+01 -3.387449E-01 -5.932221E+00 -2.080234E+00  4.926506E+00
       410   2  1.102376E+00  3.581053E+01 -2.135961E+00 -5.380941E+00 -2.121182E+00  6.937340E+00
       410   3 -7.226513E-01  2.808314E+01 -8.679110E-01 -5.524080E+00 -4.793337E-01  4.837121E+00
       410   4  7.642059E-01  3.473243E+01 -2.561017E+00 -5.031123E+00 -5.205382E-01  6.920357E+00
       410   5 -2.159556E+00  2.852931E+01 -1.369269E+00 -8.224335E+00 -1.340725E+00  4.570686E+00
       410   6 -6.788132E-01  3.503516E+01 -2.939311E+00 -7.673054E+00 -1.434178E+00  6.643336E+00
       410   7 -2.395803E+00  2.729754E+01 -1.813420E+00 -7.847786E+00  2.242325E-01  4.476547E+00
       410   8 -8.102851E-01  3.404550E+01 -3.276317E+00 -7.354830E+00  1.298209E-01  6.622425E+00
       411   1 -2.023854E+00 -3.154395E+01 -9.406697E-01 -5.513945E+00 -3.777050E+00 -1.065009E+01
       411   2 -8.861873E-01 -2.642103E+01 -2.271368E+00 -6.134564E+00 -3.717153E+00 -7.879319E+00
       411   3 -3.282231E-01 -2.717360E+01  8.838757E-01 -5.014807E+00 -2.528510E+00 -1.022926E+01
       411   4  6.387512E-01 -2.244910E+01 -6.173779E-01 -5.525623E+00 -2.468130E+00 -7.443451E+00
       411   5  4.601948E-01 -3.016638E+01  1.167191E+00 -7.290234E+00 -2.365120E+00 -9.529095E+00
       411   6  1.618359E+00 -2.502296E+01 -1.156793E-01 -7.910852E+00 -2.208663E+00 -6.858452E+00
       411   7  1.799228E+00 -2.594458E+01  2.853178E+00 -6.666997E+00 -1.091021E+00 -9.092933E+00
       411   8  2.786980E+00 -2.119930E+01  1.400406E+00 -7.177812E+00 -9.327589E-01 -6.408621E+00
       412   1 -2.669794E+00 -2.230648E+01 -3.373712E+00 -1.004149E+01 -5.210133E+00 -5.918907E+00
       412   2  1.202759E+00 -1.195263E+01 -8.190501E-01 -1.036449E+01 -5.069140E+00 -3.333738E+00
       412   3 -1.700347E+00 -1.909823E+01 -2.116209E+00 -9.430186E+00 -4.537177E+00 -5.548328E+00
       412   4  1.588196E+00 -1.010538E+01 -1.472457E-01 -9.726436E+00 -4.396066E+00 -3.156571E+00
       412   5 -1.178895E+00 -2.139144E+01 -1.814454E+00 -1.293031E+01 -3.444895E+00 -5.059742E+00
       412   6  2.440785E+00 -1.129046E+01  1.501695E-01 -1.325330E+01 -3.280383E+00 -2.816217E+00
       412   7 -2.987519E-01 -1.821768E+01 -5.826378E-01 -1.193838E+01 -2.565081E+00 -4.677412E+00
       412   8  2.733459E+00 -9.481166E+00  7.882175E-01 -1.223462E+01 -2.400130E+00 -2.631972E+00
       413   1 -2.130703E+00 -6.727239E+00 -1.521752E+00 -1.116776E+01 -5.441162E+00 -1.423566E+00
       413   2  2.139246E+00  4.587679E+00  1.396492E+00 -1.121774E+01 -5.469427E+00  1.209950E+00
       413   3 -1.629721E+00 -5.745568E+00 -1.076543E+00 -1.064970E+01 -4.751503E+00 -1.386299E+00
       413   4  1.909940E+00  3.866989E+00  1.109770E+00 -1.066654E+01 -4.779623E+00  1.058415E+00
       413   5 -1.927171E+00 -6.612811E+00 -1.343856E+00 -1.430781E+01 -3.548625E+00 -1.187544E+00
       413   6  2.096550E+00  4.455880E+00  9.998585E-01 -1.435779E+01 -3.547755E+00  1.018551E+00
       413   7 -1.529616E+00 -5.675093E+00 -9.417325E-01 -1.331996E+01 -2.657094E+00 -1.147048E+00
       413   8  1.760450E+00  3.687869E+00  6.621926E-01 -1.333680E+01 -2.655680E+00  8.643984E-01
       414   1 -1.913280E+00  1.017507E+01  4.692498E-01 -8.820422E+00 -5.017908E+00  3.240432E+00
       414   2  2.790955E+00  2.271627E+01  3.608827E+00 -8.668884E+00 -5.223032E+00  6.154293E+00
       414   3 -2.060103E+00  8.462961E+00 -9.157809E-02 -8.368400E+00 -4.220836E+00  2.962758E+00
       414   4  1.900129E+00  1.926951E+01  2.302643E+00 -8.189755E+00 -4.425841E+00  5.720805E+00
       414   5 -2.749009E+00  9.609509E+00 -5.802158E-01 -1.231348E+01 -3.217141E+00  2.733148E+00
       414   6  1.752567E+00  2.194806E+01  2.086489E+00 -1.216194E+01 -3.398427E+00  5.211419E+00
       414   7 -2.977849E+00  7.859416E+00 -1.185649E+00 -1.137874E+01 -2.244686E+00  2.448536E+00
       414   8  7.769514E-01  1.846054E+01  7.292321E-01 -1.120009E+01 -2.425527E+00  4.765034E+00
       415   1  2.844443E-01  2.770551E+01  2.309759E+00 -5.204157E+00 -3.759769E+00  8.370608E+00
       415   2  2.022106E+00  3.449078E+01  1.316694E+00 -4.763461E+00 -3.890024E+00  1.151183E+01
       415   3 -1.262998E+00  2.321760E+01  4.938406E-01 -4.718290E+00 -2.378487E+00  7.900610E+00
       415   4  1.285018E-01  2.919466E+01 -8.448824E-01 -4.362537E+00 -2.509115E+00  1.109790E+01
       415   5 -1.702735E+00  2.650403E+01  2.920060E-01 -7.453953E+00 -2.186808E+00  7.193933E+00
       415   6  1.102324E-01  3.336460E+01 -5.253454E-01 -7.013257E+00 -2.391761E+00  1.013199E+01
       415   7 -2.978554E+00  2.212774E+01 -1.423451E+00 -6.734565E+00 -8.122369E-01  6.707842E+00
       415   8 -1.510719E+00  2.818114E+01 -2.584058E+00 -6.378812E+00 -1.018585E+00  9.699192E+00
       416   1 -3.236036E+00 -2.742641E+01 -7.610107E+00 -4.579495E+00 -5.084723E+00 -1.234862E+01
       416   2 -9.968438E-01 -2.178161E+01 -5.790924E+00 -5.045908E+00 -4.851215E+00 -8.939924E+00
       416   3 -9.503125E-01 -2.053195E+01 -4.843956E+00 -3.872722E+00 -4.856633E+00 -1.128272E+01
       416   4  7.302066E-01 -1.618927E+01 -3.584901E+00 -4.329511E+00 -4.623083E+00 -8.040907E+00
       416   5 -4.538376E-01 -2.545632E+01 -3.825366E+00 -6.061948E+00 -2.913677E+00 -1.057241E+01
       416   6  1.572541E+00 -2.002435E+01 -2.502749E+00 -6.528361E+00 -2.671906E+00 -7.482859E+00
       416   7  1.802394E+00 -1.856361E+01 -1.035537E+00 -5.015546E+00 -2.494301E+00 -9.481623E+00
       416   8  3.267118E+00 -1.443673E+01 -2.800050E-01 -5.472334E+00 -2.252371E+00 -6.563430E+00
       417   1 -2.792237E+00 -1.823714E+01 -5.543433E+00 -8.920903E+00 -7.096180E+00 -6.668447E+00
       417   2  8.502772E-01 -9.575317E+00 -2.063539E+00 -9.166027E+00 -6.901266E+00 -3.871351E+00
       417   3 -1.434099E+00 -1.376778E+01 -3.787054E+00 -8.126176E+00 -6.999105E+00 -5.952070E+00
       417   4  1.380842E+00 -7.034067E+00 -1.137637E+00 -8.256716E+00 -6.803687E+00 -3.487075E+00
       417   5 -1.130444E+00 -1.700215E+01 -3.088609E+00 -1.110580E+01 -4.370899E+00 -5.501123E+00
       417   6  2.087494E+00 -8.764907E+00 -5.993920E-01 -1.135092E+01 -4.077607E+00 -3.176468E+00
       417   7 -1.141317E-01 -1.267197E+01 -1.454314E+00 -9.808447E+00 -3.947704E+00 -4.768394E+00
       417   8  2.270285E+00 -6.368779E+00  1.905473E-01 -9.938987E+00 -3.652530E+00 -2.782457E+00
       418   1 -1.765453E+00 -5.408477E+00 -1.926884E+00 -1.017047E+01 -7.150645E+00 -1.792760E+00
       418   2  1.813921E+00  3.471518E+00  1.124368E+00 -1.017097E+01 -7.141772E+00  1.088961E+00
       418   3 -1.196748E+00 -4.023776E+00 -1.338981E+00 -9.362526E+00 -6.870391E+00 -1.626649E+00
       418   4  1.525154E+00  2.857753E+00  8.524976E-01 -9.351890E+00 -6.861469E+00  9.911318E-01
       418   5 -1.552282E+00 -5.196168E+00 -1.432356E+00 -1.247783E+01 -4.232308E+00 -1.450085E+00
       418   6  1.690410E+00  3.347145E+00  8.333045E-01 -1.247832E+01 -4.213878E+00  9.418245E-01
       418   7 -1.014081E+00 -3.822845E+00 -8.518786E-01 -1.114819E+01 -3.683362E+00 -1.279174E+00
       418   8  1.366422E+00  2.717285E+00  5.430030E-01 -1.113755E+01 -3.664749E+00  8.419336E-01
       419   1 -1.440591E+00  7.865826E+00  1.175877E+00 -8.019837E+00 -6.621867E+00  3.360552E+00
       419   2  2.963055E+00  1.822324E+01  5.497284E+00 -7.859321E+00 -6.855035E+00  6.684932E+00
       419   3 -1.594353E+00  5.950780E+00  5.514646E-01 -7.504109E+00 -6.563899E+00  3.028327E+00
       419   4  1.714380E+00  1.375668E+01  3.774672E+00 -7.422211E+00 -6.797413E+00  5.976267E+00
       419   5 -2.353890E+00  7.232018E+00 -2.351828E-02 -1.061150E+01 -3.856717E+00  2.805258E+00
       419   6  1.569085E+00  1.710876E+01  3.176324E+00 -1.045099E+01 -4.157385E+00  5.504342E+00
       419   7 -2.270589E+00  5.415174E+00 -5.576517E-01 -9.434675E+00 -3.432271E+00  2.465253E+00
       419   8  5.507393E-01  1.273367E+01  1.528279E+00 -9.352777E+00 -3.734231E+00  4.779138E+00
       420   1  5.410004E-01  2.234400E+01  5.811482E+00 -4.383619E+00 -4.642437E+00  9.335908E+00
       420   2  3.321132E+00  2.915941E+01  8.263175E+00 -4.038779E+00 -5.003421E+00  1.325413E+01
       420   3 -9.476545E-01  1.646185E+01  3.589771E+00 -3.941416E+00 -4.459060E+00  8.413212E+00
       420   4  1.041805E+00  2.143417E+01  5.248978E+00 -3.538771E+00 -4.819789E+00  1.212313E+01
       420   5 -1.687656E+00  2.071578E+01  2.612730E+00 -6.140171E+00 -2.483068E+00  7.761079E+00
       420   6  8.271958E-01  2.726591E+01  4.445435E+00 -5.795332E+00 -2.794422E+00  1.122751E+01
       420   7 -3.351999E+00  1.474890E+01  2.842914E-01 -5.221915E+00 -2.070497E+00  6.816321E+00
       420   8 -1.631536E+00  1.945223E+01  1.315840E+00 -4.819270E+00 -2.380901E+00  1.006813E+01
       421   1 -2.772578E+00 -1.747202E+01 -1.171120E+01 -2.912798E+00 -5.566846E+00 -1.023204E+01
       421   2  8.187735E-01 -1.217956E+01 -5.032487E+00 -3.336790E+00 -5.089663E+00 -7.090806E+00
       421   3  1.433512E+00 -4.464986E+00 -6.546176E+00 -9.716731E-01 -7.088167E+00 -1.011981E+01
       421   4  3.594271E+00 -2.507651E+00 -1.300982E+00 -1.314310E+00 -6.610626E+00 -7.315142E+00
       421   5 -1.392212E+00 -1.681224E+01 -1.089230E+01 -3.635568E+00 -2.051331E+00 -6.946928E+00
       421   6  1.781472E+00 -1.193745E+01 -5.188146E+00 -4.059560E+00 -1.505994E+00 -4.603436E+00
       421   7  2.559201E+00 -3.913375E+00 -5.833159E+00 -8.864656E-01 -3.233118E+00 -6.787523E+00
       421   8  4.296295E+00 -2.379704E+00 -1.576517E+00 -1.229102E+00 -2.686445E+00 -4.792057E+00
       422   1 -2.007146E-01 -9.775460E+00 -3.177366E+00 -6.908095E+00 -6.935899E+00 -5.173329E+00
       422   2  1.871396E+00 -4.878891E+00 -1.166899E+00 -6.907266E+00 -6.977191E+00 -3.075921E+00
       422   3  3.349898E+00 -1.763388E+00  2.880422E-01 -4.346811E+00 -6.884594E+00 -5.460090E+00
       422   4  3.994625E+00 -1.988795E-01  8.726244E-01 -4.099116E+00 -6.924799E+00 -3.196661E+00
       422   5 -5.760948E-01 -1.014943E+01 -4.048558E+00 -8.108157E+00 -2.718243E+00 -3.269972E+00
       422   6  1.709907E+00 -5.038971E+00 -1.539011E+00 -8.107328E+00 -2.552726E+00 -1.970373E+00
       422   7  2.245368E+00 -2.452913E+00 -9.058418E-01 -4.732078E+00 -2.753569E+00 -3.529404E+00
       422   8  3.107058E+00 -6.714410E-01  1.849872E-01 -4.484383E+00 -2.583996E+00 -2.075239E+00
       423   1 -1.026582E+00 -3.073761E+00 -1.586531E+00 -8.068861E+00 -7.041863E+00 -1.480922E+00
       423   2  1.170614E+00  2.184264E+00  4.794335E-01 -8.055800E+00 -7.008047E+00  7.792900E-01
       423   3 -2.028884E-01 -9.266707E-01 -6.953980E-01 -5.310937E+00 -6.954183E+00 -1.487115E+00
       423   4  5.889788E-01  1.050922E+00 -3.343319E-02 -5.302689E+00 -6.920388E+00  9.200233E-01
       423   5 -1.076684E+00 -3.101665E+00 -1.629444E+00 -9.369352E+00 -2.563112E+00 -9.548749E-01
       423   6  1.310328E+00  2.346175E+00  8.794227E-01 -9.356291E+00 -2.533328E+00  5.199169E-01
       423   7 -2.384906E-01 -9.484534E-01 -7.324048E-01 -5.807599E+00 -2.541696E+00 -9.535149E-01
       423   8  7.459174E-01  1.221680E+00  3.788218E-01 -5.799351E+00 -2.511990E+00  6.569260E-01
       424   1 -2.094067E+00  4.016049E+00  8.424313E-02 -6.453628E+00 -6.757966E+00  2.545208E+00
       424   2  3.812129E-01  9.587589E+00  2.763635E+00 -6.470509E+00 -6.756255E+00  5.109572E+00
       424   3 -3.733562E+00  2.002444E-01 -1.549466E+00 -4.069099E+00 -6.838263E+00  2.792074E+00
       424   4 -3.048818E+00  1.592563E+00 -6.593036E-01 -4.279440E+00 -6.837404E+00  5.499471E+00
       424   5 -1.727617E+00  4.353809E+00  8.436600E-01 -7.769173E+00 -2.350896E+00  1.632126E+00
       424   6  9.340063E-01  1.011169E+01  3.957854E+00 -7.786054E+00 -2.511254E+00  3.195947E+00
       424   7 -2.796044E+00  7.853426E-01 -5.366564E-01 -4.365479E+00 -2.495977E+00  1.865882E+00
       424   8 -1.922280E+00  2.366681E+00  7.945511E-01 -4.575820E+00 -2.659513E+00  3.558370E+00
       425   1 -9.474523E-01  1.213217E+01  4.836687E+00 -3.135145E+00 -4.957416E+00  7.344381E+00
       425   2  2.928559E+00  1.779022E+01  1.209866E+01 -2.716379E+00 -5.565084E+00  1.088563E+01
       425   3 -3.512269E+00  2.081389E+00  1.055635E+00 -1.347820E+00 -6.626956E+00  7.647385E+00
       425   4 -1.327247E+00  3.797113E+00  6.623318E+00 -9.442181E-01 -7.234691E+00  1.080820E+01
       425   5 -1.794845E+00  1.199648E+01  5.231789E+00 -3.892305E+00 -1.330766E+00  4.719363E+00
       425   6  1.609337E+00  1.718271E+01  1.139283E+01 -3.473539E+00 -1.951138E+00  7.317592E+00
       425   7 -4.291852E+00  1.978029E+00  1.490686E+00 -1.151246E+00 -2.621706E+00  4.984676E+00
       425   8 -2.585433E+00  3.215150E+00  5.941629E+00 -7.476442E-01 -3.242328E+00  7.188930E+00
       426   1 -2.496823E+00 -4.585925E+01 -1.925539E+00 -5.935566E+00 -5.465061E-01 -4.449821E+00
       426   2  1.527501E+00 -3.415237E+01 -2.180031E-01 -6.289297E+00 -2.920547E-01 -2.616691E+00
       426   3 -2.518741E+00 -4.418179E+01 -1.393443E+00 -4.484336E+00  6.923250E-01 -3.894965E+00
       426   4  1.406173E+00 -3.269690E+01  2.047152E-01 -4.923375E+00  9.446237E-01 -2.260868E+00
       426   5 -5.954434E-01 -4.461800E+01  3.105739E-01 -9.519851E+00 -8.094456E-01 -3.909792E+00
       426   6  3.156032E+00 -3.318397E+01  1.381463E+00 -9.873582E+00 -6.335680E-01 -2.133113E+00
       426   7 -3.475011E-01 -4.281932E+01  9.768844E-01 -7.965964E+00  6.496245E-01 -3.347883E+00
       426   8  3.301002E+00 -3.161085E+01  1.930082E+00 -8.405003E+00  8.223233E-01 -1.770975E+00
       427   1 -1.234462E+00 -2.757263E+01 -1.338844E+00 -1.362920E+01 -8.053172E-01 -1.660291E+00
       427   2  3.376185E+00 -1.436870E+01  8.260531E-01 -1.357600E+01 -5.999501E-01 -8.804889E-01
       427   3 -1.279489E+00 -2.632899E+01 -9.643664E-01 -1.164033E+01  4.846911E-01 -1.422207E+00
       427   4  3.071477E+00 -1.372501E+01  9.348765E-01 -1.165298E+01  6.883965E-01 -7.650386E-01
       427   5 -1.094621E+00 -2.733351E+01 -6.816054E-01 -1.763838E+01 -8.370993E-01 -1.254734E+00
       427   6  3.352527E+00 -1.429308E+01  1.101793E+00 -1.758518E+01 -6.923820E-01 -6.316376E-01
       427   7 -9.210389E-01 -2.599383E+01 -2.056378E-01 -1.544113E+01  5.939072E-01 -1.011354E+00
       427   8  3.264293E+00 -1.355549E+01  1.307125E+00 -1.545377E+01  7.361708E-01 -5.129374E-01
       428   1 -1.925137E+00 -7.952153E+00 -1.214819E+00 -1.483752E+01 -8.973202E-01 -3.509126E-01
       428   2  3.305537E+00  6.799177E+00  1.469432E+00 -1.476664E+01 -8.279323E-01  3.161147E-01
       428   3 -1.949368E+00 -7.559331E+00 -1.102550E+00 -1.296483E+01  4.369514E-01 -3.215647E-01
       428   4  3.002746E+00  6.547474E+00  1.297691E+00 -1.291801E+01  5.057322E-01  2.328602E-01
       428   5 -2.120979E+00 -8.015723E+00 -1.230878E+00 -1.927937E+01 -8.876594E-01 -2.211091E-01
       428   6  2.960503E+00  6.586415E+00  1.105259E+00 -1.920849E+01 -8.404287E-01  2.773790E-01
       428   7 -2.064210E+00 -7.587921E+00 -1.083008E+00 -1.718088E+01  5.751776E-01 -1.900660E-01
       428   8  2.736763E+00  6.367743E+00  9.645716E-01 -1.713406E+01  6.215119E-01  1.936186E-01
       429   1 -2.746421E+00  1.329737E+01 -8.735393E-01 -1.240695E+01 -7.317472E-01  8.432878E-01
       429   2  2.330876E+00  2.780325E+01  1.544905E+00 -1.239732E+01 -8.391494E-01  1.616524E+00
       429   3 -2.650363E+00  1.281137E+01 -1.000266E+00 -1.063589E+01  6.588841E-01  6.901516E-01
       429   4  2.119456E+00  2.660349E+01  1.107006E+00 -1.059597E+01  5.522464E-01  1.385070E+00
       429   5 -2.983048E+00  1.307871E+01 -1.365769E+00 -1.680584E+01 -7.678152E-01  6.743774E-01
       429   6  1.993128E+00  2.748347E+01  8.167256E-01 -1.679621E+01 -8.473173E-01  1.260509E+00
       429   7 -2.986913E+00  1.254836E+01 -1.540424E+00 -1.479097E+01  7.194036E-01  5.190354E-01
       429   8  1.680463E+00  2.623804E+01  3.278159E-01 -1.475105E+01  6.410303E-01  1.024406E+00
       430   1 -1.704911E+00  3.460904E+01 -1.123851E-01 -5.313704E+00 -3.687389E-01  2.537235E+00
       430   2  2.714961E+00  4.749256E+01  1.737002E+00 -5.022705E+00 -5.901873E-01  4.279428E+00
       430   3 -1.647689E+00  3.323251E+01 -5.279776E-01 -4.091615E+00  9.886145E-01  2.223152E+00
       430   4  2.655178E+00  4.585036E+01  1.197058E+00 -3.731192E+00  7.689180E-01  3.817914E+00
       430   5 -3.072187E+00  3.378483E+01 -1.492497E+00 -9.262407E+00 -6.842145E-01  2.087676E+00
       430   6  1.146586E+00  4.646725E+01 -1.123410E-01 -8.971409E+00 -8.417175E-01  3.761406E+00
       430   7 -3.231968E+00  3.231218E+01 -2.011461E+00 -7.920953E+00  8.415763E-01  1.767721E+00
       430   8  8.671741E-01  4.472631E+01 -7.617849E-01 -7.560529E+00  6.866604E-01  3.293126E+00
       431   1 -2.413950E+00 -4.295072E+01 -1.004083E+00 -3.835138E+00 -9.685774E-01 -8.199864E+00
       431   2  1.155092E+00 -3.191958E+01 -1.384127E-01 -4.306465E+00 -8.431435E-01 -5.476169E+00
       431   3 -2.058021E+00 -4.121837E+01 -3.598221E-01 -3.512024E+00  4.576221E-01 -7.915011E+00
       431   4  1.401772E+00 -3.044173E+01  3.961819E-01 -3.984753E+00  5.830206E-01 -5.201440E+00
       431   5 -5.431590E-01 -4.193988E+01  4.945981E-01 -7.238836E+00 -9.406754E-01 -7.703941E+00
       431   6  3.014686E+00 -3.091994E+01  1.334144E+00 -7.710163E+00 -8.165034E-01 -5.045624E+00
       431   7 -1.977664E-01 -4.020925E+01  1.143655E+00 -6.805470E+00  5.285009E-01 -7.412462E+00
       431   8  3.250681E+00 -2.944396E+01  1.873185E+00 -7.278199E+00  6.526207E-01 -4.765143E+00
       432   1 -1.550067E+00 -2.576440E+01 -1.467176E+00 -1.057324E+01 -1.451172E+00 -3.819116E+00
       432   2  2.764312E+00 -1.343324E+01  5.829269E-01 -1.061172E+01 -1.352373E+00 -2.015657E+00
       432   3 -1.297142E+00 -2.452003E+01 -1.003794E+00 -9.643596E+00 -2.526128E-01 -3.592808E+00
       432   4  2.784398E+00 -1.272619E+01  8.074980E-01 -9.685676E+00 -1.539052E-01 -1.911513E+00
       432   5 -1.135114E+00 -2.541965E+01 -7.329523E-01 -1.422995E+01 -1.136566E+00 -3.462665E+00
       432   6  3.019489E+00 -1.324826E+01  9.443377E-01 -1.426843E+01 -1.041012E+00 -1.796257E+00
       432   7 -8.685502E-01 -2.416720E+01 -2.562920E-01 -1.311504E+01  2.001663E-01 -3.231594E+00
       432   8  3.051079E+00 -1.253527E+01  1.177207E+00 -1.315712E+01  2.955860E-01 -1.689182E+00
       433   1 -2.013710E+00 -7.370158E+00 -1.221891E+00 -1.189901E+01 -1.629311E+00 -7.786387E-01
       433   2  2.888796E+00  6.407908E+00  1.341731E+00 -1.186207E+01 -1.606354E+00  7.974978E-01
       433   3 -1.917044E+00 -6.998847E+00 -1.080101E+00 -1.085501E+01 -3.965727E-01 -7.544397E-01
       433   4  2.684112E+00  6.080671E+00  1.177566E+00 -1.082062E+01 -3.736802E-01  7.254473E-01
       433   5 -2.102919E+00 -7.391963E+00 -1.205365E+00 -1.594744E+01 -1.212380E+00 -6.748435E-01
       433   6  2.676384E+00  6.262900E+00  1.070784E+00 -1.591050E+01 -1.191716E+00  7.225077E-01
       433   7 -1.996287E+00 -7.016162E+00 -1.058572E+00 -1.467128E+01  1.326606E-01 -6.492577E-01
       433   8  2.480019E+00  5.938508E+00  9.077795E-01 -1.463688E+01  1.532293E-01  6.494554E-01
       434   1 -2.462072E+00  1.257924E+01 -6.915338E-01 -9.671948E+00 -1.412493E+00  2.042681E+00
       434   2  2.261438E+00  2.605223E+01  1.580515E+00 -9.621587E+00 -1.477281E+00  3.868450E+00
       434   3 -2.562633E+00  1.191090E+01 -9.309143E-01 -8.804330E+00 -1.215769E-01  1.904423E+00
       434   4  1.904424E+00  2.478956E+01  1.080625E+00 -8.756317E+00 -1.864247E-01  3.645558E+00
       434   5 -2.802147E+00  1.233105E+01 -1.178755E+00 -1.366286E+01 -1.071699E+00  1.846584E+00
       434   6  1.812835E+00  2.569551E+01  8.400617E-01 -1.361250E+01 -1.138602E+00  3.520266E+00
       434   7 -2.895581E+00  1.166440E+01 -1.419644E+00 -1.259054E+01  3.226356E-01  1.705706E+00
       434   8  1.461498E+00  2.443307E+01  3.352807E-01 -1.254253E+01  2.556446E-01  3.292722E+00
       435   1 -1.425058E+00  3.248457E+01 -1.653017E-01 -3.544178E+00 -9.068862E-01  5.530705E+00
       435   2  2.508560E+00  4.461170E+01  8.196273E-01 -3.158698E+00 -1.023755E+00  8.246303E+00
       435   3 -1.713922E+00  3.097801E+01 -7.187919E-01 -3.266769E+00  6.403820E-01  5.292008E+00
       435   4  2.083473E+00  4.278508E+01  1.321230E-01 -2.883542E+00  5.234568E-01  8.049056E+00
       435   5 -2.961760E+00  3.165118E+01 -1.406540E+00 -7.281501E+00 -8.531356E-01  5.096565E+00
       435   6  1.030964E+00  4.383742E+01 -2.836973E-01 -6.896020E+00 -9.720322E-01  7.729413E+00
       435   7 -3.231385E+00  3.015054E+01 -1.959569E+00 -6.872069E+00  6.894831E-01  4.852068E+00
       435   8  6.259059E-01  4.201750E+01 -9.688980E-01 -6.488841E+00  5.705025E-01  7.525261E+00
       436   1 -2.763063E+00 -4.045138E+01 -2.422082E+00 -3.309562E+00 -1.586253E+00 -1.053260E+01
       436   2  7.622904E-01 -2.984311E+01 -1.279175E+00 -3.795838E+00 -1.403320E+00 -7.316823E+00
       436   3 -1.729560E+00 -3.675109E+01 -9.855932E-01 -3.072013E+00 -3.101382E-01 -1.025467E+01
       436   4  1.421823E+00 -2.701717E+01 -2.149053E-01 -3.594535E+00 -1.281202E-01 -7.010515E+00
       436   5 -9.171517E-01 -3.947243E+01 -1.004829E+00 -6.466529E+00 -1.199620E+00 -9.531671E+00
       436   6  2.653965E+00 -2.881840E+01  2.448586E-01 -6.952804E+00 -1.048563E+00 -6.535913E+00
       436   7  2.119399E-01 -3.572861E+01  4.811911E-01 -5.966365E+00  8.644954E-02 -9.240052E+00
       436   8  3.409712E+00 -2.594830E+01  1.360120E+00 -6.488887E+00  2.361559E-01 -6.218924E+00
       437   1 -1.798949E+00 -2.403214E+01 -2.315157E+00 -9.127254E+00 -2.379838E+00 -5.268201E+00
       437   2  2.366274E+00 -1.246966E+01  6.443431E-03 -9.184256E+00 -2.213340E+00 -2.887037E+00
       437   3 -1.336564E+00 -2.184635E+01 -1.504211E+00 -8.639803E+00 -1.387991E+00 -4.999278E+00
       437   4  2.403269E+00 -1.127022E+01  3.857702E-01 -8.734595E+00 -1.222446E+00 -2.748631E+00
       437   5 -1.289461E+00 -2.362427E+01 -1.465105E+00 -1.242433E+01 -1.580616E+00 -4.658104E+00
       437   6  2.712934E+00 -1.222463E+01  4.765628E-01 -1.248133E+01 -1.447351E+00 -2.523593E+00
       437   7 -7.086266E-01 -2.138514E+01 -5.947547E-01 -1.164573E+01 -4.468341E-01 -4.380837E+00
       437   8  2.866152E+00 -1.097406E+01  9.100976E-01 -1.174052E+01 -3.149770E-01 -2.380216E+00
       438   1 -1.982879E+00 -6.821024E+00 -1.367305E+00 -1.031443E+01 -2.419303E+00 -1.170768E+00
       438   2  2.681538E+00  5.925321E+00  1.434407E+00 -1.028071E+01 -2.405779E+00  1.137002E+00
       438   3 -1.749604E+00 -6.194182E+00 -1.106728E+00 -9.875938E+00 -1.421220E+00 -1.127375E+00
       438   4  2.391798E+00  5.337866E+00  1.165895E+00 -9.841452E+00 -1.407676E+00  1.051334E+00
       438   5 -2.036978E+00 -6.815003E+00 -1.293134E+00 -1.391667E+01 -1.594227E+00 -1.008861E+00
       438   6  2.468699E+00  5.772601E+00  1.138183E+00 -1.388295E+01 -1.580029E+00  9.949524E-01
       438   7 -1.803939E+00 -6.187863E+00 -1.031327E+00 -1.312562E+01 -4.585098E-01 -9.632532E-01
       438   8  2.176550E+00  5.183274E+00  8.658350E-01 -1.309113E+01 -4.442840E-01  9.073408E-01
       439   1 -2.174744E+00  1.167728E+01 -1.264368E-01 -8.362425E+00 -2.147762E+00  2.904405E+00
       439   2  2.377649E+00  2.428176E+01  2.443726E+00 -8.299191E+00 -2.307742E+00  5.425269E+00
       439   3 -2.225814E+00  1.048904E+01 -5.087531E-01 -8.016750E+00 -1.086872E+00  2.733733E+00
       439   4  1.835457E+00  2.195237E+01  1.565495E+00 -7.908715E+00 -1.245721E+00  5.151426E+00
       439   5 -2.583621E+00  1.138114E+01 -7.046894E-01 -1.195137E+01 -1.399353E+00  2.546481E+00
       439   6  1.843498E+00  2.386035E+01  1.573168E+00 -1.188813E+01 -1.519934E+00  4.781523E+00
       439   7 -2.772816E+00  1.013205E+01 -1.151715E+00 -1.127144E+01 -2.216883E-01  2.370914E+00
       439   8  1.161467E+00  2.146839E+01  6.262292E-01 -1.116341E+01 -3.406004E-01  4.498875E+00
       440   1 -1.013922E+00  3.036838E+01  1.106265E+00 -3.128652E+00 -1.353228E+00  7.583066E+00
       440   2  2.881002E+00  4.198424E+01  2.473486E+00 -2.726801E+00 -1.568896E+00  1.095741E+01
       440   3 -1.678410E+00  2.732596E+01 -2.328954E-02 -3.021169E+00 -3.968144E-03  7.292303E+00
       440   4  1.759306E+00  3.787174E+01  8.899877E-01 -2.565151E+00 -2.182691E-01  1.072360E+01
       440   5 -2.619185E+00  2.947956E+01 -2.511993E-01 -6.569994E+00 -1.013550E+00  6.736065E+00
       440   6  1.361057E+00  4.118074E+01  1.315095E+00 -6.168143E+00 -1.181583E+00  9.840930E+00
       440   7 -3.438283E+00  2.636813E+01 -1.456173E+00 -6.146592E+00  3.195413E-01  6.433717E+00
       440   8  8.591648E-02  3.700039E+01 -3.411002E-01 -5.690575E+00  1.535264E-01  9.591841E+00
       441   1 -3.671920E+00 -3.600131E+01 -6.798448E+00 -2.894564E+00 -1.783951E+00 -1.147005E+01
       441   2  2.000307E-01 -2.610551E+01 -3.787746E+00 -3.438795E+00 -1.547944E+00 -7.963717E+00
       441   3 -1.358034E+00 -2.896252E+01 -3.959853E+00 -2.641332E+00 -1.260370E+00 -1.091691E+01
       441   4  1.731971E+00 -2.088472E+01 -1.737641E+00 -3.208371E+00 -1.024938E+00 -7.553331E+00
       441   5 -1.369901E+00 -3.464690E+01 -4.585774E+00 -5.516738E+00 -1.134316E+00 -9.656141E+00
       441   6  2.335041E+00 -2.491811E+01 -1.964760E+00 -6.060968E+00 -9.178923E-01 -6.594573E+00
       441   7  9.986324E-01 -2.757954E+01 -1.706581E+00 -4.782516E+00 -4.550879E-01 -9.077589E+00
       441   8  3.919288E+00 -1.967109E+01  1.204830E-01 -5.349556E+00 -2.395137E-01 -6.165005E+00
       442   1 -2.246225E+00 -2.101684E+01 -3.881741E+00 -8.306186E+00 -2.824786E+00 -5.759760E+00
       442   2  1.706031E+00 -1.079265E+01 -9.317436E-01 -8.455218E+00 -2.528614E+00 -3.244764E+00
       442   3 -1.449581E+00 -1.717217E+01 -2.471515E+00 -7.876359E+00 -2.251339E+00 -5.457088E+00
       442   4  1.755692E+00 -8.683927E+00 -2.755180E-01 -8.137182E+00 -1.957989E+00 -3.093622E+00
       442   5 -1.442094E+00 -2.047221E+01 -2.870420E+00 -1.103635E+01 -1.587748E+00 -4.708803E+00
       442   6  2.331084E+00 -1.042710E+01 -3.382692E-01 -1.118538E+01 -1.387556E+00 -2.618352E+00
       442   7 -3.108922E-01 -1.648135E+01 -1.307472E+00 -1.014426E+01 -8.604464E-01 -4.391407E+00
       442   8  2.712795E+00 -8.174693E+00  4.648248E-01 -1.040508E+01 -6.644203E-01 -2.458434E+00
       443   1 -1.808930E+00 -5.850028E+00 -1.543231E+00 -9.650293E+00 -2.641444E+00 -1.389711E+00
       443   2  2.341615E+00  5.017514E+00  1.424378E+00 -9.616935E+00 -2.620048E+00  1.163395E+00
       443   3 -1.374117E+00 -4.700721E+00 -1.065024E+00 -9.468422E+00 -1.983096E+00 -1.335920E+00
       443   4  1.904201E+00  4.136662E+00  1.025320E+00 -9.439001E+00 -1.961799E+00  1.102745E+00
       443   5 -1.852244E+00 -5.835259E+00 -1.450686E+00 -1.257419E+01 -1.483376E+00 -1.100637E+00
       443   6  2.169735E+00  4.903717E+00  1.216935E+00 -1.254083E+01 -1.465359E+00  9.553875E-01
       443   7 -1.403380E+00 -4.679463E+00 -9.649002E-01 -1.185484E+01 -7.074382E-01 -1.042797E+00
       443   8  1.744570E+00  4.027553E+00  8.212521E-01 -1.182542E+01 -6.895684E-01  8.918228E-01
       444   1 -1.564907E+00  1.003484E+01  7.092787E-01 -7.843107E+00 -2.349378E+00  3.110810E+00
       444   2  2.725746E+00  2.106659E+01  3.979701E+00 -7.675688E+00 -2.637266E+00  5.878141E+00
       444   3 -1.548975E+00  8.131601E+00  1.339718E-01 -7.710103E+00 -1.768216E+00  2.955029E+00
       444   4  1.862687E+00  1.711898E+01  2.518804E+00 -7.423855E+00 -2.053106E+00  5.576899E+00
       444   5 -2.253979E+00  9.637273E+00  7.314204E-02 -1.077750E+01 -1.269094E+00  2.537742E+00
       444   6  1.868280E+00  2.050063E+01  2.950642E+00 -1.061008E+01 -1.454959E+00  4.804789E+00
       444   7 -2.590584E+00  7.581519E+00 -6.580269E-01 -1.010367E+01 -5.418054E-01  2.373932E+00
       444   8  6.503242E-01  1.639814E+01  1.328378E+00 -9.817422E+00 -7.232431E-01  4.488509E+00
       445   1 -3.520036E-01  2.634672E+01  3.742744E+00 -2.955992E+00 -1.382083E+00  8.265866E+00
       445   2  3.832274E+00  3.697632E+01  7.060730E+00 -2.464840E+00 -1.659155E+00  1.202192E+01
       445   3 -1.879711E+00  2.087069E+01  1.617711E+00 -2.879321E+00 -8.542680E-01  7.858914E+00
       445   4  1.393018E+00  2.937981E+01  4.017684E+00 -2.346584E+00 -1.130290E+00  1.147163E+01
       445   5 -2.317930E+00  2.523598E+01  2.006218E+00 -5.761635E+00 -8.097843E-01  6.819440E+00
       445   6  1.701386E+00  3.570063E+01  4.939294E+00 -5.270483E+00 -1.051152E+00  1.005652E+01
       445   7 -3.956500E+00  1.970868E+01 -1.788522E-01 -5.127224E+00 -1.268709E-01  6.392223E+00
       445   8 -8.510427E-01  2.805054E+01  1.830818E+00 -4.594487E+00 -3.666885E-01  9.478688E+00
       446   1 -5.275873E+00 -2.923267E+01 -1.435362E+01 -2.581678E+00 -6.417985E-01 -7.453505E+00
       446   2 -7.538511E-01 -2.056510E+01 -7.947785E+00 -3.246932E+00 -1.531651E-01 -5.006887E+00
       446   3 -3.802188E+00 -2.251813E+01 -1.177556E+01 -2.690146E+00 -1.526019E+00 -5.546920E+00
       446   4 -2.610870E-01 -1.610100E+01 -6.389020E+00 -3.605286E+00 -1.043692E+00 -3.876733E+00
       446   5 -9.685393E-01 -2.605596E+01 -8.071902E+00 -4.343046E+00 -4.181405E-01 -5.681687E+00
       446   6  2.597946E+00 -1.834392E+01 -3.895652E+00 -5.008300E+00 -1.388456E-01 -3.766829E+00
       446   7  1.243260E+00 -1.900598E+01 -5.113819E+00 -3.894825E+00 -6.378444E-01 -3.749664E+00
       446   8  3.815105E+00 -1.355810E+01 -1.988879E+00 -4.809965E+00 -3.678611E-01 -2.618871E+00
       447   1 -2.962812E+00 -1.661392E+01 -6.447577E+00 -7.753863E+00 -9.925215E-01 -3.564642E+00
       447   2  6.188783E-01 -8.427205E+00 -2.695324E+00 -8.091452E+00 -7.883056E-01 -2.070973E+00
       447   3 -2.045103E+00 -1.308998E+01 -5.068783E+00 -7.873108E+00 -1.044584E+00 -2.831490E+00
       447   4  8.797546E-01 -6.420865E+00 -1.988369E+00 -8.308362E+00 -8.428330E-01 -1.646023E+00
       447   5 -1.072061E+00 -1.529691E+01 -3.948296E+00 -9.710454E+00 -5.813524E-01 -2.651191E+00
       447   6  2.135990E+00 -7.483834E+00 -1.067867E+00 -1.004804E+01 -4.589545E-01 -1.518070E+00
       447   7  1.305299E-01 -1.164360E+01 -2.423161E+00 -9.441457E+00 -3.684905E-01 -1.904925E+00
       447   8  2.676385E+00 -5.353492E+00 -2.270883E-01 -9.876711E+00 -2.497320E-01 -1.085182E+00
       448   1 -1.653246E+00 -4.471699E+00 -2.081892E+00 -9.533269E+00 -7.915149E-01 -9.331847E-01
       448   2  1.954873E+00  3.889962E+00  1.583512E+00 -9.509458E+00 -7.665207E-01  6.816418E-01
       448   3 -1.263326E+00 -3.408927E+00 -1.633521E+00 -9.916064E+00 -7.905790E-01 -7.338391E-01
       448   4  1.553219E+00  3.120618E+00  1.225417E+00 -9.903793E+00 -7.658760E-01  5.728259E-01
       448   5 -1.483460E+00 -4.261445E+00 -1.550834E+00 -1.155296E+01 -4.900151E-01 -6.717838E-01
       448   6  1.753921E+00  3.729477E+00  1.249514E+00 -1.152915E+01 -4.746878E-01  5.071931E-01
       448   7 -1.055248E+00 -3.180289E+00 -1.079473E+00 -1.147132E+01 -2.278236E-01 -4.686852E-01
       448   8  1.385236E+00  2.973195E+00  9.019901E-01 -1.145905E+01 -2.129263E-01  3.958726E-01
       449   1 -5.368280E-01  7.870976E+00  2.228339E+00 -7.788623E+00 -6.179220E-01  1.890609E+00
       449   2  3.315300E+00  1.650038E+01  6.439365E+00 -7.425795E+00 -8.021427E-01  3.578741E+00
       449   3 -7.488891E-01  6.104014E+00  1.612496E+00 -8.160316E+00 -7.656699E-01  1.538506E+00
       449   4  2.330432E+00  1.294755E+01  5.033366E+00 -7.707650E+00 -9.476234E-01  2.870126E+00
       449   5 -2.039875E+00  6.984566E+00  7.766861E-01 -9.818400E+00 -3.590071E-01  1.401309E+00
       449   6  1.380322E+00  1.518204E+01  3.979872E+00 -9.455572E+00 -4.679683E-01  2.665103E+00
       449   7 -2.506157E+00  5.105174E+00  4.029815E-02 -9.737024E+00 -2.036924E-01  1.042181E+00
       449   8  1.350314E-01  1.151057E+01  2.438858E+00 -9.284359E+00 -3.093060E-01  1.943371E+00
       450   1  7.285233E-01  2.050415E+01  8.012540E+00 -3.026606E+00  1.304936E-02  5.160183E+00
       450   2  5.475942E+00  2.952759E+01  1.481383E+01 -2.378019E+00 -5.214821E-01  7.792629E+00
       450   3  3.113825E-01  1.591384E+01  6.437917E+00 -3.528919E+00 -9.614921E-01  4.018181E+00
       450   4  3.963976E+00  2.242355E+01  1.210352E+01 -2.600836E+00 -1.488970E+00  5.823104E+00
       450   5 -2.586830E+00  1.829109E+01  3.951017E+00 -4.843408E+00 -4.513118E-02  3.873685E+00
       450   6  1.143218E+00  2.629716E+01  8.378443E+00 -4.194822E+00 -3.455179E-01  5.911797E+00
       450   7 -3.816078E+00  1.334136E+01  1.990435E+00 -4.725674E+00 -3.164545E-01  2.713212E+00
       450   8 -1.195462E+00  1.881909E+01  5.248092E+00 -3.797591E+00 -6.064262E-01  3.915269E+00
       451   1 -3.304372E+00 -5.318665E+01 -2.251434E+00 -4.934520E+00 -7.100966E-01 -4.336662E+00
       451   2  1.839420E+00 -3.828799E+01 -4.124727E-03 -5.290554E+00 -5.835861E-01 -2.578282E+00
       451   3 -3.156301E+00 -5.193238E+01 -1.773559E+00 -3.391295E+00  8.798959E-01 -3.840456E+00
       451   4  1.889146E+00 -3.725212E+01  3.643341E-01 -3.808168E+00  1.003604E+00 -2.205004E+00
       451   5 -1.482170E+00 -5.202888E+01 -2.143914E-01 -9.485642E+00 -1.036686E+00 -3.958850E+00
       451   6  3.495604E+00 -3.729623E+01  1.645545E+00 -9.841676E+00 -9.662131E-01 -2.255760E+00
       451   7 -1.144345E+00 -5.068836E+01  3.612104E-01 -7.828462E+00  7.009933E-01 -3.457710E+00
       451   8  3.732917E+00 -3.617629E+01  2.106671E+00 -8.245336E+00  7.679318E-01 -1.878271E+00
       452   1 -2.423174E+00 -3.074005E+01 -1.733909E+00 -1.327676E+01 -6.412097E-01 -1.648702E+00
       452   2  2.883551E+00 -1.554757E+01  7.626973E-01 -1.334021E+01 -5.392826E-01 -8.674220E-01
       452   3 -2.341221E+00 -2.987440E+01 -1.417675E+00 -1.099303E+01  8.945628E-01 -1.368707E+00
       452   4  2.787934E+00 -1.508458E+01  8.896827E-01 -1.110314E+01  9.943403E-01 -7.193504E-01
       452   5 -1.847389E+00 -3.028267E+01 -7.850946E-01 -1.788895E+01 -9.299841E-01 -1.384359E+00
       452   6  3.284233E+00 -1.526529E+01  1.302937E+00 -1.795240E+01 -8.710337E-01 -7.067378E-01
       452   7 -1.612875E+00 -2.934889E+01 -3.943097E-01 -1.544211E+01  7.566509E-01 -1.100912E+00
       452   8  3.338889E+00 -1.473645E+01  1.499138E+00 -1.555221E+01  8.128905E-01 -5.565678E-01
       453   1 -2.279233E+00 -8.110556E+00 -1.259116E+00 -1.530354E+01 -6.716525E-01 -3.347970E-01
       453   2  3.271278E+00  7.713353E+00  1.418677E+00 -1.523778E+01 -6.369468E-01  3.390809E-01
       453   3 -2.260685E+00 -7.860889E+00 -1.172429E+00 -1.307335E+01  8.875930E-01 -2.789790E-01
       453   4  3.079601E+00  7.482991E+00  1.284645E+00 -1.302005E+01  9.217246E-01  2.747816E-01
       453   5 -2.422210E+00 -8.130815E+00 -1.183670E+00 -2.009658E+01 -9.285563E-01 -2.575348E-01
       453   6  2.970932E+00  7.535725E+00  1.126931E+00 -2.003082E+01 -9.053293E-01  2.920888E-01
       453   7 -2.359781E+00 -7.861806E+00 -1.076391E+00 -1.768035E+01  7.676849E-01 -2.007078E-01
       453   8  2.821082E+00  7.322650E+00  1.008696E+00 -1.762706E+01  7.901878E-01  2.271758E-01
       454   1 -2.317185E+00  1.516037E+01 -7.668871E-01 -1.277218E+01 -5.863131E-01  8.720308E-01
       454   2  3.222476E+00  3.097843E+01  1.880592E+00 -1.262606E+01 -6.402935E-01  1.654199E+00
       454   3 -2.335742E+00  1.472554E+01 -9.200851E-01 -1.060597E+01  9.847009E-01  7.217929E-01
       454   4  3.003682E+00  3.008640E+01  1.517137E+00 -1.043132E+01  9.320354E-01  1.389290E+00
       454   5 -2.992551E+00  1.475768E+01 -1.433827E+00 -1.756755E+01 -8.966475E-01  7.362431E-01
       454   6  2.396858E+00  3.042548E+01  8.630633E-01 -1.742144E+01 -9.243383E-01  1.400072E+00
       454   7 -3.099559E+00  1.428346E+01 -1.629862E+00 -1.522119E+01  8.071499E-01  5.842320E-01
       454   8  2.087651E+00  2.949211E+01  4.521931E-01 -1.504654E+01  7.811173E-01  1.131844E+00
       455   1 -1.816345E+00  3.852766E+01 -1.683379E-01 -4.819907E+00 -6.153546E-01  2.562183E+00
       455   2  3.477902E+00  5.387746E+01  2.129357E+00 -4.475478E+00 -7.292730E-01  4.260673E+00
       455   3 -1.903777E+00  3.748847E+01 -5.453956E-01 -3.403450E+00  1.015755E+00  2.220058E+00
       455   4  3.289095E+00  5.261033E+01  1.642321E+00 -3.005770E+00  9.042894E-01  3.822262E+00
       455   5 -3.391848E+00  3.759493E+01 -1.701939E+00 -9.511310E+00 -9.774756E-01  2.243406E+00
       455   6  1.773397E+00  5.281573E+01  2.947515E-01 -9.166881E+00 -1.042346E+00  3.883609E+00
       455   7 -3.642331E+00  3.648250E+01 -2.160085E+00 -7.976092E+00  7.743152E-01  1.897118E+00
       455   8  1.419854E+00  5.147367E+01 -2.773035E-01 -7.578413E+00  7.125382E-01  3.440274E+00
       456   1 -3.511063E+00 -5.132187E+01 -2.683552E+00 -2.713545E+00 -7.107441E-01 -8.114130E+00
       456   2  1.527263E+00 -3.679369E+01 -4.173130E-01 -3.163856E+00 -5.960311E-01 -5.423957E+00
       456   3 -3.004399E+00 -4.927622E+01 -1.866359E+00 -2.407000E+00  8.032837E-01 -7.654985E+00
       456   4  1.819211E+00 -3.524159E+01  1.777159E-01 -2.887274E+00  9.166163E-01 -5.052082E+00
       456   5 -1.492687E+00 -5.012510E+01 -7.126970E-01 -7.042172E+00 -9.477673E-01 -7.543346E+00
       456   6  3.436467E+00 -3.570609E+01  1.298810E+00 -7.492483E+00 -8.600276E-01 -4.978683E+00
       456   7 -9.028185E-01 -4.803935E+01  1.549307E-01 -6.553043E+00  6.724577E-01 -7.076575E+00
       456   8  3.810162E+00 -3.411536E+01  1.940870E+00 -7.033317E+00  7.584568E-01 -4.600858E+00
       457   1 -2.598587E+00 -2.949905E+01 -2.032634E+00 -9.798769E+00 -7.628703E-01 -3.778552E+00
       457   2  2.531106E+00 -1.490928E+01  4.765780E-01 -9.933359E+00 -6.790157E-01 -1.973395E+00
       457   3 -2.318651E+00 -2.827069E+01 -1.547392E+00 -8.820651E+00  6.655529E-01 -3.487394E+00
       457   4  2.558785E+00 -1.425794E+01  6.979746E-01 -8.974989E+00  7.484978E-01 -1.815490E+00
       457   5 -1.799581E+00 -2.894560E+01 -9.868339E-01 -1.411381E+01 -8.930892E-01 -3.432723E+00
       457   6  3.160273E+00 -1.452568E+01  1.126090E+00 -1.424840E+01 -8.270121E-01 -1.773743E+00
       457   7 -1.458156E+00 -2.768808E+01 -4.658414E-01 -1.293262E+01  6.794167E-01 -3.136944E+00
       457   8  3.247172E+00 -1.384743E+01  1.377943E+00 -1.308696E+01  7.443466E-01 -1.613170E+00
       458   1 -2.320585E+00 -7.753021E+00 -1.327279E+00 -1.183996E+01 -7.883823E-01 -7.490965E-01
       458   2  3.043474E+00  7.386554E+00  1.413342E+00 -1.179308E+01 -7.697674E-01  7.905922E-01
       458   3 -2.228149E+00 -7.432870E+00 -1.196701E+00 -1.070069E+01  6.363791E-01 -6.878226E-01
       458   4  2.861310E+00  7.077266E+00  1.258026E+00 -1.065874E+01  6.547670E-01  7.211177E-01
       458   5 -2.393592E+00 -7.740492E+00 -1.212507E+00 -1.629888E+01 -8.689683E-01 -6.614109E-01
       458   6  2.804947E+00  7.233564E+00  1.141902E+00 -1.625200E+01 -8.547888E-01  7.185581E-01
       458   7 -2.282635E+00 -7.411817E+00 -1.072040E+00 -1.494111E+01  6.956548E-01 -5.989654E-01
       458   8  2.639093E+00  6.930588E+00  9.913158E-01 -1.489915E+01  7.095481E-01  6.481211E-01
       459   1 -2.143222E+00  1.456571E+01 -5.222943E-01 -9.474256E+00 -6.947464E-01  2.018517E+00
       459   2  3.183152E+00  2.969456E+01  2.103434E+00 -9.284560E+00 -7.525795E-01  3.833581E+00
       459   3 -2.232119E+00  1.392829E+01 -7.581547E-01 -8.548713E+00  7.714310E-01  1.858964E+00
       459   4  2.829746E+00  2.844985E+01  1.593163E+00 -8.346760E+00  7.141626E-01  3.558679E+00
       459   5 -2.951438E+00  1.410360E+01 -1.254448E+00 -1.394548E+01 -8.350753E-01  1.831547E+00
       459   6  2.229836E+00  2.908735E+01  1.032711E+00 -1.375579E+01 -8.818740E-01  3.492321E+00
       459   7 -3.073675E+00  1.345034E+01 -1.509752E+00 -1.280669E+01  7.580853E-01  1.669496E+00
       459   8  1.841150E+00  2.782487E+01  4.984737E-01 -1.260474E+01  7.119988E-01  3.212859E+00
       460   1 -1.565855E+00  3.702426E+01  2.257489E-01 -2.790550E+00 -6.147607E-01  5.472313E+00
       460   2  3.614316E+00  5.198384E+01  2.533408E+00 -2.363167E+00 -7.236124E-01  8.134346E+00
       460   3 -1.878850E+00  3.546627E+01 -3.735949E-01 -2.533260E+00  9.456072E-01  5.131909E+00
       460   4  3.083681E+00  4.992328E+01  1.711169E+00 -2.078437E+00  8.380195E-01  7.730339E+00
       460   5 -3.359394E+00  3.601050E+01 -1.359933E+00 -7.251251E+00 -8.700591E-01  5.027634E+00
       460   6  1.743752E+00  5.089305E+01  7.680025E-01 -6.823868E+00 -9.542094E-01  7.561414E+00
       460   7 -3.746583E+00  3.441743E+01 -2.001990E+00 -6.806893E+00  7.740640E-01  4.681289E+00
       460   8  1.137895E+00  4.879638E+01 -9.935175E-02 -6.352070E+00  6.915078E-01  7.149752E+00
       461   1 -3.714609E+00 -4.856272E+01 -4.033076E+00 -2.268165E+00 -8.078217E-01 -9.342925E+00
       461   2  1.208432E+00 -3.471826E+01 -1.467400E+00 -2.769816E+00 -6.782179E-01 -6.553881E+00
       461   3 -2.673592E+00 -4.515653E+01 -2.645683E+00 -2.195071E+00  4.932504E-01 -8.851073E+00
       461   4  1.856382E+00 -3.222185E+01 -4.804435E-01 -2.725133E+00  6.215453E-01 -6.153918E+00
       461   5 -1.563237E+00 -4.730572E+01 -1.994454E+00 -6.244577E+00 -8.991947E-01 -8.437253E+00
       461   6  3.254293E+00 -3.356677E+01  3.250315E-01 -6.746228E+00 -7.945764E-01 -5.875411E+00
       461   7 -4.478715E-01 -4.386308E+01 -5.599255E-01 -5.890627E+00  5.041713E-01 -7.933014E+00
       461   8  3.975149E+00 -3.103536E+01  1.355756E+00 -6.420690E+00  6.071389E-01 -5.466169E+00
       462   1 -2.750840E+00 -2.784707E+01 -2.766312E+00 -8.326755E+00 -9.770504E-01 -4.730454E+00
       462   2  2.218491E+00 -1.404368E+01 -5.265063E-03 -8.500581E+00 -8.716804E-01 -2.537803E+00
       462   3 -2.250093E+00 -2.594925E+01 -2.012365E+00 -7.955247E+00  2.358470E-01 -4.416507E+00
       462   4  2.333998E+00 -1.303263E+01  3.513190E-01 -8.162823E+00  3.396620E-01 -2.366967E+00
       462   5 -1.829935E+00 -2.723607E+01 -1.650555E+00 -1.226423E+01 -8.951943E-01 -4.215864E+00
       462   6  2.965857E+00 -1.360622E+01  7.055667E-01 -1.243806E+01 -8.195047E-01 -2.243737E+00
       462   7 -1.227446E+00 -2.529169E+01 -8.431430E-01 -1.161907E+01  4.617897E-01 -3.894878E+00
       462   8  3.180732E+00 -1.255098E+01  1.110078E+00 -1.182665E+01  5.355185E-01 -2.068879E+00
       463   1 -2.286613E+00 -7.295635E+00 -1.438855E+00 -1.013046E+01 -9.775795E-01 -9.934714E-01
       463   2  2.868162E+00  6.950804E+00  1.497290E+00 -1.009142E+01 -9.638775E-01  1.033071E+00
       463   3 -2.110555E+00 -6.810985E+00 -1.233484E+00 -9.711891E+00  2.347324E-01 -9.271417E-01
       463   4  2.624570E+00  6.468228E+00  1.271052E+00 -9.675841E+00  2.482965E-01  9.569947E-01
       463   5 -2.329584E+00 -7.268998E+00 -1.307096E+00 -1.418275E+01 -8.678941E-01 -8.682510E-01
       463   6  2.653981E+00  6.806231E+00  1.229561E+00 -1.414371E+01 -8.568239E-01  9.175217E-01
       463   7 -2.141594E+00 -6.778618E+00 -1.094556E+00 -1.346874E+01  4.854483E-01 -8.002085E-01
       463   8  2.419980E+00  6.327044E+00  1.005027E+00 -1.343269E+01  4.963446E-01  8.398653E-01
       464   1 -1.919540E+00  1.372644E+01 -4.217393E-02 -8.103902E+00 -8.347341E-01  2.599227E+00
       464   2  3.230672E+00  2.801361E+01  2.838029E+00 -7.886281E+00 -9.245192E-01  4.851503E+00
       464   3 -2.077651E+00  1.270687E+01 -4.146730E-01 -7.814086E+00  4.076876E-01  2.423719E+00
       464   4  2.657522E+00  2.603638E+01  2.039734E+00 -7.565575E+00  3.193256E-01  4.546748E+00
       464   5 -2.809921E+00  1.322404E+01 -8.264388E-01 -1.217638E+01 -7.977874E-01  2.308219E+00
       464   6  2.186288E+00  2.735721E+01  1.694423E+00 -1.195876E+01 -8.604079E-01  4.321901E+00
       464   7 -3.056838E+00  1.216476E+01 -1.242505E+00 -1.159302E+01  5.753478E-01  2.128730E+00
       464   8  1.522226E+00  2.533816E+01  8.476461E-01 -1.134451E+01  5.145218E-01  4.009902E+00
       465   1 -1.249927E+00  3.493878E+01  1.338056E+00 -2.438456E+00 -6.495959E-01  6.713638E+00
       465   2  3.822987E+00  4.919912E+01  3.987431E+00 -1.961788E+00 -7.866683E-01  9.548807E+00
       465   3 -1.922813E+00  3.234016E+01  3.154481E-01 -2.436124E+00  6.831461E-01  6.333024E+00
       465   4  2.726369E+00  4.561779E+01  2.535091E+00 -1.927121E+00  5.475634E-01  9.090194E+00
       465   5 -3.190354E+00  3.384819E+01 -3.568296E-01 -6.533431E+00 -7.792678E-01  6.006741E+00
       465   6  1.796655E+00  4.802262E+01  2.092100E+00 -6.056763E+00 -8.879047E-01  8.596128E+00
       465   7 -3.948897E+00  3.120931E+01 -1.427955E+00 -6.230065E+00  6.423281E-01  5.616459E+00
       465   8  6.132059E-01  4.439986E+01  5.885016E-01 -5.721061E+00  5.355699E-01  8.124485E+00
       466   1 -4.325520E+00 -4.476616E+01 -7.383949E+00 -2.190810E+00 -6.871236E-01 -8.675029E+00
       466   2  6.260615E-01 -3.187097E+01 -3.773872E+00 -2.756527E+00 -5.006905E-01 -6.133178E+00
       466   3 -2.906217E+00 -4.011841E+01 -5.459062E+00 -2.255364E+00  8.932652E-02 -7.735760E+00
       466   4  1.468074E+00 -2.854783E+01 -2.448672E+00 -2.890858E+00  2.725451E-01 -5.454202E+00
       466   5 -1.475249E+00 -4.290091E+01 -4.016735E+00 -5.648654E+00 -7.469525E-01 -7.471548E+00
       466   6  3.163281E+00 -3.031877E+01 -1.137109E+00 -6.214372E+00 -6.204272E-01 -5.250511E+00
       466   7  1.456965E-01 -3.815773E+01 -1.975371E+00 -5.344622E+00  2.657939E-01 -6.515419E+00
       466   8  4.202552E+00 -2.690458E+01  2.943352E-01 -5.980116E+00  3.882653E-01 -4.559170E+00
       467   1 -3.104495E+00 -2.561892E+01 -4.345769E+00 -7.807782E+00 -8.678859E-01 -4.461193E+00
       467   2  1.739021E+00 -1.286726E+01 -9.523672E-01 -8.050070E+00 -7.260717E-01 -2.435096E+00
       467   3 -2.452340E+00 -2.312013E+01 -3.344911E+00 -7.780764E+00 -5.663466E-02 -3.961736E+00
       467   4  1.880634E+00 -1.153994E+01 -4.818565E-01 -8.084661E+00  8.234128E-02 -2.165801E+00
       467   5 -1.768697E+00 -2.470499E+01 -2.635146E+00 -1.125018E+01 -7.629457E-01 -3.799802E+00
       467   6  2.798011E+00 -1.223015E+01  1.123689E-01 -1.149247E+01 -6.740270E-01 -2.057428E+00
       467   7 -9.332363E-01 -2.212286E+01 -1.539784E+00 -1.089188E+01  2.553484E-01 -3.291080E+00
       467   8  3.119050E+00 -1.082336E+01  6.683350E-01 -1.119578E+01  3.406878E-01 -1.782842E+00
       468   1 -2.234682E+00 -6.674056E+00 -1.703104E+00 -9.572356E+00 -8.030090E-01 -9.814361E-01
       468   2  2.684604E+00  6.331233E+00  1.689227E+00 -9.539241E+00 -7.878319E-01  9.639391E-01
       468   3 -1.991307E+00 -6.024284E+00 -1.423312E+00 -9.614794E+00  3.955510E-02 -8.737875E-01
       468   4  2.384295E+00  5.730391E+00  1.407351E+00 -9.586745E+00  5.449880E-02  8.601243E-01
       468   5 -2.208196E+00 -6.589911E+00 -1.449106E+00 -1.309218E+01 -7.124898E-01 -8.186970E-01
       468   6  2.459727E+00  6.164016E+00  1.356712E+00 -1.305907E+01 -7.016625E-01  8.232043E-01
       468   7 -1.946418E+00 -5.931232E+00 -1.158027E+00 -1.278252E+01  3.182975E-01 -7.087685E-01
       468   8  2.174300E+00  5.568559E+00  1.077906E+00 -1.275447E+01  3.288305E-01  7.174179E-01
       469   1 -1.511308E+00  1.254535E+01  8.774516E-01 -7.745589E+00 -6.428502E-01  2.453803E+00
       469   2  3.498082E+00  2.568541E+01  4.435360E+00 -7.465165E+00 -7.688185E-01  4.578812E+00
       469   3 -1.681910E+00  1.124407E+01  4.063747E-01 -7.853228E+00  1.672012E-01  2.187788E+00
       469   4  2.766927E+00  2.309597E+01  3.383929E+00 -7.516015E+00  4.384917E-02  4.081121E+00
       469   5 -2.683074E+00  1.186186E+01 -2.290895E-01 -1.128486E+01 -6.270848E-01  2.087662E+00
       469   6  2.049535E+00  2.472514E+01  2.682998E+00 -1.100443E+01 -7.042965E-01  3.900323E+00
       469   7 -3.016964E+00  1.048805E+01 -7.786133E-01 -1.103125E+01  3.894990E-01  1.816517E+00
       469   8  1.151215E+00  2.205930E+01  1.544073E+00 -1.069404E+01  3.155865E-01  3.393126E+00
       470   1 -6.336466E-01  3.197788E+01  3.751699E+00 -2.506793E+00 -4.246067E-01  6.316951E+00
       470   2  4.452736E+00  4.519368E+01  7.490507E+00 -1.957617E+00 -6.258873E-01  8.940627E+00
       470   3 -1.491330E+00  2.852405E+01  2.382883E+00 -2.706173E+00  3.522398E-01  5.638415E+00
       470   4  2.971381E+00  4.030708E+01  5.475558E+00 -2.078717E+00  1.545655E-01  7.999688E+00
       470   5 -3.117319E+00  3.045043E+01  1.143871E+00 -6.045518E+00 -5.794511E-01  5.397001E+00
       470   6  1.655129E+00  4.335229E+01  4.150164E+00 -5.496343E+00 -7.135222E-01  7.673342E+00
       470   7 -4.198467E+00  2.689434E+01 -3.423383E-01 -5.848673E+00  4.335922E-01  4.705577E+00
       470   8 -5.408974E-02  3.835904E+01  2.007561E+00 -5.221217E+00  3.040690E-01  6.714648E+00
       471   1 -4.835096E+00 -3.999971E+01 -1.067310E+01 -2.321869E+00 -2.638577E-01 -4.519232E+00
       471   2  6.433265E-02 -2.837752E+01 -5.963866E+00 -3.013041E+00 -8.758876E-02 -3.169368E+00
       471   3 -4.008231E+00 -3.682396E+01 -9.289020E+00 -2.452819E+00 -1.197420E-01 -2.944423E+00
       471   4  4.499776E-01 -2.618542E+01 -5.066859E+00 -3.226574E+00  5.272240E-02 -2.104744E+00
       471   5 -8.564602E-01 -3.719574E+01 -5.305173E+00 -5.178251E+00 -4.884881E-01 -3.709699E+00
       471   6  3.417569E+00 -2.619895E+01 -2.055202E+00 -5.869423E+00 -3.814027E-01 -2.587044E+00
       471   7  2.110590E-01 -3.390107E+01 -3.765362E+00 -5.041559E+00  8.535963E-02 -2.123266E+00
       471   8  4.034889E+00 -2.389692E+01 -1.023418E+00 -5.815314E+00  1.876471E-01 -1.514058E+00
       472   1 -3.346061E+00 -2.288611E+01 -5.767220E+00 -7.816098E+00 -3.345627E-01 -2.299809E+00
       472   2  1.255548E+00 -1.144046E+01 -1.874178E+00 -8.156688E+00 -2.539463E-01 -1.273993E+00
       472   3 -2.858704E+00 -2.117413E+01 -5.020019E+00 -7.953631E+00  5.338027E-02 -1.546368E+00
       472   4  1.392922E+00 -1.051470E+01 -1.507359E+00 -8.332406E+00  1.322376E-01 -8.605369E-01
       472   5 -1.416184E+00 -2.153507E+01 -3.193644E+00 -1.072401E+01 -4.898157E-01 -1.867532E+00
       472   6  2.770826E+00 -1.050402E+01 -2.680006E-01 -1.106460E+01 -4.411886E-01 -1.024445E+00
       472   7 -8.180375E-01 -1.976809E+01 -2.373886E+00 -1.063765E+01  1.833151E-01 -1.107885E+00
       472   8  3.013037E+00 -9.529210E+00  1.574858E-01 -1.101643E+01  2.297238E-01 -6.074056E-01
       473   1 -2.144179E+00 -5.925110E+00 -1.959477E+00 -9.701128E+00 -2.898509E-01 -5.285895E-01
       473   2  2.460491E+00  5.623656E+00  1.840656E+00 -9.676680E+00 -2.794956E-01  4.820739E-01
       473   3 -1.968847E+00 -5.469833E+00 -1.750329E+00 -9.907924E+00  1.420818E-01 -3.558839E-01
       473   4  2.256851E+00  5.222931E+00  1.642567E+00 -9.888237E+00  1.522177E-01  3.370226E-01
       473   5 -2.007440E+00 -5.746820E+00 -1.501915E+00 -1.265155E+01 -4.623778E-01 -4.190611E-01
       473   6  2.211743E+00  5.416459E+00  1.398748E+00 -1.262710E+01 -4.560119E-01  3.917896E-01
       473   7 -1.814109E+00 -5.282110E+00 -1.279325E+00 -1.261677E+01  2.342914E-01 -2.447828E-01
       473   8  2.020567E+00  5.019632E+00  1.201187E+00 -1.259708E+01  2.403808E-01  2.454420E-01
       474   1 -1.095996E+00  1.114294E+01  1.741711E+00 -7.968966E+00 -1.902943E-01  1.250845E+00
       474   2  3.643155E+00  2.284186E+01  5.839967E+00 -7.598336E+00 -2.609359E-01  2.340504E+00
       474   3 -1.239283E+00  1.025885E+01  1.387980E+00 -8.191045E+00  1.627365E-01  8.578166E-01
       474   4  3.116721E+00  2.109588E+01  5.070959E+00 -7.786343E+00  9.366452E-02  1.587746E+00
       474   5 -2.675830E+00  1.019300E+01  1.550845E-01 -1.092605E+01 -4.065873E-01  1.014027E+00
       474   6  1.625140E+00  2.145374E+01  3.230918E+00 -1.055542E+01 -4.486855E-01  1.903159E+00
       474   7 -2.910272E+00  9.265923E+00 -2.507733E-01 -1.090574E+01  2.470713E-01  6.175976E-01
       474   8  1.001259E+00  1.965848E+01  2.395104E+00 -1.050104E+01  2.069526E-01  1.144121E+00
       475   1 -3.390745E-02  2.834286E+01  6.012745E+00 -2.867596E+00 -3.010239E-02  3.252012E+00
       475   2  4.964418E+00  4.015156E+01  1.086513E+01 -2.179298E+00 -2.161076E-01  4.652638E+00
       475   3 -4.177035E-01  2.609212E+01  5.097307E+00 -3.123272E+00  8.838799E-02  2.174797E+00
       475   4  4.110399E+00  3.685093E+01  9.432169E+00 -2.346842E+00 -9.355715E-02  3.048720E+00
       475   5 -3.393224E+00  2.615333E+01  2.073614E+00 -5.761203E+00 -3.520403E-01  2.652397E+00
       475   6  9.600232E-01  3.731695E+01  5.420815E+00 -5.072905E+00 -4.642147E-01  3.810220E+00
       475   7 -4.025292E+00  2.378542E+01  1.015886E+00 -5.733116E+00  2.083875E-01  1.566572E+00
       475   8 -1.515298E-01  3.388989E+01  3.823953E+00 -4.956687E+00  1.013333E-01  2.194205E+00
       476   1 -3.953406E+00 -6.022018E+01 -2.541104E+00 -4.391337E+00 -7.477851E-01 -3.942690E+00
       476   2  2.010077E+00 -4.300834E+01  1.253265E-01 -4.802661E+00 -7.101697E-01 -2.296378E+00
       476   3 -3.728942E+00 -5.934287E+01 -2.130815E+00 -2.819514E+00  1.073223E+00 -3.414412E+00
       476   4  2.135051E+00 -4.234758E+01  4.205313E-01 -3.256478E+00  1.109303E+00 -1.901851E+00
       476   5 -1.871717E+00 -5.891190E+01 -2.618445E-01 -9.678865E+00 -1.116688E+00 -3.692411E+00
       476   6  3.906681E+00 -4.188514E+01  1.972718E+00 -1.009019E+01 -1.103363E+00 -2.101548E+00
       476   7 -1.557394E+00 -5.799925E+01  1.763881E-01 -8.092180E+00  8.069156E-01 -3.166040E+00
       476   8  4.122923E+00 -4.118763E+01  2.299157E+00 -8.529143E+00  8.188908E-01 -1.708505E+00
       477   1 -3.292912E+00 -3.453781E+01 -2.023027E+00 -1.292950E+01 -6.311525E-01 -1.443321E+00
       477   2  2.734127E+00 -1.725979E+01  7.890852E-01 -1.309275E+01 -6.018692E-01 -7.590390E-01
       477   3 -3.162418E+00 -3.400739E+01 -1.779988E+00 -1.049119E+01  1.143068E+00 -1.146058E+00
       477   4  2.757529E+00 -1.696391E+01  9.096881E-01 -1.067664E+01  1.171022E+00 -5.937544E-01
       477   5 -2.347008E+00 -3.389886E+01 -8.390952E-01 -1.821826E+01 -9.916054E-01 -1.290884E+00
       477   6  3.497905E+00 -1.680297E+01  1.548055E+00 -1.838151E+01 -9.833559E-01 -6.669706E-01
       477   7 -2.141885E+00 -3.333823E+01 -5.700036E-01 -1.576018E+01  8.839282E-01 -9.947817E-01
       477   8  3.597322E+00 -1.647549E+01  1.697947E+00 -1.594563E+01  8.910089E-01 -5.023873E-01
       478   1 -2.781613E+00 -8.799944E+00 -1.397361E+00 -1.537183E+01 -6.261736E-01 -2.883918E-01
       478   2  3.329257E+00  8.694992E+00  1.477269E+00 -1.533141E+01 -6.106032E-01  3.131580E-01
       478   3 -2.754457E+00 -8.656810E+00 -1.335999E+00 -1.291453E+01  1.154650E+00 -2.196873E-01
       478   4  3.226062E+00  8.549195E+00  1.393060E+00 -1.287951E+01  1.169897E+00  2.499797E-01
       478   5 -2.820797E+00 -8.763126E+00 -1.235454E+00 -2.072315E+01 -9.839326E-01 -2.459143E-01
       478   6  3.109407E+00  8.551143E+00  1.217623E+00 -2.068273E+01 -9.734748E-01  2.805194E-01
       478   7 -2.777482E+00 -8.613476E+00 -1.168528E+00 -1.823181E+01  8.977185E-01 -1.775334E-01
       478   8  3.023748E+00  8.413240E+00  1.142189E+00 -1.819679E+01  9.078922E-01  2.175897E-01
       479   1 -2.408354E+00  1.713986E+01 -7.936003E-01 -1.285780E+01 -6.198095E-01  7.838417E-01
       479   2  3.718836E+00  3.467965E+01  2.090570E+00 -1.264233E+01 -6.284412E-01  1.468224E+00
       479   3 -2.480993E+00  1.684502E+01 -9.274807E-01 -1.047074E+01  1.165106E+00  6.265925E-01
       479   4  3.528410E+00  3.412445E+01  1.824434E+00 -1.024056E+01  1.157355E+00  1.185851E+00
       479   5 -3.333182E+00  1.662017E+01 -1.601075E+00 -1.822253E+01 -9.923516E-01  6.989880E-01
       479   6  2.622266E+00  3.398822E+01  8.823655E-01 -1.800706E+01 -9.870448E-01  1.315832E+00
       479   7 -3.458404E+00  1.630374E+01 -1.754360E+00 -1.580911E+01  8.873574E-01  5.423853E-01
       479   8  2.380566E+00  3.341273E+01  5.998780E-01 -1.557893E+01  8.934387E-01  1.034620E+00
       480   1 -1.966709E+00  4.310016E+01 -2.110464E-01 -4.628313E+00 -7.168588E-01  2.311812E+00
       480   2  4.034118E+00  6.042041E+01  2.471457E+00 -4.217176E+00 -7.513686E-01  3.932157E+00
       480   3 -2.105391E+00  4.242573E+01 -5.112633E-01 -3.108497E+00  1.109989E+00  1.937664E+00
       480   4  3.795145E+00  5.952658E+01  2.056337E+00 -2.673600E+00  1.076902E+00  3.432398E+00
       480   5 -3.833475E+00  4.200645E+01 -1.989987E+00 -9.949245E+00 -1.102277E+00  2.114049E+00
       480   6  1.993920E+00  5.915327E+01  2.878401E-01 -9.538108E+00 -1.114278E+00  3.677973E+00
       480   7 -4.057409E+00  4.129772E+01 -2.319284E+00 -8.413853E+00  8.199757E-01  1.741407E+00
       480   8  1.671015E+00  5.822646E+01 -1.532771E-01 -7.978956E+00  8.092261E-01  3.180150E+00
       481   1 -4.155245E+00 -5.905556E+01 -3.329831E+00 -2.111387E+00 -6.356812E-01 -7.284704E+00
       481   2  1.783837E+00 -4.212812E+01 -4.603273E-01 -2.564478E+00 -5.644859E-01 -4.859115E+00
       481   3 -3.630778E+00 -5.724017E+01 -2.544919E+00 -1.746530E+00  1.046454E+00 -6.718933E+00
       481   4  2.093267E+00 -4.079964E+01  9.470318E-02 -2.218116E+00  1.116542E+00 -4.425475E+00
       481   5 -1.877092E+00 -5.764067E+01 -8.916980E-01 -7.345367E+00 -9.856329E-01 -6.759523E+00
       481   6  3.883464E+00 -4.089176E+01  1.561245E+00 -7.798458E+00 -9.321901E-01 -4.464413E+00
       481   7 -1.284817E+00 -5.579952E+01 -8.871568E-02 -6.889681E+00  7.977551E-01 -6.197700E+00
       481   8  4.262045E+00 -3.953617E+01  2.137478E+00 -7.361268E+00  8.502242E-01 -4.033741E+00
       482   1 -3.394388E+00 -3.381801E+01 -2.421049E+00 -9.203396E+00 -5.350916E-01 -3.377508E+00
       482   2  2.569087E+00 -1.687764E+01  5.168255E-01 -9.402308E+00 -4.846890E-01 -1.755273E+00
       482   3 -3.116798E+00 -3.279233E+01 -1.981414E+00 -8.121469E+00  1.119910E+00 -3.046215E+00
       482   4  2.630415E+00 -1.633989E+01  7.235168E-01 -8.335032E+00  1.169436E+00 -1.571463E+00
       482   5 -2.281042E+00 -3.308365E+01 -1.086518E+00 -1.443192E+01 -8.617469E-01 -3.078288E+00
       482   6  3.481795E+00 -1.634391E+01  1.383200E+00 -1.463083E+01 -8.254071E-01 -1.586433E+00
       482   7 -1.952592E+00 -3.203811E+01 -6.315318E-01 -1.325922E+01  9.098693E-01 -2.749244E+00
       482   8  3.595492E+00 -1.578479E+01  1.608762E+00 -1.347278E+01  9.454378E-01 -1.403893E+00
       483   1 -2.804314E+00 -8.603064E+00 -1.486841E+00 -1.154962E+01 -4.942408E-01 -6.570270E-01
       483   2  3.232757E+00  8.497807E+00  1.535860E+00 -1.151769E+01 -4.836987E-01  7.212035E-01
       483   3 -2.716218E+00 -8.348514E+00 -1.372938E+00 -1.027614E+01  1.151851E+00 -5.811854E-01
       483   4  3.096962E+00  8.246591E+00  1.409224E+00 -1.024728E+01  1.162210E+00  6.495533E-01
       483   5 -2.808016E+00 -8.545927E+00 -1.292681E+00 -1.681954E+01 -8.088841E-01 -5.854250E-01
       483   6  3.028845E+00  8.354735E+00  1.262862E+00 -1.678761E+01 -8.012919E-01  6.575256E-01
       483   7 -2.711175E+00 -8.288070E+00 -1.176503E+00 -1.545070E+01  9.539345E-01 -5.101218E-01
       483   8  2.903300E+00  8.108330E+00  1.142014E+00 -1.542184E+01  9.613650E-01  5.863542E-01
       484   1 -2.320431E+00  1.676312E+01 -5.381759E-01 -9.211902E+00 -4.911422E-01  1.820040E+00
       484   2  3.725208E+00  3.392390E+01  2.453167E+00 -8.972500E+00 -5.270966E-01  3.443886E+00
       484   3 -2.412941E+00  1.623201E+01 -7.512390E-01 -8.157985E+00  1.176380E+00  1.642999E+00
       484   4  3.411488E+00  3.289245E+01  2.003081E+00 -7.908055E+00  1.141055E+00  3.126403E+00
       484   5 -3.358991E+00  1.618068E+01 -1.441055E+00 -1.450628E+01 -8.297941E-01  1.657812E+00
       484   6  2.496471E+00  3.315129E+01  1.106542E+00 -1.426687E+01 -8.556434E-01  3.147694E+00
       484   7 -3.491109E+00  1.563364E+01 -1.667651E+00 -1.335850E+01  9.475885E-01  1.481990E+00
       484   8  2.144573E+00  3.210533E+01  6.462593E-01 -1.310857E+01  9.222933E-01  2.832438E+00
       485   1 -1.766499E+00  4.219893E+01  3.581435E-01 -2.427781E+00 -5.726340E-01  4.917636E+00
       485   2  4.199999E+00  5.922413E+01  3.221272E+00 -1.977728E+00 -6.401044E-01  7.320151E+00
       485   3 -2.083625E+00  4.087620E+01 -1.944310E-01 -2.085986E+00  1.123509E+00  4.503702E+00
       485   4  3.672843E+00  5.742511E+01  2.444888E+00 -1.618224E+00  1.057099E+00  6.783148E+00
       485   5 -3.827866E+00  4.099504E+01 -1.593452E+00 -7.695268E+00 -9.363900E-01  4.525637E+00
       485   6  1.972912E+00  5.785452E+01  8.829966E-01 -7.245215E+00 -9.868622E-01  6.800366E+00
       485   7 -4.211638E+00  3.964616E+01 -2.166557E+00 -7.265591E+00  8.528167E-01  4.114650E+00
       485   8  1.380356E+00  5.603059E+01  8.898871E-02 -6.797829E+00  8.032768E-01  6.267271E+00
       486   1 -4.365262E+00 -5.685553E+01 -4.690327E+00 -1.583401E+00 -5.513678E-01 -7.775209E+00
       486   2  1.478609E+00 -4.053832E+01 -1.527962E+00 -2.069096E+00 -4.620285E-01 -5.496017E+00
       486   3 -3.577746E+00 -5.430585E+01 -3.588713E+00 -1.500662E+00  9.120031E-01 -7.084089E+00
       486   4  1.958892E+00 -3.868708E+01 -7.520269E-01 -2.006393E+00  1.000143E+00 -4.970680E+00
       486   5 -1.783147E+00 -5.521094E+01 -1.790489E+00 -6.637524E+00 -8.700335E-01 -7.033621E+00
       486   6  3.836000E+00 -3.911846E+01  8.475210E-01 -7.123220E+00 -8.001760E-01 -4.944622E+00
       486   7 -9.221633E-01 -5.263377E+01 -6.706993E-01 -6.402388E+00  7.283688E-01 -6.348006E+00
       486   8  4.391418E+00 -3.723805E+01  1.645524E+00 -6.908118E+00  7.971716E-01 -4.423378E+00
       487   1 -3.534565E+00 -3.257247E+01 -3.176758E+00 -7.584756E+00 -4.670449E-01 -3.980642E+00
       487   2  2.332359E+00 -1.623783E+01  4.501397E-02 -7.809785E+00 -4.113463E-01 -2.119752E+00
       487   3 -3.103143E+00 -3.114945E+01 -2.562246E+00 -7.198410E+00  9.712939E-01 -3.581278E+00
       487   4  2.466648E+00 -1.548811E+01  3.423854E-01 -7.440092E+00  1.025996E+00 -1.898768E+00
       487   5 -2.229179E+00 -3.170145E+01 -1.578753E+00 -1.263617E+01 -7.400154E-01 -3.565804E+00
       487   6  3.393991E+00 -1.561057E+01  1.074260E+00 -1.286120E+01 -7.005101E-01 -1.887800E+00
       487   7 -1.739443E+00 -3.025575E+01 -9.469582E-01 -1.210471E+01  8.468680E-01 -3.169519E+00
       487   8  3.588402E+00 -1.483636E+01  1.393135E+00 -1.234639E+01  8.854966E-01 -1.668538E+00
       488   1 -2.783340E+00 -8.277214E+00 -1.618812E+00 -9.631855E+00 -4.308863E-01 -8.150116E-01
       488   2  3.135128E+00  8.177697E+00  1.654504E+00 -9.605013E+00 -4.224113E-01  8.887143E-01
       488   3 -2.651662E+00 -7.934308E+00 -1.463265E+00 -9.143157E+00  1.004048E+00 -7.244641E-01
       488   4  2.961085E+00  7.827170E+00  1.484412E+00 -9.118758E+00  1.012377E+00  8.012843E-01
       488   5 -2.750566E+00 -8.192627E+00 -1.369631E+00 -1.471643E+01 -6.947789E-01 -7.189956E-01
       488   6  2.925239E+00  8.019621E+00  1.337473E+00 -1.468959E+01 -6.886792E-01  7.962330E-01
       488   7 -2.612169E+00 -7.847365E+00 -1.212949E+00 -1.407726E+01  8.883831E-01 -6.291607E-01
       488   8  2.759716E+00  7.673251E+00  1.172718E+00 -1.405286E+01  8.943542E-01  7.094894E-01
       489   1 -2.131414E+00  1.613419E+01 -6.694088E-02 -7.643990E+00 -3.996115E-01  2.200272E+00
       489   2  3.810045E+00  3.266614E+01  3.205977E+00 -7.385120E+00 -4.447770E-01  4.079788E+00
       489   3 -2.293530E+00  1.537568E+01 -3.745461E-01 -7.291697E+00  1.049278E+00  1.984187E+00
       489   4  3.340508E+00  3.120969E+01  2.571579E+00 -7.018963E+00  1.004943E+00  3.690191E+00
       489   5 -3.300304E+00  1.546499E+01 -1.128711E+00 -1.275465E+01 -6.965885E-01  1.969301E+00
       489   6  2.405127E+00  3.176091E+01  1.593475E+00 -1.249578E+01 -7.282738E-01  3.658954E+00
       489   7 -3.513956E+00  1.468564E+01 -1.454240E+00 -1.225071E+01  8.958331E-01  1.754931E+00
       489   8  1.885807E+00  3.028537E+01  9.452405E-01 -1.197798E+01  8.648777E-01  3.272481E+00
       490   1 -1.465915E+00  4.061466E+01  1.448856E+00 -1.943442E+00 -4.555390E-01  5.603466E+00
       490   2  4.413305E+00  5.704201E+01  4.618908E+00 -1.461314E+00 -5.457749E-01  7.886715E+00
       490   3 -1.958101E+00  3.872940E+01  6.613399E-01 -1.893910E+00  1.019784E+00  5.091615E+00
       490   4  3.607900E+00  5.444368E+01  3.500393E+00 -1.390284E+00  9.308349E-01  7.214374E+00
       490   5 -3.790679E+00  3.922054E+01 -8.734525E-01 -7.033659E+00 -7.992532E-01  5.041984E+00
       490   6  1.871915E+00  5.543126E+01  1.791139E+00 -6.551531E+00 -8.685847E-01  7.130837E+00
       490   7 -4.363042E+00  3.730387E+01 -1.685488E+00 -6.827795E+00  8.059291E-01  4.534300E+00
       490   8  9.879409E-01  5.280314E+01  6.518562E-01 -6.324169E+00  7.377294E-01  6.464107E+00
       491   1 -4.648096E+00 -5.402357E+01 -6.653801E+00 -1.493185E+00 -4.404398E-01 -6.415739E+00
       491   2  1.096364E+00 -3.850156E+01 -3.027606E+00 -2.015936E+00 -3.426737E-01 -4.613403E+00
       491   3 -3.763174E+00 -5.120685E+01 -5.402283E+00 -1.552461E+00  7.055130E-01 -5.459500E+00
       491   4  1.629563E+00 -3.647702E+01 -2.156319E+00 -2.101612E+00  8.016988E-01 -3.908473E+00
       491   5 -1.520734E+00 -5.191833E+01 -2.763711E+00 -6.272654E+00 -7.675942E-01 -5.591569E+00
       491   6  3.871945E+00 -3.674811E+01  4.165962E-02 -6.795405E+00 -6.958286E-01 -4.006126E+00
       491   7 -5.414152E-01 -4.906676E+01 -1.490422E+00 -6.150317E+00  6.024123E-01 -4.641369E+00
       491   8  4.502118E+00 -3.468614E+01  9.407325E-01 -6.699468E+00  6.727882E-01 -3.305646E+00
       492   1 -3.688825E+00 -3.097867E+01 -4.225547E+00 -7.040297E+00 -3.751002E-01 -3.383992E+00
       492   2  2.070609E+00 -1.541464E+01 -5.914610E-01 -7.296487E+00 -3.146737E-01 -1.827514E+00
       492   3 -3.217104E+00 -2.943257E+01 -3.542645E+00 -6.991525E+00  7.660966E-01 -2.858051E+00
       492   4  2.216473E+00 -1.460188E+01 -2.614132E-01 -7.270635E+00  8.251512E-01 -1.539272E+00
       492   5 -2.076045E+00 -2.986682E+01 -2.132141E+00 -1.183299E+01 -6.539716E-01 -2.929549E+00
       492   6  3.350257E+00 -1.463592E+01  7.246357E-01 -1.208918E+01 -6.161180E-01 -1.573726E+00
       492   7 -1.524242E+00 -2.828948E+01 -1.425193E+00 -1.161894E+01  6.998468E-01 -2.406938E+00
       492   8  3.578644E+00 -1.378948E+01  1.084425E+00 -1.189805E+01  7.364938E-01 -1.287344E+00
       493   1 -2.747837E+00 -7.870608E+00 -1.805892E+00 -8.942224E+00 -3.325089E-01 -7.154856E-01
       493   2  3.033212E+00  7.763791E+00  1.829872E+00 -8.919696E+00 -3.248967E-01  7.661544E-01
       493   3 -2.600169E+00 -7.497536E+00 -1.632454E+00 -8.878731E+00  8.149704E-01 -5.984898E-01
       493   4  2.847114E+00  7.384129E+00  1.643492E+00 -8.858871E+00  8.224229E-01  6.529946E-01
       493   5 -2.661498E+00 -7.740220E+00 -1.457605E+00 -1.375875E+01 -6.145413E-01 -6.106587E-01
       493   6  2.798069E+00  7.572697E+00  1.428035E+00 -1.373622E+01 -6.095559E-01  6.646688E-01
       493   7 -2.506403E+00 -7.364649E+00 -1.283265E+00 -1.352450E+01  7.382366E-01 -4.944310E-01
       493   8  2.621754E+00  7.197889E+00  1.248054E+00 -1.350464E+01  7.430816E-01  5.522527E-01
       494   1 -1.905996E+00  1.530543E+01  5.766035E-01 -7.163100E+00 -2.879787E-01  1.889478E+00
       494   2  3.922144E+00  3.103373E+01  4.275428E+00 -6.877884E+00 -3.397715E-01  3.476814E+00
       494   3 -2.076258E+00  1.448127E+01  2.363848E-01 -7.160848E+00  8.540931E-01  1.604847E+00
       494   4  3.410514E+00  2.944005E+01  3.566846E+00 -6.855455E+00  8.035081E-01  2.953872E+00
       494   5 -3.279594E+00  1.448951E+01 -7.695289E-01 -1.200251E+01 -6.047598E-01  1.635304E+00
       494   6  2.215422E+00  2.988469E+01  2.152006E+00 -1.171729E+01 -6.366814E-01  3.011802E+00
       494   7 -3.523696E+00  1.363537E+01 -1.135843E+00 -1.182514E+01  7.500615E-01  1.352536E+00
       494   8  1.632394E+00  2.826347E+01  1.423024E+00 -1.151975E+01  7.192021E-01  2.492267E+00
       495   1 -1.071108E+00  3.854537E+01  3.005032E+00 -1.915353E+00 -3.211809E-01  4.723882E+00
       495   2  4.709058E+00  5.416072E+01  6.656903E+00 -1.393400E+00 -4.220790E-01  6.543599E+00
       495   3 -1.618937E+00  3.646568E+01  2.113404E+00 -2.020368E+00  8.279865E-01  4.021744E+00
       495   4  3.798642E+00  5.126344E+01  5.374237E+00 -1.469914E+00  7.287944E-01  5.590200E+00
       495   5 -3.838315E+00  3.679873E+01 -4.989627E-02 -6.722997E+00 -6.876161E-01  4.099687E+00
       495   6  1.590784E+00  5.206302E+01  2.782818E+00 -6.201044E+00 -7.604451E-01  5.695349E+00
       495   7 -4.490380E+00  3.467847E+01 -9.725010E-01 -6.639446E+00  6.853457E-01  3.402123E+00
       495   8  5.787046E-01  4.912774E+01  1.475178E+00 -6.088992E+00  6.140170E-01  4.748165E+00
       496   1 -4.806347E+00 -5.108777E+01 -8.228804E+00 -1.601882E+00 -3.189425E-01 -3.046368E+00
       496   2  7.991208E-01 -3.640618E+01 -4.225509E+00 -2.170572E+00 -2.393719E-01 -2.199087E+00
       496   3 -4.329666E+00 -4.936107E+01 -7.381943E+00 -1.672670E+00  5.123631E-01 -1.821624E+00
       496   4  1.039938E+00 -3.518949E+01 -3.654837E+00 -2.268333E+00  5.903192E-01 -1.319391E+00
       496   5 -1.049089E+00 -4.845668E+01 -3.215758E+00 -6.095209E+00 -7.011380E-01 -2.536317E+00
       496   6  4.052449E+00 -3.427901E+01 -3.882973E-01 -6.663899E+00 -6.484697E-01 -1.825754E+00
       496   7 -4.768125E-01 -4.669639E+01 -2.352549E+00 -6.062030E+00  4.624772E-01 -1.315264E+00
       496   8  4.392508E+00 -3.302510E+01  2.072304E-01 -6.657693E+00  5.137255E-01 -9.487593E-01
       497   1 -3.759203E+00 -2.933983E+01 -5.034841E+00 -6.996405E+00 -2.775790E-01 -1.619257E+00
       497   2  1.849716E+00 -1.457242E+01 -1.105863E+00 -7.288605E+00 -2.423614E-01 -8.824146E-01
       497   3 -3.468456E+00 -2.838543E+01 -4.563283E+00 -7.053579E+00  5.866678E-01 -9.727733E-01
       497   4  1.930370E+00 -1.407414E+01 -8.784853E-01 -7.358723E+00  6.211106E-01 -5.280286E-01
       497   5 -1.804414E+00 -2.796369E+01 -2.402467E+00 -1.153051E+01 -6.441114E-01 -1.340875E+00
       497   6  3.378532E+00 -1.362224E+01  5.325737E-01 -1.182271E+01 -6.218027E-01 -7.267256E-01
       497   7 -1.467923E+00 -2.699357E+01 -1.924289E+00 -1.149804E+01  5.011908E-01 -6.964053E-01
       497   8  3.508012E+00 -1.310518E+01  7.737624E-01 -1.180318E+01  5.228181E-01 -3.734661E-01
       498   1 -2.691283E+00 -7.456939E+00 -1.947801E+00 -8.881175E+00 -2.538788E-01 -3.516530E-01
       498   2  2.916038E+00  7.339405E+00  1.946926E+00 -8.862847E+00 -2.499148E-01  3.615719E-01
       498   3 -2.591541E+00 -7.221927E+00 -1.825490E+00 -8.946554E+00  6.247354E-01 -2.071626E-01
       498   4  2.801433E+00  7.107049E+00  1.822114E+00 -8.929758E+00  6.286076E-01  2.247150E-01
       498   5 -2.544436E+00 -7.273797E+00 -1.484174E+00 -1.343039E+01 -6.242529E-01 -2.870565E-01
       498   6  2.653308E+00  7.112970E+00  1.454872E+00 -1.341206E+01 -6.218171E-01  2.999924E-01
       498   7 -2.441330E+00 -7.038214E+00 -1.363322E+00 -1.340275E+01  5.247220E-01 -1.430335E-01
       498   8  2.545031E+00  6.884149E+00  1.335517E+00 -1.338596E+01  5.270772E-01  1.635811E-01
       499   1 -1.717926E+00  1.445094E+01  1.084572E+00 -7.192061E+00 -2.231860E-01  8.993002E-01
       499   2  3.952041E+00  2.934262E+01  5.092787E+00 -6.875173E+00 -2.540638E-01  1.655176E+00
       499   3 -1.806702E+00  1.395217E+01  8.554220E-01 -7.274784E+00  6.314635E-01  5.502007E-01
       499   4  3.644122E+00  2.836733E+01  4.609679E+00 -6.946578E+00  6.012631E-01  1.007566E+00
       499   5 -3.324473E+00  1.347193E+01 -5.722758E-01 -1.175746E+01 -6.135758E-01  7.445584E-01
       499   6  1.910435E+00  2.792854E+01  2.420802E+00 -1.144057E+01 -6.331658E-01  1.372087E+00
       499   7 -3.457083E+00  1.295647E+01 -8.132049E-01 -1.174511E+01  5.282465E-01  3.965786E-01
       499   8  1.561831E+00  2.693972E+01  1.933261E+00 -1.141690E+01  5.092523E-01  7.265252E-01
       500   1 -7.647312E-01  3.639591E+01  4.242505E+00 -2.100198E+00 -2.247684E-01  2.245924E+00
       500   2  4.869954E+00  5.114180E+01  8.278898E+00 -1.528896E+00 -3.068426E-01  3.104000E+00
       500   3 -1.008863E+00  3.515428E+01  3.662677E+00 -2.208354E+00  6.029436E-01  1.361386E+00
       500   4  4.384066E+00  4.937682E+01  7.416568E+00 -1.608595E+00  5.225728E-01  1.870674E+00
       500   5 -4.033625E+00  3.425835E+01  3.862165E-01 -6.610890E+00 -6.430142E-01  1.864456E+00
       500   6  1.091868E+00  4.849505E+01  3.234495E+00 -6.039588E+00 -6.967065E-01  2.582107E+00
       500   7 -4.382196E+00  3.297729E+01 -2.206044E-01 -6.611497E+00  5.207152E-01  9.826790E-01
       500   8  5.052255E-01  4.669433E+01  2.353768E+00 -6.011739E+00  4.685208E-01  1.352558E+00
       501   1 -4.501607E+00 -6.781237E+01 -2.735898E+00 -3.992610E+00 -8.819322E-01 -3.543857E+00
       501   2  2.241300E+00 -4.833732E+01  2.654102E-01 -4.455843E+00 -8.844287E-01 -2.019694E+00
       501   3 -4.303600E+00 -6.727369E+01 -2.446058E+00 -2.431971E+00  1.120681E+00 -2.977677E+00
       501   4  2.369835E+00 -4.794702E+01  4.720591E-01 -2.907705E+00  1.117593E+00 -1.600230E+00
       501   5 -2.182933E+00 -6.636470E+01 -2.290227E-01 -9.977618E+00 -1.212055E+00 -3.400907E+00
       501   6  4.354140E+00 -4.709549E+01  2.292006E+00 -1.044085E+01 -1.226395E+00 -1.914122E+00
       501   7 -1.937826E+00 -6.580930E+01  6.947645E-02 -8.425543E+00  9.076949E-01 -2.835816E+00
       501   8  4.531343E+00 -4.668690E+01  2.510972E+00 -8.901278E+00  8.928533E-01 -1.495462E+00
       502   1 -3.907798E+00 -3.882996E+01 -2.241954E+00 -1.261820E+01 -7.604662E-01 -1.243935E+00
       502   2  2.887845E+00 -1.932835E+01  9.085749E-01 -1.283430E+01 -7.654724E-01 -6.486846E-01
       502   3 -3.776995E+00 -3.851935E+01 -2.071253E+00 -1.016335E+01  1.192291E+00 -9.290756E-01
       502   4  2.958401E+00 -1.914528E+01  1.006008E+00 -1.038785E+01  1.186887E+00 -4.728935E-01
       502   5 -2.755011E+00 -3.808349E+01 -9.065163E-01 -1.859091E+01 -1.096589E+00 -1.163713E+00
       502   6  3.845277E+00 -1.877723E+01  1.788183E+00 -1.880700E+01 -1.109558E+00 -6.003458E-01
       502   7 -2.594246E+00 -3.776196E+01 -7.293836E-01 -1.615002E+01  9.665645E-01 -8.494654E-01
       502   8  3.947283E+00 -1.858177E+01  1.895519E+00 -1.637452E+01  9.532586E-01 -4.249229E-01
       503   1 -3.286844E+00 -9.810438E+00 -1.564899E+00 -1.523350E+01 -7.571067E-01 -2.422520E-01
       503   2  3.529301E+00  9.754794E+00  1.590354E+00 -1.521466E+01 -7.502093E-01  2.728923E-01
       503   3 -3.266180E+00 -9.729086E+00 -1.525326E+00 -1.271810E+01  1.202565E+00 -1.682694E-01
       503   4  3.481337E+00  9.689012E+00  1.548302E+00 -1.270102E+01  1.209379E+00  2.077969E-01
       503   5 -3.245347E+00 -9.733514E+00 -1.349983E+00 -2.122647E+01 -1.096768E+00 -2.191944E-01
       503   6  3.375804E+00  9.636725E+00  1.350285E+00 -2.120763E+01 -1.091537E+00  2.587631E-01
       503   7 -3.220114E+00 -9.650654E+00 -1.309953E+00 -1.871989E+01  9.732079E-01 -1.453874E-01
       503   8  3.333896E+00  9.573936E+00  1.312156E+00 -1.870281E+01  9.783678E-01  1.937753E-01
       504   1 -2.744756E+00  1.925756E+01 -9.204573E-01 -1.276044E+01 -7.722755E-01  6.794748E-01
       504   2  4.086960E+00  3.884962E+01  2.259871E+00 -1.252103E+01 -7.583706E-01  1.275135E+00
       504   3 -2.829954E+00  1.909142E+01 -1.016070E+00 -1.032436E+01  1.182687E+00  5.132888E-01
       504   4  3.935783E+00  3.854235E+01  2.085462E+00 -1.007832E+01  1.196906E+00  9.718421E-01
       504   5 -3.765791E+00  1.868668E+01 -1.802349E+00 -1.875870E+01 -1.112765E+00  6.387042E-01
       504   6  2.873620E+00  3.808644E+01  9.292685E-01 -1.851929E+01 -1.092579E+00  1.198765E+00
       504   7 -3.877244E+00  1.851031E+01 -1.905829E+00 -1.633307E+01  9.507026E-01  4.728288E-01
       504   8  2.697653E+00  3.777039E+01  7.504100E-01 -1.608703E+01  9.711549E-01  8.960544E-01
       505   1 -2.217998E+00  4.831569E+01 -3.081667E-01 -4.413889E+00 -8.841172E-01  2.048896E+00
       505   2  4.523742E+00  6.778496E+01  2.695032E+00 -3.951166E+00 -8.805793E-01  3.567191E+00
       505   3 -2.345700E+00  4.793325E+01 -5.106626E-01 -2.873669E+00  1.115728E+00  1.642106E+00
       505   4  4.325894E+00  6.725246E+01  2.408774E+00 -2.397335E+00  1.119910E+00  3.014748E+00
       505   5 -4.311312E+00  4.709243E+01 -2.292403E+00 -1.039673E+01 -1.224011E+00  1.945641E+00
       505   6  2.226138E+00  6.635740E+01  2.341197E-01 -9.934005E+00 -1.207578E+00  3.426084E+00
       505   7 -4.491487E+00  4.668998E+01 -2.509106E+00 -8.864581E+00  8.921292E-01  1.539638E+00
       505   8  1.977374E+00  6.580646E+01 -6.271418E-02 -8.388248E+00  9.091084E-01  2.874716E+00
       506   1 -4.691872E+00 -6.721401E+01 -3.538822E+00 -1.711384E+00 -7.532591E-01 -6.351632E+00
       506   2  2.091103E+00 -4.787582E+01 -2.671050E-01 -2.197366E+00 -7.133923E-01 -4.198004E+00
       506   3 -4.304528E+00 -6.594821E+01 -2.968505E+00 -1.300617E+00  1.109736E+00 -5.729808E+00
       506   4  2.326883E+00 -4.694930E+01  1.372895E-01 -1.802065E+00  1.148870E+00 -3.732227E+00
       506   5 -2.201854E+00 -6.564993E+01 -8.152262E-01 -7.691698E+00 -1.098787E+00 -5.990390E+00
       506   6  4.362844E+00 -4.653001E+01  1.947180E+00 -8.177680E+00 -1.073765E+00 -3.926856E+00
       506   7 -1.756818E+00 -6.436313E+01 -2.326386E-01 -7.236144E+00  8.933632E-01 -5.371282E+00
       506   8  4.657959E+00 -4.558086E+01  2.367674E+00 -7.737591E+00  9.177647E-01 -3.463118E+00
       507   1 -3.948254E+00 -3.843969E+01 -2.585412E+00 -8.850602E+00 -6.307521E-01 -2.896610E+00
       507   2  2.833543E+00 -1.911308E+01  6.939687E-01 -9.081063E+00 -6.039080E-01 -1.494765E+00
       507   3 -3.735526E+00 -3.772394E+01 -2.264829E+00 -7.716194E+00  1.226501E+00 -2.545073E+00
       507   4  2.894616E+00 -1.873683E+01  8.485359E-01 -7.954542E+00  1.252972E+00 -1.299287E+00
       507   5 -2.688276E+00 -3.761880E+01 -1.109109E+00 -1.482596E+01 -9.956288E-01 -2.691437E+00
       507   6  3.875233E+00 -1.851048E+01  1.660933E+00 -1.505642E+01 -9.763548E-01 -1.379746E+00
       507   7 -2.446927E+00 -3.689290E+01 -7.833002E-01 -1.364667E+01  9.909890E-01 -2.341443E+00
       507   8  3.966568E+00 -1.812244E+01  1.824556E+00 -1.388501E+01  1.009946E+00 -1.185133E+00
       508   1 -3.308363E+00 -9.708178E+00 -1.653216E+00 -1.130710E+01 -5.770676E-01 -5.514005E-01
       508   2  3.505279E+00  9.677925E+00  1.672820E+00 -1.129104E+01 -5.717114E-01  6.240760E-01
       508   3 -3.242389E+00 -9.531077E+00 -1.570576E+00 -9.964816E+00  1.271873E+00 -4.700605E-01
       508   4  3.419189E+00  9.514541E+00  1.589066E+00 -9.949787E+00  1.277181E+00  5.496444E-01
       508   5 -3.248282E+00 -9.617493E+00 -1.411016E+00 -1.729562E+01 -9.450305E-01 -5.024787E-01
       508   6  3.347505E+00  9.550755E+00  1.406694E+00 -1.727956E+01 -9.406656E-01  5.825694E-01
       508   7 -3.180099E+00 -9.439934E+00 -1.329056E+00 -1.590828E+01  1.033124E+00 -4.215066E-01
       508   8  3.265263E+00  9.389468E+00  1.326081E+00 -1.589325E+01  1.037447E+00  5.084499E-01
       509   1 -2.716180E+00  1.906995E+01 -7.056984E-01 -9.022879E+00 -6.087094E-01  1.567139E+00
       509   2  4.092072E+00  3.846587E+01  2.592561E+00 -8.771902E+00 -6.278720E-01  2.968158E+00
       509   3 -2.789245E+00  1.870976E+01 -8.581414E-01 -7.900497E+00  1.251676E+00  1.379353E+00
       509   4  3.865824E+00  3.776240E+01  2.272781E+00 -7.642663E+00  1.232838E+00  2.626453E+00
       509   5 -3.815700E+00  1.844861E+01 -1.677302E+00 -1.501864E+01 -9.796013E-01  1.459140E+00
       509   6  2.777424E+00  3.762940E+01  1.118990E+00 -1.476767E+01 -9.921816E-01  2.768928E+00
       509   7 -3.916167E+00  1.807781E+01 -1.837727E+00 -1.385046E+01  1.008142E+00  1.272166E+00
       509   8  2.525391E+00  3.691693E+01  7.950034E-01 -1.359262E+01  9.958370E-01  2.428722E+00
       510   1 -2.072550E+00  4.786629E+01  2.186146E-01 -2.166310E+00 -7.183764E-01  4.265975E+00
       510   2  4.701649E+00  6.719188E+01  3.473690E+00 -1.679147E+00 -7.551675E-01  6.410659E+00
       510   3 -2.307849E+00  4.695997E+01 -1.782070E-01 -1.771256E+00  1.147388E+00  3.811632E+00
       510   4  4.319284E+00  6.595656E+01  2.915641E+00 -1.268143E+00  1.111353E+00  5.802501E+00
       510   5 -4.332233E+00  4.653479E+01 -1.960035E+00 -8.144798E+00 -1.076570E+00  4.001393E+00
       510   6  2.226706E+00  6.564512E+01  7.927672E-01 -7.657635E+00 -1.098051E+00  6.058765E+00
       510   7 -4.628645E+00  4.560501E+01 -2.373948E+00 -7.707724E+00  9.165165E-01  3.549040E+00
       510   8  1.784846E+00  6.438796E+01  2.214034E-01 -7.204611E+00  8.956754E-01  5.453252E+00
       511   1 -4.879503E+00 -6.578531E+01 -4.596944E+00 -1.099879E+00 -6.377186E-01 -6.403348E+00
       511   2  1.856558E+00 -4.683798E+01 -1.090746E+00 -1.613530E+00 -5.827429E-01 -4.528214E+00
       511   3 -4.374647E+00 -6.414532E+01 -3.866811E+00 -9.594576E-01  1.058972E+00 -5.676274E+00
       511   4  2.170065E+00 -4.562789E+01 -5.685316E-01 -1.490959E+00  1.113102E+00 -3.981734E+00
       511   5 -2.117653E+00 -6.401496E+01 -1.457601E+00 -6.992687E+00 -9.881391E-01 -5.928576E+00
       511   6  4.363243E+00 -4.532278E+01  1.453213E+00 -7.506337E+00 -9.505207E-01 -4.169426E+00
       511   7 -1.546694E+00 -6.235098E+01 -7.136519E-01 -6.780342E+00  8.662029E-01 -5.205025E+00
       511   8  4.744748E+00 -4.408683E+01  1.993663E+00 -7.311843E+00  9.031048E-01 -3.625608E+00
       512   1 -4.049698E+00 -3.761850E+01 -3.167160E+00 -7.140274E+00 -5.012408E-01 -3.277877E+00
       512   2  2.680992E+00 -1.869077E+01  3.407513E-01 -7.384618E+00 -4.716501E-01 -1.737027E+00
       512   3 -3.745584E+00 -3.667235E+01 -2.742854E+00 -6.698442E+00  1.190367E+00 -2.864824E+00
       512   4  2.786102E+00 -1.819210E+01  5.491889E-01 -6.951277E+00  1.219556E+00 -1.507908E+00
       512   5 -2.641181E+00 -3.668163E+01 -1.452799E+00 -1.302621E+01 -8.735258E-01 -3.005759E+00
       512   6  3.829816E+00 -1.801360E+01  1.449160E+00 -1.327055E+01 -8.521906E-01 -1.585712E+00
       512   7 -2.306329E+00 -3.572478E+01 -1.023562E+00 -1.250758E+01  9.789881E-01 -2.594725E+00
       512   8  3.967591E+00 -1.750231E+01  1.667025E+00 -1.276042E+01  9.999825E-01 -1.357716E+00
       513   1 -3.294751E+00 -9.492957E+00 -1.757236E+00 -9.268262E+00 -4.558835E-01 -6.604246E-01
       513   2  3.459317E+00  9.484267E+00  1.779101E+00 -9.253944E+00 -4.516049E-01  7.400579E-01
       513   3 -3.204392E+00 -9.266796E+00 -1.650995E+00 -8.704718E+00  1.232288E+00 -5.657307E-01
       513   4  3.349209E+00  9.259472E+00  1.668072E+00 -8.691315E+00  1.236523E+00  6.514312E-01
       513   5 -3.209442E+00 -9.380012E+00 -1.466059E+00 -1.516680E+01 -8.326859E-01 -5.979016E-01
       513   6  3.285898E+00  9.338484E+00  1.466577E+00 -1.515248E+01 -8.292965E-01  6.807985E-01
       513   7 -3.117324E+00 -9.153664E+00 -1.360954E+00 -1.452558E+01  1.015887E+00 -5.036717E-01
       513   8  3.179468E+00  9.115796E+00  1.358893E+00 -1.451218E+01  1.019240E+00  5.926116E-01
       514   1 -2.582588E+00  1.867256E+01 -3.456066E-01 -7.333753E+00 -4.725411E-01  1.817895E+00
       514   2  4.170681E+00  3.766140E+01  3.176447E+00 -7.070589E+00 -4.963397E-01  3.362120E+00
       514   3 -2.700280E+00  1.817658E+01 -5.562079E-01 -6.904960E+00  1.222784E+00  1.595422E+00
       514   4  3.851569E+00  3.671216E+01  2.747719E+00 -6.634104E+00  1.199350E+00  2.957293E+00
       514   5 -3.785479E+00  1.797765E+01 -1.459084E+00 -1.323829E+01 -8.547020E-01  1.669242E+00
       514   6  2.710518E+00  3.670922E+01  1.462668E+00 -1.297512E+01 -8.710208E-01  3.091021E+00
       514   7 -3.933668E+00  1.746993E+01 -1.678318E+00 -1.273120E+01  9.999911E-01  1.447873E+00
       514   8  2.362819E+00  3.575014E+01  1.029762E+00 -1.246034E+01  9.839811E-01  2.688206E+00
       515   1 -1.839058E+00  4.685591E+01  1.051929E+00 -1.583597E+00 -5.862892E-01  4.612732E+00
       515   2  4.891660E+00  6.580245E+01  4.541113E+00 -1.067781E+00 -6.396199E-01  6.485245E+00
       515   3 -2.156289E+00  4.564652E+01  5.299641E-01 -1.463182E+00  1.115160E+00  4.075677E+00
       515   4  4.384182E+00  6.416557E+01  3.812489E+00 -9.286399E-01  1.062716E+00  5.769289E+00
       515   5 -4.339356E+00  4.535128E+01 -1.463198E+00 -7.478599E+00 -9.544789E-01  4.254596E+00
       515   6  2.138623E+00  6.404508E+01  1.436261E+00 -6.962784E+00 -9.896012E-01  6.011763E+00
       515   7 -4.727721E+00  4.411463E+01 -2.004935E+00 -7.286914E+00  9.031690E-01  3.720199E+00
       515   8  1.561888E+00  6.238281E+01  6.922422E-01 -6.752372E+00  8.687984E-01  5.299321E+00
       516   1 -5.041895E+00 -6.399365E+01 -5.736857E+00 -9.034403E-01 -5.581094E-01 -4.899263E+00
       516   2  1.610017E+00 -4.554111E+01 -2.016364E+00 -1.448392E+00 -5.037786E-01 -3.549954E+00
       516   3 -4.554877E+00 -6.240411E+01 -5.008464E+00 -8.875610E-01  9.590197E-01 -4.020747E+00
       516   4  1.907941E+00 -4.437231E+01 -1.497543E+00 -1.451399E+00  1.012456E+00 -2.893123E+00
       516   5 -1.912348E+00 -6.192964E+01 -1.986364E+00 -6.671833E+00 -9.194781E-01 -4.435275E+00
       516   6  4.420174E+00 -4.379648E+01  9.888883E-01 -7.216785E+00 -8.837470E-01 -3.200037E+00
       516   7 -1.355734E+00 -6.031557E+01 -1.245800E+00 -6.584468E+00  8.027408E-01 -3.560159E+00
       516   8  4.790035E+00 -4.260082E+01  1.525342E+00 -7.148306E+00  8.377137E-01 -2.545770E+00
       517   1 -4.118648E+00 -3.658553E+01 -3.821004E+00 -6.494579E+00 -4.356719E-01 -2.614009E+00
       517   2  2.536925E+00 -1.816021E+01 -6.108544E-02 -6.753947E+00 -4.096109E-01 -1.406268E+00
       517   3 -3.815181E+00 -3.566746E+01 -3.395202E+00 -6.376168E+00  1.061761E+00 -2.119347E+00
       517   4  2.644980E+00 -1.767767E+01  1.488758E-01 -6.644890E+00  1.087379E+00 -1.132975E+00
       517   5 -2.519213E+00 -3.549323E+01 -1.779452E+00 -1.224788E+01 -8.169393E-01 -2.349124E+00
       517   6  3.817734E+00 -1.738654E+01  1.237005E+00 -1.250724E+01 -8.000894E-01 -1.259625E+00
       517   7 -2.182173E+00 -3.456376E+01 -1.349199E+00 -1.205370E+01  8.853514E-01 -1.856403E+00
       517   8  3.961697E+00 -1.689025E+01  1.456866E+00 -1.232242E+01  9.018258E-01 -9.874063E-01
       518   1 -3.269303E+00 -9.235741E+00 -1.878719E+00 -8.441029E+00 -4.005410E-01 -5.440424E-01
       518   2  3.407299E+00  9.233207E+00  1.907673E+00 -8.428287E+00 -3.973278E-01  6.038618E-01
       518   3 -3.179747E+00 -9.019727E+00 -1.773596E+00 -8.280874E+00  1.093287E+00 -4.319150E-01
       518   4  3.300026E+00  9.010147E+00  1.795773E+00 -8.269024E+00  1.096458E+00  4.970446E-01
       518   5 -3.151499E+00 -9.093023E+00 -1.520797E+00 -1.420537E+01 -7.893111E-01 -4.843411E-01
       518   6  3.210133E+00  9.060954E+00  1.530665E+00 -1.419263E+01 -7.869759E-01  5.442748E-01
       518   7 -3.060374E+00 -8.877013E+00 -1.417254E+00 -1.396848E+01  9.070719E-01 -3.726512E-01
       518   8  3.106736E+00  8.840199E+00  1.422570E+00 -1.395663E+01  9.093713E-01  4.378943E-01
       519   1 -2.452268E+00  1.815092E+01  6.979414E-02 -6.711334E+00 -4.063401E-01  1.468498E+00
       519   2  4.223957E+00  3.662909E+01  3.845707E+00 -6.434534E+00 -4.283315E-01  2.682824E+00
       519   3 -2.572420E+00  1.766127E+01 -1.452695E-01 -6.607846E+00  1.092991E+00  1.200518E+00
       519   4  3.904859E+00  3.569565E+01  3.411279E+00 -6.322508E+00  1.071404E+00  2.193483E+00
       519   5 -3.784820E+00  1.735959E+01 -1.235422E+00 -1.248037E+01 -8.006817E-01  1.321117E+00
       519   6  2.572956E+00  3.551931E+01  1.797443E+00 -1.220357E+01 -8.142644E-01  2.414875E+00
       519   7 -3.938570E+00  1.685715E+01 -1.459505E+00 -1.229890E+01  9.034543E-01  1.054217E+00
       519   8  2.222593E+00  3.457542E+01  1.359442E+00 -1.201356E+01  8.902143E-01  1.927498E+00
       520   1 -1.587663E+00  4.556692E+01  2.004389E+00 -1.422743E+00 -5.031942E-01  3.621677E+00
       520   2  5.062005E+00  6.402316E+01  5.713704E+00 -8.740789E-01 -5.572599E-01  4.972347E+00
       520   3 -1.891752E+00  4.438380E+01  1.480117E+00 -1.429409E+00  1.017392E+00  2.970298E+00
       520   4  4.568055E+00  6.241748E+01  4.979129E+00 -8.608997E-01  9.642663E-01  4.099633E+00
       520   5 -4.402176E+00  4.382520E+01 -9.868314E-01 -7.194040E+00 -8.858893E-01  3.267654E+00
       520   6  1.928656E+00  6.196261E+01  1.978533E+00 -6.645376E+00 -9.204104E-01  4.503733E+00
       520   7 -4.781663E+00  4.261369E+01 -1.530336E+00 -7.128721E+00  8.395720E-01  2.618869E+00
       520   8  1.361645E+00  6.033087E+01  1.230177E+00 -6.560212E+00  8.058474E-01  3.634452E+00
       521   1 -5.103602E+00 -6.230467E+01 -6.479215E+00 -8.876775E-01 -5.304822E-01 -2.202798E+00
       521   2  1.434620E+00 -4.433172E+01 -2.658090E+00 -1.463993E+00 -4.936060E-01 -1.613771E+00
       521   3 -4.849983E+00 -6.137875E+01 -6.003596E+00 -8.999732E-01  8.425559E-01 -1.201070E+00
       521   4  1.568005E+00 -4.366215E+01 -2.326902E+00 -1.491530E+00  8.787103E-01 -8.707350E-01
       521   5 -1.627030E+00 -5.996936E+01 -2.171441E+00 -6.548676E+00 -9.011294E-01 -1.931538E+00
       521   6  4.529001E+00 -4.237861E+01  7.579060E-01 -7.124992E+00 -8.794539E-01 -1.410389E+00
       521   7 -1.316356E+00 -5.902511E+01 -1.691759E+00 -6.534356E+00  7.244944E-01 -9.317728E-01
       521   8  4.722206E+00 -4.168794E+01  1.099610E+00 -7.125912E+00  7.455582E-01 -6.688243E-01
       522   1 -4.125623E+00 -3.561933E+01 -4.261794E+00 -6.333775E+00 -4.743510E-01 -1.197881E+00
       522   2  2.437744E+00 -1.766425E+01 -3.389841E-01 -6.607522E+00 -4.574607E-01 -6.506730E-01
       522   3 -3.960339E+00 -3.508672E+01 -3.984717E+00 -6.332529E+00  8.591263E-01 -6.407077E-01
       522   4  2.482284E+00 -1.739009E+01 -2.059356E-01 -6.610702E+00  8.758070E-01 -3.425965E-01
       522   5 -2.354300E+00 -3.439011E+01 -1.935696E+00 -1.197348E+01 -8.626074E-01 -1.044479E+00
       522   6  3.841288E+00 -1.680281E+01  1.128963E+00 -1.224723E+01 -8.501322E-01 -5.659427E-01
       522   7 -2.172601E+00 -3.385386E+01 -1.662922E+00 -1.194467E+01  7.140447E-01 -4.884158E-01
       522   8  3.904904E+00 -1.652235E+01  1.263918E+00 -1.222284E+01  7.263422E-01 -2.584793E-01
       523   1 -3.230433E+00 -8.998493E+00 -1.952835E+00 -8.220051E+00 -4.564464E-01 -2.559003E-01
       523   2  3.347221E+00  8.990338E+00  1.983846E+00 -8.208675E+00 -4.550668E-01  2.754311E-01
       523   3 -3.172870E+00 -8.870378E+00 -1.881785E+00 -8.210268E+00  8.768698E-01 -1.296368E-01
       523   4  3.283673E+00  8.859006E+00  1.910640E+00 -8.199301E+00  8.782301E-01  1.540687E-01
       523   5 -3.083401E+00 -8.828934E+00 -1.534669E+00 -1.386939E+01 -8.492952E-01 -2.215562E-01
       523   6  3.128695E+00  8.794341E+00  1.549045E+00 -1.385802E+01 -8.483231E-01  2.407894E-01
       523   7 -3.026048E+00 -8.701680E+00 -1.466279E+00 -1.383180E+01  7.257707E-01 -9.554116E-02
       523   8  3.067583E+00  8.664792E+00  1.479352E+00 -1.382083E+01  7.267264E-01  1.196776E-01
       524   1 -2.364445E+00  1.765051E+01  3.552861E-01 -6.573392E+00 -4.549323E-01  6.716387E-01
       524   2  4.217660E+00  3.564929E+01  4.296864E+00 -6.283440E+00 -4.702354E-01  1.222767E+00
       524   3 -2.412584E+00  1.737301E+01  2.206960E-01 -6.578976E+00  8.783647E-01  3.679393E-01
       524   4  4.047053E+00  3.510943E+01  4.016390E+00 -6.284908E+00  8.632565E-01  6.685392E-01
       524   5 -3.817553E+00  1.677159E+01 -1.121336E+00 -1.222545E+01 -8.501552E-01  5.862151E-01
       524   6  2.394708E+00  3.440052E+01  1.957271E+00 -1.193550E+01 -8.613543E-01  1.067590E+00
       524   7 -3.884136E+00  1.648804E+01 -1.257653E+00 -1.220248E+01  7.277187E-01  2.831337E-01
       524   8  2.208332E+00  3.385730E+01  1.681315E+00 -1.190841E+01  7.166848E-01  5.144853E-01
       525   1 -1.409329E+00  4.434737E+01  2.665802E+00 -1.443906E+00 -4.933592E-01  1.640493E+00
       525   2  5.127310E+00  6.232305E+01  6.478923E+00 -8.623866E-01 -5.304060E-01  2.230614E+00
       525   3 -1.544492E+00  4.367065E+01  2.332225E+00 -1.472997E+00  8.821420E-01  8.997026E-01
       525   4  4.871499E+00  6.138906E+01  6.000455E+00 -8.757370E-01  8.458407E-01  1.230653E+00
       525   5 -4.518223E+00  4.239005E+01 -7.497078E-01 -7.107040E+00 -8.807677E-01  1.434847E+00
       525   6  1.635527E+00  5.998284E+01  2.170005E+00 -6.525521E+00 -9.021156E-01  1.956837E+00
       525   7 -4.715107E+00  4.169140E+01 -1.094664E+00 -7.109277E+00  7.478987E-01  6.955447E-01
       525   8  1.320765E+00  5.902969E+01  1.686624E+00 -6.512017E+00  7.271827E-01  9.588567E-01
       526   1 -4.998481E+00 -7.595787E+01 -2.888828E+00 -3.589150E+00 -1.022568E+00 -3.227063E+00
       526   2  2.548413E+00 -5.411924E+01  4.288593E-01 -4.087516E+00 -1.044012E+00 -1.798237E+00
       526   3 -4.834511E+00 -7.564405E+01 -2.691364E+00 -2.064977E+00  1.186290E+00 -2.627081E+00
       526   4  2.666442E+00 -5.390178E+01  5.695399E-01 -2.567531E+00  1.164700E+00 -1.354645E+00
       526   5 -2.509924E+00 -7.440638E+01 -2.057627E-01 -1.030728E+01 -1.305646E+00 -3.152227E+00
       526   6  4.815984E+00 -5.278874E+01  2.596289E+00 -1.080564E+01 -1.331057E+00 -1.747281E+00
       526   7 -2.325946E+00 -7.408769E+01 -1.203966E-02 -8.810798E+00  1.031021E+00 -2.552815E+00
       526   8  4.955703E+00 -5.256472E+01  2.737157E+00 -9.313351E+00  1.005494E+00 -1.304077E+00
       527   1 -4.424325E+00 -4.349021E+01 -2.440656E+00 -1.224972E+01 -9.128463E-01 -1.084020E+00
       527   2  3.184266E+00 -2.163033E+01  1.061434E+00 -1.249516E+01 -9.307820E-01 -5.615674E-01
       527   3 -4.314459E+00 -4.331948E+01 -2.326459E+00 -9.829468E+00  1.234324E+00 -7.514277E-01
       527   4  3.267016E+00 -2.151266E+01  1.138307E+00 -1.007766E+01  1.216293E+00 -3.758445E-01
       527   5 -3.146030E+00 -4.267342E+01 -9.963318E-01 -1.894883E+01 -1.199600E+00 -1.046303E+00
       527   6  4.254497E+00 -2.102161E+01  2.020276E+00 -1.919428E+01 -1.220137E+00 -5.361410E-01
       527   7 -3.024445E+00 -4.249972E+01 -8.839423E-01 -1.656772E+01  1.066833E+00 -7.139983E-01
       527   8  4.350551E+00 -2.089938E+01  2.099040E+00 -1.681591E+01  1.046221E+00 -3.506117E-01
       528   1 -3.762587E+00 -1.098933E+01 -1.745257E+00 -1.493928E+01 -9.176516E-01 -2.081076E-01
       528   2  3.842347E+00  1.087656E+01  1.738635E+00 -1.493363E+01 -9.134970E-01  2.351104E-01
       528   3 -3.747559E+00 -1.093328E+01 -1.716908E+00 -1.244231E+01  1.236696E+00 -1.299989E-01
       528   4  3.827006E+00  1.087197E+01  1.726393E+00 -1.243658E+01  1.240853E+00  1.660803E-01
       528   5 -3.671006E+00 -1.088712E+01 -1.496150E+00 -2.164294E+01 -1.208907E+00 -1.924281E-01
       528   6  3.725588E+00  1.077043E+01  1.501615E+00 -2.163729E+01 -1.204673E+00  2.364511E-01
       528   7 -3.657236E+00 -1.083209E+01 -1.469939E+00 -1.918310E+01  1.064908E+00 -1.144389E-01
       528   8  3.710576E+00  1.076640E+01  1.490939E+00 -1.917736E+01  1.069143E+00  1.674108E-01
       529   1 -3.141751E+00  2.150932E+01 -1.081763E+00 -1.248804E+01 -9.334925E-01  5.889988E-01
       529   2  4.477840E+00  4.339499E+01  2.431204E+00 -1.223687E+01 -9.092416E-01  1.112622E+00
       529   3 -3.219627E+00  2.144320E+01 -1.140941E+00 -1.007118E+01  1.213653E+00  4.123527E-01
       529   4  4.369807E+00  4.326870E+01  2.331666E+00 -9.816190E+00  1.238037E+00  7.891022E-01
       529   5 -4.218783E+00  2.090456E+01 -2.020576E+00 -1.919411E+01 -1.222088E+00  5.798888E-01
       529   6  3.192838E+00  4.258226E+01  1.007128E+00 -1.894294E+01 -1.194218E+00  1.089299E+00
       529   7 -4.313761E+00  2.083221E+01 -2.083447E+00 -1.681452E+01  1.044277E+00  4.033121E-01
       529   8  3.069288E+00  4.245133E+01  9.075936E-01 -1.655953E+01  1.072252E+00  7.659566E-01
       530   1 -2.545435E+00  5.400252E+01 -4.571565E-01 -4.093811E+00 -1.043100E+00  1.828999E+00
       530   2  4.993742E+00  7.581721E+01  2.858748E+00 -3.597859E+00 -1.018361E+00  3.262556E+00
       530   3 -2.653287E+00  5.383078E+01 -5.803327E-01 -2.572334E+00  1.162871E+00  1.394052E+00
       530   4  4.839628E+00  7.554844E+01  2.678388E+00 -2.069631E+00  1.187846E+00  2.670057E+00
       530   5 -4.793489E+00  5.268700E+01 -2.594179E+00 -1.080431E+01 -1.330707E+00  1.791673E+00
       530   6  2.523059E+00  7.427906E+01  2.022574E-01 -1.030836E+01 -1.299572E+00  3.201185E+00
       530   7 -4.931559E+00  5.250498E+01 -2.721365E+00 -9.310306E+00  1.004152E+00  1.357010E+00
       530   8  2.340423E+00  7.400171E+01  2.184421E-02 -8.807603E+00  1.035474E+00  2.609154E+00
       531   1 -5.131262E+00 -7.568547E+01 -3.544910E+00 -1.347531E+00 -9.225433E-01 -5.621780E+00
       531   2  2.480406E+00 -5.389570E+01  3.754858E-02 -1.854448E+00 -9.064436E-01 -3.665463E+00
       531   3 -4.858502E+00 -7.486828E+01 -3.160233E+00 -9.086563E-01  1.166939E+00 -4.976923E+00
       531   4  2.653498E+00 -5.329974E+01  3.112335E-01 -1.423270E+00  1.182771E+00 -3.185166E+00
       531   5 -2.524585E+00 -7.404461E+01 -6.820674E-01 -8.100858E+00 -1.222974E+00 -5.392905E+00
       531   6  4.853201E+00 -5.248873E+01  2.354668E+00 -8.607775E+00 -1.214262E+00 -3.494930E+00
       531   7 -2.220055E+00 -7.321774E+01 -2.968988E-01 -7.654797E+00  1.006928E+00 -4.749768E+00
       531   8  5.059823E+00 -5.188133E+01  2.632948E+00 -8.169411E+00  1.015427E+00 -3.015915E+00
       532   1 -4.426255E+00 -4.329303E+01 -2.682077E+00 -8.515137E+00 -8.358453E-01 -2.502655E+00
       532   2  3.191363E+00 -2.150205E+01  9.190113E-01 -8.765792E+00 -8.214950E-01 -1.282120E+00
       532   3 -4.286902E+00 -4.283882E+01 -2.471686E+00 -7.341565E+00  1.247263E+00 -2.141354E+00
       532   4  3.236061E+00 -2.125765E+01  1.023694E+00 -7.596193E+00  1.261475E+00 -1.081361E+00
       532   5 -3.077052E+00 -4.242140E+01 -1.125837E+00 -1.526620E+01 -1.158210E+00 -2.373706E+00
       532   6  4.312311E+00 -2.085868E+01  1.942653E+00 -1.551686E+01 -1.147673E+00 -1.208437E+00
       532   7 -2.921884E+00 -4.196261E+01 -9.160214E-01 -1.408851E+01  1.061575E+00 -2.013373E+00
       532   8  4.374540E+00 -2.060799E+01  2.050765E+00 -1.434313E+01  1.072003E+00 -1.008231E+00
       533   1 -3.780484E+00 -1.092305E+01 -1.813250E+00 -1.102166E+01 -7.897927E-01 -4.684251E-01
       533   2  3.852771E+00  1.088761E+01  1.820264E+00 -1.101581E+01 -7.860954E-01  5.340975E-01
       533   3 -3.736274E+00 -1.080235E+01 -1.756316E+00 -9.634304E+00  1.284771E+00 -3.849191E-01
       533   4  3.802938E+00  1.079989E+01  1.772154E+00 -9.628234E+00  1.288476E+00  4.578016E-01
       533   5 -3.681492E+00 -1.081292E+01 -1.545136E+00 -1.777466E+01 -1.118281E+00 -4.350644E-01
       533   6  3.724552E+00  1.077054E+01  1.558221E+00 -1.776881E+01 -1.114370E+00  5.125599E-01
       533   7 -3.639070E+00 -1.069349E+01 -1.490665E+00 -1.638356E+01  1.092293E+00 -3.518092E-01
       533   8  3.674640E+00  1.068325E+01  1.511633E+00 -1.637749E+01  1.096211E+00  4.364260E-01
       534   1 -3.148227E+00  2.145866E+01 -9.238034E-01 -8.759531E+00 -8.247279E-01  1.348048E+00
       534   2  4.475156E+00  4.326450E+01  2.681629E+00 -8.501362E+00 -8.329272E-01  2.569281E+00
       534   3 -3.194819E+00  2.124862E+01 -1.018125E+00 -7.589876E+00  1.258972E+00  1.154562E+00
       534   4  4.333600E+00  4.284392E+01  2.481304E+00 -7.326862E+00  1.250942E+00  2.215424E+00
       534   5 -4.284368E+00  2.081440E+01 -1.935181E+00 -1.551494E+01 -1.150123E+00  1.286113E+00
       534   6  3.111016E+00  4.239225E+01  1.138255E+00 -1.525677E+01 -1.153672E+00  2.451877E+00
       534   7 -4.351686E+00  2.059666E+01 -2.034442E+00 -1.434098E+01  1.070107E+00  1.093092E+00
       534   8  2.950449E+00  4.196568E+01  9.369902E-01 -1.407797E+01  1.066692E+00  2.098903E+00
       535   1 -2.470626E+00  5.384665E+01 -5.756697E-02 -1.858297E+00 -9.097398E-01  3.733396E+00
       535   2  5.128032E+00  7.560816E+01  3.509779E+00 -1.349768E+00 -9.216044E-01  5.692584E+00
       535   3 -2.638977E+00  5.328912E+01 -3.176690E-01 -1.425998E+00  1.180675E+00  3.260477E+00
       535   4  4.862940E+00  7.483627E+01  3.141582E+00 -9.083270E-01  1.169129E+00  5.054752E+00
       535   5 -4.838811E+00  5.244736E+01 -2.353688E+00 -8.604364E+00 -1.216975E+00  3.575024E+00
       535   6  2.525360E+00  7.397438E+01  6.665188E-01 -8.095835E+00 -1.220065E+00  5.477756E+00
       535   7 -5.045661E+00  5.187622E+01 -2.620657E+00 -8.166710E+00  1.014289E+00  3.103296E+00
       535   8  2.223531E+00  7.319064E+01  2.955671E-01 -7.649039E+00  1.011452E+00  4.841539E+00
       536   1 -5.264249E+00 -7.482388E+01 -4.305630E+00 -6.811665E-01 -8.208567E-01 -5.460121E+00
       536   2  2.334772E+00 -5.326440E+01 -5.350364E-01 -1.202351E+00 -7.935145E-01 -3.834715E+00
       536   3 -4.941579E+00 -7.381701E+01 -3.842507E+00 -4.955233E-01  1.148006E+00 -4.740753E+00
       536   4  2.542613E+00 -5.251309E+01 -1.991226E-01 -1.026937E+00  1.174992E+00 -3.295358E+00
       536   5 -2.469545E+00 -7.303521E+01 -1.138097E+00 -7.418074E+00 -1.133666E+00 -5.171731E+00
       536   6  4.870501E+00 -5.173470E+01  2.028219E+00 -7.939258E+00 -1.116270E+00 -3.614743E+00
       536   7 -2.106574E+00 -7.201545E+01 -6.723241E-01 -7.214391E+00  9.965330E-01 -4.454504E+00
       536   8  5.120565E+00 -5.096858E+01  2.371269E+00 -7.745804E+00  1.013647E+00 -3.077019E+00
       537   1 -4.506052E+00 -4.279760E+01 -3.090594E+00 -6.727412E+00 -7.261084E-01 -2.762456E+00
       537   2  3.093054E+00 -2.123800E+01  6.801581E-01 -6.985259E+00 -7.100143E-01 -1.458399E+00
       537   3 -4.313717E+00 -4.220958E+01 -2.820117E+00 -6.220044E+00  1.242730E+00 -2.355122E+00
       537   4  3.162519E+00 -2.092427E+01  8.153529E-01 -6.482704E+00  1.258657E+00 -1.231746E+00
       537   5 -3.049719E+00 -4.183898E+01 -1.351540E+00 -1.346434E+01 -1.069765E+00 -2.594473E+00
       537   6  4.289705E+00 -2.053907E+01  1.813287E+00 -1.372218E+01 -1.058350E+00 -1.364029E+00
       537   7 -2.838836E+00 -4.124550E+01 -1.081389E+00 -1.293373E+01  1.060878E+00 -2.188386E+00
       537   8  4.379646E+00 -2.021794E+01  1.952654E+00 -1.319639E+01  1.072159E+00 -1.138077E+00
       538   1 -3.772294E+00 -1.077825E+01 -1.881213E+00 -8.894796E+00 -6.907888E-01 -5.524747E-01
       538   2  3.835731E+00  1.079455E+01  1.906073E+00 -8.888608E+00 -6.879941E-01  6.184981E-01
       538   3 -3.714624E+00 -1.063298E+01 -1.811902E+00 -8.258721E+00  1.274087E+00 -4.580526E-01
       538   4  3.768866E+00  1.066164E+01  1.838447E+00 -8.252433E+00  1.276886E+00  5.323428E-01
       538   5 -3.657574E+00 -1.065159E+01 -1.573718E+00 -1.563379E+01 -1.042815E+00 -5.123913E-01
       538   6  3.690978E+00  1.066174E+01  1.608130E+00 -1.562760E+01 -1.039922E+00  5.838833E-01
       538   7 -3.601410E+00 -1.050753E+01 -1.506971E+00 -1.497341E+01  1.083758E+00 -4.182666E-01
       538   8  3.624533E+00  1.052954E+01  1.542434E+00 -1.496712E+01  1.086654E+00  4.979849E-01
       539   1 -3.053189E+00  2.124803E+01 -6.660762E-01 -6.979007E+00 -7.137229E-01  1.524778E+00
       539   2  4.549402E+00  4.281960E+01  3.104321E+00 -6.712251E+00 -7.252563E-01  2.829808E+00
       539   3 -3.128696E+00  2.094796E+01 -7.982451E-01 -6.476685E+00  1.256889E+00  1.306471E+00
       539   4  4.350956E+00  4.224508E+01  2.836816E+00 -6.204554E+00  1.245543E+00  2.431033E+00
       539   5 -4.268050E+00  2.054808E+01 -1.784369E+00 -1.372003E+01 -1.061895E+00  1.435858E+00
       539   6  3.075173E+00  4.186029E+01  1.380838E+00 -1.345327E+01 -1.068203E+00  2.667222E+00
       539   7 -4.366258E+00  2.023962E+01 -1.921830E+00 -1.319445E+01  1.070341E+00  1.218211E+00
       539   8  2.855953E+00  4.127929E+01  1.112532E+00 -1.292232E+01  1.064182E+00  2.269654E+00
       540   1 -2.321393E+00  5.327156E+01  5.301051E-01 -1.204414E+00 -7.986509E-01  3.903099E+00
       540   2  5.265531E+00  7.480993E+01  4.281479E+00 -6.792715E-01 -8.227556E-01  5.530354E+00
       540   3 -2.530695E+00  5.253692E+01  1.995134E-01 -1.028293E+00  1.173511E+00  3.372330E+00
       540   4  4.943170E+00  7.382388E+01  3.825438E+00 -4.919032E-01  1.149798E+00  4.819440E+00
       540   5 -4.858268E+00  5.174836E+01 -2.010362E+00 -7.936973E+00 -1.121079E+00  3.688929E+00
       540   6  2.469423E+00  7.302750E+01  1.136136E+00 -7.411831E+00 -1.134247E+00  5.248920E+00
       540   7 -5.113452E+00  5.099729E+01 -2.349830E+00 -7.743935E+00  1.012644E+00  3.159750E+00
       540   8  2.103106E+00  7.202694E+01  6.757084E-01 -7.207545E+00  9.997870E-01  4.540094E+00
       541   1 -5.348167E+00 -7.374497E+01 -4.984030E+00 -4.050899E-01 -7.628293E-01 -4.008058E+00
       541   2  2.196642E+00 -5.247789E+01 -1.101748E+00 -9.436422E-01 -7.370135E-01 -2.896796E+00
       541   3 -5.061487E+00 -7.283425E+01 -4.552713E+00 -3.404668E-01  1.101086E+00 -3.203224E+00
       541   4  2.378744E+00 -5.179743E+01 -7.887603E-01 -8.883043E-01  1.126579E+00 -2.291408E+00
       541   5 -2.330179E+00 -7.178000E+01 -1.452133E+00 -7.112823E+00 -1.083365E+00 -3.744677E+00
       541   6  4.923229E+00 -5.080432E+01  1.750212E+00 -7.651375E+00 -1.066694E+00 -2.695307E+00
       541   7 -2.006502E+00 -7.085835E+01 -1.021362E+00 -7.035820E+00  9.680587E-01 -2.941774E+00
       541   8  5.144463E+00 -5.011080E+01  2.067636E+00 -7.583657E+00  9.844732E-01 -2.091394E+00
       542   1 -4.550801E+00 -4.217244E+01 -3.502494E+00 -5.965978E+00 -6.776770E-01 -2.129422E+00
       542   2  3.006995E+00 -2.091152E+01  4.292474E-01 -6.232288E+00 -6.663176E-01 -1.144178E+00
       542   3 -4.364949E+00 -4.163272E+01 -3.243802E+00 -5.776038E+00  1.167990E+00 -1.671350E+00
       542   4  3.078691E+00 -2.062419E+01  5.597970E-01 -6.047504E+00  1.179169E+00 -8.891368E-01
       542   5 -2.970900E+00 -4.111325E+01 -1.551764E+00 -1.266435E+01 -1.026450E+00 -1.975499E+00
       542   6  4.290520E+00 -2.014871E+01  1.688434E+00 -1.293066E+01 -1.020169E+00 -1.058319E+00
       542   7 -2.765449E+00 -4.056793E+01 -1.294004E+00 -1.245578E+01  1.010044E+00 -1.518555E+00
       542   8  4.383988E+00 -1.985360E+01  1.823118E+00 -1.272725E+01  1.016183E+00 -8.039073E-01
       543   1 -3.756306E+00 -1.061519E+01 -1.955557E+00 -7.939342E+00 -6.566119E-01 -4.428668E-01
       543   2  3.811038E+00  1.065523E+01  1.998503E+00 -7.933027E+00 -6.548487E-01  4.879073E-01
       543   3 -3.702279E+00 -1.048617E+01 -1.891112E+00 -7.699665E+00  1.182504E+00 -3.364366E-01
       543   4  3.748316E+00  1.052582E+01  1.932221E+00 -7.693377E+00  1.184267E+00  3.913555E-01
       543   5 -3.622538E+00 -1.046907E+01 -1.602273E+00 -1.463769E+01 -1.014600E+00 -4.074591E-01
       543   6  3.648592E+00  1.050513E+01  1.660620E+00 -1.463138E+01 -1.012863E+00  4.535447E-01
       543   7 -3.569717E+00 -1.034122E+01 -1.540512E+00 -1.437769E+01  1.015270E+00 -3.012883E-01
       543   8  3.586834E+00  1.037672E+01  1.596717E+00 -1.437140E+01  1.017006E+00  3.572446E-01
       544   1 -2.970928E+00  2.094713E+01 -3.953595E-01 -6.226566E+00 -6.690085E-01  1.189682E+00
       544   2  4.589627E+00  4.221895E+01  3.534672E+00 -5.950488E+00 -6.775909E-01  2.176190E+00
       544   3 -3.049191E+00  2.066003E+01 -5.269172E-01 -6.042359E+00  1.178732E+00  9.445079E-01
       544   4  4.396811E+00  4.167855E+01  3.274573E+00 -5.760873E+00  1.170338E+00  1.727956E+00
       544   5 -4.273348E+00  2.018452E+01 -1.634972E+00 -1.292892E+01 -1.023302E+00  1.104773E+00
       544   6  2.990801E+00  4.115994E+01  1.603446E+00 -1.265284E+01 -1.026558E+00  2.022957E+00
       544   7 -4.374605E+00  1.988906E+01 -1.771392E+00 -1.272586E+01  1.015318E+00  8.602213E-01
       544   8  2.777163E+00  4.061335E+01  1.343553E+00 -1.244437E+01  1.012212E+00  1.575846E+00
       545   1 -2.180823E+00  5.251401E+01  1.117945E+00 -9.447165E-01 -7.411262E-01  2.944507E+00
       545   2  5.353891E+00  7.376560E+01  4.982073E+00 -4.005859E-01 -7.650895E-01  4.057080E+00
       545   3 -2.367037E+00  5.183434E+01  8.048389E-01 -8.893051E-01  1.126547E+00  2.348859E+00
       545   4  5.063843E+00  7.285741E+01  4.551363E+00 -3.352598E-01  1.102929E+00  3.261748E+00
       545   5 -4.912148E+00  5.084661E+01 -1.708715E+00 -7.649809E+00 -1.071033E+00  2.743794E+00
       545   6  2.330786E+00  7.180642E+01  1.474594E+00 -7.105679E+00 -1.085232E+00  3.794973E+00
       545   7 -5.139910E+00  5.015278E+01 -2.027493E+00 -7.582496E+00  9.844565E-01  2.149617E+00
       545   8  2.001328E+00  7.088621E+01  1.043200E+00 -7.028450E+00  9.705318E-01  3.001562E+00
       546   1 -5.356246E+00 -7.276432E+01 -5.357062E+00 -3.115108E-01 -7.498691E-01 -1.757575E+00
       546   2  2.106308E+00 -5.177804E+01 -1.468159E+00 -8.653820E-01 -7.355513E-01 -1.290107E+00
       546   3 -5.198469E+00 -7.223195E+01 -5.072085E+00 -2.936390E-01  1.045658E+00 -8.923183E-01
       546   4  2.197463E+00 -5.138620E+01 -1.264734E+00 -8.547296E-01  1.059724E+00 -6.402906E-01
       546   5 -2.150366E+00 -7.065526E+01 -1.532745E+00 -7.006707E+00 -1.068350E+00 -1.604313E+00
       546   6  4.991809E+00 -4.998936E+01  1.608605E+00 -7.560578E+00 -1.061232E+00 -1.173697E+00
       546   7 -1.962705E+00 -7.011541E+01 -1.252693E+00 -7.000785E+00  9.389626E-01 -7.401651E-01
       546   8  5.115165E+00 -4.958771E+01  1.812514E+00 -7.561876E+00  9.458805E-01 -5.247230E-01
       547   1 -4.555872E+00 -4.161534E+01 -3.770138E+00 -5.691130E+00 -7.238126E-01 -9.588551E-01
       547   2  2.955024E+00 -2.061879E+01  2.696343E-01 -5.965338E+00 -7.138333E-01 -5.213253E-01
       547   3 -4.465581E+00 -4.130845E+01 -3.606726E+00 -5.645749E+00  1.020390E+00 -4.674326E-01
       547   4  2.974874E+00 -2.046121E+01  3.475508E-01 -5.922320E+00  1.030286E+00 -2.472034E-01
       547   5 -2.875048E+00 -4.047752E+01 -1.658246E+00 -1.236748E+01 -1.061864E+00 -8.703297E-01
       547   6  4.312814E+00 -1.980401E+01  1.627781E+00 -1.264169E+01 -1.054242E+00 -4.721299E-01
       547   7 -2.774869E+00 -4.016942E+01 -1.500666E+00 -1.233143E+01  8.959046E-01 -3.795478E-01
       547   8  4.344890E+00 -1.964288E+01  1.705320E+00 -1.260800E+01  9.034619E-01 -1.983640E-01
       548   1 -3.730935E+00 -1.047245E+01 -1.994155E+00 -7.592088E+00 -7.141907E-01 -2.059551E-01
       548   2  3.778188E+00  1.051692E+01  2.046884E+00 -7.585811E+00 -7.135615E-01  2.181224E-01
       548   3 -3.696205E+00 -1.039662E+01 -1.950664E+00 -7.534547E+00  1.028450E+00 -9.135221E-02
       548   4  3.741112E+00  1.044034E+01  2.003433E+00 -7.528277E+00  1.029079E+00  1.142120E-01
       548   5 -3.582285E+00 -1.031137E+01 -1.605877E+00 -1.426576E+01 -1.057476E+00 -1.858682E-01
       548   6  3.602036E+00  1.035320E+01  1.677290E+00 -1.425948E+01 -1.056854E+00  1.980135E-01
       548   7 -3.548924E+00 -1.023683E+01 -1.565321E+00 -1.421667E+01  8.999187E-01 -7.141066E-02
       548   8  3.565941E+00  1.027768E+01  1.636388E+00 -1.421040E+01  9.005412E-01  9.424859E-02
       549   1 -2.923169E+00  2.065987E+01 -2.244676E-01 -5.960468E+00 -7.153295E-01  5.337448E-01
       549   2  4.590201E+00  4.166624E+01  3.813735E+00 -5.676114E+00 -7.243404E-01  9.719636E-01
       549   3 -2.944713E+00  2.050170E+01 -3.021105E-01 -5.917622E+00  1.030826E+00  2.702098E-01
       549   4  4.498028E+00  4.135834E+01  3.650389E+00 -5.630814E+00  1.021901E+00  4.908394E-01
       549   5 -4.300277E+00  1.984586E+01 -1.560719E+00 -1.264045E+01 -1.056079E+00  4.844854E-01
       549   6  2.889634E+00  4.052877E+01  1.722746E+00 -1.235610E+01 -1.062642E+00  8.832594E-01
       549   7 -4.334737E+00  1.968378E+01 -1.638498E+00 -1.260685E+01  9.039412E-01  2.213068E-01
       549   8  2.786886E+00  4.021930E+01  1.564725E+00 -1.232004E+01  8.974461E-01  4.027771E-01
       550   1 -2.090676E+00  5.182084E+01  1.498016E+00 -8.663484E-01 -7.382004E-01  1.303663E+00
       550   2  5.362985E+00  7.279430E+01  5.370093E+00 -3.059550E-01 -7.518732E-01  1.771663E+00
       550   3 -2.183022E+00  5.142830E+01  1.294939E+00 -8.556719E-01  1.061064E+00  6.639252E-01
       550   4  5.204206E+00  7.226170E+01  5.085631E+00 -2.878249E-01  1.047651E+00  9.161747E-01
       550   5 -4.983692E+00  5.003756E+01 -1.553230E+00 -7.559602E+00 -1.064037E+00  1.187082E+00
       550   6  2.149118E+00  7.069017E+01  1.570193E+00 -6.999208E+00 -1.070277E+00  1.618367E+00
       550   7 -5.109330E+00  4.963468E+01 -1.757468E+00 -7.560998E+00  9.473736E-01  5.481881E-01
       550   8  1.959368E+00  7.014955E+01  1.289988E+00 -6.993151E+00  9.413405E-01  7.639879E-01
       551   1 -5.475936E+00 -8.452006E+01 -3.019983E+00 -3.166543E+00 -1.179436E+00 -3.007211E+00
       551   2  2.903288E+00 -6.022255E+01  6.132599E-01 -3.687911E+00 -1.207010E+00 -1.649072E+00
       551   3 -5.343757E+00 -8.434549E+01 -2.891904E+00 -1.677620E+00  1.253232E+00 -2.386131E+00
       551   4  3.009398E+00 -6.010162E+01  7.080736E-01 -2.199382E+00  1.225648E+00 -1.189214E+00
       551   5 -2.878981E+00 -8.290342E+01 -2.281481E-01 -1.064926E+01 -1.394272E+00 -2.972054E+00
       551   6  5.271579E+00 -5.883458E+01  2.871544E+00 -1.117063E+01 -1.422221E+00 -1.626972E+00
       551   7 -2.739038E+00 -8.272937E+01 -1.095303E-01 -9.204714E+00  1.171578E+00 -2.351242E+00
       551   8  5.387193E+00 -5.871242E+01  2.960960E+00 -9.726477E+00  1.143623E+00 -1.167282E+00
       552   1 -4.903642E+00 -4.841141E+01 -2.629687E+00 -1.183029E+01 -1.075241E+00 -9.788103E-01
       552   2  3.553759E+00 -2.408360E+01  1.233843E+00 -1.209204E+01 -1.097162E+00 -5.057603E-01
       552   3 -4.808868E+00 -4.831281E+01 -2.551641E+00 -9.459195E+00  1.281319E+00 -6.338009E-01
       552   4  3.642189E+00 -2.399298E+01  1.298723E+00 -9.721018E+00  1.259396E+00 -3.133006E-01
       552   5 -3.552653E+00 -4.755258E+01 -1.117930E+00 -1.929050E+01 -1.288905E+00 -9.617736E-01
       552   6  4.687996E+00 -2.344153E+01  2.239843E+00 -1.955225E+01 -1.310895E+00 -4.895001E-01
       552   7 -3.454759E+00 -4.745478E+01 -1.045652E+00 -1.697589E+01  1.192912E+00 -6.168939E-01
       552   8  4.781196E+00 -2.335005E+01  2.302808E+00 -1.723772E+01  1.170922E+00 -2.971642E-01
       553   1 -4.217096E+00 -1.226077E+01 -1.929667E+00 -1.455079E+01 -1.087953E+00 -1.886391E-01
       553   2  4.228549E+00  1.205489E+01  1.906826E+00 -1.455204E+01 -1.083492E+00  2.047021E-01
       553   3 -4.205458E+00 -1.220727E+01 -1.905462E+00 -1.209610E+01  1.276333E+00 -1.080483E-01
       553   4  4.233322E+00  1.209921E+01  1.917322E+00 -1.209627E+01  1.280819E+00  1.322113E-01
       553   5 -4.098993E+00 -1.214501E+01 -1.661908E+00 -2.201082E+01 -1.304729E+00 -1.730635E-01
       553   6  4.129155E+00  1.195315E+01  1.667090E+00 -2.201207E+01 -1.299251E+00  2.191836E-01
       553   7 -4.091746E+00 -1.209389E+01 -1.641240E+00 -1.961229E+01  1.185285E+00 -9.259132E-02
       553   8  4.131193E+00  1.199675E+01  1.677915E+00 -1.961246E+01  1.190779E+00  1.465825E-01
       554   1 -3.555510E+00  2.387647E+01 -1.261161E+00 -1.211107E+01 -1.099404E+00  5.224405E-01
       554   2  4.908055E+00  4.821895E+01  2.608240E+00 -1.185244E+01 -1.069099E+00  9.971766E-01
       554   3 -3.626372E+00  2.388287E+01 -1.291249E+00 -9.735452E+00  1.257438E+00  3.377951E-01
       554   4  4.828977E+00  4.821304E+01  2.563081E+00 -9.474156E+00  1.287803E+00  6.592006E-01
       554   5 -4.669365E+00  2.324891E+01 -2.239168E+00 -1.957528E+01 -1.313656E+00  5.358106E-01
       554   6  3.576376E+00  4.737357E+01  1.121978E+00 -1.931666E+01 -1.280824E+00  1.008605E+00
       554   7 -4.753599E+00  2.325073E+01 -2.271173E+00 -1.725502E+01  1.169114E+00  3.510633E-01
       554   8  3.485586E+00  4.736473E+01  1.078774E+00 -1.699372E+01  1.201986E+00  6.705416E-01
       555   1 -2.912866E+00  6.002544E+01 -6.394898E-01 -3.710248E+00 -1.208046E+00  1.671746E+00
       555   2  5.463012E+00  8.431314E+01  2.992403E+00 -3.192102E+00 -1.172718E+00  3.039966E+00
       555   3 -3.001856E+00  5.999638E+01 -7.012903E-01 -2.215238E+00  1.223987E+00  1.217990E+00
       555   4  5.347705E+00  8.422994E+01  2.897011E+00 -1.693353E+00  1.259398E+00  2.423226E+00
       555   5 -5.262822E+00  5.864974E+01 -2.875187E+00 -1.118993E+01 -1.424596E+00  1.677640E+00
       555   6  2.881891E+00  8.270627E+01  2.173191E-01 -1.067178E+01 -1.385725E+00  3.032685E+00
       555   7 -5.372385E+00  5.861467E+01 -2.936446E+00 -9.739155E+00  1.142169E+00  1.223840E+00
       555   8  2.747770E+00  8.261883E+01  1.265766E-01 -9.217270E+00  1.181096E+00  2.416000E+00
       556   1 -5.556850E+00 -8.442744E+01 -3.519179E+00 -9.672183E-01 -1.107054E+00 -5.121835E+00
       556   2  2.902362E+00 -6.011486E+01  3.656185E-01 -1.490215E+00 -1.102485E+00 -3.299294E+00
       556   3 -5.381110E+00 -8.393792E+01 -3.281953E+00 -5.122978E-01  1.227111E+00 -4.471046E+00
       556   4  3.017061E+00 -5.976038E+01  5.344138E-01 -1.038244E+00  1.231615E+00 -2.814590E+00
       556   5 -2.880583E+00 -8.274762E+01 -5.960714E-01 -8.518500E+00 -1.334797E+00 -4.986854E+00
       556   6  5.340694E+00 -5.867298E+01  2.733541E+00 -9.041496E+00 -1.333059E+00 -3.199827E+00
       556   7 -2.688731E+00 -8.225521E+01 -3.652961E-01 -8.085279E+00  1.142834E+00 -4.337080E+00
       556   8  5.473293E+00 -5.831382E+01  2.900060E+00 -8.611225E+00  1.144527E+00 -2.715871E+00
       557   1 -4.866801E+00 -4.830083E+01 -2.761979E+00 -8.156431E+00 -1.056368E+00 -2.232147E+00
       557   2  3.605345E+00 -2.398384E+01  1.161512E+00 -8.418599E+00 -1.047817E+00 -1.139187E+00
       557   3 -4.787265E+00 -4.803539E+01 -2.637390E+00 -6.965278E+00  1.265068E+00 -1.867507E+00
       557   4  3.632168E+00 -2.383418E+01  1.226179E+00 -7.228308E+00  1.273600E+00 -9.364818E-01
       557   5 -3.470193E+00 -4.740373E+01 -1.168241E+00 -1.570366E+01 -1.298849E+00 -2.156759E+00
       557   6  4.769815E+00 -2.331887E+01  2.213598E+00 -1.596582E+01 -1.291125E+00 -1.094070E+00
       557   7 -3.385066E+00 -4.713813E+01 -1.048739E+00 -1.453941E+01  1.162138E+00 -1.792685E+00
       557   8  4.803976E+00 -2.316731E+01  2.277251E+00 -1.480244E+01  1.169848E+00 -8.917039E-01
       558   1 -4.230378E+00 -1.219593E+01 -1.972422E+00 -1.068318E+01 -1.020529E+00 -4.177823E-01
       558   2  4.255967E+00  1.213484E+01  1.984627E+00 -1.068264E+01 -1.016354E+00  4.601720E-01
       558   3 -4.205602E+00 -1.211412E+01 -1.935567E+00 -9.274693E+00  1.291280E+00 -3.333222E-01
       558   4  4.229851E+00  1.210507E+01  1.963415E+00 -9.273239E+00  1.295475E+00  3.835156E-01
       558   5 -4.111386E+00 -1.207589E+01 -1.691291E+00 -1.823021E+01 -1.266855E+00 -3.944051E-01
       558   6  4.143963E+00  1.202388E+01  1.726766E+00 -1.822966E+01 -1.261812E+00  4.544254E-01
       558   7 -4.090571E+00 -1.199630E+01 -1.657865E+00 -1.684977E+01  1.183727E+00 -3.101208E-01
       558   8  4.115621E+00  1.199363E+01  1.706178E+00 -1.684832E+01  1.188785E+00  3.778123E-01
       559   1 -3.590976E+00  2.392038E+01 -1.153975E+00 -8.430655E+00 -1.050213E+00  1.182517E+00
       559   2  4.884024E+00  4.824529E+01  2.771123E+00 -8.167353E+00 -1.050943E+00  2.278046E+00
       559   3 -3.617367E+00  2.382338E+01 -1.202298E+00 -7.238458E+00  1.271927E+00  9.874005E-01
       559   4  4.804692E+00  4.803199E+01  2.662623E+00 -6.972343E+00  1.271260E+00  1.920407E+00
       559   5 -4.748892E+00  2.326413E+01 -2.183564E+00 -1.598029E+01 -1.293368E+00  1.154981E+00
       559   6  3.493130E+00  4.735606E+01  1.197918E+00 -1.571698E+01 -1.291399E+00  2.220106E+00
       559   7 -4.789277E+00  2.316234E+01 -2.233873E+00 -1.481489E+01  1.168857E+00  9.600720E-01
       559   8  3.401556E+00  4.713972E+01  1.091520E+00 -1.454877E+01  1.170869E+00  1.862902E+00
       560   1 -2.897620E+00  6.005260E+01 -3.647556E-01 -1.503143E+00 -1.105618E+00  3.349860E+00
       560   2  5.553997E+00  8.435151E+01  3.508394E+00 -9.780676E-01 -1.103339E+00  5.182582E+00
       560   3 -3.008203E+00  5.975282E+01 -5.155695E-01 -1.049635E+00  1.230772E+00  2.871400E+00
       560   4  5.383795E+00  8.392007E+01  3.290504E+00 -5.195959E-01  1.233162E+00  4.536555E+00
       560   5 -5.334490E+00  5.861615E+01 -2.716063E+00 -9.051531E+00 -1.336555E+00  3.268137E+00
       560   6  2.877026E+00  8.267495E+01  5.968496E-01 -8.526455E+00 -1.329511E+00  5.066287E+00
       560   7 -5.469853E+00  5.830869E+01 -2.867669E+00 -8.620643E+00  1.144680E+00  2.790291E+00
       560   8  2.683849E+00  8.223765E+01  3.823801E-01 -8.090604E+00  1.151798E+00  4.421134E+00
       561   1 -5.655979E+00 -8.395569E+01 -4.054214E+00 -2.677538E-01 -1.025602E+00 -4.861495E+00
       561   2  2.815615E+00 -5.976130E+01 -9.960908E-03 -7.967109E-01 -1.013910E+00 -3.386455E+00
       561   3 -5.459196E+00 -8.337090E+01 -3.779234E+00 -5.154203E-02  1.221952E+00 -4.160862E+00
       561   4  2.946195E+00 -5.932319E+01  1.910273E-01 -5.857512E-01  1.233527E+00 -2.860912E+00
       561   5 -2.852824E+00 -8.217357E+01 -9.169760E-01 -7.855120E+00 -1.264025E+00 -4.695721E+00
       561   6  5.364707E+00 -5.823325E+01  2.534463E+00 -8.384077E+00 -1.257440E+00 -3.259810E+00
       561   7 -2.632349E+00 -8.158294E+01 -6.462092E-01 -7.656509E+00  1.141968E+00 -3.996318E+00
       561   8  5.520864E+00 -5.778741E+01  2.735637E+00 -8.190718E+00  1.148474E+00 -2.735207E+00
       562   1 -4.928253E+00 -4.802438E+01 -3.025962E+00 -6.327686E+00 -9.819928E-01 -2.427051E+00
       562   2  3.545645E+00 -2.382342E+01  1.019402E+00 -6.591792E+00 -9.731834E-01 -1.280947E+00
       562   3 -4.816881E+00 -4.768408E+01 -2.867493E+00 -5.773843E+00  1.266351E+00 -2.029709E+00
       562   4  3.586553E+00 -2.363975E+01  1.099617E+00 -6.040016E+00  1.275114E+00 -1.058767E+00
       562   5 -3.459817E+00 -4.706574E+01 -1.298946E+00 -1.391711E+01 -1.244128E+00 -2.330060E+00
       562   6  4.760007E+00 -2.311885E+01  2.153578E+00 -1.418122E+01 -1.237327E+00 -1.225848E+00
       562   7 -3.339020E+00 -4.672385E+01 -1.144584E+00 -1.337812E+01  1.162601E+00 -1.933438E+00
       562   8  4.812224E+00 -2.293171E+01  2.234085E+00 -1.364429E+01  1.169370E+00 -1.004076E+00
       563   1 -4.227023E+00 -1.209419E+01 -2.004242E+00 -8.508426E+00 -9.608015E-01 -4.904516E-01
       563   2  4.254885E+00  1.211733E+01  2.057272E+00 -8.506435E+00 -9.577759E-01  5.231193E-01
       563   3 -4.196847E+00 -1.200808E+01 -1.963927E+00 -7.820357E+00  1.283510E+00 -3.964832E-01
       563   4  4.214009E+00  1.204543E+01  2.018747E+00 -7.817798E+00  1.286548E+00  4.419666E-01
       563   5 -4.097507E+00 -1.196083E+01 -1.689227E+00 -1.609908E+01 -1.229609E+00 -4.661579E-01
       563   6  4.130398E+00  1.199668E+01  1.779613E+00 -1.609709E+01 -1.226031E+00  5.051407E-01
       563   7 -4.070326E+00 -1.187658E+01 -1.652122E+00 -1.542549E+01  1.173027E+00 -3.723697E-01
       563   8  4.088413E+00  1.192481E+01  1.742278E+00 -1.542293E+01  1.176614E+00  4.241214E-01
       564   1 -3.526612E+00  2.384469E+01 -9.712431E-01 -6.600950E+00 -9.768103E-01  1.314296E+00
       564   2  4.948203E+00  4.805129E+01  3.071546E+00 -6.332610E+00 -9.800036E-01  2.462260E+00
       564   3 -3.576651E+00  2.367596E+01 -1.048986E+00 -6.048360E+00  1.273292E+00  1.104790E+00
       564   4  4.827773E+00  4.772612E+01  2.915604E+00 -5.776756E+00  1.270172E+00  2.077209E+00
       564   5 -4.737000E+00  2.315227E+01 -2.068907E+00 -1.419265E+01 -1.240728E+00  1.265532E+00
       564   6  3.483179E+00  4.710423E+01  1.379729E+00 -1.392431E+01 -1.240747E+00  2.371661E+00
       564   7 -4.802669E+00  2.297814E+01 -2.149052E+00 -1.365499E+01  1.168130E+00  1.056388E+00
       564   8  3.349007E+00  4.677555E+01  1.225795E+00 -1.338338E+01  1.168160E+00  1.987282E+00
       565   1 -2.803659E+00  5.978382E+01  4.623740E-02 -8.071930E-01 -1.019018E+00  3.424590E+00
       565   2  5.659467E+00  8.396672E+01  4.073761E+00 -2.729810E-01 -1.025670E+00  4.905760E+00
       565   3 -2.940914E+00  5.936243E+01 -1.510621E-01 -5.952662E-01  1.232709E+00  2.910792E+00
       565   4  5.456722E+00  8.340036E+01  3.803133E+00 -5.463161E-02  1.226200E+00  4.215766E+00
       565   5 -5.353592E+00  5.826507E+01 -2.466337E+00 -8.393097E+00 -1.262674E+00  3.304534E+00
       565   6  2.853842E+00  8.219227E+01  9.645708E-01 -7.858885E+00 -1.263082E+00  4.747062E+00
       565   7 -5.520665E+00  5.783406E+01 -2.665880E+00 -8.199247E+00  1.148564E+00  2.791627E+00
       565   8  2.623176E+00  8.161820E+01  6.961275E-01 -7.658613E+00  1.148254E+00  4.058247E+00
       566   1 -5.708086E+00 -8.335265E+01 -4.477495E+00  6.158505E-02 -9.796070E-01 -3.490580E+00
       566   2  2.736321E+00 -5.932027E+01 -3.618557E-01 -4.762907E-01 -9.679855E-01 -2.507981E+00
       566   3 -5.544505E+00 -8.284677E+01 -4.233155E+00  1.575334E-01  1.204995E+00 -2.738949E+00
       566   4  2.842646E+00 -5.893975E+01 -1.830040E-01 -3.851123E-01  1.216510E+00 -1.941216E+00
       566   5 -2.762108E+00 -8.145837E+01 -1.109211E+00 -7.558140E+00 -1.223827E+00 -3.345314E+00
       566   6  5.410322E+00 -5.769796E+01  2.371818E+00 -8.096016E+00 -1.216903E+00 -2.396252E+00
       566   7 -2.576599E+00 -8.094773E+01 -8.709056E-01 -7.484909E+00  1.135566E+00 -2.594747E+00
       566   8  5.540569E+00 -5.731069E+01  2.549286E+00 -8.027555E+00  1.142417E+00 -1.830306E+00
       567   1 -4.962965E+00 -4.767594E+01 -3.285960E+00 -5.484956E+00 -9.411965E-01 -1.837992E+00
       567   2  3.495183E+00 -2.363656E+01  8.684829E-01 -5.752835E+00 -9.377473E-01 -9.901499E-01
       567   3 -4.851287E+00 -4.737159E+01 -3.136255E+00 -5.246456E+00  1.231051E+00 -1.407816E+00
       567   4  3.542871E+00 -2.347313E+01  9.458159E-01 -5.516926E+00  1.234442E+00 -7.482758E-01
       567   5 -3.413728E+00 -4.665048E+01 -1.417004E+00 -1.310139E+01 -1.207759E+00 -1.752407E+00
       567   6  4.767515E+00 -2.288801E+01  2.091326E+00 -1.336926E+01 -1.206862E+00 -9.424513E-01
       567   7 -3.290987E+00 -4.634404E+01 -1.271389E+00 -1.288123E+01  1.142508E+00 -1.322859E+00
       567   8  4.828295E+00 -2.272046E+01  2.169305E+00 -1.315170E+01  1.143366E+00 -7.009268E-01
       568   1 -4.222191E+00 -1.199722E+01 -2.044491E+00 -7.461815E+00 -9.355474E-01 -3.897308E-01
       568   2  4.246105E+00  1.205297E+01  2.132973E+00 -7.458948E+00 -9.338061E-01  4.028022E-01
       568   3 -4.194791E+00 -1.192673E+01 -2.009112E+00 -7.167237E+00  1.230280E+00 -2.858573E-01
       568   4  4.207850E+00  1.197866E+01  2.094297E+00 -7.164091E+00  1.232028E+00  3.179529E-01
       568   5 -4.079208E+00 -1.184863E+01 -1.692175E+00 -1.507857E+01 -1.209602E+00 -3.701642E-01
       568   6  4.111597E+00  1.192407E+01  1.837810E+00 -1.507570E+01 -1.207587E+00  3.833977E-01
       568   7 -4.053958E+00 -1.177970E+01 -1.659850E+00 -1.480125E+01  1.134630E+00 -2.664341E-01
       568   8  4.073226E+00  1.185024E+01  1.800825E+00 -1.479811E+01  1.136649E+00  2.986906E-01
       569   1 -3.477957E+00  2.369125E+01 -7.845548E-01 -5.760740E+00 -9.411856E-01  1.003568E+00
       569   2  4.980317E+00  4.773561E+01  3.365333E+00 -5.486777E+00 -9.413974E-01  1.852359E+00
       569   3 -3.535635E+00  2.352434E+01 -8.648281E-01 -5.524438E+00  1.233373E+00  7.806357E-01
       569   4  4.858594E+00  4.742765E+01  3.212624E+00 -5.247292E+00  1.233232E+00  1.440898E+00
       569   5 -4.743131E+00  2.296175E+01 -1.951041E+00 -1.337954E+01 -1.210190E+00  9.560207E-01
       569   6  3.437905E+00  4.672887E+01  1.551958E+00 -1.310558E+01 -1.207268E+00  1.766894E+00
       569   7 -4.816297E+00  2.278957E+01 -2.033377E+00 -1.316157E+01  1.142619E+00  7.334365E-01
       569   8  3.302726E+00  4.641768E+01  1.401926E+00 -1.288442E+01  1.145590E+00  1.356060E+00
       570   1 -2.723854E+00  5.937736E+01  4.323720E-01 -4.852839E-01 -9.727463E-01  2.523818E+00
       570   2  5.712441E+00  8.340005E+01  4.530666E+00  5.965364E-02 -9.814243E-01  3.509487E+00
       570   3 -2.839086E+00  5.899382E+01  2.510066E-01 -3.936292E-01  1.216446E+00  1.975415E+00
       570   4  5.540099E+00  8.289151E+01  4.283924E+00  1.566525E-01  1.207887E+00  2.775479E+00
       570   5 -5.394898E+00  5.777182E+01 -2.248374E+00 -8.104235E+00 -1.221782E+00  2.412239E+00
       570   6  2.768325E+00  8.152144E+01  1.212752E+00 -7.559298E+00 -1.225197E+00  3.364482E+00
       570   7 -5.536408E+00  5.738040E+01 -2.429744E+00 -8.035404E+00  1.142940E+00  1.864654E+00
       570   8  2.571706E+00  8.100702E+01  9.706749E-01 -7.485123E+00  1.139606E+00  2.631536E+00
       571   1 -5.703986E+00 -8.280881E+01 -4.679184E+00  2.050010E-01 -9.615322E-01 -1.510663E+00
       571   2  2.682139E+00 -5.894217E+01 -5.920724E-01 -3.409817E-01 -9.584417E-01 -1.105479E+00
       571   3 -5.605420E+00 -8.251182E+01 -4.515029E+00  2.418659E-01  1.193989E+00 -7.262506E-01
       571   4  2.744485E+00 -5.872110E+01 -4.727354E-01 -3.084683E-01  1.196982E+00 -5.137743E-01
       571   5 -2.641180E+00 -8.082720E+01 -1.136640E+00 -7.458956E+00 -1.202755E+00 -1.426975E+00
       571   6  5.457311E+00 -5.724820E+01  2.279324E+00 -8.004939E+00 -1.204005E+00 -1.041586E+00
       571   7 -2.522104E+00 -8.052627E+01 -9.798303E-01 -7.458151E+00  1.142581E+00 -6.431682E-01
       571   8  5.542248E+00 -5.702110E+01  2.396172E+00 -8.008485E+00  1.141265E+00 -4.503442E-01
       572   1 -4.972592E+00 -4.737775E+01 -3.464869E+00 -5.133563E+00 -9.677686E-01 -8.209482E-01
       572   2  3.470146E+00 -2.347469E+01  7.745262E-01 -5.405382E+00 -9.613537E-01 -4.487805E-01
       572   3 -4.928028E+00 -4.721054E+01 -3.375265E+00 -5.060513E+00  1.139993E+00 -3.713653E-01
       572   4  3.475520E+00 -2.339020E+01  8.162161E-01 -5.333441E+00  1.146383E+00 -1.947726E-01
       572   5 -3.359643E+00 -4.630308E+01 -1.495587E+00 -1.278752E+01 -1.224973E+00 -7.722467E-01
       572   6  4.791234E+00 -2.269188E+01  2.062803E+00 -1.305934E+01 -1.219664E+00 -4.217862E-01
       572   7 -3.309199E+00 -4.613613E+01 -1.412710E+00 -1.274855E+01  1.075396E+00 -3.230162E-01
       572   8  4.804601E+00 -2.260553E+01  2.102693E+00 -1.302148E+01  1.080688E+00 -1.679737E-01
       573   1 -4.210928E+00 -1.191879E+01 -2.063923E+00 -7.028202E+00 -9.668572E-01 -1.814117E-01
       573   2  4.228616E+00  1.197834E+01  2.170766E+00 -7.024923E+00 -9.662791E-01  1.768857E-01
       573   3 -4.192608E+00 -1.187759E+01 -2.039679E+00 -6.939832E+00  1.141693E+00 -7.126948E-02
       573   4  4.206865E+00  1.193484E+01  2.146131E+00 -6.936463E+00  1.142273E+00  8.955480E-02
       573   5 -4.057880E+00 -1.175924E+01 -1.685166E+00 -1.468081E+01 -1.228473E+00 -1.705071E-01
       573   6  4.086983E+00  1.184320E+01  1.861933E+00 -1.467753E+01 -1.227805E+00  1.655399E-01
       573   7 -4.041146E+00 -1.171941E+01 -1.663869E+00 -1.462596E+01  1.074556E+00 -6.044372E-02
       573   8  4.065779E+00  1.180048E+01  1.839328E+00 -1.462259E+01  1.075224E+00  7.829105E-02
       574   1 -3.457923E+00  2.353360E+01 -6.718612E-01 -5.412696E+00 -9.634775E-01  4.443827E-01
       574   2  4.984669E+00  4.744126E+01  3.562454E+00 -5.133922E+00 -9.688156E-01  8.169003E-01
       574   3 -3.466439E+00  2.344691E+01 -7.138327E-01 -5.340604E+00  1.146736E+00  2.131317E-01
       574   4  4.936910E+00  4.727173E+01  3.472510E+00 -5.060548E+00  1.141427E+00  3.899258E-01
       574   5 -4.769050E+00  2.277453E+01 -1.890992E+00 -1.306900E+01 -1.221795E+00  4.169356E-01
       574   6  3.381461E+00  4.639010E+01  1.661802E+00 -1.279023E+01 -1.225854E+00  7.677143E-01
       574   7 -4.786591E+00  2.268539E+01 -1.932075E+00 -1.303097E+01  1.081178E+00  1.858832E-01
       574   8  3.326791E+00  4.622024E+01  1.577677E+00 -1.275092E+01  1.077139E+00  3.410957E-01
       575   1 -2.673365E+00  5.900386E+01  6.814273E-01 -3.492768E-01 -9.616131E-01  1.101928E+00
       575   2  5.704941E+00  8.286138E+01  4.751586E+00  2.046007E-01 -9.636557E-01  1.508122E+00
       575   3 -2.738770E+00  5.878046E+01  5.617752E-01 -3.166213E-01  1.198403E+00  5.326005E-01
       575   4  5.603262E+00  8.256197E+01  4.587042E+00  2.417444E-01  1.196461E+00  7.456007E-01
       575   5 -5.442403E+00  5.733165E+01 -2.123545E+00 -8.012594E+00 -1.207322E+00  1.037531E+00
       575   6  2.647543E+00  8.090082E+01  1.273774E+00 -7.458717E+00 -1.204889E+00  1.423904E+00
       575   7 -5.531318E+00  5.710170E+01 -2.241564E+00 -8.015969E+00  1.143016E+00  4.686687E-01
       575   8  2.524441E+00  8.059693E+01  1.115731E+00 -7.457603E+00  1.145518E+00  6.619920E-01
       576   1 -5.936747E+00 -9.333034E+01 -3.140843E+00 -2.730067E+00 -1.347949E+00 -2.867549E+00
       576   2  3.294969E+00 -6.651299E+01  8.141889E-01 -3.263933E+00 -1.375832E+00 -1.559747E+00
       576   3 -5.829311E+00 -9.324290E+01 -3.066194E+00 -1.270590E+00  1.316820E+00 -2.235941E+00
       576   4  3.393107E+00 -6.644403E+01  8.763220E-01 -1.803421E+00  1.288948E+00 -1.091391E+00
       576   5 -3.282702E+00 -9.168011E+01 -2.941329E-01 -1.099656E+01 -1.473895E+00 -2.855594E+00
       576   6  5.717091E+00 -6.509468E+01  3.119746E+00 -1.153043E+01 -1.500797E+00 -1.552140E+00
       576   7 -3.172049E+00 -9.159520E+01 -2.311271E-01 -9.596199E+00  1.326143E+00 -2.224077E+00
       576   8  5.820213E+00 -6.502648E+01  3.174359E+00 -1.012903E+01  1.299243E+00 -1.083841E+00
       577   1 -5.365033E+00 -5.348684E+01 -2.812482E+00 -1.137487E+01 -1.240589E+00 -9.193694E-01
       577   2  3.963809E+00 -2.662176E+01  1.418576E+00 -1.164543E+01 -1.262410E+00 -4.776271E-01
       577   3 -5.279487E+00 -5.342185E+01 -2.758311E+00 -9.051380E+00  1.334713E+00 -5.677690E-01
       577   4  4.057395E+00 -2.653494E+01  1.477715E+00 -9.321065E+00  1.312901E+00 -2.817586E-01
       577   5 -3.975235E+00 -5.260577E+01 -1.265400E+00 -1.961815E+01 -1.361568E+00 -9.109620E-01
       577   6  5.132209E+00 -2.596209E+01  2.449063E+00 -1.988871E+01 -1.382557E+00 -4.626868E-01
       577   7 -3.889568E+00 -5.254291E+01 -1.218425E+00 -1.736447E+01  1.342000E+00 -5.594257E-01
       577   8  5.227603E+00 -2.587571E+01  2.504941E+00 -1.763416E+01  1.321012E+00 -2.669321E-01
       578   1 -4.659886E+00 -1.357945E+01 -2.115482E+00 -1.410886E+01 -1.258431E+00 -1.834408E-01
       578   2  4.657509E+00  1.327628E+01  2.086782E+00 -1.411377E+01 -1.252048E+00  1.785488E-01
       578   3 -4.649828E+00 -1.351471E+01 -2.090959E+00 -1.169990E+01  1.325602E+00 -1.019540E-01
       578   4  4.675965E+00  1.336370E+01  2.116609E+00 -1.170314E+01  1.332001E+00  1.032711E-01
       578   5 -4.528226E+00 -1.345702E+01 -1.839050E+00 -2.235312E+01 -1.381356E+00 -1.636320E-01
       578   6  4.566301E+00  1.317584E+01  1.843187E+00 -2.235803E+01 -1.373392E+00  2.051258E-01
       578   7 -4.524458E+00 -1.339548E+01 -1.818900E+00 -2.001421E+01  1.331881E+00 -8.229604E-02
       578   8  4.580164E+00  1.326176E+01  1.872604E+00 -2.001746E+01  1.339849E+00  1.296456E-01
       579   1 -3.977175E+00  2.632435E+01 -1.450348E+00 -1.168135E+01 -1.265947E+00  4.734868E-01
       579   2  5.365027E+00  5.322376E+01  2.790911E+00 -1.141792E+01 -1.231191E+00  9.172828E-01
       579   3 -4.043384E+00  2.638801E+01 -1.455996E+00 -9.349069E+00  1.311041E+00  2.833094E-01
       579   4  5.305127E+00  5.330524E+01  2.788472E+00 -9.082927E+00  1.345823E+00  5.699581E-01
       579   5 -5.114702E+00  2.568215E+01 -2.453495E+00 -1.993448E+01 -1.387431E+00  5.045369E-01
       579   6  4.004107E+00  5.235817E+01  1.266513E+00 -1.967105E+01 -1.350107E+00  9.537855E-01
       579   7 -5.194490E+00  2.574116E+01 -2.461034E+00 -1.767101E+01  1.319075E+00  3.141229E-01
       579   8  3.932330E+00  5.243671E+01  1.266154E+00 -1.740487E+01  1.356405E+00  6.061827E-01
       580   1 -3.308673E+00  6.626089E+01 -8.400916E-01 -3.297171E+00 -1.379537E+00  1.563354E+00
       580   2  5.929976E+00  9.309866E+01  3.117641E+00 -2.764992E+00 -1.338144E+00  2.884657E+00
       580   3 -3.383851E+00  6.633564E+01 -8.521636E-01 -1.826851E+00  1.287588E+00  1.097823E+00
       580   4  5.844883E+00  9.315354E+01  3.092386E+00 -1.291643E+00  1.329011E+00  2.253326E+00
       580   5 -5.721887E+00  6.484833E+01 -3.135434E+00 -1.157000E+01 -1.506361E+00  1.600127E+00
       580   6  3.281226E+00  9.145055E+01  2.727129E-01 -1.103782E+01 -1.462099E+00  2.916716E+00
       580   7 -5.815506E+00  6.491805E+01 -3.145801E+00 -1.015848E+01  1.298267E+00  1.134316E+00
       580   8  3.179486E+00  9.150221E+01  2.533491E-01 -9.623270E+00  1.342538E+00  2.285142E+00
       581   1 -5.976424E+00 -9.333988E+01 -3.513107E+00 -5.679201E-01 -1.294857E+00 -4.809671E+00
       581   2  3.348911E+00 -6.645607E+01  6.875357E-01 -1.100460E+00 -1.294356E+00 -3.076237E+00
       581   3 -5.878770E+00 -9.308648E+01 -3.391151E+00 -1.046840E-01  1.288290E+00 -4.159684E+00
       581   4  3.414392E+00 -6.627449E+01  7.740702E-01 -6.374530E-01  1.288789E+00 -2.591247E+00
       581   5 -3.265986E+00 -9.164408E+01 -5.708845E-01 -8.931389E+00 -1.428406E+00 -4.740445E+00
       581   6  5.822070E+00 -6.499755E+01  3.076109E+00 -9.463929E+00 -1.428125E+00 -3.026039E+00
       581   7 -3.161140E+00 -9.139161E+01 -4.592324E-01 -8.512478E+00  1.297699E+00 -4.090979E+00
       581   8  5.896527E+00 -6.481512E+01  3.156501E+00 -9.045247E+00  1.297979E+00 -2.541426E+00
       582   1 -5.293631E+00 -5.340641E+01 -2.849042E+00 -7.764805E+00 -1.267185E+00 -2.072142E+00
       582   2  4.050428E+00 -2.651733E+01  1.408743E+00 -8.033863E+00 -1.259557E+00 -1.062339E+00
       582   3 -5.264086E+00 -5.327612E+01 -2.791740E+00 -6.570310E+00  1.296828E+00 -1.706781E+00
       582   4  4.057284E+00 -2.643680E+01  1.440169E+00 -6.838530E+00  1.304465E+00 -8.588118E-01
       582   5 -3.871052E+00 -5.249646E+01 -1.238463E+00 -1.612187E+01 -1.408077E+00 -2.033663E+00
       582   6  5.240192E+00 -2.584020E+01  2.476087E+00 -1.639092E+01 -1.399643E+00 -1.036848E+00
       582   7 -3.841477E+00 -5.236842E+01 -1.188672E+00 -1.497769E+01  1.295864E+00 -1.668591E+00
       582   8  5.248829E+00 -2.576016E+01  2.504085E+00 -1.524591E+01  1.304300E+00 -8.335129E-01
       583   1 -4.667420E+00 -1.349551E+01 -2.130102E+00 -1.030237E+01 -1.237120E+00 -4.012127E-01
       583   2  4.695905E+00  1.341666E+01  2.168804E+00 -1.030456E+01 -1.231376E+00  3.952148E-01
       583   3 -4.660572E+00 -1.344277E+01 -2.110043E+00 -8.890186E+00  1.316008E+00 -3.159259E-01
       583   4  4.682246E+00  1.342473E+01  2.165179E+00 -8.891197E+00  1.321764E+00  3.192969E-01
       583   5 -4.537543E+00 -1.336982E+01 -1.841010E+00 -1.866125E+01 -1.379079E+00 -3.847216E-01
       583   6  4.593853E+00  1.331043E+01  1.916729E+00 -1.866345E+01 -1.372195E+00  4.001071E-01
       583   7 -4.535548E+00 -1.331969E+01 -1.824786E+00 -1.730079E+01  1.313355E+00 -2.995589E-01
       583   8  4.577085E+00  1.331763E+01  1.913337E+00 -1.730180E+01  1.320242E+00  3.241524E-01
       584   1 -4.034250E+00  2.644183E+01 -1.374402E+00 -8.057930E+00 -1.261945E+00  1.057628E+00
       584   2  5.320330E+00  5.335897E+01  2.890387E+00 -7.790219E+00 -1.258375E+00  2.070948E+00
       584   3 -4.047042E+00  2.642202E+01 -1.389166E+00 -6.859740E+00  1.303897E+00  8.630694E-01
       584   4  5.284182E+00  5.328788E+01  2.849058E+00 -6.590439E+00  1.307483E+00  1.713461E+00
       584   5 -5.206925E+00  2.577922E+01 -2.410425E+00 -1.642335E+01 -1.402389E+00  1.053368E+00
       584   6  3.913271E+00  5.246198E+01  1.307469E+00 -1.615564E+01 -1.397293E+00  2.053283E+00
       584   7 -5.229713E+00  2.575633E+01 -2.425463E+00 -1.527512E+01  1.304374E+00  8.588418E-01
       584   8  3.868890E+00  5.238957E+01  1.269978E+00 -1.500582E+01  1.309475E+00  1.695929E+00
       585   1 -3.340030E+00  6.641460E+01 -6.560160E-01 -1.119697E+00 -1.298478E+00  3.081365E+00
       585   2  5.987377E+00  9.331290E+01  3.537039E+00 -5.824591E-01 -1.288652E+00  4.828558E+00
       585   3 -3.409114E+00  6.629303E+01 -7.254647E-01 -6.550055E-01  1.289648E+00  2.602954E+00
       585   4  5.886081E+00  9.311947E+01  3.432081E+00 -1.152432E-01  1.299499E+00  4.182703E+00
       585   5 -5.819687E+00  6.495853E+01 -3.029914E+00 -9.489084E+00 -1.433320E+00  3.051829E+00
       585   6  3.266919E+00  9.161603E+01  6.012720E-01 -8.951846E+00 -1.421071E+00  4.779991E+00
       585   7 -5.905646E+00  6.483269E+01 -3.096737E+00 -9.068760E+00  1.300003E+00  2.573640E+00
       585   8  3.150559E+00  9.142014E+01  5.031639E-01 -8.528998E+00  1.312260E+00  4.134502E+00
       586   1 -6.057086E+00 -9.313939E+01 -3.885557E+00  1.498448E-01 -1.229406E+00 -4.506696E+00
       586   2  3.300721E+00 -6.629242E+01  4.601667E-01 -3.838701E-01 -1.225580E+00 -3.123511E+00
       586   3 -5.952439E+00 -9.284812E+01 -3.749246E+00  3.849703E-01  1.291741E+00 -3.821798E+00
       586   4  3.371819E+00 -6.607608E+01  5.595789E-01 -1.510782E-01  1.295544E+00 -2.608730E+00
       586   5 -3.256462E+00 -9.136898E+01 -7.848360E-01 -8.289910E+00 -1.370143E+00 -4.424798E+00
       586   6  5.853520E+00 -6.476985E+01  2.982629E+00 -8.823625E+00 -1.368586E+00 -3.061732E+00
       586   7 -3.137797E+00 -9.107594E+01 -6.566235E-01 -8.097778E+00  1.305163E+00 -3.740509E+00
       586   8  5.940475E+00 -6.454989E+01  3.078235E+00 -8.633827E+00  1.306714E+00 -2.547410E+00
       587   1 -5.345191E+00 -5.327882E+01 -2.999968E+00 -5.921458E+00 -1.223715E+00 -2.234492E+00
       587   2  4.014142E+00 -2.642700E+01  1.345991E+00 -6.189588E+00 -1.217907E+00 -1.188833E+00
       587   3 -5.296699E+00 -5.311701E+01 -2.926886E+00 -5.340246E+00  1.298160E+00 -1.844228E+00
       587   4  4.028340E+00 -2.634186E+01  1.381431E+00 -5.608955E+00  1.303964E+00 -9.686380E-01
       587   5 -3.870927E+00 -5.232212E+01 -1.285243E+00 -1.436282E+01 -1.379286E+00 -2.187618E+00
       587   6  5.240659E+00 -2.571805E+01  2.482640E+00 -1.463095E+01 -1.374040E+00 -1.162560E+00
       587   7 -3.817911E+00 -5.216078E+01 -1.218260E+00 -1.382413E+01  1.296635E+00 -1.797702E+00
       587   8  5.261221E+00 -2.563154E+01  2.516272E+00 -1.409284E+01  1.301880E+00 -9.425602E-01
       588   1 -4.667846E+00 -1.342194E+01 -2.124220E+00 -8.111609E+00 -1.213171E+00 -4.723069E-01
       588   2  4.703538E+00  1.344976E+01  2.242033E+00 -8.111957E+00 -1.209197E+00  4.396200E-01
       588   3 -4.663053E+00 -1.338612E+01 -2.109587E+00 -7.393643E+00  1.304613E+00 -3.766149E-01
       588   4  4.674140E+00  1.340915E+01  2.219125E+00 -7.393364E+00  1.308594E+00  3.652320E-01
       588   5 -4.527265E+00 -1.328203E+01 -1.798438E+00 -1.655675E+01 -1.372708E+00 -4.610914E-01
       588   6  4.596355E+00  1.334190E+01  1.989698E+00 -1.655709E+01 -1.368124E+00  4.302996E-01
       588   7 -4.525632E+00 -1.324816E+01 -1.787131E+00 -1.588140E+01  1.299111E+00 -3.654826E-01
       588   8  4.565635E+00  1.330118E+01  1.967755E+00 -1.588112E+01  1.303697E+00  3.559808E-01
       589   1 -3.989580E+00  2.645768E+01 -1.233047E+00 -6.209416E+00 -1.221300E+00  1.156978E+00
       589   2  5.378060E+00  5.333390E+01  3.116202E+00 -5.938872E+00 -1.219488E+00  2.204909E+00
       589   3 -4.027334E+00  2.636781E+01 -1.276434E+00 -5.627847E+00  1.303109E+00  9.578236E-01
       589   4  5.305456E+00  5.316607E+01  3.034603E+00 -5.355498E+00  1.304939E+00  1.834967E+00
       589   5 -5.193587E+00  2.577590E+01 -2.301643E+00 -1.465854E+01 -1.377478E+00  1.132470E+00
       589   6  3.925262E+00  5.240333E+01  1.467096E+00 -1.438800E+01 -1.373911E+00  2.159446E+00
       589   7 -5.242165E+00  2.568262E+01 -2.345567E+00 -1.411920E+01  1.301654E+00  9.334982E-01
       589   8  3.843681E+00  5.223394E+01  1.389268E+00 -1.384685E+01  1.305226E+00  1.789842E+00
       590   1 -3.282067E+00  6.635334E+01 -3.547581E-01 -4.005868E-01 -1.231176E+00  3.097441E+00
       590   2  6.075369E+00  9.321189E+01  3.978144E+00  1.413456E-01 -1.227992E+00  4.487952E+00
       590   3 -3.375494E+00  6.613070E+01 -4.622595E-01 -1.671600E-01  1.296251E+00  2.602080E+00
       590   4  5.947430E+00  9.291211E+01  3.832746E+00  3.781679E-01  1.299468E+00  3.820726E+00
       590   5 -5.834317E+00  6.484717E+01 -2.823066E+00 -8.846112E+00 -1.374837E+00  3.036721E+00
       590   6  3.272754E+00  9.145536E+01  9.256509E-01 -8.304179E+00 -1.368352E+00  4.406507E+00
       590   7 -5.947633E+00  6.461907E+01 -2.928889E+00 -8.655114E+00  1.308402E+00  2.541811E+00
       590   8  3.126785E+00  9.115197E+01  7.862678E-01 -8.109787E+00  1.314896E+00  3.739885E+00
       591   1 -6.097812E+00 -9.286822E+01 -4.154216E+00  5.122586E-01 -1.191655E+00 -3.199322E+00
       591   2  3.254173E+00 -6.609555E+01  2.463903E-01 -2.549597E-02 -1.187289E+00 -2.289993E+00
       591   3 -6.018581E+00 -9.263307E+01 -4.041481E+00  6.278919E-01  1.293291E+00 -2.479975E+00
       591   4  3.306281E+00 -6.592022E+01  3.285458E-01  8.780966E-02  1.297635E+00 -1.746151E+00
       591   5 -3.196065E+00 -9.101794E+01 -8.883485E-01 -8.003339E+00 -1.336797E+00 -3.132062E+00
       591   6  5.896885E+00 -6.450430E+01  2.907845E+00 -8.541093E+00 -1.334722E+00 -2.238838E+00
       591   7 -3.103008E+00 -9.078130E+01 -7.845051E-01 -7.934455E+00  1.314062E+00 -2.413207E+00
       591   8  5.964718E+00 -6.432559E+01  2.985537E+00 -8.474538E+00  1.316130E+00 -1.695372E+00
       592   1 -5.379800E+00 -5.312852E+01 -3.158932E+00 -5.030237E+00 -1.189101E+00 -1.677625E+00
       592   2  3.983144E+00 -2.634461E+01  1.266971E+00 -5.299680E+00 -1.189667E+00 -9.139348E-01
       592   3 -5.322295E+00 -5.298858E+01 -3.089082E+00 -4.761487E+00  1.288751E+00 -1.263106E+00
       592   4  4.010056E+00 -2.627255E+01  1.302725E+00 -5.032343E+00  1.288171E+00 -6.772237E-01
       592   5 -3.846044E+00 -5.212160E+01 -1.336285E+00 -1.354597E+01 -1.348808E+00 -1.639087E+00
       592   6  5.254499E+00 -2.560009E+01  2.477346E+00 -1.381541E+01 -1.350767E+00 -8.937592E-01
       592   7 -3.781342E+00 -5.198113E+01 -1.271890E+00 -1.332171E+01  1.297148E+00 -1.224850E+00
       592   8  5.290530E+00 -2.552558E+01  2.512132E+00 -1.359257E+01  1.295185E+00 -6.571959E-01
       593   1 -4.674067E+00 -1.337940E+01 -2.133532E+00 -7.011851E+00 -1.195613E+00 -3.760157E-01
       593   2  4.703214E+00  1.342639E+01  2.318289E+00 -7.011256E+00 -1.193441E+00  3.299163E-01
       593   3 -4.670178E+00 -1.335797E+01 -2.123212E+00 -6.683726E+00  1.276463E+00 -2.695757E-01
       593   4  4.675535E+00  1.337766E+01  2.293533E+00 -6.682892E+00  1.278638E+00  2.582575E-01
       593   5 -4.518956E+00 -1.322312E+01 -1.767730E+00 -1.553127E+01 -1.360483E+00 -3.695156E-01
       593   6  4.595503E+00  1.331984E+01  2.070839E+00 -1.553067E+01 -1.358075E+00  3.174171E-01
       593   7 -4.517059E+00 -1.320321E+01 -1.760457E+00 -1.524703E+01  1.279966E+00 -2.631231E-01
       593   8  4.567758E+00  1.327152E+01  2.047530E+00 -1.524619E+01  1.282375E+00  2.458498E-01
       594   1 -3.963629E+00  2.639437E+01 -1.086887E+00 -5.318086E+00 -1.192988E+00  8.681151E-01
       594   2  5.406325E+00  5.320013E+01  3.340530E+00 -5.044395E+00 -1.188251E+00  1.632569E+00
       594   3 -4.013808E+00  2.629486E+01 -1.136967E+00 -5.050349E+00  1.287608E+00  6.660796E-01
       594   4  5.325018E+00  5.303149E+01  3.255816E+00 -4.774799E+00  1.292363E+00  1.252437E+00
       594   5 -5.198204E+00  2.569494E+01 -2.183754E+00 -1.384107E+01 -1.354020E+00  8.418131E-01
       594   6  3.908926E+00  5.223788E+01  1.630409E+00 -1.356738E+01 -1.347452E+00  1.587557E+00
       594   7 -5.259524E+00  2.559190E+01 -2.234448E+00 -1.361754E+01  1.294963E+00  6.399704E-01
       594   8  3.818405E+00  5.206764E+01  1.549574E+00 -1.334199E+01  1.301536E+00  1.207755E+00
       595   1 -3.239148E+00  6.617235E+01 -7.493844E-02 -4.128676E-02 -1.192390E+00  2.246241E+00
       595   2  6.111236E+00  9.295314E+01  4.312215E+00  5.062638E-01 -1.192878E+00  3.158368E+00
       595   3 -3.314444E+00  6.596746E+01 -1.720455E-01  7.220203E-02  1.298489E+00  1.736365E+00
       595   4  6.007717E+00  9.268588E+01  4.183411E+00  6.224370E-01  1.298027E+00  2.472124E+00
       595   5 -5.865102E+00  6.461701E+01 -2.633441E+00 -8.561635E+00 -1.340105E+00  2.188224E+00
       595   6  3.224985E+00  9.113751E+01  1.146351E+00 -8.014084E+00 -1.337949E+00  3.083531E+00
       595   7 -5.957967E+00  6.440775E+01 -2.727578E+00 -8.494217E+00  1.317524E+00  1.678773E+00
       595   8  3.105804E+00  9.086777E+01  1.024968E+00 -7.943982E+00  1.319687E+00  2.397836E+00
       596   1 -6.093678E+00 -9.262486E+01 -4.264645E+00  6.872886E-01 -1.167197E+00 -1.373174E+00
       596   2  3.217728E+00 -6.594351E+01  9.202819E-02  1.452760E-01 -1.171059E+00 -1.002822E+00
       596   3 -6.035886E+00 -9.249472E+01 -4.189297E+00  7.369178E-01  1.313466E+00 -6.327820E-01
       596   4  3.260296E+00 -6.584535E+01  1.486038E-01  1.919653E-01  1.309575E+00 -4.425084E-01
       596   5 -3.108196E+00 -9.071271E+01 -8.763114E-01 -7.912056E+00 -1.310346E+00 -1.338575E+00
       596   6  5.933931E+00 -6.430065E+01  2.852044E+00 -8.454069E+00 -1.317140E+00 -9.765765E-01
       596   7 -3.034461E+00 -9.058032E+01 -8.093907E-01 -7.916757E+00  1.347423E+00 -5.984340E-01
       596   8  5.994391E+00 -6.419828E+01  2.904739E+00 -8.461709E+00  1.340621E+00 -4.164524E-01
       597   1 -5.399272E+00 -5.301564E+01 -3.288605E+00 -4.630889E+00 -1.199478E+00 -7.456611E-01
       597   2  3.972245E+00 -2.628094E+01  1.215089E+00 -4.902476E+00 -1.194787E+00 -4.134345E-01
       597   3 -5.389052E+00 -5.295110E+01 -3.255212E+00 -4.539844E+00  1.237762E+00 -3.176836E-01
       597   4  3.965607E+00 -2.625216E+01  1.228048E+00 -4.812022E+00  1.242448E+00 -1.669296E-01
       597   5 -3.818110E+00 -5.197229E+01 -1.391958E+00 -1.322689E+01 -1.354330E+00 -7.259226E-01
       597   6  5.282056E+00 -2.550895E+01  2.478585E+00 -1.349847E+01 -1.350228E+00 -4.031219E-01
       597   7 -3.803598E+00 -5.190856E+01 -1.365546E+00 -1.318907E+01  1.261373E+00 -2.980879E-01
       597   8  5.281674E+00 -2.547901E+01  2.489144E+00 -1.346125E+01  1.265474E+00 -1.566916E-01
       598   1 -4.676357E+00 -1.335485E+01 -2.137899E+00 -6.525210E+00 -1.205785E+00 -1.757807E-01
       598   2  4.693473E+00  1.338368E+01  2.356344E+00 -6.524268E+00 -1.205094E+00  1.412751E-01
       598   3 -4.672128E+00 -1.334266E+01 -2.130077E+00 -6.417276E+00  1.235354E+00 -6.267647E-02
       598   4  4.680307E+00  1.335888E+01  2.343164E+00 -6.416280E+00  1.236046E+00  7.139449E-02
       598   5 -4.510461E+00 -1.318709E+01 -1.744592E+00 -1.512394E+01 -1.363876E+00 -1.724936E-01
       598   6  4.585763E+00  1.327783E+01  2.111233E+00 -1.512300E+01 -1.363130E+00  1.347939E-01
       598   7 -4.507671E+00 -1.317622E+01 -1.739718E+00 -1.506891E+01  1.257220E+00 -5.941318E-02
       598   8  4.573136E+00  1.325370E+01  2.099724E+00 -1.506792E+01  1.257966E+00  6.496020E-02
       599   1 -3.963914E+00  2.631237E+01 -1.001056E+00 -4.920297E+00 -1.196978E+00  3.789993E-01
       599   2  5.413905E+00  5.306713E+01  3.503575E+00 -4.643827E+00 -1.200354E+00  7.114180E-01
       599   3 -3.965955E+00  2.627093E+01 -1.019307E+00 -4.829735E+00  1.242942E+00  1.757045E-01
       599   4  5.394783E+00  5.298942E+01  3.464665E+00 -4.552603E+00  1.239572E+00  3.266136E-01
       599   5 -5.225955E+00  2.559782E+01 -2.120856E+00 -1.352311E+01 -1.352408E+00  3.654386E-01
       599   6  3.880461E+00  5.208118E+01  1.750500E+00 -1.324664E+01 -1.355124E+00  6.882840E-01
       599   7 -5.235092E+00  2.555459E+01 -2.137960E+00 -1.348568E+01  1.266013E+00  1.622419E-01
       599   8  3.856206E+00  5.200364E+01  1.717321E+00 -1.320855E+01  1.263299E+00  3.036470E-01
       600   1 -3.213325E+00  6.599923E+01  1.135227E-01  1.297300E-01 -1.174571E+00  9.688710E-01
       600   2  6.095716E+00  9.268569E+01  4.457192E+00  6.820085E-01 -1.169461E+00  1.339827E+00
       600   3 -3.264649E+00  6.588743E+01  5.133412E-02  1.764156E-01  1.311388E+00  4.516273E-01
       600   4  6.028638E+00  9.254069E+01  4.375697E+00  7.315906E-01  1.316526E+00  6.422619E-01
       600   5 -5.900617E+00  6.440560E+01 -2.511269E+00 -8.473320E+00 -1.320806E+00  9.390478E-01
       600   6  3.138784E+00  9.082243E+01  1.203243E+00 -7.921041E+00 -1.312808E+00  1.301302E+00
       600   7 -5.970407E+00  6.428909E+01 -2.570711E+00 -8.480641E+00  1.342515E+00  4.220199E-01
       600   8  3.055192E+00  9.067466E+01  1.129046E+00 -7.925466E+00  1.350521E+00  6.040154E-01
       601   1 -6.380704E+00 -1.022459E+02 -3.252342E+00 -2.284955E+00 -1.525976E+00 -2.786014E+00
       601   2  3.711870E+00 -7.288419E+01  1.027838E+00 -2.823184E+00 -1.552038E+00 -1.514545E+00
       601   3 -6.293081E+00 -1.022213E+02 -3.223037E+00 -8.484815E-01  1.373000E+00 -2.151991E+00
       601   4  3.805212E+00 -7.284713E+01  1.063725E+00 -1.385323E+00  1.346934E+00 -1.043892E+00
       601   5 -3.708707E+00 -1.005859E+02 -3.910927E-01 -1.134283E+01 -1.542317E+00 -2.789841E+00
       601   6  6.151722E+00 -7.145636E+01  3.347417E+00 -1.188105E+01 -1.567065E+00 -1.515168E+00
       601   7 -3.618953E+00 -1.005644E+02 -3.739478E-01 -9.979091E+00  1.491694E+00 -2.155788E+00
       601   8  6.248964E+00 -7.142054E+01  3.375270E+00 -1.051593E+01  1.466933E+00 -1.044511E+00
       602   1 -5.811454E+00 -5.862979E+01 -2.987936E+00 -1.089764E+01 -1.409269E+00 -8.946996E-01
       602   2  4.398837E+00 -2.919590E+01  1.612476E+00 -1.117222E+01 -1.429561E+00 -4.727208E-01
       602   3 -5.731370E+00 -5.858117E+01 -2.951753E+00 -8.614413E+00  1.388457E+00 -5.413067E-01
       602   4  4.498817E+00 -2.910169E+01  1.669383E+00 -8.887865E+00  1.368162E+00 -2.763147E-01
       602   5 -4.405720E+00 -5.774036E+01 -1.428897E+00 -1.993409E+01 -1.418614E+00 -8.896950E-01
       602   6  5.581535E+00 -2.852950E+01  2.651097E+00 -2.020868E+01 -1.437830E+00 -4.555434E-01
       602   7 -4.326293E+00 -5.769421E+01 -1.400284E+00 -1.773241E+01  1.508096E+00 -5.363402E-01
       602   8  5.682558E+00 -2.843606E+01  2.704400E+00 -1.800586E+01  1.488869E+00 -2.592682E-01
       603   1 -5.093521E+00 -1.491538E+01 -2.299924E+00 -1.364186E+01 -1.430383E+00 -1.927717E-01
       603   2  5.112637E+00  1.453012E+01  2.275095E+00 -1.364866E+01 -1.421128E+00  1.500848E-01
       603   3 -5.084704E+00 -1.483280E+01 -2.273061E+00 -1.127313E+01  1.377955E+00 -1.119379E-01
       603   4  5.141791E+00  1.465932E+01  2.323134E+00 -1.127788E+01  1.387205E+00  7.215608E-02
       603   5 -4.956177E+00 -1.479082E+01 -2.022069E+00 -2.268572E+01 -1.441402E+00 -1.665828E-01
       603   6  5.024422E+00  1.442913E+01  2.026648E+00 -2.269252E+01 -1.430203E+00  1.887209E-01
       603   7 -4.954873E+00 -1.471196E+01 -2.000094E+00 -2.039886E+01  1.497554E+00 -8.594847E-02
       603   8  5.047782E+00  1.455632E+01  2.073808E+00 -2.040361E+01  1.508734E+00  1.104978E-01
       604   1 -4.402841E+00  2.882615E+01 -1.643658E+00 -1.123397E+01 -1.435850E+00  4.309016E-01
       604   2  5.839424E+00  5.834321E+01  2.980172E+00 -1.096729E+01 -1.396460E+00  8.552510E-01
       604   3 -4.467663E+00  2.894117E+01 -1.627264E+00 -8.938990E+00  1.366116E+00  2.364716E-01
       604   4  5.792584E+00  5.849934E+01  3.015389E+00 -8.669059E+00  1.405498E+00  5.012958E-01
       604   5 -5.556462E+00  2.817397E+01 -2.663982E+00 -2.029448E+01 -1.446652E+00  4.781044E-01
       604   6  4.459155E+00  5.746438E+01  1.431002E+00 -2.002780E+01 -1.404184E+00  9.134112E-01
       604   7 -5.636691E+00  2.828359E+01 -2.650185E+00 -1.808002E+01  1.486604E+00  2.833147E-01
       604   8  4.398634E+00  5.761683E+01  1.467653E+00 -1.781009E+01  1.529040E+00  5.590129E-01
       605   1 -3.721749E+00  7.263123E+01 -1.047621E+00 -2.876448E+00 -1.559465E+00  1.482021E+00
       605   2  6.398481E+00  1.020715E+02  3.246176E+00 -2.334439E+00 -1.512906E+00  2.770040E+00
       605   3 -3.788049E+00  7.279397E+01 -1.015435E+00 -1.425712E+00  1.346449E+00  1.008177E+00
       605   4  6.336548E+00  1.022436E+02  3.283615E+00 -8.801061E-01  1.392999E+00  2.128179E+00
       605   5 -6.178327E+00  7.119378E+01 -3.382537E+00 -1.195825E+01 -1.577726E+00  1.545048E+00
       605   6  3.703153E+00  1.003953E+02  3.541759E-01 -1.141624E+01 -1.527758E+00  2.835404E+00
       605   7 -6.265117E+00  7.135067E+01 -3.349366E+00 -1.057957E+01  1.467405E+00  1.070724E+00
       605   8  3.622548E+00  1.005633E+02  3.968456E-01 -1.003397E+01  1.517337E+00  2.193045E+00
       606   1 -6.389222E+00 -1.023267E+02 -3.528249E+00 -1.526408E-01 -1.484408E+00 -4.638889E+00
       606   2  3.812203E+00 -7.285187E+01  1.001685E+00 -6.886648E-01 -1.483908E+00 -2.964976E+00
       606   3 -6.359155E+00 -1.022592E+02 -3.503433E+00  3.149029E-01  1.345614E+00 -3.991626E+00
       606   4  3.832816E+00 -7.280733E+01  1.017909E+00 -2.202697E-01  1.346112E+00 -2.480827E+00
       606   5 -3.669989E+00 -1.006287E+02 -5.876320E-01 -9.332962E+00 -1.503858E+00 -4.620060E+00
       606   6  6.296559E+00 -7.138880E+01  3.394256E+00 -9.868986E+00 -1.502541E+00 -2.952609E+00
       606   7 -3.636251E+00 -1.005637E+02 -5.745891E-01 -8.928496E+00  1.467112E+00 -3.972938E+00
       606   8  6.322609E+00 -7.134491E+01  3.402827E+00 -9.463668E+00  1.468420E+00 -2.468554E+00
       607   1 -5.708517E+00 -5.855614E+01 -2.940331E+00 -7.344135E+00 -1.467709E+00 -2.001869E+00
       607   2  4.517444E+00 -2.907209E+01  1.662151E+00 -7.616663E+00 -1.458495E+00 -1.044526E+00
       607   3 -5.724450E+00 -5.853476E+01 -2.941205E+00 -6.153941E+00  1.338291E+00 -1.636372E+00
       607   4  4.501104E+00 -2.905251E+01  1.661720E+00 -6.425084E+00  1.347501E+00 -8.400763E-01
       607   5 -4.273565E+00 -5.764043E+01 -1.322921E+00 -1.651717E+01 -1.489738E+00 -1.992113E+00
       607   6  5.720519E+00 -2.838826E+01  2.738516E+00 -1.678970E+01 -1.479194E+00 -1.035439E+00
       607   7 -4.291225E+00 -5.762205E+01 -1.332072E+00 -1.539579E+01  1.455166E+00 -1.626690E+00
       607   8  5.704195E+00 -2.836993E+01  2.733876E+00 -1.566694E+01  1.465696E+00 -8.310576E-01
       608   1 -5.094214E+00 -1.480293E+01 -2.281043E+00 -9.892507E+00 -1.438914E+00 -4.212854E-01
       608   2  5.162595E+00  1.472951E+01  2.375884E+00 -9.896123E+00 -1.431247E+00  3.240953E-01
       608   3 -5.107184E+00 -1.478168E+01 -2.279155E+00 -8.486347E+00  1.355277E+00 -3.346649E-01
       608   4  5.151240E+00  1.475367E+01  2.380237E+00 -8.488919E+00  1.362941E+00  2.498487E-01
       608   5 -4.957407E+00 -1.467301E+01 -1.984791E+00 -1.907389E+01 -1.460429E+00 -4.122142E-01
       608   6  5.067790E+00  1.462781E+01  2.131709E+00 -1.907751E+01 -1.451759E+00  3.337922E-01
       608   7 -4.974731E+00 -1.465417E+01 -1.986555E+00 -1.773791E+01  1.472460E+00 -3.256619E-01
       608   8  5.053823E+00  1.465132E+01  2.136473E+00 -1.774048E+01  1.481119E+00  2.594728E-01
       609   1 -4.475785E+00  2.901059E+01 -1.575416E+00 -7.662711E+00 -1.461752E+00  9.484396E-01
       609   2  5.779659E+00  5.857114E+01  3.048846E+00 -7.391291E+00 -1.455801E+00  1.908799E+00
       609   3 -4.483735E+00  2.903548E+01 -1.569011E+00 -6.467853E+00  1.348079E+00  7.556730E-01
       609   4  5.769932E+00  5.859102E+01  3.054335E+00 -6.195589E+00  1.354028E+00  1.553097E+00
       609   5 -5.658273E+00  2.834523E+01 -2.610779E+00 -1.685814E+01 -1.483489E+00  9.577982E-01
       609   6  4.362571E+00  5.767118E+01  1.466086E+00 -1.658672E+01 -1.476727E+00  1.916608E+00
       609   7 -5.673828E+00  2.836805E+01 -2.603660E+00 -1.573139E+01  1.467005E+00  7.649612E-01
       609   8  4.347003E+00  5.769076E+01  1.476404E+00 -1.545912E+01  1.473758E+00  1.560847E+00
       610   1 -3.787638E+00  7.289211E+01 -9.122221E-01 -7.238464E-01 -1.490259E+00  2.878022E+00
       610   2  6.435172E+00  1.024357E+02  3.620216E+00 -1.764458E-01 -1.476655E+00  4.565630E+00
       610   3 -3.831570E+00  7.288741E+01 -9.235367E-01 -2.540326E-01  1.349161E+00  2.401517E+00
       610   4  6.379717E+00  1.024032E+02  3.598260E+00  2.946985E-01  1.362761E+00  3.922020E+00
       610   5 -6.298856E+00  7.142384E+01 -3.295218E+00 -9.926743E+00 -1.510978E+00  2.882409E+00
       610   6  3.683329E+00  1.007268E+02  6.757609E-01 -9.379343E+00 -1.496097E+00  4.562218E+00
       610   7 -6.355925E+00  7.141647E+01 -3.302339E+00 -9.518843E+00  1.473106E+00  2.405871E+00
       610   8  3.616545E+00  1.006935E+02  6.622195E-01 -8.970112E+00  1.487975E+00  3.918634E+00
       611   1 -6.463326E+00 -1.023377E+02 -3.778547E+00  5.753844E-01 -1.430108E+00 -4.324763E+00
       611   2  3.787982E+00 -7.283627E+01  8.910278E-01  4.009672E-02 -1.429789E+00 -2.998917E+00
       611   3 -6.435957E+00 -1.022776E+02 -3.756942E+00  8.224063E-01  1.356537E+00 -3.648358E+00
       611   4  3.806073E+00 -7.279866E+01  9.042319E-01  2.859734E-01  1.356859E+00 -2.488648E+00
       611   5 -3.668498E+00 -1.005762E+02 -7.014681E-01 -8.714171E+00 -1.453198E+00 -4.307768E+00
       611   6  6.340470E+00 -7.131704E+01  3.402645E+00 -9.249459E+00 -1.453993E+00 -2.988364E+00
       611   7 -3.631032E+00 -1.005159E+02 -6.894855E-01 -8.530175E+00  1.483472E+00 -3.631489E+00
       611   8  6.370456E+00 -7.127749E+01  3.410424E+00 -9.066608E+00  1.482688E+00 -2.478173E+00
       612   1 -5.756908E+00 -5.854587E+01 -2.997817E+00 -5.501503E+00 -1.447809E+00 -2.153744E+00
       612   2  4.494815E+00 -2.904228E+01  1.671012E+00 -5.772205E+00 -1.442829E+00 -1.170534E+00
       612   3 -5.763954E+00 -5.853181E+01 -2.998384E+00 -4.906250E+00  1.339401E+00 -1.765102E+00
       612   4  4.479637E+00 -2.904808E+01  1.663190E+00 -5.177118E+00  1.344382E+00 -9.480489E-01
       612   5 -4.275604E+00 -5.758709E+01 -1.283214E+00 -1.479189E+01 -1.479449E+00 -2.147634E+00
       612   6  5.733751E+00 -2.832588E+01  2.820089E+00 -1.506259E+01 -1.474629E+00 -1.170124E+00
       612   7 -4.279456E+00 -5.757408E+01 -1.290427E+00 -1.426041E+01  1.457764E+00 -1.759038E+00
       612   8  5.723566E+00 -2.833092E+01  2.809819E+00 -1.453128E+01  1.462586E+00 -9.476414E-01
       613   1 -5.097982E+00 -1.475926E+01 -2.231094E+00 -7.704736E+00 -1.443428E+00 -5.002452E-01
       613   2  5.175854E+00  1.478777E+01  2.467998E+00 -7.706837E+00 -1.438532E+00  3.478088E-01
       613   3 -5.121210E+00 -1.478032E+01 -2.245072E+00 -6.972519E+00  1.339702E+00 -3.994257E-01
       613   4  5.144746E+00  1.474745E+01  2.447018E+00 -6.974370E+00  1.344598E+00  2.823878E-01
       613   5 -4.943850E+00 -1.460918E+01 -1.884972E+00 -1.700541E+01 -1.477102E+00 -5.039465E-01
       613   6  5.087496E+00  1.469535E+01  2.248309E+00 -1.700751E+01 -1.471961E+00  3.385727E-01
       613   7 -4.968970E+00 -1.463168E+01 -1.901840E+00 -1.633721E+01  1.456099E+00 -4.030995E-01
       613   8  5.056296E+00  1.465540E+01  2.228640E+00 -1.633906E+01  1.461237E+00  2.732202E-01
       614   1 -4.443376E+00  2.908112E+01 -1.442571E+00 -5.813504E+00 -1.446341E+00  1.018315E+00
       614   2  5.835401E+00  5.865545E+01  3.245683E+00 -5.540685E+00 -1.441891E+00  2.002117E+00
       614   3 -4.481921E+00  2.902465E+01 -1.469786E+00 -5.217660E+00  1.344681E+00  8.308630E-01
       614   4  5.787082E+00  5.857530E+01  3.209578E+00 -4.944168E+00  1.349128E+00  1.647512E+00
       614   5 -5.638418E+00  2.841269E+01 -2.475608E+00 -1.512498E+01 -1.478299E+00  1.004576E+00
       614   6  4.396533E+00  5.774320E+01  1.643717E+00 -1.485216E+01 -1.473196E+00  1.981613E+00
       614   7 -5.684115E+00  2.835432E+01 -2.502021E+00 -1.459200E+01  1.463689E+00  8.172267E-01
       614   8  4.342872E+00  5.766296E+01  1.612636E+00 -1.431851E+01  1.468786E+00  1.627160E+00
       615   1 -3.752434E+00  7.296807E+01 -6.618906E-01  6.853877E-03 -1.436622E+00  2.848899E+00
       615   2  6.516281E+00  1.025288E+02  4.006428E+00  5.566453E-01 -1.428371E+00  4.178547E+00
       615   3 -3.824876E+00  7.286120E+01 -7.124055E-01  2.527840E-01  1.359347E+00  2.371489E+00
       615   4  6.431048E+00  1.023912E+02  3.944012E+00  8.041390E-01  1.367593E+00  3.532781E+00
       615   5 -6.306051E+00  7.147571E+01 -3.082821E+00 -9.302907E+00 -1.461759E+00  2.822726E+00
       615   6  3.717076E+00  1.007909E+02  1.012459E+00 -8.753116E+00 -1.451989E+00  4.143650E+00
       615   7 -6.392534E+00  7.136577E+01 -3.129507E+00 -9.117872E+00  1.486379E+00  2.345510E+00
       615   8  3.619626E+00  1.006520E+02  9.581257E-01 -8.566517E+00  1.496134E+00  3.498143E+00
       616   1 -6.504905E+00 -1.023300E+02 -3.939951E+00  9.588371E-01 -1.399431E+00 -3.056399E+00
       616   2  3.757964E+00 -7.283788E+01  7.774651E-01  4.214838E-01 -1.398688E+00 -2.190698E+00
       616   3 -6.494901E+00 -1.023075E+02 -3.935027E+00  1.087479E+00  1.370602E+00 -2.351066E+00
       616   4  3.762921E+00 -7.282800E+01  7.782385E-01  5.487585E-01  1.371348E+00 -1.654957E+00
       616   5 -3.624211E+00 -1.005000E+02 -7.205934E-01 -8.440834E+00 -1.425409E+00 -3.049552E+00
       616   6  6.388106E+00 -7.125842E+01  3.412203E+00 -8.978188E+00 -1.426013E+00 -2.187605E+00
       616   7 -3.603558E+00 -1.004773E+02 -7.256481E-01 -8.377819E+00  1.504299E+00 -2.344268E+00
       616   8  6.405549E+00 -7.124650E+01  3.407282E+00 -8.916540E+00  1.503709E+00 -1.651887E+00
       617   1 -5.797651E+00 -5.856045E+01 -3.079925E+00 -4.584550E+00 -1.420007E+00 -1.613139E+00
       617   2  4.473048E+00 -2.905735E+01  1.652641E+00 -4.855891E+00 -1.422879E+00 -9.009192E-01
       617   3 -5.786694E+00 -5.855664E+01 -3.078318E+00 -4.297965E+00  1.346354E+00 -1.201995E+00
       617   4  4.477598E+00 -2.906939E+01  1.648744E+00 -4.570426E+00  1.343485E+00 -6.605895E-01
       617   5 -4.261811E+00 -5.755516E+01 -1.264799E+00 -1.398575E+01 -1.454820E+00 -1.613123E+00
       617   6  5.756528E+00 -2.830442E+01  2.878928E+00 -1.425709E+01 -1.458794E+00 -9.055540E-01
       617   7 -4.244594E+00 -5.755121E+01 -1.268985E+00 -1.376390E+01  1.472391E+00 -1.201979E+00
       617   8  5.769188E+00 -2.831447E+01  2.873551E+00 -1.403637E+01  1.468427E+00 -6.651903E-01
       618   1 -5.115801E+00 -1.477845E+01 -2.205632E+00 -6.578506E+00 -1.434812E+00 -4.016219E-01
       618   2  5.179137E+00  1.477034E+01  2.562031E+00 -6.580311E+00 -1.432360E+00  2.502641E-01
       618   3 -5.137311E+00 -1.481172E+01 -2.222857E+00 -6.231311E+00  1.326120E+00 -2.863158E-01
       618   4  5.150550E+00  1.471966E+01  2.538630E+00 -6.233237E+00  1.328572E+00  1.948132E-01
       618   5 -4.939320E+00 -1.460550E+01 -1.805602E+00 -1.599020E+01 -1.473010E+00 -4.098226E-01
       618   6  5.103342E+00  1.469102E+01  2.373415E+00 -1.599200E+01 -1.470679E+00  2.369721E-01
       618   7 -4.961613E+00 -1.463982E+01 -1.825540E+00 -1.570738E+01  1.448713E+00 -2.944564E-01
       618   8  5.075819E+00  1.464113E+01  2.351614E+00 -1.570930E+01  1.451046E+00  1.816186E-01
       619   1 -4.434865E+00  2.905840E+01 -1.304038E+00 -4.896086E+00 -1.426006E+00  7.491382E-01
       619   2  5.861123E+00  5.862681E+01  3.447515E+00 -4.622033E+00 -1.418458E+00  1.460202E+00
       619   3 -4.489290E+00  2.898560E+01 -1.340966E+00 -4.610419E+00  1.343512E+00  5.686438E-01
       619   4  5.798888E+00  5.853488E+01  3.403678E+00 -4.335511E+00  1.351057E+00  1.108839E+00
       619   5 -5.639311E+00  2.838980E+01 -2.328249E+00 -1.431685E+01 -1.461641E+00  7.319428E-01
       619   6  4.404233E+00  5.770577E+01  1.834269E+00 -1.404279E+01 -1.453251E+00  1.437433E+00
       619   7 -5.701652E+00  2.831473E+01 -2.364847E+00 -1.409514E+01  1.468796E+00  5.515744E-01
       619   8  4.335932E+00  5.761341E+01  1.795079E+00 -1.382024E+01  1.477177E+00  1.086237E+00
       620   1 -3.734641E+00  7.292249E+01 -4.263183E-01  3.881974E-01 -1.404185E+00  2.036881E+00
       620   2  6.542896E+00  1.024633E+02  4.291323E+00  9.405294E-01 -1.400661E+00  2.901334E+00
       620   3 -3.791164E+00  7.282130E+01 -4.703613E-01  5.151766E-01  1.373077E+00  1.560756E+00
       620   4  6.478340E+00  1.023425E+02  4.240145E+00  1.068619E+00  1.376598E+00  2.255221E+00
       620   5 -6.328060E+00  7.140903E+01 -2.877744E+00 -9.028095E+00 -1.431539E+00  2.009980E+00
       620   6  3.698333E+00  1.006987E+02  1.253894E+00 -8.475763E+00 -1.426922E+00  2.868717E+00
       620   7 -6.397206E+00  7.130538E+01 -2.917379E+00 -8.964903E+00  1.505814E+00  1.534052E+00
       620   8  3.622994E+00  1.005772E+02  1.211418E+00 -8.411461E+00  1.510420E+00  2.222842E+00
       621   1 -6.507940E+00 -1.023279E+02 -3.992459E+00  1.155203E+00 -1.371620E+00 -1.304180E+00
       621   2  3.728066E+00 -7.287255E+01  6.721744E-01  6.150922E-01 -1.380370E+00 -9.547754E-01
       621   3 -6.484352E+00 -1.023369E+02 -3.993043E+00  1.214487E+00  1.412920E+00 -5.814934E-01
       621   4  3.753340E+00 -7.287852E+01  6.741884E-01  6.719569E-01  1.404176E+00 -4.049188E-01
       621   5 -3.555049E+00 -1.004446E+02 -6.676159E-01 -8.359746E+00 -1.395874E+00 -1.310276E+00
       621   6  6.422400E+00 -7.124779E+01  3.393716E+00 -8.899857E+00 -1.407037E+00 -9.602063E-01
       621   7 -3.517196E+00 -1.004520E+02 -6.769889E-01 -8.370484E+00  1.557905E+00 -5.875456E-01
       621   8  6.463810E+00 -7.125024E+01  3.391308E+00 -8.913013E+00  1.546766E+00 -4.103104E-01
       622   1 -5.830083E+00 -5.860426E+01 -3.177211E+00 -4.156380E+00 -1.423033E+00 -7.144250E-01
       622   2  4.468622E+00 -2.908592E+01  1.633466E+00 -4.429418E+00 -1.419317E+00 -4.071803E-01
       622   3 -5.849970E+00 -5.862845E+01 -3.193344E+00 -4.053232E+00  1.319829E+00 -2.909838E-01
       622   4  4.449627E+00 -2.910895E+01  1.619136E+00 -4.326736E+00  1.323547E+00 -1.562824E-01
       622   5 -4.250406E+00 -5.756527E+01 -1.293609E+00 -1.367145E+01 -1.455883E+00 -7.195618E-01
       622   6  5.790168E+00 -2.830507E+01  2.914763E+00 -1.394449E+01 -1.452630E+00 -4.121787E-01
       622   7 -4.266355E+00 -5.759040E+01 -1.316787E+00 -1.363780E+01  1.455922E+00 -2.960834E-01
       622   8  5.776978E+00 -2.832716E+01  2.897747E+00 -1.391130E+01  1.459179E+00 -1.612446E-01
       623   1 -5.132460E+00 -1.481428E+01 -2.194085E+00 -6.061135E+00 -1.434604E+00 -1.883213E-01
       623   2  5.171933E+00  1.472984E+01  2.609776E+00 -6.063143E+00 -1.433876E+00  1.023678E-01
       623   3 -5.142962E+00 -1.483331E+01 -2.203798E+00 -5.940494E+00  1.314508E+00 -6.404804E-02
       623   4  5.162012E+00  1.471125E+01  2.601560E+00 -5.942607E+00  1.315236E+00  5.323932E-02
       623   5 -4.939602E+00 -1.462540E+01 -1.757341E+00 -1.558615E+01 -1.469747E+00 -1.932950E-01
       623   6  5.105375E+00  1.465930E+01  2.441217E+00 -1.558816E+01 -1.469124E+00  9.732351E-02
       623   7 -4.951032E+00 -1.464559E+01 -1.770014E+00 -1.553487E+01  1.449157E+00 -6.898572E-02
       623   8  5.096403E+00  1.464142E+01  2.434421E+00 -1.553698E+01  1.449781E+00  4.823151E-02
       624   1 -4.453584E+00  2.900968E+01 -1.225088E+00 -4.469371E+00 -1.421411E+00  3.209570E-01
       624   2  5.869205E+00  5.858934E+01  3.604542E+00 -4.194076E+00 -1.423809E+00  6.274645E-01
       624   3 -4.454757E+00  2.899487E+01 -1.228675E+00 -4.366780E+00  1.324021E+00  1.453701E-01
       624   4  5.868462E+00  5.857463E+01  3.602293E+00 -4.091277E+00  1.321622E+00  2.797889E-01
       624   5 -5.670319E+00  2.833810E+01 -2.246936E+00 -1.400288E+01 -1.454500E+00  3.158255E-01
       624   6  4.395018E+00  5.766032E+01  1.981972E+00 -1.372759E+01 -1.456690E+00  6.221655E-01
       624   7 -5.677272E+00  2.832191E+01 -2.249380E+00 -1.396962E+01  1.459430E+00  1.402758E-01
       624   8  4.390357E+00  5.764608E+01  1.985215E+00 -1.369411E+01  1.457237E+00  2.745282E-01
       625   1 -3.728035E+00  7.287251E+01 -2.596482E-01  5.812936E-01 -1.384020E+00  8.669917E-01
       625   2  6.520928E+00  1.023688E+02  4.407231E+00  1.135876E+00 -1.374236E+00  1.214885E+00
       625   3 -3.773662E+00  7.283854E+01 -2.802734E-01  6.378618E-01  1.405887E+00  3.933597E-01
       625   4  6.475796E+00  1.023351E+02  4.388009E+00  1.194440E+00  1.415666E+00  5.692223E-01
       625   5 -6.358528E+00  7.134024E+01 -2.736702E+00 -8.947511E+00 -1.410488E+00  8.615858E-01
       625   6  3.633071E+00  1.005792E+02  1.329660E+00 -8.392929E+00 -1.398713E+00  1.209354E+00
       625   7 -6.420003E+00  7.130241E+01 -2.754353E+00 -8.960275E+00  1.547892E+00  3.879929E-01
       625   8  3.573953E+00  1.005435E+02  1.317758E+00 -8.403698E+00  1.559647E+00  5.637317E-01
       626   1 -6.804208E+00 -1.111480E+02 -3.349296E+00 -1.834106E+00 -1.711814E+00 -2.748815E+00
       626   2  4.144989E+00 -7.925325E+01  1.253259E+00 -2.369513E+00 -1.735616E+00 -1.504553E+00
       626   3 -6.734791E+00 -1.111797E+02 -3.362766E+00 -4.151159E-01  1.418778E+00 -2.118870E+00
       626   4  4.234233E+00 -7.924356E+01  1.264510E+00 -9.490796E-01  1.394955E+00 -1.036337E+00
       626   5 -4.147680E+00 -1.094982E+02 -5.064531E-01 -1.168000E+01 -1.597490E+00 -2.766475E+00
       626   6  6.571925E+00 -7.783303E+01  3.560390E+00 -1.221541E+01 -1.619924E+00 -1.512008E+00
       626   7 -4.076342E+00 -1.095330E+02 -5.320812E-01 -1.034679E+01  1.665800E+00 -2.136395E+00
       626   8  6.664840E+00 -7.782466E+01  3.563563E+00 -1.088076E+01  1.643334E+00 -1.043735E+00
       627   1 -6.242204E+00 -6.377302E+01 -3.152802E+00 -1.040791E+01 -1.582851E+00 -8.994276E-01
       627   2  4.850314E+00 -3.176642E+01  1.815656E+00 -1.068153E+01 -1.601342E+00 -4.904561E-01
       627   3 -6.166880E+00 -6.373751E+01 -3.133395E+00 -8.156702E+00  1.436501E+00 -5.478184E-01
       627   4  4.956466E+00 -3.166371E+01  1.870631E+00 -8.429338E+00  1.417996E+00 -2.956944E-01
       627   5 -4.842135E+00 -6.288744E+01 -1.600947E+00 -2.023901E+01 -1.461007E+00 -8.968429E-01
       627   6  6.027889E+00 -3.110333E+01  2.848356E+00 -2.051263E+01 -1.478561E+00 -4.706479E-01
       627   7 -4.766987E+00 -6.285418E+01 -1.588866E+00 -1.808048E+01  1.686336E+00 -5.452534E-01
       627   8  6.135559E+00 -3.100119E+01  2.899960E+00 -1.835312E+01  1.668760E+00 -2.760372E-01
       628   1 -5.518229E+00 -1.624191E+01 -2.478892E+00 -1.316748E+01 -1.607151E+00 -2.196864E-01
       628   2  5.585215E+00  1.581809E+01  2.472591E+00 -1.317222E+01 -1.594555E+00  1.110987E-01
       628   3 -5.512261E+00 -1.614208E+01 -2.450279E+00 -1.083166E+01  1.426048E+00 -1.408215E-01
       628   4  5.622841E+00  1.598695E+01  2.537693E+00 -1.083435E+01  1.438614E+00  3.017542E-02
       628   5 -5.389832E+00 -1.612242E+01 -2.208988E+00 -2.301854E+01 -1.487692E+00 -1.870930E-01
       628   6  5.486950E+00  1.571091E+01  2.213616E+00 -2.302328E+01 -1.473157E+00  1.613983E-01
       628   7 -5.391391E+00 -1.602631E+01 -2.185238E+00 -2.077604E+01  1.676228E+00 -1.084764E-01
       628   8  5.518775E+00  1.587779E+01  2.277883E+00 -2.077873E+01  1.690718E+00  8.009192E-02
       629   1 -4.829152E+00  3.137454E+01 -1.834867E+00 -1.078835E+01 -1.612783E+00  3.826950E-01
       629   2  6.327708E+00  6.354966E+01  3.179549E+00 -1.051675E+01 -1.567932E+00  7.939252E-01
       629   3 -4.896588E+00  3.153763E+01 -1.798395E+00 -8.523852E+00  1.415514E+00  1.841929E-01
       629   4  6.290015E+00  6.377727E+01  3.250645E+00 -8.248458E+00  1.460307E+00  4.339797E-01
       629   5 -6.003482E+00  3.071088E+01 -2.872726E+00 -2.066841E+01 -1.494430E+00  4.455050E-01
       629   6  4.924336E+00  6.265696E+01  1.607256E+00 -2.039682E+01 -1.445980E+00  8.732075E-01
       629   7 -6.088238E+00  3.086777E+01 -2.839606E+00 -1.849623E+01  1.666105E+00  2.465244E-01
       629   8  4.871066E+00  6.288011E+01  1.679072E+00 -1.822083E+01  1.714470E+00  5.126581E-01
       630   1 -4.144336E+00  7.910680E+01 -1.253170E+00 -2.459052E+00 -1.750022E+00  1.406764E+00
       630   2  6.876210E+00  1.112007E+02  3.388099E+00 -1.907146E+00 -1.697302E+00  2.669840E+00
       630   3 -4.207040E+00  7.935313E+01 -1.179178E+00 -1.023341E+00  1.396336E+00  9.251315E-01
       630   4  6.831262E+00  1.114833E+02  3.485022E+00 -4.667379E-01  1.448984E+00  2.017196E+00
       630   5 -6.642785E+00  7.764609E+01 -3.623756E+00 -1.236501E+01 -1.640699E+00  1.495283E+00
       630   6  4.134947E+00  1.094972E+02  4.509471E-01 -1.181310E+01 -1.583529E+00  2.767122E+00
       630   7 -6.729806E+00  7.788497E+01 -3.550284E+00 -1.101410E+01  1.646909E+00  1.012976E+00
       630   8  4.067532E+00  1.097741E+02  5.516656E-01 -1.045749E+01  1.703973E+00  2.113738E+00
       631   1 -6.787120E+00 -1.112951E+02 -3.542895E+00  2.755216E-01 -1.676725E+00 -4.581147E+00
       631   2  4.287641E+00 -7.924224E+01  1.320107E+00 -2.576846E-01 -1.674921E+00 -2.946742E+00
       631   3 -6.823668E+00 -1.114027E+02 -3.611489E+00  7.462742E-01  1.394877E+00 -3.936474E+00
       631   4  4.261215E+00 -7.933106E+01  1.266504E+00  2.137028E-01  1.396672E+00 -2.462965E+00
       631   5 -4.081726E+00 -1.096056E+02 -6.166689E-01 -9.716777E+00 -1.561815E+00 -4.609212E+00
       631   6  6.761473E+00 -7.778432E+01  3.706020E+00 -1.024998E+01 -1.559401E+00 -2.970668E+00
       631   7 -4.113912E+00 -1.097153E+02 -6.966781E-01 -9.325867E+00  1.647823E+00 -3.964328E+00
       631   8  6.741149E+00 -7.787351E+01  3.645065E+00 -9.858438E+00  1.650222E+00 -2.486711E+00
       632   1 -6.108850E+00 -6.370358E+01 -3.022916E+00 -6.900640E+00 -1.663739E+00 -2.010077E+00
       632   2  5.000920E+00 -3.162334E+01  1.929414E+00 -7.172628E+00 -1.652440E+00 -1.085464E+00
       632   3 -6.172232E+00 -6.379252E+01 -3.083022E+00 -5.717322E+00  1.380663E+00 -1.643710E+00
       632   4  4.955055E+00 -3.167624E+01  1.891661E+00 -5.988529E+00  1.391949E+00 -8.789698E-01
       632   5 -4.674920E+00 -6.278786E+01 -1.404458E+00 -1.688930E+01 -1.549210E+00 -2.029235E+00
       632   6  6.204869E+00 -3.093760E+01  3.011249E+00 -1.716129E+01 -1.537161E+00 -1.095734E+00
       632   7 -4.738020E+00 -6.287894E+01 -1.471993E+00 -1.579054E+01  1.632153E+00 -1.662723E+00
       632   8  6.161016E+00 -3.099092E+01  2.970104E+00 -1.606175E+01  1.644184E+00 -8.891621E-01
       633   1 -5.510721E+00 -1.610243E+01 -2.416341E+00 -9.466830E+00 -1.634018E+00 -4.859353E-01
       633   2  5.650333E+00  1.607374E+01  2.611004E+00 -9.468704E+00 -1.624933E+00  2.273961E-01
       633   3 -5.549735E+00 -1.613039E+01 -2.439944E+00 -8.070970E+00  1.398494E+00 -3.966803E-01
       633   4  5.630457E+00  1.608558E+01  2.611392E+00 -8.072645E+00  1.407575E+00  1.562193E-01
       633   5 -5.376040E+00 -1.597132E+01 -2.113990E+00 -1.947676E+01 -1.518830E+00 -4.893216E-01
       633   6  5.554252E+00  1.597409E+01  2.374910E+00 -1.947863E+01 -1.509554E+00  2.339269E-01
       633   7 -5.416643E+00 -1.600051E+01 -2.140113E+00 -1.816665E+01  1.651152E+00 -4.000412E-01
       633   8  5.534522E+00  1.598643E+01  2.376826E+00 -1.816832E+01  1.660424E+00  1.627010E-01
       634   1 -4.913563E+00  3.162263E+01 -1.749149E+00 -7.261671E+00 -1.657842E+00  8.268280E-01
       634   2  6.260619E+00  6.386812E+01  3.252634E+00 -6.984889E+00 -1.650839E+00  1.751175E+00
       634   3 -4.928347E+00  3.165703E+01 -1.735810E+00 -6.074877E+00  1.393978E+00  6.372088E-01
       634   4  6.261050E+00  6.393308E+01  3.286126E+00 -5.798061E+00  1.400980E+00  1.398397E+00
       634   5 -6.109142E+00  3.095440E+01 -2.781005E+00 -1.729836E+01 -1.544373E+00  8.396852E-01
       634   6  4.830293E+00  6.296514E+01  1.673035E+00 -1.702158E+01 -1.537337E+00  1.771399E+00
       634   7 -6.128980E+00  3.098780E+01 -2.765926E+00 -1.619497E+01  1.647557E+00  6.499693E-01
       634   8  4.827435E+00  6.303087E+01  1.712385E+00 -1.591816E+01  1.654592E+00  1.418469E+00
       635   1 -4.235567E+00  7.947225E+01 -1.123897E+00 -3.264099E-01 -1.685622E+00  2.690378E+00
       635   2  6.904322E+00  1.117110E+02  3.770350E+00  2.321167E-01 -1.670202E+00  4.331982E+00
       635   3 -4.272354E+00  7.953126E+01 -1.098595E+00  1.449477E-01  1.402789E+00  2.216612E+00
       635   4  6.871916E+00  1.117751E+02  3.805102E+00  7.040748E-01  1.418200E+00  3.690830E+00
       635   5 -6.779428E+00  7.799254E+01 -3.512406E+00 -1.037621E+01 -1.573577E+00  2.713435E+00
       635   6  4.119469E+00  1.099903E+02  8.195283E-01 -9.817682E+00 -1.557580E+00  4.355409E+00
       635   7 -6.827216E+00  7.804976E+01 -3.482056E+00 -9.981361E+00  1.659092E+00  2.239495E+00
       635   8  4.077875E+00  1.100545E+02  8.635555E-01 -9.422234E+00  1.675076E+00  3.714081E+00
       636   1 -6.863044E+00 -1.115084E+02 -3.688032E+00  1.011011E+00 -1.630307E+00 -4.278629E+00
       636   2  4.277836E+00 -7.937405E+01  1.313926E+00  4.781517E-01 -1.632038E+00 -2.988106E+00
       636   3 -6.911756E+00 -1.116669E+02 -3.776811E+00  1.266399E+00  1.413338E+00 -3.602158E+00
       636   4  4.240074E+00 -7.951197E+01  1.241042E+00  7.321374E-01  1.411628E+00 -2.474994E+00
       636   5 -4.077383E+00 -1.097513E+02 -6.167241E-01 -9.119802E+00 -1.516173E+00 -4.322491E+00
       636   6  6.825337E+00 -7.785512E+01  3.829528E+00 -9.652661E+00 -1.519268E+00 -3.027274E+00
       636   7 -4.115181E+00 -1.099093E+02 -7.147608E-01 -8.944866E+00  1.673940E+00 -3.645694E+00
       636   8  6.800257E+00 -7.799078E+01  3.751512E+00 -9.479128E+00  1.670878E+00 -2.513871E+00
       637   1 -6.158859E+00 -6.381500E+01 -2.992093E+00 -5.065052E+00 -1.661607E+00 -2.169823E+00
       637   2  4.986130E+00 -3.167001E+01  2.012880E+00 -5.336306E+00 -1.657157E+00 -1.224754E+00
       637   3 -6.223558E+00 -6.395178E+01 -3.068009E+00 -4.463437E+00  1.382573E+00 -1.776297E+00
       637   4  4.933872E+00 -3.178271E+01  1.954350E+00 -4.735583E+00  1.387037E+00 -9.945846E-01
       637   5 -4.669397E+00 -6.284914E+01 -1.262003E+00 -1.519904E+01 -1.552611E+00 -2.205200E+00
       637   6  6.237459E+00 -3.094228E+01  3.187327E+00 -1.547029E+01 -1.549030E+00 -1.254471E+00
       637   7 -4.728459E+00 -6.298593E+01 -1.343606E+00 -1.467886E+01  1.638013E+00 -1.811412E+00
       637   8  6.192606E+00 -3.105322E+01  3.127233E+00 -1.495101E+01  1.641615E+00 -1.024081E+00
       638   1 -5.518145E+00 -1.611059E+01 -2.310071E+00 -7.291412E+00 -1.660407E+00 -5.832194E-01
       638   2  5.668385E+00  1.612346E+01  2.744319E+00 -7.293291E+00 -1.655446E+00  2.244159E-01
       638   3 -5.577405E+00 -1.621264E+01 -2.362800E+00 -6.554554E+00  1.379862E+00 -4.726916E-01
       638   4  5.621451E+00  1.604522E+01  2.708866E+00 -6.557179E+00  1.384835E+00  1.714344E-01
       638   5 -5.351172E+00 -1.594724E+01 -1.932553E+00 -1.744832E+01 -1.552537E+00 -6.088203E-01
       638   6  5.597000E+00  1.604845E+01  2.565669E+00 -1.745020E+01 -1.548301E+00  2.043992E-01
       638   7 -5.409037E+00 -1.604937E+01 -1.986956E+00 -1.679300E+01  1.634340E+00 -4.981024E-01
       638   8  5.553230E+00  1.597189E+01  2.532670E+00 -1.679563E+01  1.638593E+00  1.515663E-01
       639   1 -4.889720E+00  3.170765E+01 -1.592617E+00 -5.421570E+00 -1.660692E+00  8.640427E-01
       639   2  6.318065E+00  6.401022E+01  3.464086E+00 -5.144918E+00 -1.655567E+00  1.803900E+00
       639   3 -4.944196E+00  3.163738E+01 -1.623216E+00 -4.820556E+00  1.389098E+00  6.909907E-01
       639   4  6.272550E+00  6.395589E+01  3.447430E+00 -4.544381E+00  1.394230E+00  1.466319E+00
       639   5 -6.077032E+00  3.105435E+01 -2.582956E+00 -1.560130E+01 -1.551985E+00  8.473098E-01
       639   6  4.890858E+00  6.311703E+01  1.913991E+00 -1.532465E+01 -1.547325E+00  1.790555E+00
       639   7 -6.134995E+00  3.098366E+01 -2.611476E+00 -1.507980E+01  1.645461E+00  6.743821E-01
       639   8  4.843637E+00  6.306406E+01  1.903569E+00 -1.480362E+01  1.650132E+00  1.453073E+00
       640   1 -4.216173E+00  7.962673E+01 -8.716304E-01  4.090250E-01 -1.640362E+00  2.617379E+00
       640   2  6.984794E+00  1.119273E+02  4.164335E+00  9.684283E-01 -1.630099E+00  3.899986E+00
       640   3 -4.290191E+00  7.956503E+01 -8.942912E-01  6.620902E-01  1.416465E+00  2.158956E+00
       640   4  6.914016E+00  1.118682E+02  4.149930E+00  1.221652E+00  1.426726E+00  3.275947E+00
       640   5 -6.774739E+00  7.814797E+01 -3.242263E+00 -9.773034E+00 -1.527824E+00  2.605149E+00
       640   6  4.184663E+00  1.102070E+02  1.230050E+00 -9.213631E+00 -1.517406E+00  3.887419E+00
       640   7 -6.858462E+00  7.808495E+01 -3.259627E+00 -9.595772E+00  1.677811E+00  2.146817E+00
       640   8  4.105972E+00  1.101483E+02  1.225127E+00 -9.036210E+00  1.688225E+00  3.263473E+00
       641   1 -6.914075E+00 -1.117535E+02 -3.760068E+00  1.409376E+00 -1.606643E+00 -3.025349E+00
       641   2  4.253480E+00 -7.957467E+01  1.286304E+00  8.740389E-01 -1.608318E+00 -2.185746E+00
       641   3 -6.971448E+00 -1.119312E+02 -3.858400E+00  1.547483E+00  1.436737E+00 -2.317989E+00
       641   4  4.209360E+00 -7.972645E+01  1.206252E+00  1.010611E+00  1.435085E+00 -1.644493E+00
       641   5 -4.038439E+00 -1.099246E+02 -5.393700E-01 -8.861369E+00 -1.493588E+00 -3.074959E+00
       641   6  6.883870E+00 -7.799101E+01  3.934762E+00 -9.396705E+00 -1.496776E+00 -2.229131E+00
       641   7 -4.084647E+00 -1.101018E+02 -6.474876E-01 -8.805310E+00  1.705085E+00 -2.367235E+00
       641   8  6.852712E+00 -7.814059E+01  3.849118E+00 -9.342182E+00  1.701931E+00 -1.687559E+00
       642   1 -6.211006E+00 -6.400121E+01 -3.004471E+00 -4.135608E+00 -1.641353E+00 -1.629163E+00
       642   2  4.966308E+00 -3.180353E+01  2.055559E+00 -4.408687E+00 -1.646302E+00 -9.481517E-01
       642   3 -6.247988E+00 -6.413537E+01 -3.072307E+00 -3.838700E+00  1.400074E+00 -1.209618E+00
       642   4  4.942243E+00 -3.191259E+01  2.005676E+00 -4.113424E+00  1.395149E+00 -6.950139E-01
       642   5 -4.657694E+00 -6.298184E+01 -1.159898E+00 -1.441081E+01 -1.533868E+00 -1.668072E+00
       642   6  6.273924E+00 -3.102986E+01  3.326842E+00 -1.468389E+01 -1.540437E+00 -9.810594E-01
       642   7 -4.686643E+00 -6.311516E+01 -1.232930E+00 -1.419576E+01  1.663149E+00 -1.248242E+00
       642   8  6.259693E+00 -3.113626E+01  3.275965E+00 -1.447048E+01  1.656616E+00 -7.276805E-01
       643   1 -5.549552E+00 -1.622038E+01 -2.240404E+00 -6.155178E+00 -1.661553E+00 -4.728576E-01
       643   2  5.671555E+00  1.606800E+01  2.874901E+00 -6.158396E+00 -1.659562E+00  1.446584E-01
       643   3 -5.603044E+00 -1.632828E+01 -2.293981E+00 -5.798031E+00  1.374177E+00 -3.413232E-01
       643   4  5.630182E+00  1.598337E+01  2.838462E+00 -5.802122E+00  1.376181E+00  1.103736E-01
       643   5 -5.344880E+00 -1.602200E+01 -1.783806E+00 -1.645331E+01 -1.556269E+00 -5.015609E-01
       643   6  5.631389E+00  1.602155E+01  2.760209E+00 -1.645653E+01 -1.555138E+00  1.214408E-01
       643   7 -5.396701E+00 -1.612999E+01 -1.839370E+00 -1.617767E+01  1.634501E+00 -3.698161E-01
       643   8  5.593482E+00  1.593861E+01  2.725969E+00 -1.618176E+01  1.635651E+00  8.732614E-02
       644   1 -4.897634E+00  3.167289E+01 -1.433317E+00 -4.493561E+00 -1.648439E+00  6.175485E-01
       644   2  6.340581E+00  6.401852E+01  3.681772E+00 -4.217596E+00 -1.639800E+00  1.291992E+00
       644   3 -4.968935E+00  3.158725E+01 -1.474262E+00 -4.198321E+00  1.396023E+00  4.619408E-01
       644   4  6.279383E+00  6.395144E+01  3.655943E+00 -3.922455E+00  1.404664E+00  9.707437E-01
       644   5 -6.072240E+00  3.103788E+01 -2.375433E+00 -1.481131E+01 -1.540996E+00  5.978631E-01
       644   6  4.921369E+00  6.313890E+01  2.168910E+00 -1.453534E+01 -1.532454E+00  1.276471E+00
       644   7 -6.148483E+00  3.095108E+01 -2.415282E+00 -1.459640E+01  1.658385E+00  4.423997E-01
       644   8  4.857022E+00  6.307245E+01  2.148361E+00 -1.432054E+01  1.666928E+00  9.553363E-01
       645   1 -4.220006E+00  7.963977E+01 -6.332198E-01  8.033311E-01 -1.613321E+00  1.841922E+00
       645   2  7.003549E+00  1.119638E+02  4.454557E+00  1.362928E+00 -1.608416E+00  2.669915E+00
       645   3 -4.276729E+00  7.958320E+01 -6.497896E-01  9.390290E-01  1.437559E+00  1.399663E+00
       645   4  6.954307E+00  1.119197E+02  4.450463E+00  1.498566E+00  1.442464E+00  2.062689E+00
       645   5 -6.788448E+00  7.816550E+01 -2.979014E+00 -9.511046E+00 -1.500275E+00  1.828823E+00
       645   6  4.191459E+00  1.102459E+02  1.540251E+00 -8.951449E+00 -1.495429E+00  2.659268E+00
       645   7 -6.854310E+00  7.810775E+01 -2.990377E+00 -9.453945E+00  1.704928E+00  1.386660E+00
       645   8  4.134864E+00  1.102024E+02  1.545531E+00 -8.894408E+00  1.709775E+00  2.052120E+00
       646   1 -6.929907E+00 -1.119820E+02 -3.767159E+00  1.621668E+00 -1.578358E+00 -1.285339E+00
       646   2  4.222196E+00 -7.979505E+01  1.219612E+00  1.083330E+00 -1.591325E+00 -9.489460E-01
       646   3 -6.939823E+00 -1.121239E+02 -3.841268E+00  1.689085E+00  1.495783E+00 -5.596886E-01
       646   4  4.228937E+00 -7.990326E+01  1.167269E+00  1.148285E+00  1.482852E+00 -3.921293E-01
       646   5 -3.979713E+00 -1.100978E+02 -4.369178E-01 -8.792058E+00 -1.462644E+00 -1.330131E+00
       646   6  6.920003E+00 -7.816330E+01  3.960948E+00 -9.330397E+00 -1.478067E+00 -9.852105E-01
       646   7 -3.975287E+00 -1.102381E+02 -5.198277E-01 -8.809065E+00  1.775692E+00 -6.041569E-01
       646   8  6.942912E+00 -7.826803E+01  3.904066E+00 -9.349865E+00  1.760324E+00 -4.281314E-01
       647   1 -6.260157E+00 -6.420609E+01 -3.075111E+00 -3.690101E+00 -1.644004E+00 -7.191618E-01
       647   2  4.962246E+00 -3.194056E+01  2.067359E+00 -3.965673E+00 -1.641139E+00 -4.277726E-01
       647   3 -6.310694E+00 -6.431961E+01 -3.141387E+00 -3.578171E+00  1.387443E+00 -2.853233E-01
       647   4  4.928006E+00 -3.202110E+01  2.022439E+00 -3.854423E+00  1.390319E+00 -1.610834E-01
       647   5 -4.656809E+00 -6.314846E+01 -1.152999E+00 -1.410795E+01 -1.535046E+00 -7.492617E-01
       647   6  6.315721E+00 -3.113279E+01  3.406434E+00 -1.438352E+01 -1.532860E+00 -4.495582E-01
       647   7 -4.702700E+00 -6.326266E+01 -1.226220E+00 -1.408026E+01  1.658922E+00 -3.152054E-01
       647   8  6.287935E+00 -3.121221E+01  3.358788E+00 -1.435651E+01  1.661124E+00 -1.827113E-01
       648   1 -5.583148E+00 -1.633946E+01 -2.209031E+00 -5.621057E+00 -1.659215E+00 -2.211270E-01
       648   2  5.662207E+00  1.599443E+01  2.941603E+00 -5.625607E+00 -1.658739E+00  5.205009E-02
       648   3 -5.611523E+00 -1.639859E+01 -2.240957E+00 -5.491860E+00  1.379635E+00 -7.678523E-02
       648   4  5.649943E+00  1.596783E+01  2.930845E+00 -5.496797E+00  1.380117E+00  2.928157E-02
       648   5 -5.351797E+00 -1.611711E+01 -1.699246E+00 -1.606138E+01 -1.551791E+00 -2.368714E-01
       648   6  5.643740E+00  1.596695E+01  2.868481E+00 -1.606593E+01 -1.551702E+00  4.449613E-02
       648   7 -5.380267E+00 -1.617718E+01 -1.734183E+00 -1.601646E+01  1.649548E+00 -9.241572E-02
       648   8  5.633189E+00  1.594123E+01  2.858929E+00 -1.602140E+01  1.649646E+00  2.178226E-02
       649   1 -4.936234E+00  3.161506E+01 -1.346081E+00 -4.050754E+00 -1.642444E+00  2.575074E-01
       649   2  6.345419E+00  6.402145E+01  3.853036E+00 -3.774987E+00 -1.644626E+00  5.456502E-01
       649   3 -4.942470E+00  3.160942E+01 -1.343954E+00 -3.940000E+00  1.390362E+00  1.130213E-01
       649   4  6.354717E+00  6.404705E+01  3.875704E+00 -3.664401E+00  1.388183E+00  2.357357E-01
       649   5 -6.108100E+00  3.098929E+01 -2.260110E+00 -1.450901E+01 -1.533023E+00  2.558180E-01
       649   6  4.926243E+00  6.314837E+01  2.361953E+00 -1.423324E+01 -1.535373E+00  5.517926E-01
       649   7 -6.119147E+00  3.098248E+01 -2.257065E+00 -1.448230E+01  1.660623E+00  1.113441E-01
       649   8  4.932520E+00  6.317459E+01  2.389713E+00 -1.420670E+01  1.658276E+00  2.418337E-01
       650   1 -4.233274E+00  7.965114E+01 -4.625433E-01  1.011152E+00 -1.594098E+00  7.718932E-01
       650   2  6.972625E+00  1.119697E+02  4.571847E+00  1.571161E+00 -1.581175E+00  1.101858E+00
       650   3 -4.280833E+00  7.966980E+01 -4.542470E-01  1.075330E+00  1.483268E+00  3.407835E-01
       650   4  6.939788E+00  1.120177E+02  4.599880E+00  1.636674E+00  1.496170E+00  5.050649E-01
       650   5 -6.818675E+00  7.817471E+01 -2.798556E+00 -9.441141E+00 -1.479367E+00  7.835701E-01
       650   6  4.139520E+00  1.102456E+02  1.657861E+00 -8.881132E+00 -1.465113E+00  1.120823E+00
       650   7 -6.880373E+00  7.818998E+01 -2.787434E+00 -9.460428E+00  1.759136E+00  3.523758E-01
       650   8  4.094337E+00  1.102920E+02  1.692900E+00 -8.899085E+00  1.773360E+00  5.238928E-01
       651   1 -7.202033E+00 -1.199243E+02 -3.420838E+00 -1.384315E+00 -1.902620E+00 -2.754231E+00
       651   2  4.585219E+00 -8.554774E+01  1.493437E+00 -1.908248E+00 -1.924433E+00 -1.529913E+00
       651   3 -7.153399E+00 -1.200185E+02 -3.479051E+00  2.319278E-02  1.452492E+00 -2.133588E+00
       651   4  4.666925E+00 -8.557350E+01  1.476997E+00 -4.995634E-01  1.430646E+00 -1.067130E+00
       651   5 -4.597457E+00 -1.183049E+02 -6.273003E-01 -1.200289E+01 -1.635774E+00 -2.787519E+00
       651   6  6.966164E+00 -8.415194E+01  3.765170E+00 -1.252683E+01 -1.656472E+00 -1.546433E+00
       651   7 -4.546198E+00 -1.184018E+02 -6.971661E-01 -1.069367E+01  1.847176E+00 -2.166622E+00
       651   8  7.052199E+00 -8.417870E+01  3.741051E+00 -1.121642E+01  1.826437E+00 -1.083525E+00
       652   1 -6.665067E+00 -6.885901E+01 -3.303057E+00 -9.919859E+00 -1.761539E+00 -9.352423E-01
       652   2  5.308222E+00 -3.428532E+01  2.034215E+00 -1.018180E+01 -1.778986E+00 -5.348916E-01
       652   3 -6.597031E+00 -6.884561E+01 -3.303627E+00 -7.692004E+00  1.475189E+00 -5.872924E-01
       652   4  5.416833E+00 -3.418583E+01  2.082802E+00 -7.953786E+00  1.457737E+00 -3.428095E-01
       652   5 -5.308802E+00 -6.799527E+01 -1.780187E+00 -2.054365E+01 -1.488289E+00 -9.377341E-01
       652   6  6.443888E+00 -3.364218E+01  3.042351E+00 -2.080559E+01 -1.505583E+00 -5.158223E-01
       652   7 -5.238447E+00 -6.798303E+01 -1.786937E+00 -1.841891E+01  1.874283E+00 -5.897653E-01
       652   8  6.556498E+00 -3.354216E+01  3.088680E+00 -1.868070E+01  1.856983E+00 -3.238855E-01
       653   1 -5.945527E+00 -1.751859E+01 -2.645493E+00 -1.269887E+01 -1.790854E+00 -2.703630E-01
       653   2  6.059915E+00  1.716864E+01  2.685414E+00 -1.268755E+01 -1.775715E+00  5.199172E-02
       653   3 -5.946651E+00 -1.741393E+01 -2.619991E+00 -1.038956E+01  1.465006E+00 -1.940153E-01
       653   4  6.102231E+00  1.736584E+01  2.763181E+00 -1.037739E+01  1.480122E+00 -3.198506E-02
       653   5 -5.872819E+00 -1.742460E+01 -2.404877E+00 -2.336092E+01 -1.520909E+00 -2.348899E-01
       653   6  5.905760E+00  1.703577E+01  2.396682E+00 -2.334959E+01 -1.504963E+00  1.107197E-01
       653   7 -5.877888E+00 -1.732210E+01 -2.382662E+00 -2.115672E+01  1.864937E+00 -1.588125E-01
       653   8  5.945859E+00  1.723253E+01  2.475196E+00 -2.114454E+01  1.880853E+00  2.629549E-02
       654   1 -5.260185E+00  3.399399E+01 -2.013527E+00 -1.034841E+01 -1.799508E+00  3.164870E-01
       654   2  6.819318E+00  6.885107E+01  3.394406E+00 -1.006184E+01 -1.748902E+00  7.167469E-01
       654   3 -5.336617E+00  3.419476E+01 -1.961831E+00 -8.111032E+00  1.454668E+00  1.139578E-01
       654   4  6.786915E+00  6.914557E+01  3.499136E+00 -7.820959E+00  1.505177E+00  3.506508E-01
       654   5 -6.487825E+00  3.330520E+01 -3.081862E+00 -2.105549E+01 -1.531821E+00  3.923440E-01
       654   6  5.360220E+00  6.793082E+01  1.786001E+00 -2.076891E+01 -1.477904E+00  8.161462E-01
       654   7 -6.580918E+00  3.350007E+01 -3.033175E+00 -1.892385E+01  1.855352E+00  1.892368E-01
       654   8  5.312919E+00  6.822118E+01  1.891835E+00 -1.863377E+01  1.909147E+00  4.492928E-01
       655   1 -4.574326E+00  8.570015E+01 -1.446779E+00 -2.044095E+00 -1.953706E+00  1.317149E+00
       655   2  7.369894E+00  1.205121E+02  3.555386E+00 -1.477358E+00 -1.893223E+00  2.557217E+00
       655   3 -4.640828E+00  8.602571E+01 -1.334067E+00 -6.222640E-01  1.435007E+00  8.269314E-01
       655   4  7.334700E+00  1.209010E+02  3.709085E+00 -4.960036E-02  1.495327E+00  1.891461E+00
       655   5 -7.131079E+00  8.420902E+01 -3.860451E+00 -1.279353E+01 -1.696886E+00  1.430724E+00
       655   6  4.564325E+00  1.187721E+02  5.611404E-01 -1.222679E+01 -1.630788E+00  2.685980E+00
       655   7 -7.226279E+00  8.452530E+01 -3.749998E+00 -1.146941E+01  1.836213E+00  9.396415E-01
       655   8  4.502328E+00  1.191537E+02  7.170039E-01 -1.089674E+01  1.902104E+00  2.019243E+00
       656   1 -7.159766E+00 -1.201498E+02 -3.523592E+00  7.113627E-01 -1.871753E+00 -4.632024E+00
       656   2  4.768446E+00 -8.557306E+01  1.660402E+00  1.886599E-01 -1.869733E+00 -3.020515E+00
       656   3 -7.272196E+00 -1.204595E+02 -3.696401E+00  1.186784E+00  1.434018E+00 -3.987102E+00
       656   4  4.684832E+00 -8.582426E+01  1.525169E+00  6.630729E-01  1.436066E+00 -2.534459E+00
       656   5 -4.491823E+00 -1.184777E+02 -6.180519E-01 -1.007660E+01 -1.601685E+00 -4.714757E+00
       656   6  7.208246E+00 -8.412916E+01  4.033610E+00 -1.059930E+01 -1.600633E+00 -3.089013E+00
       656   7 -4.594619E+00 -1.187873E+02 -7.999816E-01 -9.697144E+00  1.838860E+00 -4.069213E+00
       656   8  7.135982E+00 -8.437849E+01  3.893258E+00 -1.022085E+01  1.839947E+00 -2.602442E+00
       657   1 -6.500343E+00 -6.880973E+01 -3.082036E+00 -6.446668E+00 -1.859705E+00 -2.099343E+00
       657   2  5.491442E+00 -3.414235E+01  2.223201E+00 -6.709000E+00 -1.848202E+00 -1.194162E+00
       657   3 -6.619610E+00 -6.903932E+01 -3.213156E+00 -5.269350E+00  1.417342E+00 -1.729464E+00
       657   4  5.405462E+00 -3.430300E+01  2.134107E+00 -5.533326E+00  1.428891E+00 -9.828205E-01
       657   5 -5.095481E+00 -6.790469E+01 -1.470080E+00 -1.724754E+01 -1.589559E+00 -2.156369E+00
       657   6  6.668752E+00 -3.346486E+01  3.304205E+00 -1.750987E+01 -1.579634E+00 -1.234080E+00
       657   7 -5.206583E+00 -6.813305E+01 -1.605293E+00 -1.616915E+01  1.821898E+00 -1.786061E+00
       657   8  6.592649E+00 -3.362258E+01  3.215008E+00 -1.643313E+01  1.831880E+00 -1.022439E+00
       658   1 -5.928347E+00 -1.737166E+01 -2.524689E+00 -9.038884E+00 -1.829699E+00 -6.094849E-01
       658   2  6.144772E+00  1.746406E+01  2.883317E+00 -9.027088E+00 -1.821346E+00  8.270123E-02
       658   3 -6.004872E+00 -1.748716E+01 -2.589049E+00 -7.655188E+00  1.436782E+00 -5.147433E-01
       658   4  6.103122E+00  1.742112E+01  2.862649E+00 -7.645245E+00  1.445186E+00  1.742361E-02
       658   5 -5.832391E+00 -1.725323E+01 -2.225875E+00 -1.988120E+01 -1.559987E+00 -6.365216E-01
       658   6  6.011083E+00  1.735285E+01  2.646294E+00 -1.986940E+01 -1.553412E+00  7.374974E-02
       658   7 -5.904007E+00 -1.736721E+01 -2.290070E+00 -1.859773E+01  1.842336E+00 -5.415768E-01
       658   8  5.976070E+00  1.731315E+01  2.629821E+00 -1.858778E+01  1.848976E+00  8.539421E-03
       659   1 -5.353555E+00  3.429142E+01 -1.883985E+00 -6.862819E+00 -1.857196E+00  6.636149E-01
       659   2  6.753605E+00  6.925501E+01  3.509622E+00 -6.571959E+00 -1.850957E+00  1.558514E+00
       659   3 -5.391282E+00  3.428843E+01 -1.883000E+00 -5.687074E+00  1.433613E+00  4.798557E-01
       659   4  6.745264E+00  6.931156E+01  3.549019E+00 -5.397512E+00  1.439888E+00  1.211077E+00
       659   5 -6.587805E+00  3.361134E+01 -2.916667E+00 -1.774982E+01 -1.589479E+00  6.665805E-01
       659   6  5.284291E+00  6.833986E+01  1.928461E+00 -1.745896E+01 -1.584485E+00  1.575953E+00
       659   7 -6.626532E+00  3.360905E+01 -2.912323E+00 -1.667103E+01  1.840814E+00  4.827990E-01
       659   8  5.276718E+00  6.839889E+01  1.975341E+00 -1.638147E+01  1.845853E+00  1.228384E+00
       660   1 -4.684458E+00  8.616683E+01 -1.279205E+00  6.931214E-02 -1.888273E+00  2.470712E+00
       660   2  7.401118E+00  1.211681E+02  4.004770E+00  6.438997E-01 -1.872678E+00  4.067983E+00
       660   3 -4.736460E+00  8.622945E+01 -1.242366E+00  5.399393E-01  1.446614E+00  2.001715E+00
       660   4  7.364892E+00  1.212582E+02  4.066688E+00  1.113924E+00  1.462225E+00  3.430559E+00
       660   5 -7.274504E+00  8.467154E+01 -3.673470E+00 -1.084592E+01 -1.622532E+00  2.495509E+00
       660   6  4.568805E+00  1.194305E+02  1.045218E+00 -1.027134E+01 -1.607517E+00  4.098411E+00
       660   7 -7.333925E+00  8.473387E+01 -3.630154E+00 -1.046362E+01  1.856654E+00  2.026326E+00
       660   8  4.526982E+00  1.195222E+02  1.117863E+00 -9.889637E+00  1.871691E+00  3.460758E+00
       661   1 -7.243771E+00 -1.206024E+02 -3.559862E+00  1.455961E+00 -1.832497E+00 -4.358843E+00
       661   2  4.765611E+00 -8.589321E+01  1.762204E+00  9.306749E-01 -1.837443E+00 -3.087027E+00
       661   3 -7.377584E+00 -1.210066E+02 -3.770397E+00  1.718774E+00  1.460068E+00 -3.672129E+00
       661   4  4.660643E+00 -8.623907E+01  1.589453E+00  1.190217E+00  1.455211E+00 -2.562378E+00
       661   5 -4.472426E+00 -1.188450E+02 -4.732275E-01 -9.498321E+00 -1.561301E+00 -4.471381E+00
       661   6  7.301175E+00 -8.437160E+01  4.298683E+00 -1.002361E+01 -1.569429E+00 -3.185211E+00
       661   7 -4.589239E+00 -1.192462E+02 -6.905672E-01 -9.331753E+00  1.875114E+00 -3.783833E+00
       661   8  7.214957E+00 -8.471264E+01  4.123209E+00 -9.860310E+00  1.867101E+00 -2.659833E+00
       662   1 -6.555052E+00 -6.908497E+01 -2.955830E+00 -4.618463E+00 -1.872665E+00 -2.283539E+00
       662   2  5.481096E+00 -3.431286E+01  2.392546E+00 -4.884222E+00 -1.870681E+00 -1.360185E+00
       662   3 -6.687607E+00 -6.940770E+01 -3.121430E+00 -4.014657E+00  1.420321E+00 -1.877351E+00
       662   4  5.379188E+00 -3.457298E+01  2.266502E+00 -4.283628E+00  1.422393E+00 -1.115576E+00
       662   5 -5.068495E+00 -6.811141E+01 -1.197167E+00 -1.559019E+01 -1.605678E+00 -2.370783E+00
       662   6  6.732629E+00 -3.357431E+01  3.602818E+00 -1.585595E+01 -1.606817E+00 -1.431894E+00
       662   7 -5.187777E+00 -6.843094E+01 -1.365401E+00 -1.508394E+01  1.830705E+00 -1.963948E+00
       662   8  6.645737E+00 -3.382951E+01  3.478209E+00 -1.535291E+01  1.829677E+00 -1.186752E+00
       663   1 -5.941295E+00 -1.748142E+01 -2.345611E+00 -6.880685E+00 -1.873589E+00 -7.363527E-01
       663   2  6.167680E+00  1.745295E+01  3.083273E+00 -6.872327E+00 -1.870754E+00  4.463600E-02
       663   3 -6.050539E+00 -1.770899E+01 -2.455612E+00 -6.145508E+00  1.415826E+00 -6.100188E-01
       663   4  6.088345E+00  1.728625E+01  3.012089E+00 -6.139621E+00  1.418729E+00  9.414904E-03
       663   5 -5.787776E+00 -1.731177E+01 -1.933620E+00 -1.789556E+01 -1.607437E+00 -7.968631E-01
       663   6  6.086190E+00  1.738759E+01  2.946909E+00 -1.788720E+01 -1.607004E+00 -8.170600E-04
       663   7 -5.890170E+00 -1.753718E+01 -2.043254E+00 -1.725779E+01  1.825435E+00 -6.700802E-01
       663   8  6.015448E+00  1.722481E+01  2.880160E+00 -1.725190E+01  1.825954E+00 -3.570088E-02
       664   1 -5.338522E+00  3.433496E+01 -1.671733E+00 -5.037900E+00 -1.872363E+00  6.613592E-01
       664   2  6.814104E+00  6.939332E+01  3.778662E+00 -4.749451E+00 -1.868785E+00  1.565290E+00
       664   3 -5.428045E+00  3.419453E+01 -1.729597E+00 -4.437167E+00  1.428409E+00  5.076003E-01
       664   4  6.747972E+00  6.929851E+01  3.753144E+00 -4.150455E+00  1.432034E+00  1.249235E+00
       664   5 -6.538659E+00  3.369162E+01 -2.616087E+00 -1.609155E+01 -1.603953E+00  6.253737E-01
       664   6  5.377701E+00  6.851371E+01  2.283020E+00 -1.580310E+01 -1.602065E+00  1.540113E+00
       664   7 -6.627877E+00  3.355227E+01 -2.670630E+00 -1.558426E+01  1.841189E+00  4.718818E-01
       664   8  5.313626E+00  6.842173E+01  2.264914E+00 -1.529754E+01  1.843137E+00  1.224244E+00
       665   1 -4.679428E+00  8.633206E+01 -9.742977E-01  8.054590E-01 -1.845896E+00  2.348796E+00
       665   2  7.482402E+00  1.214292E+02  4.467994E+00  1.378676E+00 -1.836296E+00  3.585444E+00
       665   3 -4.780468E+00  8.624185E+01 -1.000365E+00  1.063156E+00  1.463803E+00  1.913754E+00
       665   4  7.395465E+00  1.213629E+02  4.465021E+00  1.634890E+00  1.473445E+00  2.987621E+00
       665   5 -7.251086E+00  8.486687E+01 -3.286592E+00 -1.026246E+01 -1.573574E+00  2.329321E+00
       665   6  4.673520E+00  1.197268E+02  1.602177E+00 -9.689245E+00 -1.565417E+00  3.570739E+00
       665   7 -7.356836E+00  8.477734E+01 -3.305698E+00 -1.009228E+01  1.881206E+00  1.894424E+00
       665   8  4.583632E+00  1.196629E+02  1.610272E+00 -9.520543E+00  1.889414E+00  2.973026E+00
       666   1 -7.311315E+00 -1.211365E+02 -3.543504E+00  1.867267E+00 -1.816651E+00 -3.094159E+00
       666   2  4.737635E+00 -8.633632E+01  1.819531E+00  1.336462E+00 -1.821543E+00 -2.268510E+00
       666   3 -7.442398E+00 -1.215329E+02 -3.753573E+00  2.012990E+00  1.490765E+00 -2.370013E+00
       666   4  4.635950E+00 -8.667322E+01  1.647934E+00  1.479308E+00  1.485953E+00 -1.708944E+00
       666   5 -4.429885E+00 -1.192929E+02 -2.797443E-01 -9.253968E+00 -1.544770E+00 -3.205553E+00
       666   6  7.376548E+00 -8.473528E+01  4.517417E+00 -9.784774E+00 -1.552494E+00 -2.365071E+00
       666   7 -4.545450E+00 -1.196871E+02 -4.980317E-01 -9.205179E+00  1.915044E+00 -2.480591E+00
       666   8  7.292158E+00 -8.506822E+01  4.341750E+00 -9.738861E+00  1.907421E+00 -1.804798E+00
       667   1 -6.624113E+00 -6.948895E+01 -2.895795E+00 -3.684091E+00 -1.860828E+00 -1.723560E+00
       667   2  5.457482E+00 -3.461631E+01  2.503553E+00 -3.955389E+00 -1.869168E+00 -1.060379E+00
       667   3 -6.717021E+00 -6.978718E+01 -3.044535E+00 -3.381936E+00  1.444906E+00 -1.284269E+00
       667   4  5.394765E+00 -3.485314E+01  2.394047E+00 -3.656379E+00  1.436652E+00 -7.851014E-01
       667   5 -5.050388E+00 -6.844569E+01 -9.919818E-01 -1.482481E+01 -1.593555E+00 -1.809067E+00
       667   6  6.789548E+00 -3.381471E+01  3.843496E+00 -1.509611E+01 -1.604993E+00 -1.130516E+00
       667   7 -5.130332E+00 -6.874106E+01 -1.144175E+00 -1.462027E+01  1.864044E+00 -1.369149E+00
       667   8  6.741566E+00 -3.404691E+01  3.734669E+00 -1.489471E+01  1.852716E+00 -8.547250E-01
       668   1 -5.991028E+00 -1.773669E+01 -2.219563E+00 -5.745459E+00 -1.884567E+00 -5.999777E-01
       668   2  6.166966E+00  1.729988E+01  3.270512E+00 -5.741150E+00 -1.884604E+00 -5.320220E-03
       668   3 -6.087797E+00 -1.795342E+01 -2.324689E+00 -5.384847E+00  1.414248E+00 -4.441972E-01
       668   4  6.099216E+00  1.714191E+01  3.203364E+00 -5.382385E+00  1.414261E+00 -1.199673E-02
       668   5 -5.778092E+00 -1.751533E+01 -1.694629E+00 -1.692897E+01 -1.618393E+00 -6.591304E-01
       668   6  6.140513E+00  1.728186E+01  3.236873E+00 -1.692466E+01 -1.620250E+00 -4.983098E-02
       668   7 -5.870271E+00 -1.773104E+01 -1.800966E+00 -1.666556E+01  1.830837E+00 -5.029164E-01
       668   8  6.079108E+00  1.712665E+01  3.172607E+00 -1.666310E+01  1.829045E+00 -5.618130E-02
       669   1 -5.366244E+00  3.422338E+01 -1.465580E+00 -4.108631E+00 -1.867333E+00  4.483224E-01
       669   2  6.829539E+00  6.936398E+01  4.046427E+00 -3.822883E+00 -1.859398E+00  1.093040E+00
       669   3 -5.469527E+00  3.408097E+01 -1.530225E+00 -3.808962E+00  1.439686E+00  3.231853E-01
       669   4  6.750774E+00  6.926989E+01  4.015194E+00 -3.524119E+00  1.447645E+00  8.067190E-01
       669   5 -6.530307E+00  3.361803E+01 -2.319338E+00 -1.532452E+01 -1.597016E+00  4.134607E-01
       669   6  5.427847E+00  6.852101E+01  2.638203E+00 -1.503877E+01 -1.589972E+00  1.069898E+00
       669   7 -6.636324E+00  3.347523E+01 -2.382554E+00 -1.511937E+01  1.859317E+00  2.885790E-01
       669   8  5.348091E+00  6.842826E+01  2.612462E+00 -1.483453E+01  1.866392E+00  7.837466E-01
       670   1 -4.707266E+00  8.632193E+01 -6.926788E-01  1.208457E+00 -1.822949E+00  1.619296E+00
       670   2  7.488819E+00  1.214732E+02  4.809695E+00  1.779192E+00 -1.818851E+00  2.412339E+00
       670   3 -4.783964E+00  8.625311E+01 -7.072803E-01  1.350538E+00  1.489289E+00  1.215467E+00
       670   4  7.431883E+00  1.214416E+02  4.823680E+00  1.920031E+00  1.493421E+00  1.848655E+00
       670   5 -7.257398E+00  8.488775E+01 -2.923157E+00 -1.001249E+01 -1.547036E+00  1.603603E+00
       670   6  4.702894E+00  1.198032E+02  2.029031E+00 -9.441751E+00 -1.544163E+00  2.405276E+00
       670   7 -7.339852E+00  8.481896E+01 -2.931889E+00 -9.961872E+00  1.913359E+00  1.199889E+00
       670   8  4.641930E+00  1.197734E+02  2.052917E+00 -9.392379E+00  1.916276E+00  1.841643E+00
       671   1 -7.345231E+00 -1.216189E+02 -3.508166E+00  2.092674E+00 -1.789740E+00 -1.309260E+00
       671   2  4.697684E+00 -8.677224E+01  1.788208E+00  1.556829E+00 -1.807231E+00 -9.804865E-01
       671   3 -7.391338E+00 -1.219008E+02 -3.659944E+00  2.167466E+00  1.563664E+00 -5.640333E-01
       671   4  4.681903E+00 -8.699256E+01  1.675967E+00  1.628589E+00  1.546257E+00 -4.023230E-01
       671   5 -4.376916E+00 -1.197117E+02 -1.191775E-01 -9.196795E+00 -1.513097E+00 -1.394609E+00
       671   6  7.416712E+00 -8.511434E+01  4.595527E+00 -9.732640E+00 -1.533611E+00 -1.050266E+00
       671   7 -4.406946E+00 -1.199913E+02 -2.793841E-01 -9.219864E+00  2.001311E+00 -6.487649E-01
       671   8  7.418811E+00 -8.533055E+01  4.479067E+00 -9.758741E+00  1.980903E+00 -4.715971E-01
       672   1 -6.695084E+00 -6.988739E+01 -2.940776E+00 -3.229025E+00 -1.866882E+00 -7.571259E-01
       672   2  5.448164E+00 -3.489875E+01  2.548079E+00 -3.505026E+00 -1.865347E+00 -4.756669E-01
       672   3 -6.780222E+00 -7.010151E+01 -3.063271E+00 -3.110610E+00  1.440535E+00 -3.002227E-01
       672   4  5.393817E+00 -3.505008E+01  2.465428E+00 -3.387745E+00  1.442101E+00 -1.829899E-01
       672   5 -5.057474E+00 -6.879634E+01 -9.415529E-01 -1.453910E+01 -1.596208E+00 -8.153650E-01
       672   6  6.840747E+00 -3.405273E+01  3.975572E+00 -1.481510E+01 -1.595804E+00 -5.179482E-01
       672   7 -5.136612E+00 -6.901070E+01 -1.070866E+00 -1.451909E+01  1.869395E+00 -3.580404E-01
       672   8  6.794174E+00 -3.420253E+01  3.890242E+00 -1.479622E+01  1.869838E+00 -2.249652E-01
       673   1 -6.046932E+00 -1.797898E+01 -2.163755E+00 -5.204501E+00 -1.884397E+00 -2.771904E-01
       673   2  6.150209E+00  1.714902E+01  3.365383E+00 -5.202899E+00 -1.884790E+00 -1.640168E-02
       673   3 -6.098910E+00 -1.809308E+01 -2.225946E+00 -5.069622E+00  1.429908E+00 -1.042378E-01
       673   4  6.128845E+00  1.709737E+01  3.342786E+00 -5.068536E+00  1.429529E+00 -6.315909E-03
       673   5 -5.795010E+00 -1.772389E+01 -1.565362E+00 -1.655689E+01 -1.614180E+00 -3.078190E-01
       673   6  6.159134E+00  1.716111E+01  3.396784E+00 -1.655529E+01 -1.615087E+00 -3.115234E-02
       673   7 -5.847093E+00 -1.783909E+01 -1.631147E+00 -1.652064E+01  1.856980E+00 -1.346447E-01
       673   8  6.139424E+00  1.711012E+01  3.374696E+00 -1.651955E+01  1.856090E+00 -2.095983E-02
       674   1 -5.429457E+00  3.410815E+01 -1.357423E+00 -3.657550E+00 -1.863905E+00  1.789471E-01
       674   2  6.825097E+00  6.935107E+01  4.248175E+00 -3.373165E+00 -1.866661E+00  4.518610E-01
       674   3 -5.448028E+00  3.409287E+01 -1.359808E+00 -3.540798E+00  1.441020E+00  7.092048E-02
       674   4  6.835690E+00  6.939503E+01  4.283767E+00 -3.256764E+00  1.438274E+00  1.840123E-01
       674   5 -6.576745E+00  3.352403E+01 -2.157223E+00 -1.503841E+01 -1.590187E+00  1.754975E-01
       674   6  5.439331E+00  6.852846E+01  2.891927E+00 -1.475402E+01 -1.593293E+00  4.634086E-01
       674   7 -6.600104E+00  3.350736E+01 -2.159430E+00 -1.501961E+01  1.868618E+00  6.749587E-02
       674   8  5.446862E+00  6.857277E+01  2.931724E+00 -1.473558E+01  1.865524E+00  1.954764E-01
       675   1 -4.744930E+00  8.633397E+01 -4.981188E-01  1.427469E+00 -1.806713E+00  6.663150E-01
       675   2  7.443397E+00  1.215118E+02  4.951788E+00  1.996803E+00 -1.791917E+00  9.793004E-01
       675   3 -4.802458E+00  8.638205E+01 -4.733455E-01  1.498307E+00  1.543105E+00  2.815769E-01
       675   4  7.413744E+00  1.216161E+02  5.013234E+00  2.068429E+00  1.557880E+00  4.350362E-01
       675   5 -7.292614E+00  8.491372E+01 -2.684577E+00 -9.953965E+00 -1.527606E+00  6.885303E-01
       675   6  4.657642E+00  1.198535E+02  2.209832E+00 -9.384631E+00 -1.512023E+00  1.015663E+00
       675   7 -7.363119E+00  8.495863E+01 -2.657444E+00 -9.980236E+00  1.975863E+00  3.036314E-01
       675   8  4.616736E+00  1.199564E+02  2.277658E+00 -9.410113E+00  1.991418E+00  4.711357E-01
       676   1 -7.577798E+00 -1.284697E+02 -3.451016E+00 -9.628504E-01 -2.092980E+00 -2.816959E+00
       676   2  5.015944E+00 -9.169912E+01  1.757528E+00 -1.462977E+00 -2.113873E+00 -1.600270E+00
       676   3 -7.559090E+00 -1.286502E+02 -3.563188E+00  4.430041E-01  1.474866E+00 -2.204981E+00
       676   4  5.080673E+00 -9.178449E+01  1.703602E+00 -5.628612E-02  1.453940E+00 -1.141551E+00
       676   5 -5.065836E+00 -1.268981E+02 -7.243708E-01 -1.232768E+01 -1.653464E+00 -2.872521E+00
       676   6  7.311520E+00 -9.034392E+01  3.979272E+00 -1.282781E+01 -1.673564E+00 -1.632558E+00
       676   7 -5.043869E+00 -1.270810E+02 -8.477148E-01 -1.103233E+01  2.036214E+00 -2.260120E+00
       676   8  7.381156E+00 -9.043002E+01  3.918020E+00 -1.153162E+01  2.016074E+00 -1.173593E+00
       677   1 -7.125215E+00 -7.383177E+01 -3.438079E+00 -9.479662E+00 -1.942938E+00 -1.009903E+00
       677   2  5.744148E+00 -3.665927E+01  2.287300E+00 -9.700455E+00 -1.962963E+00 -6.136800E-01
       677   3 -7.069119E+00 -7.386575E+01 -3.467471E+00 -7.262016E+00  1.504548E+00 -6.640768E-01
       677   4  5.846159E+00 -3.659850E+01  2.316202E+00 -7.486392E+00  1.484667E+00 -4.230215E-01
       677   5 -5.908188E+00 -7.302989E+01 -1.982191E+00 -2.090385E+01 -1.497968E+00 -1.025204E+00
       677   6  6.742069E+00 -3.607650E+01  3.231941E+00 -2.112465E+01 -1.521387E+00 -6.058457E-01
       677   7 -5.838371E+00 -7.306013E+01 -2.012819E+00 -1.879703E+01  2.073207E+00 -6.792611E-01
       677   8  6.859470E+00 -3.601031E+01  3.263501E+00 -1.902141E+01  2.049957E+00 -4.152469E-01
       678   1 -6.426465E+00 -1.865288E+01 -2.785874E+00 -1.225248E+01 -1.980914E+00 -3.530498E-01
       678   2  6.483622E+00  1.866763E+01  2.927229E+00 -1.218460E+01 -1.968031E+00 -3.721782E-02
       678   3 -6.442646E+00 -1.858047E+01 -2.776960E+00 -9.965378E+00  1.493424E+00 -2.779697E-01
       678   4  6.524087E+00  1.885943E+01  3.005581E+00 -9.901067E+00  1.506450E+00 -1.227359E-01
       678   5 -6.541488E+00 -1.864028E+01 -2.628830E+00 -2.372711E+01 -1.539391E+00 -3.258703E-01
       678   6  6.142171E+00  1.845381E+01  2.555944E+00 -2.365923E+01 -1.529887E+00  1.967838E-02
       678   7 -6.548384E+00 -1.856436E+01 -2.617509E+00 -2.155780E+01  2.063580E+00 -2.509972E-01
       678   8  6.193646E+00  1.865084E+01  2.640728E+00 -2.149349E+01  2.073253E+00 -6.627311E-02
       679   1 -5.722807E+00  3.676738E+01 -2.157786E+00 -9.891174E+00 -1.996302E+00  2.197236E-01
       679   2  7.270362E+00  7.428992E+01  3.630238E+00 -9.562062E+00 -1.942277E+00  6.058687E-01
       679   3 -5.819547E+00  3.697371E+01 -2.103872E+00 -7.685026E+00  1.482449E+00  1.478625E-02
       679   4  7.235809E+00  7.462816E+01  3.759526E+00 -7.354501E+00  1.536417E+00  2.352700E-01
       679   5 -7.092161E+00  3.601684E+01 -3.290204E+00 -2.142171E+01 -1.555237E+00  2.995862E-01
       679   6  5.667586E+00  7.330596E+01  1.953169E+00 -2.109260E+01 -1.499873E+00  7.187599E-01
       679   7 -7.199717E+00  3.621979E+01 -3.236770E+00 -1.933710E+01  2.056870E+00  9.404050E-02
       679   8  5.623994E+00  7.364260E+01  2.086125E+00 -1.900657E+01  2.112166E+00  3.473013E-01
       680   1 -5.019101E+00  9.246014E+01 -1.612000E+00 -1.607971E+00 -2.173089E+00  1.189956E+00
       680   2  7.873806E+00  1.300631E+02  3.761422E+00 -1.014662E+00 -2.104119E+00  2.399566E+00
       680   3 -5.102967E+00  9.284348E+01 -1.470754E+00 -2.060827E-01  1.461916E+00  6.917979E-01
       680   4  7.837340E+00  1.305424E+02  3.964667E+00  3.924525E-01  1.530675E+00  1.718571E+00
       680   5 -7.671247E+00  9.092358E+01 -4.081715E+00 -1.322343E+01 -1.746233E+00  1.323362E+00
       680   6  4.963229E+00  1.282681E+02  6.887000E-01 -1.263012E+01 -1.672312E+00  2.555992E+00
       680   7 -7.782097E+00  9.129841E+01 -3.941880E+00 -1.193372E+01  2.038635E+00  8.241881E-01
       680   8  4.901746E+00  1.287409E+02  8.951282E-01 -1.133518E+01  2.112308E+00  1.873806E+00
       681   1 -7.505775E+00 -1.288062E+02 -3.429504E+00  1.134666E+00 -2.066195E+00 -4.808776E+00
       681   2  5.237562E+00 -9.180129E+01  2.043367E+00  6.337295E-01 -2.068165E+00 -3.201710E+00
       681   3 -7.712156E+00 -1.293830E+02 -3.732042E+00  1.621176E+00  1.465451E+00 -4.154534E+00
       681   4  5.076770E+00 -9.228434E+01  1.799085E+00  1.114970E+00  1.463692E+00 -2.706226E+00
       681   5 -4.902990E+00 -1.271579E+02 -5.377521E-01 -1.042162E+01 -1.618785E+00 -4.965333E+00
       681   6  7.613160E+00 -9.038012E+01  4.405015E+00 -1.092255E+01 -1.625813E+00 -3.335175E+00
       681   7 -5.086025E+00 -1.277286E+02 -8.436408E-01 -1.004575E+01  2.045694E+00 -4.309914E+00
       681   8  7.477422E+00 -9.085545E+01  4.161369E+00 -1.055196E+01  2.038915E+00 -2.838687E+00
       682   1 -6.924889E+00 -7.384602E+01 -3.109288E+00 -6.021090E+00 -2.056202E+00 -2.284911E+00
       682   2  5.959416E+00 -3.657218E+01  2.564561E+00 -6.249333E+00 -2.050574E+00 -1.387234E+00
       682   3 -7.115704E+00 -7.428472E+01 -3.337262E+00 -4.845654E+00  1.446157E+00 -1.905266E+00
       682   4  5.818318E+00 -3.690746E+01  2.398879E+00 -5.080845E+00  1.452063E+00 -1.165311E+00
       682   5 -5.624224E+00 -7.298022E+01 -1.523958E+00 -1.763832E+01 -1.610375E+00 -2.400488E+00
       682   6  7.034548E+00 -3.593192E+01  3.623645E+00 -1.786656E+01 -1.611416E+00 -1.477033E+00
       682   7 -5.789990E+00 -7.341051E+01 -1.748926E+00 -1.657667E+01  2.023844E+00 -2.019974E+00
       682   8  6.920194E+00 -3.625708E+01  3.464925E+00 -1.681187E+01  2.023132E+00 -1.254435E+00
       683   1 -6.398659E+00 -1.855525E+01 -2.591670E+00 -8.627554E+00 -2.029696E+00 -8.105116E-01
       683   2  6.593761E+00  1.895392E+01  3.207230E+00 -8.566635E+00 -2.027609E+00 -1.325539E-01
       683   3 -6.530821E+00 -1.882516E+01 -2.723024E+00 -7.256788E+00  1.465071E+00 -7.047297E-01
       683   4  6.513430E+00  1.879222E+01  3.140428E+00 -7.201547E+00  1.467386E+00 -1.863524E-01
       683   5 -6.453719E+00 -1.849424E+01 -2.333247E+00 -2.030538E+01 -1.585194E+00 -8.809701E-01
       683   6  6.310569E+00  1.878679E+01  2.933345E+00 -2.024446E+01 -1.588558E+00 -1.759506E-01
       683   7 -6.569455E+00 -1.875775E+01 -2.459682E+00 -1.905015E+01  2.043323E+00 -7.746584E-01
       683   8  6.248378E+00  1.863322E+01  2.875464E+00 -1.899491E+01  2.040228E+00 -2.294228E-01
       684   1 -5.825892E+00  3.706854E+01 -1.958877E+00 -6.452693E+00 -2.061915E+00  4.308936E-01
       684   2  7.213537E+00  7.474785E+01  3.826571E+00 -6.123008E+00 -2.060117E+00  1.292303E+00
       684   3 -5.908888E+00  3.696119E+01 -1.997907E+00 -5.289128E+00  1.463937E+00  2.588191E-01
       684   4  7.171830E+00  7.472378E+01  3.841894E+00 -4.963100E+00  1.465881E+00  9.566728E-01
       684   5 -7.174463E+00  3.634811E+01 -3.011738E+00 -1.818917E+01 -1.614537E+00  4.047781E-01
       684   6  5.630694E+00  7.379315E+01  2.227076E+00 -1.785949E+01 -1.616248E+00  1.286339E+00
       684   7 -7.251630E+00  3.624433E+01 -3.044699E+00 -1.713467E+01  2.049311E+00  2.329000E-01
       684   8  5.596577E+00  7.377441E+01  2.252578E+00 -1.680865E+01  2.047773E+00  9.507538E-01
       685   1 -5.145687E+00  9.299985E+01 -1.358888E+00  4.785245E-01 -2.097708E+00  2.170213E+00
       685   2  7.919811E+00  1.308449E+02  4.347707E+00  1.077614E+00 -2.085095E+00  3.707297E+00
       685   3 -5.241788E+00  9.298332E+01 -1.344957E+00  9.500386E-01  1.481150E+00  1.712852E+00
       685   4  7.840641E+00  1.308543E+02  4.392124E+00  1.545507E+00  1.493908E+00  3.080918E+00
       685   5 -7.801517E+00  9.148545E+01 -3.751046E+00 -1.132449E+01 -1.649487E+00  2.173209E+00
       685   6  5.020890E+00  1.290874E+02  1.388339E+00 -1.072540E+01 -1.640349E+00  3.714623E+00
       685   7 -7.895638E+00  9.147260E+01 -3.726838E+00 -1.094672E+01  2.073344E+00  1.715826E+00
       685   8  4.945529E+00  1.291024E+02  1.447298E+00 -1.035125E+01  2.082653E+00  3.088189E+00
       686   1 -7.601235E+00 -1.295818E+02 -3.338349E+00  1.896700E+00 -2.037883E+00 -4.572306E+00
       686   2  5.232122E+00 -9.240506E+01  2.262780E+00  1.385769E+00 -2.050423E+00 -3.305337E+00
       686   3 -7.834622E+00 -1.302902E+02 -3.694291E+00  2.165813E+00  1.496961E+00 -3.860851E+00
       686   4  5.041453E+00 -9.302686E+01  1.962591E+00  1.647267E+00  1.484726E+00 -2.757134E+00
       686   5 -4.849600E+00 -1.278164E+02 -2.053375E-01 -9.850697E+00 -1.592450E+00 -4.771131E+00
       686   6  7.746935E+00 -9.087649E+01  4.843205E+00 -1.036163E+01 -1.612395E+00 -3.482809E+00
       686   7 -5.051776E+00 -1.285158E+02 -5.624047E-01 -9.690784E+00  2.085663E+00 -4.058200E+00
       686   8  7.589233E+00 -9.148751E+01  4.545991E+00 -1.020933E+01  2.066079E+00 -2.933288E+00
       687   1 -6.988247E+00 -7.438004E+01 -2.877261E+00 -4.197286E+00 -2.087434E+00 -2.506499E+00
       687   2  5.951682E+00 -3.695723E+01  2.833025E+00 -4.437645E+00 -2.093221E+00 -1.590999E+00
       687   3 -7.206408E+00 -7.495805E+01 -3.160226E+00 -3.598437E+00  1.446878E+00 -2.077204E+00
       687   4  5.784122E+00 -3.743006E+01  2.613546E+00 -3.845966E+00  1.441379E+00 -1.323319E+00
       687   5 -5.559804E+00 -7.341556E+01 -1.090762E+00 -1.601201E+01 -1.648969E+00 -2.666441E+00
       687   6  7.146003E+00 -3.622687E+01  4.073236E+00 -1.625237E+01 -1.661728E+00 -1.724405E+00
       687   7 -5.752066E+00 -7.398509E+01 -1.371344E+00 -1.552804E+01  2.026949E+00 -2.235960E+00
       687   8  7.006079E+00 -3.668948E+01  3.860196E+00 -1.577557E+01  2.014530E+00 -1.455735E+00
       688   1 -6.423379E+00 -1.885586E+01 -2.324957E+00 -6.490894E+00 -2.091127E+00 -9.764905E-01
       688   2  6.620714E+00  1.880090E+01  3.498598E+00 -6.439400E+00 -2.094818E+00 -2.131222E-01
       688   3 -6.603065E+00 -1.927430E+01 -2.519538E+00 -5.766288E+00  1.439586E+00 -8.266816E-01
       688   4  6.489369E+00  1.848245E+01  3.365153E+00 -5.719363E+00  1.436079E+00 -2.237291E-01
       688   5 -6.385718E+00 -1.871880E+01 -1.905754E+00 -1.836824E+01 -1.651938E+00 -1.090991E+00
       688   6  6.425915E+00  1.870549E+01  3.375394E+00 -1.831675E+01 -1.660072E+00 -3.025078E-01
       688   7 -6.552725E+00 -1.913271E+01 -2.097893E+00 -1.775757E+01  2.019444E+00 -9.403327E-01
       688   8  6.308973E+00  1.839331E+01  3.248416E+00 -1.771065E+01  2.011527E+00 -3.124513E-01
       689   1 -5.825685E+00  3.698783E+01 -1.661772E+00 -4.646320E+00 -2.085844E+00  3.830747E-01
       689   2  7.273481E+00  7.479618E+01  4.193759E+00 -4.322697E+00 -2.086933E+00  1.248546E+00
       689   3 -5.974189E+00  3.671016E+01 -1.775981E+00 -4.050809E+00  1.457423E+00  2.554213E-01
       689   4  7.159080E+00  7.458535E+01  4.126395E+00 -3.730108E+00  1.456451E+00  9.615321E-01
       689   5 -7.109548E+00  3.632865E+01 -2.575171E+00 -1.657025E+01 -1.636640E+00  3.087065E-01
       689   6  5.758141E+00  7.390553E+01  2.740250E+00 -1.624663E+01 -1.640571E+00  1.190091E+00
       689   7 -7.254866E+00  3.605316E+01 -2.685318E+00 -1.607982E+01  2.046821E+00  1.816051E-01
       689   8  5.648646E+00  7.369859E+01  2.680956E+00 -1.575912E+01  2.043028E+00  9.035110E-01
       690   1 -5.158392E+00  9.307831E+01 -9.531422E-01  1.217507E+00 -2.052692E+00  1.995903E+00
       690   2  7.991849E+00  1.310236E+02  4.935695E+00  1.810081E+00 -2.047313E+00  3.172247E+00
       690   3 -5.314881E+00  9.287507E+01 -1.018766E+00  1.479612E+00  1.500295E+00  1.592747E+00
       690   4  7.851354E+00  1.308450E+02  4.898732E+00  2.067905E+00  1.505846E+00  2.611146E+00
       690   5 -7.751199E+00  9.162934E+01 -3.190241E+00 -1.074786E+01 -1.594175E+00  1.944814E+00
       690   6  5.168926E+00  1.293445E+02  2.161660E+00 -1.015529E+01 -1.592959E+00  3.125369E+00
       690   7 -7.903698E+00  9.143031E+01 -3.245798E+00 -1.057944E+01  2.098249E+00  1.542037E+00
       690   8  5.034130E+00  1.291719E+02  2.138750E+00 -9.991150E+00  2.099667E+00  2.564615E+00
       691   1 -7.690754E+00 -1.304801E+02 -3.231581E+00  2.319147E+00 -2.030857E+00 -3.258886E+00
       691   2  5.189327E+00 -9.318125E+01  2.403164E+00  1.795717E+00 -2.041965E+00 -2.438831E+00
       691   3 -7.902914E+00 -1.311294E+02 -3.567858E+00  2.471781E+00  1.533092E+00 -2.505578E+00
       691   4  5.018603E+00 -9.374699E+01  2.121448E+00  1.942608E+00  1.522214E+00 -1.849861E+00
       691   5 -4.797914E+00 -1.286107E+02  1.068689E-01 -9.617266E+00 -1.580384E+00 -3.442510E+00
       691   6  7.840642E+00 -9.155339E+01  5.178054E+00 -1.014070E+01 -1.597150E+00 -2.601714E+00
       691   7 -4.985125E+00 -1.292539E+02 -2.340956E-01 -9.573493E+00  2.134024E+00 -2.687857E+00
       691   8  7.696637E+00 -9.211128E+01  4.895781E+00 -1.010267E+01  2.117530E+00 -2.011550E+00
       692   1 -7.083707E+00 -7.509404E+01 -2.744789E+00 -3.269945E+00 -2.084454E+00 -1.898834E+00
       692   2  5.919188E+00 -3.751479E+01  3.018939E+00 -3.522118E+00 -2.099738E+00 -1.243591E+00
       692   3 -7.244986E+00 -7.560257E+01 -2.994055E+00 -2.968536E+00  1.476926E+00 -1.429860E+00
       692   4  5.806472E+00 -3.792304E+01  2.831281E+00 -3.226243E+00  1.461865E+00 -9.381135E-01
       692   5 -5.536811E+00 -7.404022E+01 -7.789359E-01 -1.528339E+01 -1.640771E+00 -2.044805E+00
       692   6  7.226084E+00 -3.670097E+01  4.424794E+00 -1.553556E+01 -1.661504E+00 -1.364098E+00
       692   7 -5.677658E+00 -7.454285E+01 -1.028993E+00 -1.509613E+01  2.070144E+00 -1.574761E+00
       692   8  7.135560E+00 -3.710156E+01  4.240448E+00 -1.535384E+01  2.049673E+00 -1.057738E+00
       693   1 -6.502488E+00 -1.933927E+01 -2.134072E+00 -5.371294E+00 -2.110820E+00 -7.918498E-01
       693   2  6.610023E+00  1.847452E+01  3.760504E+00 -5.326828E+00 -2.115632E+00 -2.129144E-01
       693   3 -6.658701E+00 -1.970927E+01 -2.311017E+00 -5.013987E+00  1.440662E+00 -6.048539E-01
       693   4  6.500406E+00  1.820047E+01  3.642937E+00 -4.971694E+00  1.435938E+00 -1.861183E-01
       693   5 -6.384552E+00 -1.913439E+01 -1.569076E+00 -1.744580E+01 -1.666030E+00 -8.941428E-01
       693   6  6.492760E+00  1.844421E+01  3.776704E+00 -1.740133E+01 -1.672983E+00 -2.909080E-01
       693   7 -6.536376E+00 -1.950364E+01 -1.747910E+00 -1.720193E+01  2.031916E+00 -7.063973E-01
       693   8  6.389256E+00  1.817262E+01  3.661270E+00 -1.715964E+01  2.025067E+00 -2.635404E-01
       694   1 -5.882759E+00  3.672097E+01 -1.386899E+00 -3.723213E+00 -2.086061E+00  2.237669E-01
       694   2  7.271823E+00  7.464226E+01  4.540419E+00 -3.403765E+00 -2.080797E+00  8.378673E-01
       694   3 -6.036193E+00  3.647619E+01 -1.496809E+00 -3.420986E+00  1.470834E+00  1.347636E-01
       694   4  7.153975E+00  7.446803E+01  4.478577E+00 -3.102065E+00  1.476118E+00  5.926935E-01
       694   5 -7.111092E+00  3.611725E+01 -2.170975E+00 -1.582970E+01 -1.629289E+00  1.609699E-01
       694   6  5.813818E+00  7.380887E+01  3.220442E+00 -1.551025E+01 -1.624545E+00  7.922886E-01
       694   7 -7.269788E+00  3.587078E+01 -2.281251E+00 -1.563407E+01  2.070519E+00  7.242669E-02
       694   8  5.692392E+00  7.363463E+01  3.162160E+00 -1.531515E+01  2.075288E+00  5.474489E-01
       695   1 -5.216305E+00  9.294826E+01 -5.938968E-01  1.629761E+00 -2.032098E+00  1.337175E+00
       695   2  7.971942E+00  1.309517E+02  5.363443E+00  2.215357E+00 -2.031347E+00  2.087208E+00
       695   3 -5.333158E+00  9.280846E+01 -6.333668E-01  1.780560E+00  1.527201E+00  9.790652E-01
       695   4  7.881239E+00  1.308608E+02  5.362320E+00  2.363058E+00  1.528077E+00  1.576722E+00
       695   5 -7.751216E+00  9.155835E+01 -2.692002E+00 -1.050045E+01 -1.564768E+00  1.301984E+00
       695   6  5.212600E+00  1.293374E+02  2.741666E+00 -9.914853E+00 -1.567067E+00  2.063181E+00
       695   7 -7.868291E+00  9.142068E+01 -2.724153E+00 -1.045036E+01  2.134055E+00  9.441329E-01
       695   8  5.123320E+00  1.292502E+02  2.751699E+00 -9.867865E+00  2.131903E+00  1.552871E+00
       696   1 -7.745010E+00 -1.312596E+02 -3.154783E+00  2.556208E+00 -2.006615E+00 -1.370899E+00
       696   2  5.133154E+00 -9.388900E+01  2.401794E+00  2.023416E+00 -2.029867E+00 -1.045438E+00
       696   3 -7.831532E+00 -1.316973E+02 -3.392381E+00  2.637038E+00  1.618136E+00 -5.959160E-01
       696   4  5.089700E+00 -9.423951E+01  2.220578E+00  2.100089E+00  1.595051E+00 -4.371698E-01
       696   5 -4.747079E+00 -1.293168E+02  3.234551E-01 -9.569310E+00 -1.549372E+00 -1.501496E+00
       696   6  7.882997E+00 -9.219424E+01  5.301161E+00 -1.010210E+01 -1.576770E+00 -1.154037E+00
       696   7 -4.813967E+00 -1.297508E+02  7.840200E-02 -9.598849E+00  2.234292E+00 -7.255678E-01
       696   8  7.860972E+00 -9.253930E+01  5.116678E+00 -1.013580E+01  2.207091E+00 -5.449834E-01
       697   1 -7.185178E+00 -7.574522E+01 -2.769348E+00 -2.814924E+00 -2.094484E+00 -8.255014E-01
       697   2  5.899310E+00 -3.799598E+01  3.096378E+00 -3.075168E+00 -2.095609E+00 -5.500852E-01
       697   3 -7.311713E+00 -7.607876E+01 -2.957875E+00 -2.693889E+00  1.479111E+00 -3.379077E-01
       697   4  5.818928E+00 -3.823484E+01  2.967010E+00 -2.955569E+00  1.478043E+00 -2.254647E-01
       697   5 -5.559366E+00 -7.463476E+01 -6.936417E-01 -1.502573E+01 -1.643253E+00 -9.171907E-01
       697   6  7.282766E+00 -3.712788E+01  4.606585E+00 -1.528597E+01 -1.645811E+00 -6.175728E-01
       697   7 -5.679550E+00 -7.496857E+01 -8.894244E-01 -1.501789E+01  2.085480E+00 -4.289336E-01
       697   8  7.210489E+00 -3.736526E+01  4.474053E+00 -1.527957E+01  2.082990E+00 -2.924639E-01
       698   1 -6.592288E+00 -1.975785E+01 -2.053002E+00 -4.834018E+00 -2.113210E+00 -3.573157E-01
       698   2  6.577836E+00  1.819853E+01  3.891028E+00 -4.792324E+00 -2.115623E+00 -1.060757E-01
       698   3 -6.677010E+00 -1.994405E+01 -2.155622E+00 -4.696936E+00  1.464279E+00 -1.508015E-01
       698   4  6.538678E+00  1.810590E+01  3.846716E+00 -4.654734E+00  1.461845E+00 -5.926086E-02
       698   5 -6.430826E+00 -1.951383E+01 -1.401041E+00 -1.710498E+01 -1.659875E+00 -4.071817E-01
       698   6  6.501823E+00  1.820508E+01  3.988881E+00 -1.706329E+01 -1.661781E+00 -1.320006E-01
       698   7 -6.520590E+00 -1.970345E+01 -1.510039E+00 -1.708127E+01  2.069539E+00 -2.003067E-01
       698   8  6.459341E+00  1.811075E+01  3.942201E+00 -1.703907E+01  2.067608E+00 -8.499823E-02
       699   1 -5.980269E+00  3.649828E+01 -1.248145E+00 -3.266415E+00 -2.087167E+00  8.012755E-02
       699   2  7.246371E+00  7.455467E+01  4.784263E+00 -2.947454E+00 -2.091469E+00  3.376042E-01
       699   3 -6.020283E+00  3.645611E+01 -1.265674E+00 -3.143685E+00  1.474682E+00  1.223666E-02
       699   4  7.246819E+00  7.459464E+01  4.819466E+00 -2.824097E+00  1.470354E+00  1.160309E-01
       699   5 -7.187771E+00  3.592241E+01 -1.960203E+00 -1.555891E+01 -1.624824E+00  7.057305E-02
       699   6  5.810206E+00  7.375014E+01  3.538657E+00 -1.523995E+01 -1.628501E+00  3.488335E-01
       699   7 -7.237291E+00  3.587659E+01 -1.980399E+00 -1.554655E+01  2.083127E+00  2.751292E-03
       699   8  5.802802E+00  7.378811E+01  3.575055E+00 -1.522697E+01  2.079420E+00  1.271790E-01
       700   1 -5.284865E+00  9.289651E+01 -3.606426E-01  1.863716E+00 -2.021632E+00  5.395167E-01
       700   2  7.899955E+00  1.309427E+02  5.542563E+00  2.445061E+00 -2.006243E+00  8.336754E-01
       700   3 -5.360734E+00  9.295097E+01 -3.323729E-01  1.942738E+00  1.584165E+00  2.060545E-01
       700   4  7.864137E+00  1.310785E+02  5.623020E+00  2.524001E+00  1.599558E+00  3.482094E-01
       700   5 -7.796800E+00  9.153580E+01 -2.384395E+00 -1.044444E+01 -1.551319E+00  5.658853E-01
       700   6  5.161856E+00  1.293558E+02  2.991093E+00 -9.863091E+00 -1.536012E+00  8.806212E-01
       700   7 -7.883465E+00  9.158769E+01 -2.353899E+00 -1.047569E+01  2.198961E+00  2.322323E-01
       700   8  5.116877E+00  1.294907E+02  3.077595E+00 -9.894431E+00  2.214272E+00  3.948155E-01
       701   1 -7.994806E+00 -1.367913E+02 -3.443904E+00 -6.787024E-01 -2.263546E+00 -2.958165E+00
       701   2  5.402373E+00 -9.764497E+01  2.066993E+00 -1.134037E+00 -2.285984E+00 -1.731908E+00
       701   3 -8.005945E+00 -1.370622E+02 -3.612350E+00  7.776465E-01  1.502704E+00 -2.341195E+00
       701   4  5.430476E+00 -9.784036E+01  1.953863E+00  3.211914E-01  1.480325E+00 -1.268573E+00
       701   5 -5.626036E+00 -1.352787E+02 -7.706318E-01 -1.278265E+01 -1.605159E+00 -3.037234E+00
       701   6  7.554178E+00 -9.634932E+01  4.234014E+00 -1.323798E+01 -1.628659E+00 -1.793807E+00
       701   7 -5.628588E+00 -1.355497E+02 -9.480302E-01 -1.143639E+01  2.281482E+00 -2.419662E+00
       701   8  7.592522E+00 -9.654317E+01  4.115789E+00 -1.189284E+01  2.258049E+00 -1.330000E+00
       702   1 -7.764367E+00 -7.861236E+01 -3.566531E+00 -9.234774E+00 -2.110516E+00 -1.136550E+00
       702   2  6.073966E+00 -3.867163E+01  2.620519E+00 -9.342427E+00 -2.144267E+00 -7.362604E-01
       702   3 -7.729535E+00 -7.875729E+01 -3.647109E+00 -6.974038E+00  1.538880E+00 -7.864943E-01
       702   4  6.154777E+00 -3.872556E+01  2.602205E+00 -7.091590E+00  1.505651E+00 -5.420547E-01
       702   5 -6.916465E+00 -7.796687E+01 -2.262824E+00 -2.150475E+01 -1.450309E+00 -1.184359E+00
       702   6  6.702082E+00 -3.824593E+01  3.411394E+00 -2.161240E+01 -1.493436E+00 -7.627426E-01
       702   7 -6.849856E+00 -7.810034E+01 -2.336946E+00 -1.935953E+01  2.321448E+00 -8.339387E-01
       702   8  6.816345E+00 -3.828672E+01  3.403441E+00 -1.947709E+01  2.278913E+00 -5.683352E-01
       703   1 -7.104210E+00 -1.941754E+01 -2.869752E+00 -1.187140E+01 -2.161105E+00 -4.757218E-01
       703   2  6.706203E+00  2.052442E+01  3.223006E+00 -1.165173E+01 -2.165639E+00 -1.642074E-01
       703   3 -7.144571E+00 -1.945661E+01 -2.904289E+00 -9.568404E+00  1.523886E+00 -3.971692E-01
       703   4  6.732948E+00  2.062526E+01  3.272231E+00 -9.363767E+00  1.520143E+00 -2.457744E-01
       703   5 -7.715880E+00 -1.961617E+01 -2.920185E+00 -2.415507E+01 -1.493789E+00 -4.817731E-01
       703   6  5.869721E+00  2.010097E+01  2.648011E+00 -2.393540E+01 -1.512564E+00 -1.357666E-01
       703   7 -7.712796E+00 -1.963711E+01 -2.937715E+00 -2.198087E+01  2.317243E+00 -4.031744E-01
       703   8  5.941622E+00  2.022167E+01  2.718238E+00 -2.177623E+01  2.299369E+00 -2.175503E-01
       704   1 -6.290460E+00  3.989083E+01 -2.220229E+00 -9.352047E+00 -2.185844E+00  8.244032E-02
       704   2  7.552032E+00  7.992766E+01  3.884580E+00 -8.919466E+00 -2.138425E+00  4.447800E-01
       704   3 -6.427459E+00  4.001836E+01 -2.196112E+00 -7.159943E+00  1.512236E+00 -1.177764E-01
       704   4  7.504529E+00  8.024703E+01  4.015179E+00 -6.736768E+00  1.560150E+00  8.052588E-02
       704   5 -7.993737E+00  3.900092E+01 -3.483295E+00 -2.166524E+01 -1.508868E+00  1.412499E-01
       704   6  5.619480E+00  7.880848E+01  2.086538E+00 -2.123266E+01 -1.470360E+00  5.520665E-01
       704   7 -8.108344E+00  3.913928E+01 -3.445520E+00 -1.961614E+01  2.318650E+00 -5.941489E-02
       704   8  5.596115E+00  7.914042E+01  2.234871E+00 -1.919297E+01  2.357721E+00  1.869951E-01
       705   1 -5.503690E+00  9.945286E+01 -1.718125E+00 -1.098018E+00 -2.395163E+00  9.940835E-01
       705   2  8.361825E+00  1.399214E+02  4.031722E+00 -4.615252E-01 -2.322269E+00  2.132469E+00
       705   3 -5.628500E+00  9.981970E+01 -1.578878E+00  2.953429E-01  1.492538E+00  4.998735E-01
       705   4  8.282545E+00  1.403745E+02  4.236496E+00  9.298724E-01  1.565535E+00  1.447250E+00
       705   5 -8.289927E+00  9.786341E+01 -4.230058E+00 -1.360332E+01 -1.732569E+00  1.126172E+00
       705   6  5.305679E+00  1.380620E+02  8.900018E-01 -1.296683E+01 -1.661535E+00  2.283841E+00
       705   7 -8.419036E+00  9.823142E+01 -4.082614E+00 -1.232525E+01  2.311745E+00  6.309558E-01
       705   8  5.224156E+00  1.385183E+02  1.107771E+00 -1.169072E+01  2.382897E+00  1.597469E+00
       706   1 -7.862480E+00 -1.372482E+02 -3.221125E+00  1.490922E+00 -2.254224E+00 -5.138915E+00
       706   2  5.653139E+00 -9.791131E+01  2.494053E+00  1.029330E+00 -2.269566E+00 -3.520651E+00
       706   3 -8.194763E+00 -1.382167E+02 -3.703752E+00  1.986376E+00  1.498948E+00 -4.449308E+00
       706   4  5.379860E+00 -9.875946E+01  2.087720E+00  1.511990E+00  1.484279E+00 -2.996889E+00
       706   5 -5.351637E+00 -1.356168E+02 -2.940403E-01 -1.080829E+01 -1.617563E+00 -5.406224E+00
       706   6  7.927528E+00 -9.651638E+01  4.869411E+00 -1.126988E+01 -1.645185E+00 -3.758501E+00
       706   7 -5.636588E+00 -1.365692E+02 -7.702983E-01 -1.043546E+01  2.273087E+00 -4.714607E+00
       706   8  7.703358E+00 -9.734665E+01  4.473595E+00 -1.090985E+01  2.246231E+00 -3.232950E+00
       707   1 -7.526751E+00 -7.879733E+01 -3.117350E+00 -5.721975E+00 -2.255860E+00 -2.594843E+00
       707   2  6.319759E+00 -3.875516E+01  2.995517E+00 -5.847387E+00 -2.268545E+00 -1.683750E+00
       707   3 -7.821380E+00 -7.957205E+01 -3.491875E+00 -4.558741E+00  1.465467E+00 -2.190742E+00
       707   4  6.102433E+00 -3.936623E+01  2.715014E+00 -4.695713E+00  1.453391E+00 -1.440728E+00
       707   5 -6.543511E+00 -7.805303E+01 -1.619605E+00 -1.819952E+01 -1.632577E+00 -2.806742E+00
       707   6  7.074353E+00 -3.823951E+01  3.959753E+00 -1.832493E+01 -1.656357E+00 -1.854208E+00
       707   7 -6.800385E+00 -7.881400E+01 -1.986041E+00 -1.717224E+01  2.221237E+00 -2.401048E+00
       707   8  6.896500E+00 -3.883511E+01  3.691349E+00 -1.730921E+01  2.198148E+00 -1.609904E+00
       708   1 -7.059932E+00 -1.948541E+01 -2.590028E+00 -8.232660E+00 -2.236904E+00 -1.104328E+00
       708   2  6.845027E+00  2.067783E+01  3.596600E+00 -8.037868E+00 -2.253137E+00 -4.324084E-01
       708   3 -7.270549E+00 -2.000429E+01 -2.825021E+00 -6.883051E+00  1.479460E+00 -9.785715E-01
       708   4  6.702698E+00  2.030172E+01  3.446459E+00 -6.700156E+00  1.463854E+00 -4.659500E-01
       708   5 -7.539586E+00 -1.959393E+01 -2.472102E+00 -2.074003E+01 -1.603422E+00 -1.246532E+00
       708   6  6.138842E+00  2.034278E+01  3.185950E+00 -2.054524E+01 -1.631074E+00 -5.388658E-01
       708   7 -7.716430E+00 -2.009906E+01 -2.695053E+00 -1.952091E+01  2.244389E+00 -1.119707E+00
       708   8  6.031988E+00  1.998212E+01  3.051825E+00 -1.933802E+01  2.217448E+00 -5.716071E-01
       709   1 -6.409658E+00  4.007547E+01 -1.939182E+00 -5.940538E+00 -2.269521E+00  1.122371E-01
       709   2  7.514657E+00  8.035406E+01  4.196618E+00 -5.525489E+00 -2.281269E+00  9.283169E-01
       709   3 -6.563442E+00  3.976765E+01 -2.056422E+00 -4.797915E+00  1.485109E+00 -3.839157E-02
       709   4  7.415051E+00  8.015589E+01  4.150310E+00 -4.395628E+00  1.474033E+00  6.170984E-01
       709   5 -8.017009E+00  3.925891E+01 -3.053717E+00 -1.849363E+01 -1.618611E+00  2.861056E-02
       709   6  5.678194E+00  7.930838E+01  2.547487E+00 -1.807858E+01 -1.642608E+00  8.713184E-01
       709   7 -8.136724E+00  3.896664E+01 -3.153155E+00 -1.747272E+01  2.269621E+00 -1.213894E-01
       709   8  5.614379E+00  7.912750E+01  2.522999E+00 -1.707044E+01  2.246388E+00  5.605283E-01
       710   1 -5.647740E+00  9.996559E+01 -1.338898E+00  9.761066E-01 -2.304300E+00  1.746681E+00
       710   2  8.406216E+00  1.406690E+02  4.804255E+00  1.605687E+00 -2.301985E+00  3.166414E+00
       710   3 -5.818205E+00  9.975861E+01 -1.392838E+00  1.445960E+00  1.514704E+00  1.316303E+00
       710   4  8.230441E+00  1.404321E+02  4.762441E+00  2.064079E+00  1.517621E+00  2.571074E+00
       710   5 -8.370640E+00  9.844222E+01 -3.693902E+00 -1.171757E+01 -1.636309E+00  1.695123E+00
       710   6  5.444877E+00  1.389071E+02  1.892894E+00 -1.108799E+01 -1.644995E+00  3.103090E+00
       710   7 -8.513815E+00  9.824961E+01 -3.727215E+00 -1.133210E+01  2.322956E+00  1.265132E+00
       710   8  5.298186E+00  1.386865E+02  1.875890E+00 -1.071398E+01  2.314955E+00  2.508226E+00
       711   1 -7.982897E+00 -1.385111E+02 -3.000384E+00  2.262981E+00 -2.248654E+00 -4.914737E+00
       711   2  5.621960E+00 -9.898359E+01  2.821609E+00  1.779203E+00 -2.277246E+00 -3.652511E+00
       711   3 -8.330641E+00 -1.396049E+02 -3.534277E+00  2.526291E+00  1.526556E+00 -4.156766E+00
       711   4  5.323565E+00 -9.997989E+01  2.354753E+00  2.029648E+00  1.498641E+00 -3.063819E+00
       711   5 -5.267657E+00 -1.367297E+02  2.224175E-01 -1.024654E+01 -1.619312E+00 -5.224869E+00
       711   6  8.092147E+00 -9.744723E+01  5.472618E+00 -1.073032E+01 -1.660413E+00 -3.939254E+00
       711   7 -5.567419E+00 -1.378075E+02 -3.061963E-01 -1.010017E+01  2.303333E+00 -4.464596E+00
       711   8  7.843552E+00 -9.842573E+01  5.015286E+00 -1.059681E+01  2.263001E+00 -3.348434E+00
       712   1 -7.622296E+00 -7.976841E+01 -2.789229E+00 -3.925537E+00 -2.318908E+00 -2.851797E+00
       712   2  6.308128E+00 -3.949083E+01  3.367940E+00 -4.069396E+00 -2.341643E+00 -1.926431E+00
       712   3 -7.955873E+00 -8.070126E+01 -3.230968E+00 -3.355774E+00  1.452509E+00 -2.386005E+00
       712   4  6.056192E+00 -4.025046E+01  3.025117E+00 -3.506933E+00  1.430159E+00 -1.627126E+00
       712   5 -6.477643E+00 -7.890144E+01 -1.044002E+00 -1.663990E+01 -1.710230E+00 -3.113681E+00
       712   6  7.213467E+00 -3.886318E+01  4.554768E+00 -1.678376E+01 -1.740064E+00 -2.143791E+00
       712   7 -6.787630E+00 -7.982697E+01 -1.484944E+00 -1.620974E+01  2.204934E+00 -2.645945E+00
       712   8  6.986897E+00 -3.961372E+01  4.216886E+00 -1.636090E+01  2.175537E+00 -1.842873E+00
       713   1 -7.107250E+00 -2.010250E+01 -2.229236E+00 -6.133961E+00 -2.325320E+00 -1.311255E+00
       713   2  6.865544E+00  2.025611E+01  3.988129E+00 -5.957498E+00 -2.343370E+00 -5.559295E-01
       713   3 -7.380787E+00 -2.078131E+01 -2.538153E+00 -5.434049E+00  1.439232E+00 -1.131445E+00
       713   4  6.657379E+00  1.971319E+01  3.761232E+00 -5.263326E+00  1.421483E+00 -5.360969E-01
       713   5 -7.455967E+00 -2.011060E+01 -1.907499E+00 -1.886698E+01 -1.702515E+00 -1.499769E+00
       713   6  6.286202E+00  2.001739E+01  3.771741E+00 -1.869052E+01 -1.726146E+00 -7.101613E-01
       713   7 -7.716265E+00 -2.078478E+01 -2.214238E+00 -1.829657E+01  2.200271E+00 -1.318561E+00
       713   8  6.092988E+00  1.948081E+01  3.551014E+00 -1.812585E+01  2.176983E+00 -6.891839E-01
       714   1 -6.434576E+00  3.974561E+01 -1.542942E+00 -4.166817E+00 -2.305937E+00  2.016527E-02
       714   2  7.571408E+00  8.019701E+01  4.692262E+00 -3.772109E+00 -2.317308E+00  8.387603E-01
       714   3 -6.666427E+00  3.925656E+01 -1.745203E+00 -3.582383E+00  1.468955E+00 -7.491620E-02
       714   4  7.383209E+00  7.979373E+01  4.549748E+00 -3.195668E+00  1.458005E+00  5.897047E-01
       714   5 -7.917174E+00  3.902491E+01 -2.462676E+00 -1.692860E+01 -1.655116E+00 -1.140246E-01
       714   6  5.865848E+00  7.925335E+01  3.252287E+00 -1.653389E+01 -1.674258E+00  7.250430E-01
       714   7 -8.130687E+00  3.854435E+01 -2.654967E+00 -1.646007E+01  2.253267E+00 -2.081101E-01
       714   8  5.697643E+00  7.886022E+01  3.123603E+00 -1.607336E+01  2.234603E+00  4.768314E-01
       715   1 -5.680101E+00  9.982094E+01 -7.949907E-01  1.714968E+00 -2.253999E+00  1.530052E+00
       715   2  8.443384E+00  1.405545E+02  5.549750E+00  2.325406E+00 -2.258597E+00  2.600101E+00
       715   3 -5.915946E+00  9.941578E+01 -9.373419E-01  1.982849E+00  1.528074E+00  1.171008E+00
       715   4  8.207061E+00  1.401327E+02  5.422392E+00  2.583742E+00  1.523978E+00  2.094536E+00
       715   5 -8.274450E+00  9.840490E+01 -2.920747E+00 -1.112627E+01 -1.572453E+00  1.420962E+00
       715   6  5.634712E+00  1.389241E+02  2.923905E+00 -1.051583E+01 -1.586332E+00  2.483179E+00
       715   7 -8.489282E+00  9.801101E+01 -3.046567E+00 -1.094658E+01  2.337791E+00  1.062727E+00
       715   8  5.420993E+00  1.385152E+02  2.816791E+00 -1.034569E+01  2.324484E+00  1.978483E+00
       716   1 -8.106368E+00 -1.398851E+02 -2.834130E+00  2.676536E+00 -2.245150E+00 -3.491742E+00
       716   2  5.544725E+00 -1.002312E+02  3.015689E+00  2.172278E+00 -2.267824E+00 -2.686137E+00
       716   3 -8.396387E+00 -1.408083E+02 -3.304163E+00  2.826525E+00  1.569152E+00 -2.702872E+00
       716   4  5.296968E+00 -1.010730E+02  2.605013E+00  2.314280E+00  1.546898E+00 -2.060659E+00
       716   5 -5.236334E+00 -1.380010E+02  5.760596E-01 -1.003414E+01 -1.600009E+00 -3.755099E+00
       716   6  8.174908E+00 -9.858703E+01  5.866228E+00 -1.053840E+01 -1.630550E+00 -2.930163E+00
       716   7 -5.494473E+00 -1.389154E+02  1.037148E-01 -9.997304E+00  2.362358E+00 -2.964299E+00
       716   8  7.960789E+00 -9.941815E+01  5.457340E+00 -1.050955E+01  2.332296E+00 -2.302897E+00
       717   1 -7.775457E+00 -8.093169E+01 -2.611521E+00 -3.045358E+00 -2.317400E+00 -2.151433E+00
       717   2  6.255561E+00 -4.039807E+01  3.624915E+00 -3.200080E+00 -2.345895E+00 -1.496201E+00
       717   3 -8.024236E+00 -8.170455E+01 -2.985473E+00 -2.764313E+00  1.493881E+00 -1.646695E+00
       717   4  6.082013E+00 -4.101269E+01  3.343492E+00 -2.921516E+00  1.465516E+00 -1.157938E+00
       717   5 -6.517924E+00 -7.997668E+01 -6.856950E-01 -1.600038E+01 -1.689432E+00 -2.373421E+00
       717   6  7.270390E+00 -3.968576E+01  4.984430E+00 -1.615511E+01 -1.720371E+00 -1.677312E+00
       717   7 -6.759577E+00 -8.074954E+01 -1.066755E+00 -1.585584E+01  2.271862E+00 -1.867057E+00
       717   8  7.105745E+00 -4.029860E+01  4.700048E+00 -1.601304E+01  2.241071E+00 -1.337722E+00
       718   1 -7.234446E+00 -2.090144E+01 -1.974031E+00 -5.052176E+00 -2.346610E+00 -1.047513E+00
       718   2  6.825872E+00  1.966502E+01  4.327236E+00 -4.883514E+00 -2.360538E+00 -4.769103E-01
       718   3 -7.468466E+00 -2.145895E+01 -2.240342E+00 -4.706143E+00  1.447934E+00 -8.284691E-01
       718   4  6.653493E+00  1.923475E+01  4.139148E+00 -4.537433E+00  1.434004E+00 -4.170990E-01
       718   5 -7.500159E+00 -2.083737E+01 -1.494755E+00 -1.800893E+01 -1.706147E+00 -1.201838E+00
       718   6  6.327477E+00  1.949640E+01  4.263587E+00 -1.784027E+01 -1.720026E+00 -5.989296E-01
       718   7 -7.740888E+00 -2.139906E+01 -1.768288E+00 -1.779084E+01  2.231870E+00 -9.816629E-01
       718   8  6.150093E+00  1.906366E+01  4.072256E+00 -1.762213E+01  2.217987E+00 -5.382243E-01
       719   1 -6.536091E+00  3.923225E+01 -1.191261E+00 -3.257317E+00 -2.304868E+00 -5.590068E-02
       719   2  7.540501E+00  7.982839E+01  5.134573E+00 -2.874462E+00 -2.304425E+00  5.237157E-01
       719   3 -6.758923E+00  3.884343E+01 -1.366698E+00 -2.951103E+00  1.487133E+00 -1.093410E-01
       719   4  7.363423E+00  7.953064E+01  5.020576E+00 -2.570859E+00  1.487713E+00  3.200994E-01
       719   5 -7.933125E+00  3.858381E+01 -1.955711E+00 -1.622062E+01 -1.636377E+00 -1.579269E-01
       719   6  5.923376E+00  7.895986E+01  3.856579E+00 -1.583777E+01 -1.638505E+00  4.440065E-01
       719   7 -8.155991E+00  3.819533E+01 -2.129948E+00 -1.603241E+01  2.290921E+00 -2.106197E-01
       719   8  5.747877E+00  7.866407E+01  3.747544E+00 -1.565217E+01  2.288949E+00  2.409743E-01
       720   1 -5.771051E+00  9.946494E+01 -3.364542E-01  2.140712E+00 -2.230871E+00  9.840248E-01
       720   2  8.370443E+00  1.401965E+02  6.070269E+00  2.735780E+00 -2.237068E+00  1.661996E+00
       720   3 -5.941782E+00  9.920115E+01 -4.239823E-01  2.306583E+00  1.555250E+00  6.748823E-01
       720   4  8.214629E+00  1.399530E+02  6.012185E+00  2.895250E+00  1.549389E+00  1.214727E+00
       720   5 -8.269489E+00  9.813003E+01 -2.287718E+00 -1.085708E+01 -1.534744E+00  9.134506E-01
       720   6  5.668161E+00  1.386578E+02  3.643367E+00 -1.026201E+01 -1.547245E+00  1.594062E+00
       720   7 -8.429797E+00  9.787264E+01 -2.364327E+00 -1.078979E+01  2.376133E+00  6.048251E-01
       720   8  5.524263E+00  1.384222E+02  3.599688E+00 -1.020112E+01  2.364015E+00  1.147290E+00
       721   1 -8.177066E+00 -1.409921E+02 -2.729937E+00  2.914864E+00 -2.219020E+00 -1.448082E+00
       721   2  5.460788E+00 -1.012806E+02  3.018084E+00  2.398469E+00 -2.249996E+00 -1.130176E+00
       721   3 -8.300637E+00 -1.415856E+02 -3.052445E+00  3.008829E+00  1.668089E+00 -6.540346E-01
       721   4  5.385232E+00 -1.017789E+02  2.760471E+00  2.489038E+00  1.637292E+00 -4.976939E-01
       721   5 -5.213501E+00 -1.390512E+02  7.763583E-01 -9.993425E+00 -1.548762E+00 -1.624390E+00
       721   6  8.184502E+00 -9.957953E+01  5.964727E+00 -1.050982E+01 -1.583126E+00 -1.282976E+00
       721   7 -5.320665E+00 -1.396424E+02  4.447002E-01 -1.001706E+01  2.490322E+00 -8.290668E-01
       721   8  8.127089E+00 -1.000739E+02  5.702013E+00 -1.053685E+01  2.456162E+00 -6.493878E-01
       722   1 -7.935265E+00 -8.191392E+01 -2.645217E+00 -2.615897E+00 -2.320662E+00 -9.151708E-01
       722   2  6.215020E+00 -4.112021E+01  3.728693E+00 -2.773066E+00 -2.327976E+00 -6.456712E-01
       722   3 -8.117044E+00 -8.238858E+01 -2.911584E+00 -2.488935E+00  1.509740E+00 -4.009585E-01
       722   4  6.102092E+00 -4.145102E+01  3.547978E+00 -2.643578E+00  1.502293E+00 -2.930133E-01
       722   5 -6.631623E+00 -8.092152E+01 -6.408449E-01 -1.580627E+01 -1.657379E+00 -1.045676E+00
       722   6  7.279924E+00 -4.036655E+01  5.176009E+00 -1.596344E+01 -1.662174E+00 -7.387761E-01
       722   7 -6.823741E+00 -8.140374E+01 -9.221038E-01 -1.581286E+01  2.324259E+00 -5.305196E-01
       722   8  7.158384E+00 -4.070319E+01  4.984433E+00 -1.596750E+01  2.319313E+00 -3.854445E-01
       723   1 -7.378367E+00 -2.153486E+01 -1.871977E+00 -4.524618E+00 -2.342051E+00 -4.575011E-01
       723   2  6.756447E+00  1.921802E+01  4.491194E+00 -4.354113E+00 -2.348458E+00 -2.129106E-01
       723   3 -7.508412E+00 -2.179670E+01 -2.021355E+00 -4.372274E+00  1.485995E+00 -2.214587E-01
       723   4  6.684408E+00  1.907516E+01  4.416188E+00 -4.196962E+00  1.479335E+00 -1.339129E-01
       723   5 -7.621515E+00 -2.144036E+01 -1.313828E+00 -1.770243E+01 -1.668223E+00 -5.257864E-01
       723   6  6.280755E+00  1.907997E+01  4.506741E+00 -1.753193E+01 -1.669836E+00 -2.507877E-01
       723   7 -7.775161E+00 -2.171375E+01 -1.478114E+00 -1.767655E+01  2.306931E+00 -2.892497E-01
       723   8  6.186799E+00  1.892725E+01  4.420753E+00 -1.750124E+01  2.305030E+00 -1.715158E-01
       724   1 -6.683954E+00  3.885576E+01 -1.018959E+00 -2.784879E+00 -2.305860E+00 -3.547378E-02
       724   2  7.479326E+00  7.961905E+01  5.428689E+00 -2.404941E+00 -2.311724E+00  2.047022E-01
       724   3 -6.757148E+00  3.877574E+01 -1.060405E+00 -2.634599E+00  1.494547E+00 -6.758059E-02
       724   4  7.455562E+00  7.963908E+01  5.451957E+00 -2.252931E+00  1.488591E+00  2.609672E-02
       724   5 -8.050041E+00  3.824206E+01 -1.698549E+00 -1.595376E+01 -1.610837E+00 -5.298004E-02
       724   6  5.896064E+00  7.878817E+01  4.242359E+00 -1.557382E+01 -1.614976E+00  2.124417E-01
       724   7 -8.138516E+00  3.815569E+01 -1.745863E+00 -1.592471E+01  2.326482E+00 -8.496017E-02
       724   8  5.858592E+00  7.880343E+01  4.263427E+00 -1.554304E+01  2.322239E+00  3.378023E-02
       725   1 -5.871554E+00  9.928840E+01 -5.443765E-02  2.406696E+00 -2.227311E+00  3.898923E-01
       725   2  8.243291E+00  1.400143E+02  6.269195E+00  2.992218E+00 -2.213058E+00  6.556652E-01
       725   3 -5.971468E+00  9.932616E+01 -3.458837E-02  2.516623E+00  1.611648E+00  1.073703E-01
       725   4  8.181751E+00  1.401272E+02  6.341783E+00  3.099912E+00  1.626018E+00  2.357367E-01
       725   5 -8.321468E+00  9.799799E+01 -1.905910E+00 -1.076763E+01 -1.514892E+00  4.135897E-01
       725   6  5.589261E+00  1.385197E+02  3.941451E+00 -1.018211E+01 -1.502866E+00  6.977144E-01
       725   7 -8.425333E+00  9.803579E+01 -1.881954E+00 -1.077208E+01  2.452378E+00  1.308962E-01
       725   8  5.525247E+00  1.386342E+02  4.021593E+00 -1.018879E+01  2.464537E+00  2.774817E-01
       726   1 -8.612059E+00 -1.450569E+02 -3.420272E+00 -7.151067E-01 -2.471798E+00 -3.285251E+00
       726   2  5.712302E+00 -1.032300E+02  2.500636E+00 -1.092295E+00 -2.509217E+00 -1.986760E+00
       726   3 -8.715744E+00 -1.456189E+02 -3.718108E+00  7.113659E-01  1.525201E+00 -2.625724E+00
       726   4  5.670174E+00 -1.036673E+02  2.283378E+00  3.085323E-01  1.489272E+00 -1.492769E+00
       726   5 -6.482652E+00 -1.436314E+02 -7.980065E-01 -1.354641E+01 -1.878864E+00 -3.441669E+00
       726   6  7.615536E+00 -1.020306E+02  4.595162E+00 -1.392360E+01 -1.939904E+00 -2.114139E+00
       726   7 -6.507819E+00 -1.441531E+02 -1.039866E+00 -1.198357E+01  2.311305E+00 -2.784185E+00
       726   8  7.648971E+00 -1.024306E+02  4.426989E+00 -1.238640E+01  2.251446E+00 -1.621812E+00
       727   1 -8.879257E+00 -8.297906E+01 -3.689744E+00 -9.411363E+00 -2.337203E+00 -1.349076E+00
       727   2  6.109135E+00 -3.983197E+01  3.124472E+00 -9.267920E+00 -2.411716E+00 -9.053835E-01
       727   3 -8.867476E+00 -8.335039E+01 -3.852702E+00 -7.220312E+00  1.549291E+00 -9.770576E-01
       727   4  6.141171E+00 -4.017550E+01  3.001229E+00 -7.113234E+00  1.476891E+00 -7.010625E-01
       727   5 -8.843800E+00 -8.267591E+01 -2.714703E+00 -2.254877E+01 -1.767506E+00 -1.464555E+00
       727   6  5.913203E+00 -3.976021E+01  3.559606E+00 -2.240532E+01 -1.875514E+00 -1.017387E+00
       727   7 -8.702166E+00 -8.298783E+01 -2.809475E+00 -2.019184E+01  2.314778E+00 -1.094044E+00
       727   8  6.072070E+00 -4.004735E+01  3.497499E+00 -2.008476E+01  2.208445E+00 -8.145282E-01
       728   1 -8.291578E+00 -1.931171E+01 -2.845928E+00 -1.154138E+01 -2.393623E+00 -6.264394E-01
       728   2  6.392205E+00  2.318175E+01  3.606558E+00 -1.098645E+01 -2.453771E+00 -3.080424E-01
       728   3 -8.359525E+00 -1.964708E+01 -2.978908E+00 -9.386137E+00  1.531381E+00 -5.409620E-01
       728   4  6.396805E+00  2.299768E+01  3.564100E+00 -8.876315E+00  1.473854E+00 -3.795544E-01
       728   5 -9.994287E+00 -1.997881E+01 -3.366893E+00 -2.451595E+01 -1.786863E+00 -7.238949E-01
       728   6  4.475760E+00  2.230091E+01  2.586875E+00 -2.396102E+01 -1.888558E+00 -3.692290E-01
       728   7 -9.892025E+00 -2.024042E+01 -3.424199E+00 -2.222972E+01  2.320103E+00 -6.396902E-01
       728   8  4.647779E+00  2.218781E+01  2.613578E+00 -2.171990E+01  2.220486E+00 -4.415401E-01
       729   1 -7.135533E+00  4.374515E+01 -2.122968E+00 -8.476277E+00 -2.426387E+00 -7.026527E-02
       729   2  7.340628E+00  8.576840E+01  4.107653E+00 -7.816218E+00 -2.417045E+00  2.609571E-01
       729   3 -7.328690E+00  4.359074E+01 -2.199110E+00 -6.510800E+00  1.516461E+00 -2.548326E-01
       729   4  7.257512E+00  8.585354E+01  4.158763E+00 -5.885409E+00  1.527817E+00 -7.549385E-02
       729   5 -9.548452E+00  4.256403E+01 -3.647117E+00 -2.132833E+01 -1.785184E+00 -9.634540E-02
       729   6  4.723063E+00  8.438263E+01  2.105998E+00 -2.066827E+01 -1.807774E+00  2.945208E-01
       729   7 -9.605420E+00  4.246607E+01 -3.671292E+00 -1.925683E+01  2.331346E+00 -2.812533E-01
       729   8  4.773464E+00  8.452155E+01  2.202839E+00 -1.863143E+01  2.310353E+00 -4.149186E-02
       730   1 -6.108009E+00  1.066177E+02 -1.739688E+00 -3.021233E-01 -2.677432E+00  7.459941E-01
       730   2  8.686380E+00  1.498469E+02  4.345707E+00  3.983271E-01 -2.615721E+00  1.739918E+00
       730   3 -6.315320E+00  1.067641E+02 -1.689625E+00  8.742410E-01  1.502990E+00  2.892972E-01
       730   4  8.552928E+00  1.501454E+02  4.489888E+00  1.560913E+00  1.565501E+00  1.106586E+00
       730   5 -9.020566E+00  1.050123E+02 -4.178398E+00 -1.356836E+01 -2.039497E+00  8.145739E-01
       730   6  5.532924E+00  1.480006E+02  1.344897E+00 -1.286791E+01 -1.990477E+00  1.844519E+00
       730   7 -9.162133E+00  1.051822E+02 -4.115706E+00 -1.225701E+01  2.337565E+00  3.587726E-01
       730   8  5.462069E+00  1.483195E+02  1.494367E+00 -1.157033E+01  2.387220E+00  1.212554E+00
       731   1 -8.484440E+00 -1.459518E+02 -3.032563E+00  1.372498E+00 -2.523797E+00 -5.734481E+00
       731   2  5.975749E+00 -1.038458E+02  3.062054E+00  9.454167E-01 -2.571538E+00 -4.038738E+00
       731   3 -9.007286E+00 -1.475687E+02 -3.787286E+00  1.745846E+00  1.492122E+00 -4.960172E+00
       731   4  5.587800E+00 -1.051702E+02  2.464432E+00  1.277892E+00  1.446755E+00 -3.460087E+00
       731   5 -6.112434E+00 -1.443590E+02 -9.528856E-02 -1.123764E+01 -1.999592E+00 -6.161619E+00
       731   6  8.089730E+00 -1.025111E+02  5.397272E+00 -1.166472E+01 -2.084128E+00 -4.394909E+00
       731   7 -6.511004E+00 -1.459150E+02 -7.710882E-01 -1.076901E+01  2.222889E+00 -5.393016E+00
       731   8  7.822611E+00 -1.037779E+02  4.870528E+00 -1.123696E+01  2.140235E+00 -3.821017E+00
       732   1 -8.582391E+00 -8.348993E+01 -3.114246E+00 -6.053682E+00 -2.566026E+00 -3.060373E+00
       732   2  6.369936E+00 -4.033144E+01  3.568355E+00 -5.969462E+00 -2.615503E+00 -2.083176E+00
       732   3 -8.985065E+00 -8.467756E+01 -3.655252E+00 -5.064170E+00  1.406973E+00 -2.617042E+00
       732   4  6.059591E+00 -4.132351E+01  3.139552E+00 -5.005845E+00  1.359001E+00 -1.813885E+00
       732   5 -8.279938E+00 -8.303381E+01 -1.896318E+00 -1.891941E+01 -2.081647E+00 -3.373561E+00
       732   6  6.441423E+00 -4.010629E+01  4.247362E+00 -1.883519E+01 -2.154435E+00 -2.349898E+00
       732   7 -8.589843E+00 -8.417733E+01 -2.383025E+00 -1.780674E+01  2.078839E+00 -2.934415E+00
       732   8  6.220761E+00 -4.105733E+01  3.865657E+00 -1.774842E+01  2.007244E+00 -2.084171E+00
       733   1 -8.209928E+00 -1.980648E+01 -2.501409E+00 -8.169315E+00 -2.544497E+00 -1.474520E+00
       733   2  6.574884E+00  2.292598E+01  4.048831E+00 -7.684173E+00 -2.601694E+00 -7.888365E-01
       733   3 -8.513172E+00 -2.069210E+01 -2.878034E+00 -7.006460E+00  1.418226E+00 -1.327099E+00
       733   4  6.347627E+00  2.219949E+01  3.766378E+00 -6.543220E+00  1.362303E+00 -8.003320E-01
       733   5 -9.580448E+00 -2.029185E+01 -2.748771E+00 -2.091713E+01 -2.024108E+00 -1.710538E+00
       733   6  4.993032E+00  2.222929E+01  3.308361E+00 -2.043199E+01 -2.101021E+00 -9.874366E-01
       733   7 -9.791875E+00 -2.113675E+01 -3.081503E+00 -1.962363E+01  2.111502E+00 -1.566271E+00
       733   8  4.854768E+00  2.154068E+01  3.063211E+00 -1.916038E+01  2.035598E+00 -1.001586E+00
       734   1 -7.259554E+00  4.352190E+01 -1.787969E+00 -5.438720E+00 -2.562480E+00 -2.590837E-01
       734   2  7.323143E+00  8.584304E+01  4.499882E+00 -4.834133E+00 -2.610036E+00  5.025448E-01
       734   3 -7.502012E+00  4.285763E+01 -2.039628E+00 -4.480889E+00  1.438234E+00 -3.823333E-01
       734   4  7.121709E+00  8.525761E+01  4.306130E+00 -3.898242E+00  1.391952E+00  2.328934E-01
       734   5 -9.371957E+00  4.251258E+01 -3.039954E+00 -1.809111E+01 -1.987576E+00 -4.377577E-01
       734   6  5.014530E+00  8.463751E+01  2.790071E+00 -1.748652E+01 -2.054885E+00  3.408916E-01
       734   7 -9.522263E+00  4.188642E+01 -3.256751E+00 -1.698349E+01  2.174316E+00 -5.633945E-01
       734   8  4.902626E+00  8.408756E+01  2.625064E+00 -1.640084E+01  2.108019E+00  6.908050E-02
       735   1 -6.283272E+00  1.068134E+02 -1.249194E+00  1.428596E+00 -2.574566E+00  1.236100E+00
       735   2  8.795877E+00  1.504282E+02  5.399874E+00  2.104313E+00 -2.595499E+00  2.478580E+00
       735   3 -6.577657E+00  1.062037E+02 -1.461920E+00  1.761385E+00  1.500797E+00  8.589619E-01
       735   4  8.500612E+00  1.497992E+02  5.203440E+00  2.420905E+00  1.480805E+00  1.954186E+00
       735   5 -8.963861E+00  1.053657E+02 -3.394356E+00 -1.158741E+01 -1.954316E+00  1.077654E+00
       735   6  5.915719E+00  1.487809E+02  2.789053E+00 -1.091169E+01 -1.989830E+00  2.311877E+00
       735   7 -9.185758E+00  1.047830E+02 -3.589328E+00 -1.107475E+01  2.283008E+00  6.983993E-01
       735   8  5.690276E+00  1.481763E+02  2.604152E+00 -1.041523E+01  2.248240E+00  1.785255E+00
       736   1 -8.737544E+00 -1.481056E+02 -2.850268E+00  1.928410E+00 -2.534464E+00 -5.424804E+00
       736   2  5.926755E+00 -1.055371E+02  3.462234E+00  1.432932E+00 -2.590423E+00 -4.148603E+00
       736   3 -9.215584E+00 -1.496931E+02 -3.590674E+00  2.047654E+00  1.513270E+00 -4.598171E+00
       736   4  5.552441E+00 -1.069041E+02  2.847114E+00  1.517973E+00  1.459299E+00 -3.510916E+00
       736   5 -6.137251E+00 -1.463887E+02  2.725189E-01 -1.050893E+01 -2.025961E+00 -5.838116E+00
       736   6  8.282281E+00 -1.040649E+02  6.013897E+00 -1.100440E+01 -2.111997E+00 -4.510584E+00
       736   7 -6.516456E+00 -1.479256E+02 -3.980587E-01 -1.027319E+01  2.211487E+00 -5.017136E+00
       736   8  8.003453E+00 -1.053847E+02  5.460794E+00 -1.080287E+01  2.127026E+00 -3.877849E+00
       737   1 -8.706949E+00 -8.499054E+01 -2.699428E+00 -4.565572E+00 -2.656132E+00 -3.324581E+00
       737   2  6.339248E+00 -4.155744E+01  4.021459E+00 -4.520682E+00 -2.703750E+00 -2.349513E+00
       737   3 -9.147009E+00 -8.626137E+01 -3.285547E+00 -4.198798E+00  1.380658E+00 -2.820766E+00
       737   4  5.995796E+00 -4.262302E+01  3.552124E+00 -4.164437E+00  1.333652E+00 -2.022494E+00
       737   5 -8.210806E+00 -8.441436E+01 -1.274985E+00 -1.721806E+01 -2.201905E+00 -3.650290E+00
       737   6  6.606341E+00 -4.121031E+01  4.911452E+00 -1.717317E+01 -2.258782E+00 -2.627456E+00
       737   7 -8.607867E+00 -8.566179E+01 -1.826101E+00 -1.672833E+01  2.013645E+00 -3.150930E+00
       737   8  6.302755E+00 -4.225563E+01  4.469810E+00 -1.669397E+01  1.957253E+00 -2.304239E+00
       738   1 -8.287811E+00 -2.089964E+01 -2.069516E+00 -6.391804E+00 -2.652496E+00 -1.712010E+00
       738   2  6.570934E+00  2.204833E+01  4.511662E+00 -5.938631E+00 -2.697170E+00 -9.453880E-01
       738   3 -8.663223E+00 -2.187613E+01 -2.503400E+00 -5.880800E+00  1.364656E+00 -1.508174E+00
       738   4  6.266558E+00  2.121929E+01  4.167118E+00 -5.432925E+00  1.320290E+00 -9.012963E-01
       738   5 -9.454460E+00 -2.125834E+01 -2.098546E+00 -1.891161E+01 -2.162220E+00 -1.960171E+00
       738   6  5.196493E+00  2.148184E+01  3.997784E+00 -1.845844E+01 -2.211553E+00 -1.159950E+00
       738   7 -9.791105E+00 -2.221628E+01 -2.509374E+00 -1.826527E+01  2.018643E+00 -1.759729E+00
       738   8  4.928042E+00  2.066850E+01  3.669665E+00 -1.781739E+01  1.969554E+00 -1.118794E+00
       739   1 -7.310745E+00  4.272718E+01 -1.320149E+00 -3.973855E+00 -2.601168E+00 -3.803894E-01
       739   2  7.339705E+00  8.517543E+01  5.066435E+00 -3.402772E+00 -2.637211E+00  3.965934E-01
       739   3 -7.633112E+00  4.194667E+01 -1.639022E+00 -3.551359E+00  1.414166E+00 -4.466296E-01
       739   4  7.045183E+00  8.444350E+01  4.791800E+00 -2.989699E+00  1.378670E+00  1.886652E-01
       739   5 -9.197242E+00  4.185885E+01 -2.328101E+00 -1.636377E+01 -2.052606E+00 -5.793172E-01
       739   6  5.267102E+00  8.412099E+01  3.624233E+00 -1.579269E+01 -2.096936E+00  2.067816E-01
       739   7 -9.467997E+00  4.109963E+01 -2.627583E+00 -1.578321E+01  2.110940E+00 -6.482784E-01
       739   8  5.021646E+00  8.340781E+01  3.363049E+00 -1.522155E+01  2.067045E+00 -3.742828E-03
       740   1 -6.366700E+00  1.061574E+02 -6.061093E-01  1.937880E+00 -2.500762E+00  1.022480E+00
       740   2  8.836431E+00  1.498758E+02  6.352562E+00  2.588208E+00 -2.523358E+00  1.955450E+00
       740   3 -6.706326E+00  1.054290E+02 -8.781969E-01  2.082734E+00  1.510725E+00  7.147964E-01
       740   4  8.518345E+00  1.491825E+02  6.117172E+00  2.724280E+00  1.488639E+00  1.516919E+00
       740   5 -8.817656E+00  1.048659E+02 -2.460189E+00 -1.077183E+01 -1.890819E+00  8.381872E-01
       740   6  6.213393E+00  1.484122E+02  4.096958E+00 -1.012151E+01 -1.921138E+00  1.777120E+00
       740   7 -9.108643E+00  1.041550E+02 -2.722424E+00 -1.046145E+01  2.258318E+00  5.279832E-01
       740   8  5.941592E+00  1.477341E+02  3.865929E+00 -9.819901E+00  2.228404E+00  1.336150E+00
       741   1 -8.980366E+00 -1.501818E+02 -2.809265E+00  2.096305E+00 -2.500524E+00 -3.796536E+00
       741   2  5.837404E+00 -1.072645E+02  3.665963E+00  1.545126E+00 -2.538662E+00 -3.015058E+00
       741   3 -9.347613E+00 -1.514135E+02 -3.409857E+00  2.104614E+00  1.577441E+00 -2.974900E+00
       741   4  5.557946E+00 -1.083106E+02  3.172470E+00  1.529088E+00  1.540718E+00 -2.362462E+00
       741   5 -6.269814E+00 -1.484310E+02  3.163244E-01 -1.013540E+01 -1.975704E+00 -4.107360E+00
       741   6  8.333915E+00 -1.057277E+02  6.292121E+00 -1.068658E+01 -2.034746E+00 -3.283924E+00
       741   7 -6.572657E+00 -1.496268E+02 -2.291521E-01 -1.000005E+01  2.264273E+00 -3.290078E+00
       741   8  8.115861E+00 -1.067409E+02  5.846747E+00 -1.057558E+01  2.206353E+00 -2.635094E+00
       742   1 -8.922063E+00 -8.657642E+01 -2.496081E+00 -4.030485E+00 -2.615385E+00 -2.479724E+00
       742   2  6.245329E+00 -4.284054E+01  4.326008E+00 -4.000246E+00 -2.658950E+00 -1.798639E+00
       742   3 -9.238438E+00 -8.753388E+01 -2.955537E+00 -3.942459E+00  1.464370E+00 -1.951760E+00
       742   4  6.011415E+00 -4.362521E+01  3.968632E+00 -3.912763E+00  1.420837E+00 -1.442141E+00
       742   5 -8.355121E+00 -8.595683E+01 -9.977075E-01 -1.646631E+01 -2.142278E+00 -2.719038E+00
       742   6  6.594828E+00 -4.243838E+01  5.317016E+00 -1.643607E+01 -2.186310E+00 -1.999176E+00
       742   7 -8.659355E+00 -8.690381E+01 -1.434372E+00 -1.624524E+01  2.101671E+00 -2.194427E+00
       742   8  6.370010E+00 -4.321562E+01  4.975323E+00 -1.621555E+01  2.057665E+00 -1.645487E+00
       743   1 -8.479422E+00 -2.206619E+01 -1.771139E+00 -5.629097E+00 -2.639778E+00 -1.337771E+00
       743   2  6.472299E+00  2.110359E+01  4.898149E+00 -5.181573E+00 -2.669647E+00 -7.597393E-01
       743   3 -8.792634E+00 -2.279683E+01 -2.118070E+00 -5.457154E+00  1.410245E+00 -1.102274E+00
       743   4  6.222755E+00  2.050325E+01  4.633150E+00 -5.005104E+00  1.380113E+00 -6.833614E-01
       743   5 -9.555112E+00 -2.236265E+01 -1.683657E+00 -1.791238E+01 -2.139571E+00 -1.513645E+00
       743   6  5.194181E+00  2.060470E+01  4.513297E+00 -1.746486E+01 -2.165555E+00 -9.070119E-01
       743   7 -9.859047E+00 -2.308701E+01 -2.018928E+00 -1.759933E+01  2.064286E+00 -1.280613E+00
       743   8  4.951077E+00  2.000780E+01  4.253340E+00 -1.714728E+01  2.038093E+00 -8.326973E-01
       744   1 -7.460086E+00  4.185087E+01 -9.186884E-01 -3.337308E+00 -2.570653E+00 -3.427034E-01
       744   2  7.237357E+00  8.438360E+01  5.540049E+00 -2.779708E+00 -2.585122E+00  2.186285E-01
       744   3 -7.751214E+00  4.128611E+01 -1.169005E+00 -3.179417E+00  1.459939E+00 -3.763924E-01
       744   4  6.977362E+00  8.387513E+01  5.337233E+00 -2.623339E+00  1.445558E+00  4.334951E-02
       744   5 -9.214107E+00  4.106773E+01 -1.775105E+00 -1.545397E+01 -2.024268E+00 -4.755562E-01
       744   6  5.301929E+00  8.341907E+01  4.260351E+00 -1.489637E+01 -2.040043E+00  9.656976E-02
       744   7 -9.477958E+00  4.051423E+01 -2.015198E+00 -1.513947E+01  2.145638E+00 -5.111064E-01
       744   8  5.066671E+00  8.291930E+01  4.061828E+00 -1.458339E+01  2.129933E+00 -8.041925E-02
       745   1 -6.511907E+00  1.053984E+02 -9.253683E-02  2.154029E+00 -2.455286E+00  6.382347E-01
       745   2  8.765128E+00  1.492242E+02  7.005143E+00  2.791130E+00 -2.473746E+00  1.223288E+00
       745   3 -6.747393E+00  1.049400E+02 -2.582845E-01  2.199787E+00  1.549563E+00  3.649567E-01
       745   4  8.571469E+00  1.488489E+02  6.895741E+00  2.833630E+00  1.531293E+00  8.238621E-01
       745   5 -8.814880E+00  1.042048E+02 -1.768420E+00 -1.027320E+01 -1.855629E+00  5.266087E-01
       745   6  6.301238E+00  1.478696E+02  4.953786E+00 -9.636096E+00 -1.876887E+00  1.129371E+00
       745   7 -9.018821E+00  1.037570E+02 -1.930299E+00 -1.007345E+01  2.274061E+00  2.517668E-01
       745   8  6.136870E+00  1.475027E+02  4.842992E+00 -9.439606E+00  2.252954E+00  7.286289E-01
       746   1 -9.132666E+00 -1.517301E+02 -2.816228E+00  2.105836E+00 -2.420912E+00 -1.538990E+00
       746   2  5.752362E+00 -1.085773E+02  3.647754E+00  1.517606E+00 -2.455119E+00 -1.246631E+00
       746   3 -9.297277E+00 -1.524772E+02 -3.210405E+00  2.096671E+00  1.725451E+00 -7.273588E-01
       746   4  5.672207E+00 -1.091454E+02  3.355996E+00  1.498355E+00  1.691830E+00 -5.923420E-01
       746   5 -6.379541E+00 -1.499767E+02  2.753536E-01 -9.904617E+00 -1.850521E+00 -1.725718E+00
       746   6  8.311225E+00 -1.070182E+02  6.286057E+00 -1.049285E+01 -1.893177E+00 -1.393715E+00
       746   7 -6.524931E+00 -1.507074E+02 -8.313991E-02 -9.783433E+00  2.438633E+00 -9.167675E-01
       746   8  8.247502E+00 -1.075725E+02  6.023475E+00 -1.038175E+01  2.396442E+00 -7.415376E-01
       747   1 -9.140243E+00 -8.778592E+01 -2.546120E+00 -3.909730E+00 -2.539472E+00 -1.037310E+00
       747   2  6.164667E+00 -4.375957E+01  4.443903E+00 -3.877808E+00 -2.553088E+00 -7.577923E-01
       747   3 -9.360229E+00 -8.831645E+01 -2.850803E+00 -3.912109E+00  1.553398E+00 -5.024907E-01
       747   4  6.019612E+00 -4.413464E+01  4.233523E+00 -3.873419E+00  1.539389E+00 -3.920293E-01
       747   5 -8.573605E+00 -8.716503E+01 -1.043124E+00 -1.611295E+01 -1.994204E+00 -1.157536E+00
       747   6  6.521807E+00 -4.334818E+01  5.458072E+00 -1.608102E+01 -2.002150E+00 -8.442839E-01
       747   7 -8.802594E+00 -8.769399E+01 -1.333573E+00 -1.597634E+01  2.251699E+00 -6.244425E-01
       747   8  6.364742E+00 -4.372468E+01  5.254908E+00 -1.593765E+01  2.243441E+00 -4.797626E-01
       748   1 -8.693579E+00 -2.290016E+01 -1.658330E+00 -5.377211E+00 -2.561619E+00 -5.648625E-01
       748   2  6.335114E+00  2.045979E+01  5.077358E+00 -4.919548E+00 -2.576071E+00 -3.172861E-01
       748   3 -8.873190E+00 -2.321037E+01 -1.841647E+00 -5.334279E+00  1.520192E+00 -3.195762E-01
       748   4  6.214674E+00  2.026926E+01  4.971611E+00 -4.865681E+00  1.505104E+00 -2.320920E-01
       748   5 -9.752174E+00 -2.318094E+01 -1.535680E+00 -1.741465E+01 -1.995725E+00 -6.297311E-01
       748   6  5.077555E+00  1.998005E+01  4.735758E+00 -1.695699E+01 -2.001018E+00 -3.568138E-01
       748   7 -9.940236E+00 -2.349229E+01 -1.714345E+00 -1.722668E+01  2.232121E+00 -3.853761E-01
       748   8  4.945808E+00  1.978552E+01  4.627998E+00 -1.675809E+01  2.226325E+00 -2.721872E-01
       749   1 -7.659536E+00  4.126755E+01 -7.265105E-01 -3.097914E+00 -2.513634E+00 -1.392301E-01
       749   2  7.100862E+00  8.390823E+01  5.834133E+00 -2.540539E+00 -2.526639E+00  9.965168E-02
       749   3 -7.771051E+00  4.113324E+01 -7.959713E-01 -3.036454E+00  1.521741E+00 -1.658239E-01
       749   4  7.023802E+00  8.383753E+01  5.815913E+00 -2.473885E+00  1.508435E+00 -7.226048E-02
       749   5 -9.352931E+00  4.052143E+01 -1.520184E+00 -1.494374E+01 -1.916551E+00 -1.650130E-01
       749   6  5.225924E+00  8.298057E+01  4.616858E+00 -1.438637E+01 -1.925204E+00  8.607946E-02
       749   7 -9.456723E+00  4.039013E+01 -1.587311E+00 -1.472683E+01  2.253207E+00 -1.919770E-01
       749   8  5.153979E+00  8.291027E+01  4.594890E+00 -1.416426E+01  2.244315E+00 -8.602756E-02
       750   1 -6.654736E+00  1.049824E+02  2.096502E-01  2.229641E+00 -2.414820E+00  2.672298E-01
       750   2  8.639719E+00  1.489041E+02  7.269426E+00  2.862176E+00 -2.406625E+00  4.861798E-01
       750   3 -6.788063E+00  1.049395E+02  1.975696E-01  2.262324E+00  1.639587E+00 -2.674217E-03
       750   4  8.562678E+00  1.489786E+02  7.327647E+00  2.894607E+00  1.647796E+00  9.387555E-02
       750   5 -8.875148E+00  1.038370E+02 -1.387936E+00 -9.933574E+00 -1.782968E+00  2.674841E-01
       750   6  6.267727E+00  1.476071E+02  5.318150E+00 -9.301038E+00 -1.774986E+00  5.119983E-01
       750   7 -8.985973E+00  1.038010E+02 -1.399648E+00 -9.754298E+00  2.385521E+00 -2.416256E-03
       750   8  6.211010E+00  1.476863E+02  5.371663E+00 -9.122015E+00  2.393515E+00  1.200647E-01
       751   1 -9.835860E+00 -1.538752E+02 -3.539910E+00 -1.381100E+00 -2.492985E+00 -3.924850E+00
       751   2  5.862134E+00 -1.082208E+02  3.132265E+00 -1.614843E+00 -2.597752E+00 -2.329752E+00
       751   3 -9.995808E+00 -1.549438E+02 -3.987981E+00  2.095115E-01  1.880414E+00 -3.091389E+00
       751   4  5.733571E+00 -1.092365E+02  2.736032E+00 -1.105580E-01  1.778864E+00 -1.771132E+00
       751   5 -7.938526E+00 -1.524141E+02 -5.668293E-01 -1.535726E+01 -2.261946E+00 -4.238776E+00
       751   6  7.380297E+00 -1.071388E+02  5.220612E+00 -1.559100E+01 -2.446226E+00 -2.633826E+00
       751   7 -7.815210E+00 -1.533528E+02 -8.652970E-01 -1.359635E+01  2.409263E+00 -3.409414E+00
       751   8  7.530045E+00 -1.080297E+02  4.962429E+00 -1.391642E+01  2.227162E+00 -2.079177E+00
       752   1 -1.106957E+01 -8.651969E+01 -3.887541E+00 -1.024310E+01 -2.387592E+00 -1.559010E+00
       752   2  5.443175E+00 -3.925613E+01  3.891399E+00 -9.574838E+00 -2.564253E+00 -1.048401E+00
       752   3 -1.105352E+01 -8.746593E+01 -4.203050E+00 -7.946389E+00  1.853351E+00 -1.170499E+00
       752   4  5.456871E+00 -4.022204E+01  3.587713E+00 -7.380539E+00  1.680506E+00 -8.497948E-01
       752   5 -1.273219E+01 -8.693520E+01 -3.609977E+00 -2.458985E+01 -2.105439E+00 -1.862397E+00
       752   6  3.517736E+00 -3.993447E+01  3.555718E+00 -2.392159E+01 -2.376427E+00 -1.359762E+00
       752   7 -1.235108E+01 -8.772111E+01 -3.756102E+00 -2.210024E+01  2.351372E+00 -1.477847E+00
       752   8  3.893061E+00 -4.074348E+01  3.413408E+00 -2.153439E+01  2.082969E+00 -1.165222E+00
       753   1 -1.048771E+01 -1.740231E+01 -2.636174E+00 -1.098608E+01 -2.404737E+00 -7.446270E-01
       753   2  4.975418E+00  2.739697E+01  4.108312E+00 -9.868038E+00 -2.579851E+00 -4.253107E-01
       753   3 -1.051355E+01 -1.834767E+01 -2.933517E+00 -8.904032E+00  1.844734E+00 -6.706966E-01
       753   4  5.018994E+00  2.660245E+01  3.891500E+00 -7.889066E+00  1.673461E+00 -5.020950E-01
       753   5 -1.405370E+01 -1.888183E+01 -4.001897E+00 -2.467282E+01 -2.048531E+00 -1.045181E+00
       753   6  1.203296E+00  2.571132E+01  2.261614E+00 -2.355479E+01 -2.318582E+00 -6.883636E-01
       753   7 -1.369908E+01 -1.966350E+01 -4.134065E+00 -2.245186E+01  2.373817E+00 -9.751754E-01
       753   8  1.624637E+00  2.507780E+01  2.203697E+00 -2.143690E+01  2.106367E+00 -7.685829E-01
       754   1 -8.557064E+00  4.900488E+01 -1.748777E+00 -6.667949E+00 -2.402645E+00 -2.136421E-01
       754   2  6.155939E+00  9.201705E+01  4.282398E+00 -5.627134E+00 -2.482596E+00  4.533086E-02
       754   3 -8.762642E+00  4.823704E+01 -2.022970E+00 -4.925472E+00  1.844040E+00 -3.887627E-01
       754   4  6.082696E+00  9.154943E+01  4.149096E+00 -3.973076E+00  1.767383E+00 -2.477347E-01
       754   5 -1.221050E+01  4.729381E+01 -3.798921E+00 -1.987089E+01 -1.976328E+00 -4.346679E-01
       754   6  2.343869E+00  9.014735E+01  1.862114E+00 -1.883008E+01 -2.137719E+00 -9.837594E-02
       754   7 -1.209055E+01  4.666358E+01 -3.939925E+00 -1.803555E+01  2.406526E+00 -6.126747E-01
       754   8  2.594088E+00  8.981527E+01  1.857168E+00 -1.708316E+01  2.247366E+00 -3.933180E-01
       755   1 -6.881621E+00  1.138860E+02 -1.570077E+00  1.268993E+00 -2.671662E+00  4.108487E-01
       755   2  8.406498E+00  1.587438E+02  4.532517E+00  2.038878E+00 -2.652517E+00  1.150489E+00
       755   3 -7.202282E+00  1.134287E+02 -1.767164E+00  2.191927E+00  1.838617E+00  4.072881E-02
       755   4  8.128580E+00  1.583794E+02  4.385002E+00  2.895555E+00  1.860231E+00  6.877976E-01
       755   5 -9.913283E+00  1.122910E+02 -3.854766E+00 -1.252671E+01 -2.220146E+00  3.038981E-01
       755   6  5.248230E+00  1.570222E+02  1.952415E+00 -1.175682E+01 -2.262029E+00  1.066639E+00
       755   7 -9.994695E+00  1.119325E+02 -3.962185E+00 -1.144905E+01  2.401159E+00 -6.761838E-02
       755   8  5.207908E+00  1.567549E+02  1.890710E+00 -1.074542E+01  2.360948E+00  6.028529E-01
       756   1 -9.673647E+00 -1.555376E+02 -3.106976E+00  9.026831E-01 -2.647661E+00 -6.554248E+00
       756   2  6.104249E+00 -1.097093E+02  3.657664E+00  5.282233E-01 -2.768232E+00 -4.651931E+00
       756   3 -1.025444E+01 -1.577242E+02 -4.022304E+00  1.196536E+00  1.756262E+00 -5.650670E+00
       756   4  5.672418E+00 -1.115671E+02  2.910169E+00  7.602437E-01  1.637995E+00 -4.004933E+00
       756   5 -7.291506E+00 -1.538387E+02  1.739745E-01 -1.280430E+01 -2.463803E+00 -7.155913E+00
       756   6  8.144439E+00 -1.083523E+02  6.140730E+00 -1.317876E+01 -2.640038E+00 -5.172693E+00
       756   7 -7.677385E+00 -1.559326E+02 -6.276196E-01 -1.241060E+01  2.201241E+00 -6.260375E+00
       756   8  7.902950E+00 -1.101221E+02  5.496306E+00 -1.284690E+01  2.026567E+00 -4.532653E+00
       757   1 -1.068769E+01 -8.790239E+01 -3.327622E+00 -6.764136E+00 -2.762319E+00 -3.558821E+00
       757   2  5.767832E+00 -4.067751E+01  4.299223E+00 -6.251949E+00 -2.875686E+00 -2.474706E+00
       757   3 -1.116943E+01 -8.962076E+01 -4.032181E+00 -5.839195E+00  1.555786E+00 -3.079753E+00
       757   4  5.385575E+00 -4.217864E+01  3.709063E+00 -5.370146E+00  1.444026E+00 -2.197852E+00
       757   5 -1.170252E+01 -8.798272E+01 -2.580568E+00 -2.079904E+01 -2.601694E+00 -4.030571E+00
       757   6  4.482899E+00 -4.102794E+01  4.416048E+00 -2.028685E+01 -2.753896E+00 -2.893455E+00
       757   7 -1.201849E+01 -8.962531E+01 -3.198284E+00 -1.974203E+01  1.927541E+00 -3.557806E+00
       757   8  4.262811E+00 -4.245690E+01  3.904307E+00 -1.927298E+01  1.776428E+00 -2.622198E+00
       758   1 -1.024924E+01 -1.879242E+01 -2.290257E+00 -7.743798E+00 -2.686865E+00 -1.823154E+00
       758   2  5.318824E+00  2.625233E+01  4.558552E+00 -6.782017E+00 -2.804404E+00 -1.127198E+00
       758   3 -1.061400E+01 -2.017850E+01 -2.828093E+00 -6.662496E+00  1.586069E+00 -1.677303E+00
       758   4  5.022690E+00  2.501488E+01  4.100834E+00 -5.741832E+00  1.470061E+00 -1.137036E+00
       758   5 -1.314478E+01 -1.993315E+01 -3.197171E+00 -2.118907E+01 -2.426892E+00 -2.209323E+00
       758   6  2.215068E+00  2.490337E+01  3.165785E+00 -2.022729E+01 -2.581448E+00 -1.477354E+00
       758   7 -1.333714E+01 -2.124402E+01 -3.656660E+00 -1.996648E+01  2.012843E+00 -2.068632E+00
       758   8  2.088546E+00  2.373836E+01  2.779921E+00 -1.904582E+01  1.859325E+00 -1.491871E+00
       759   1 -8.581197E+00  4.789771E+01 -1.415986E+00 -3.965340E+00 -2.623028E+00 -6.294385E-01
       759   2  6.286202E+00  9.130824E+01  4.731476E+00 -3.058742E+00 -2.721933E+00  3.451013E-02
       759   3 -8.897518E+00  4.671628E+01 -1.853344E+00 -3.089297E+00  1.659734E+00 -7.392394E-01
       759   4  6.004627E+00  9.019919E+01  4.337563E+00 -2.218456E+00  1.562162E+00 -1.927043E-01
       759   5 -1.164266E+01  4.649036E+01 -3.045678E+00 -1.698479E+01 -2.256266E+00 -9.602125E-01
       759   6  3.067136E+00  8.974329E+01  2.734044E+00 -1.607819E+01 -2.387361E+00 -2.793257E-01
       759   7 -1.181037E+01  4.537135E+01 -3.423592E+00 -1.595400E+01  2.156488E+00 -1.074434E+00
       759   8  2.932064E+00  8.869455E+01  2.394661E+00 -1.508316E+01  2.026296E+00 -5.107339E-01
       760   1 -7.064328E+00  1.132347E+02 -1.051324E+00  2.637472E+00 -2.567949E+00  6.572788E-01
       760   2  8.505805E+00  1.584050E+02  5.678820E+00  3.302600E+00 -2.621021E+00  1.694766E+00
       760   3 -7.489568E+00  1.120304E+02 -1.509597E+00  2.928654E+00  1.781980E+00  3.549080E-01
       760   4  8.005537E+00  1.570189E+02  5.152221E+00  3.555354E+00  1.730341E+00  1.304477E+00
       760   5 -9.614521E+00  1.118981E+02 -2.956619E+00 -1.086412E+01 -2.140398E+00  3.320572E-01
       760   6  5.834207E+00  1.569470E+02  3.490246E+00 -1.019899E+01 -2.228064E+00  1.321500E+00
       760   7 -9.896374E+00  1.107520E+02 -3.364295E+00 -1.034686E+01  2.313086E+00  2.534053E-02
       760   8  5.475703E+00  1.556175E+02  3.010457E+00 -9.720157E+00  2.226389E+00  9.262234E-01
       761   1 -9.994619E+00 -1.585525E+02 -3.162555E+00  1.319531E+00 -2.649579E+00 -5.974102E+00
       761   2  6.054149E+00 -1.121724E+02  3.953242E+00  8.457144E-01 -2.760497E+00 -4.625381E+00
       761   3 -1.042101E+01 -1.603417E+02 -3.908961E+00  1.354630E+00  1.744281E+00 -5.109983E+00
       761   4  5.710506E+00 -1.137838E+02  3.304894E+00  8.405207E-01  1.634865E+00 -3.968424E+00
       761   5 -7.403621E+00 -1.568062E+02  6.727906E-02 -1.219959E+01 -2.433859E+00 -6.460267E+00
       761   6  8.374215E+00 -1.106971E+02  6.550902E+00 -1.267341E+01 -2.580210E+00 -5.069762E+00
       761   7 -7.710726E+00 -1.585356E+02 -5.990167E-01 -1.202387E+01  2.164064E+00 -5.602797E+00
       761   8  8.146156E+00 -1.122524E+02  5.974018E+00 -1.253798E+01  2.018730E+00 -4.418882E+00
       762   1 -1.086718E+01 -9.016173E+01 -2.990019E+00 -5.395903E+00 -2.873954E+00 -3.752341E+00
       762   2  5.710990E+00 -4.261183E+01  4.720633E+00 -4.948481E+00 -2.955961E+00 -2.715872E+00
       762   3 -1.136685E+01 -9.172644E+01 -3.657138E+00 -5.116100E+00  1.489250E+00 -3.241560E+00
       762   4  5.306960E+00 -4.396753E+01  4.163331E+00 -4.684118E+00  1.407818E+00 -2.397291E+00
       762   5 -1.161232E+01 -9.010919E+01 -2.069732E+00 -1.920047E+01 -2.716132E+00 -4.163183E+00
       762   6  4.715096E+00 -4.281004E+01  5.055847E+00 -1.875304E+01 -2.811717E+00 -3.076866E+00
       762   7 -1.203674E+01 -9.163656E+01 -2.687643E+00 -1.878425E+01  1.837008E+00 -3.658020E+00
       762   8  4.382895E+00 -4.413182E+01  4.539751E+00 -1.835227E+01  1.741812E+00 -2.763222E+00
       763   1 -1.032820E+01 -2.057279E+01 -1.864681E+00 -6.104486E+00 -2.823940E+00 -2.053699E+00
       763   2  5.312588E+00  2.467716E+01  5.021318E+00 -5.202594E+00 -2.896762E+00 -1.281078E+00
       763   3 -1.076815E+01 -2.184760E+01 -2.396227E+00 -5.666723E+00  1.487791E+00 -1.862916E+00
       763   4  4.928628E+00  2.352138E+01  4.557371E+00 -4.774422E+00  1.415327E+00 -1.247247E+00
       763   5 -1.290903E+01 -2.154568E+01 -2.526807E+00 -1.930173E+01 -2.592660E+00 -2.386302E+00
       763   6  2.526269E+00  2.349878E+01  3.879724E+00 -1.839984E+01 -2.673915E+00 -1.585961E+00
       763   7 -1.327831E+01 -2.278838E+01 -3.021994E+00 -1.871363E+01  1.877256E+00 -2.200068E+00
       763   8  2.210168E+00  2.237231E+01  3.445579E+00 -1.782133E+01  1.796243E+00 -1.556299E+00
       764   1 -8.623053E+00  4.640720E+01 -9.347977E-01 -2.628134E+00 -2.688599E+00 -7.383272E-01
       764   2  6.319052E+00  8.994872E+01  5.330694E+00 -1.774904E+00 -2.751553E+00 -2.812589E-02
       764   3 -9.008655E+00  4.529368E+01 -1.376675E+00 -2.248756E+00  1.589250E+00 -8.070406E-01
       764   4  5.949984E+00  8.886462E+01  4.914515E+00 -1.407444E+00  1.526739E+00 -2.200447E-01
       764   5 -1.139213E+01  4.515930E+01 -2.325353E+00 -1.537532E+01 -2.363782E+00 -1.030991E+00
       764   6  3.387767E+00  8.853863E+01  3.561662E+00 -1.452209E+01 -2.437218E+00 -3.151258E-01
       764   7 -1.170660E+01  4.407544E+01 -2.739530E+00 -1.482962E+01  2.041717E+00 -1.103707E+00
       764   8  3.087619E+00  8.748195E+01  3.168007E+00 -1.398831E+01  1.968582E+00 -5.109698E-01
       765   1 -7.183363E+00  1.117968E+02 -3.959128E-01  3.078250E+00 -2.499747E+00  5.429973E-01
       765   2  8.431145E+00  1.568506E+02  6.598598E+00  3.682435E+00 -2.538308E+00  1.393134E+00
       765   3 -7.608057E+00  1.106774E+02 -8.312747E-01  3.191977E+00  1.753894E+00  2.678440E-01
       765   4  7.982461E+00  1.556675E+02  6.147068E+00  3.773367E+00  1.716183E+00  1.013785E+00
       765   5 -9.447664E+00  1.106096E+02 -2.088690E+00 -1.004330E+01 -2.120420E+00  2.516639E-01
       765   6  6.028420E+00  1.555251E+02  4.582835E+00 -9.439116E+00 -2.179027E+00  1.084297E+00
       765   7 -9.781950E+00  1.095261E+02 -2.495184E+00 -9.735032E+00  2.243693E+00 -2.747387E-02
       765   8  5.668252E+00  1.543758E+02  4.155754E+00 -9.153642E+00  2.185661E+00  7.007248E-01
       766   1 -1.024901E+01 -1.610188E+02 -3.365908E+00  1.347538E+00 -2.555100E+00 -4.086610E+00
       766   2  5.988957E+00 -1.142908E+02  4.032688E+00  8.102552E-01 -2.629502E+00 -3.275826E+00
       766   3 -1.053383E+01 -1.622542E+02 -3.898255E+00  1.287668E+00  1.815437E+00 -3.284980E+00
       766   4  5.772498E+00 -1.153793E+02  3.581290E+00  7.276983E-01  1.741880E+00 -2.644623E+00
       766   5 -7.597759E+00 -1.593031E+02 -2.980241E-01 -1.192473E+01 -2.293062E+00 -4.413601E+00
       766   6  8.422613E+00 -1.127927E+02  6.592839E+00 -1.246201E+01 -2.386942E+00 -3.569096E+00
       766   7 -7.822811E+00 -1.605047E+02 -7.776992E-01 -1.183496E+01  2.238406E+00 -3.616551E+00
       766   8  8.262869E+00 -1.138505E+02  6.187001E+00 -1.239493E+01  2.145098E+00 -2.942001E+00
       767   1 -1.117271E+01 -9.218619E+01 -2.902607E+00 -5.000838E+00 -2.765081E+00 -2.722845E+00
       767   2  5.556039E+00 -4.430034E+01  4.974054E+00 -4.575669E+00 -2.826663E+00 -2.022857E+00
       767   3 -1.150824E+01 -9.323731E+01 -3.366315E+00 -4.970596E+00  1.612122E+00 -2.218749E+00
       767   4  5.292379E+00 -4.519683E+01  4.595280E+00 -4.548366E+00  1.550649E+00 -1.695597E+00
       767   5 -1.183401E+01 -9.210719E+01 -1.977969E+00 -1.856349E+01 -2.551306E+00 -2.990768E+00
       767   6  4.668985E+00 -4.444709E+01  5.371933E+00 -1.813832E+01 -2.615412E+00 -2.255252E+00
       767   7 -1.213393E+01 -9.313797E+01 -2.409490E+00 -1.838140E+01  1.992164E+00 -2.490425E+00
       767   8  4.437778E+00 -4.532641E+01  5.017966E+00 -1.795917E+01  1.928133E+00 -1.931247E+00
       768   1 -1.056967E+01 -2.214403E+01 -1.591277E+00 -5.459551E+00 -2.765925E+00 -1.555149E+00
       768   2  5.153789E+00  2.329165E+01  5.384594E+00 -4.569912E+00 -2.808109E+00 -9.773382E-01
       768   3 -1.091971E+01 -2.300637E+01 -1.973989E+00 -5.335762E+00  1.561098E+00 -1.349852E+00
       768   4  4.846899E+00  2.251838E+01  5.056615E+00 -4.443579E+00  1.518819E+00 -9.284127E-01
       768   5 -1.302795E+01 -2.305327E+01 -2.163809E+00 -1.839324E+01 -2.509121E+00 -1.767323E+00
       768   6  2.495229E+00  2.218212E+01  4.344738E+00 -1.750360E+01 -2.549121E+00 -1.169793E+00
       768   7 -1.334464E+01 -2.389930E+01 -2.525491E+00 -1.811049E+01  1.966520E+00 -1.564998E+00
       768   8  2.218879E+00  2.142236E+01  4.031241E+00 -1.721831E+01  1.926456E+00 -1.123564E+00
       769   1 -8.791472E+00  4.508874E+01 -5.372328E-01 -2.060392E+00 -2.640493E+00 -5.733822E-01
       769   2  6.188862E+00  8.869081E+01  5.795148E+00 -1.223903E+00 -2.668698E+00 -4.756508E-02
       769   3 -9.118364E+00  4.434099E+01 -8.534230E-01 -1.929217E+00  1.639129E+00 -6.294363E-01
       769   4  5.878912E+00  8.797289E+01  5.505603E+00 -1.093781E+00  1.610964E+00 -2.340569E-01
       769   5 -1.142276E+01  4.391394E+01 -1.821938E+00 -1.451940E+01 -2.321824E+00 -7.565949E-01
       769   6  3.389897E+00  8.734833E+01  4.119199E+00 -1.368291E+01 -2.350933E+00 -2.252463E-01
       769   7 -1.171243E+01  4.318149E+01 -2.124375E+00 -1.422163E+01  2.083899E+00 -8.152156E-01
       769   8  3.114821E+00  8.664336E+01  3.837926E+00 -1.338620E+01  2.054816E+00 -4.142272E-01
       770   1 -7.358929E+00  1.105180E+02  1.006609E-01  3.241448E+00 -2.452068E+00  3.519542E-01
       770   2  8.272741E+00  1.555314E+02  7.192906E+00  3.809819E+00 -2.475439E+00  9.176442E-01
       770   3 -7.644700E+00  1.098156E+02 -1.684712E-01  3.259159E+00  1.775506E+00  7.756264E-02
       770   4  7.986770E+00  1.548203E+02  6.931761E+00  3.814947E+00  1.752603E+00  5.335438E-01
       770   5 -9.454077E+00  1.094125E+02 -1.489201E+00 -9.548351E+00 -2.092108E+00  1.749691E-01
       770   6  6.036101E+00  1.542844E+02  5.272896E+00 -8.979980E+00 -2.126282E+00  7.370293E-01
       770   7 -9.683200E+00  1.087315E+02 -1.743749E+00 -9.350318E+00  2.243395E+00 -1.019018E-01
       770   8  5.804796E+00  1.535927E+02  5.021711E+00 -8.794529E+00  2.209538E+00  3.503988E-01
       771   1 -1.036242E+01 -1.626220E+02 -3.477910E+00  1.229832E+00 -2.380760E+00 -1.629633E+00
       771   2  5.946346E+00 -1.156941E+02  3.956750E+00  6.597878E-01 -2.428643E+00 -1.319808E+00
       771   3 -1.044554E+01 -1.632202E+02 -3.755802E+00  1.126851E+00  2.027323E+00 -8.642645E-01
       771   4  5.916663E+00 -1.161797E+02  3.744326E+00  5.523201E-01  1.979608E+00 -7.169192E-01
       771   5 -7.714065E+00 -1.609424E+02 -5.277774E-01 -1.177969E+01 -2.089732E+00 -1.787503E+00
       771   6  8.391911E+00 -1.142173E+02  6.433714E+00 -1.234974E+01 -2.141373E+00 -1.452869E+00
       771   7 -7.794351E+00 -1.615316E+02 -7.783893E-01 -1.172332E+01  2.462894E+00 -1.024401E+00
       771   8  8.362155E+00 -1.146968E+02  6.241776E+00 -1.229785E+01  2.411367E+00 -8.518907E-01
       772   1 -1.145126E+01 -9.354700E+01 -3.026480E+00 -4.986278E+00 -2.546445E+00 -1.103077E+00
       772   2  5.423758E+00 -4.537585E+01  5.052431E+00 -4.563076E+00 -2.566852E+00 -8.207823E-01
       772   3 -1.166435E+01 -9.403945E+01 -3.284493E+00 -5.063666E+00  1.822242E+00 -6.196428E-01
       772   4  5.272818E+00 -4.573541E+01  4.868680E+00 -4.634698E+00  1.801621E+00 -5.012243E-01
       772   5 -1.210878E+01 -9.348527E+01 -2.163206E+00 -1.828345E+01 -2.271270E+00 -1.216211E+00
       772   6  4.561969E+00 -4.551840E+01  5.439074E+00 -1.786025E+01 -2.286847E+00 -9.042827E-01
       772   7 -1.231232E+01 -9.396870E+01 -2.400685E+00 -1.820223E+01  2.243077E+00 -7.344012E-01
       772   8  4.417641E+00 -4.587186E+01  5.269012E+00 -1.777327E+01  2.227355E+00 -5.859238E-01
       773   1 -1.082925E+01 -2.315289E+01 -1.504888E+00 -5.297877E+00 -2.559205E+00 -6.273597E-01
       773   2  4.950706E+00  2.241550E+01  5.526559E+00 -4.401841E+00 -2.576929E+00 -3.812141E-01
       773   3 -1.101529E+01 -2.346764E+01 -1.674525E+00 -5.322197E+00  1.786098E+00 -4.241718E-01
       773   4  4.800726E+00  2.217348E+01  5.404421E+00 -4.418069E+00  1.768073E+00 -3.320792E-01
       773   5 -1.324264E+01 -2.404344E+01 -2.059999E+00 -1.795446E+01 -2.256247E+00 -6.943929E-01
       773   6  2.344591E+00  2.133223E+01  4.521756E+00 -1.705843E+01 -2.267192E+00 -4.328911E-01
       773   7 -1.341107E+01 -2.434858E+01 -2.215207E+00 -1.781497E+01  2.226885E+00 -4.921676E-01
       773   8  2.209455E+00  2.109705E+01  4.407590E+00 -1.691084E+01  2.215736E+00 -3.844982E-01
       774   1 -9.012177E+00  4.426293E+01 -3.671738E-01 -1.877791E+00 -2.486137E+00 -2.084243E-01
       774   2  6.014870E+00  8.793467E+01  6.051248E+00 -1.040816E+00 -2.503197E+00  1.750045E-02
       774   3 -9.136897E+00  4.406188E+01 -4.594028E-01 -1.872311E+00  1.789664E+00 -2.632520E-01
       774   4  5.908399E+00  8.776653E+01  5.986934E+00 -1.029952E+00  1.772403E+00 -1.673054E-01
       774   5 -1.157283E+01  4.312474E+01 -1.600494E+00 -1.404841E+01 -2.151231E+00 -2.522322E-01
       774   6  3.291225E+00  8.663349E+01  4.437623E+00 -1.321144E+01 -2.163781E+00 -2.016480E-02
       774   7 -1.167912E+01  4.293100E+01 -1.686776E+00 -1.387679E+01  2.242432E+00 -3.076889E-01
       774   8  3.200845E+00  8.647033E+01  4.373796E+00 -1.303443E+01  2.229746E+00 -2.055115E-01
       775   1 -7.528197E+00  1.097665E+02  3.564715E-01  3.255347E+00 -2.345906E+00  1.850678E-01
       775   2  8.057006E+00  1.547172E+02  7.356460E+00  3.804002E+00 -2.336590E+00  4.169454E-01
       775   3 -7.683688E+00  1.095813E+02  2.812686E-01  3.223591E+00  1.918855E+00 -9.189449E-02
       775   4  7.898813E+00  1.545166E+02  7.287651E+00  3.765450E+00  1.928424E+00  1.818531E-02
       775   5 -9.510113E+00  1.087170E+02 -1.159816E+00 -9.221530E+00 -1.987618E+00  1.477042E-01
       775   6  5.921741E+00  1.535143E+02  5.482358E+00 -8.672876E+00 -1.983996E+00  3.742634E-01
       775   7 -9.627604E+00  1.085453E+02 -1.228310E+00 -9.071341E+00  2.388364E+00 -1.297946E-01
       775   8  5.799346E+00  1.533250E+02  5.415120E+00 -8.529482E+00  2.392158E+00 -2.510961E-02
       776   1 -1.304593E+01 -1.659383E+02 -4.451372E+00 -3.629620E+00 -2.757245E+00 -4.750658E+00
       776   2  5.841281E+00 -1.117947E+02  4.362417E+00 -3.525623E+00 -3.047933E+00 -2.649314E+00
       776   3 -1.327101E+01 -1.683535E+02 -5.290924E+00 -1.749451E+00  2.209286E+00 -3.626220E+00
       776   4  5.668106E+00 -1.141051E+02  3.591072E+00 -1.853882E+00  1.922023E+00 -2.021450E+00
       776   5 -1.185034E+01 -1.645486E+02 -1.014730E+00 -2.007843E+01 -3.040064E+00 -5.493111E+00
       776   6  6.351407E+00 -1.110905E+02  6.199635E+00 -1.997444E+01 -3.522727E+00 -3.367406E+00
       776   7 -1.137907E+01 -1.666539E+02 -1.517661E+00 -1.801059E+01  2.434822E+00 -4.378369E+00
       776   8  6.865622E+00 -1.131000E+02  5.744023E+00 -1.811502E+01  1.953076E+00 -2.748919E+00
       777   1 -1.496248E+01 -8.772319E+01 -3.902423E+00 -1.196718E+01 -2.496023E+00 -1.670921E+00
       777   2  3.264594E+00 -3.583734E+01  4.968624E+00 -1.048886E+01 -2.884289E+00 -1.099242E+00
       777   3 -1.484467E+01 -8.986305E+01 -4.524323E+00 -9.550149E+00  2.128336E+00 -1.300603E+00
       777   4  3.408349E+00 -3.792346E+01  4.379470E+00 -8.267233E+00  1.743280E+00 -9.359805E-01
       777   5 -1.929615E+01 -8.929804E+01 -4.818247E+00 -2.767063E+01 -2.500732E+00 -2.375409E+00
       777   6 -1.354833E+00 -3.769795E+01  3.386042E+00 -2.619232E+01 -3.068974E+00 -1.790927E+00
       777   7 -1.847973E+01 -9.113481E+01 -5.128449E+00 -2.506398E+01  2.353405E+00 -2.014291E+00
       777   8 -5.162027E-01 -3.948470E+01  3.099878E+00 -2.378106E+01  1.786024E+00 -1.636698E+00
       778   1 -1.411198E+01 -1.261958E+01 -2.105431E+00 -9.956786E+00 -2.411031E+00 -7.708821E-01
       778   2  1.905960E+00  3.394900E+01  4.719143E+00 -8.252858E+00 -2.782285E+00 -4.454633E-01
       778   3 -1.399678E+01 -1.463848E+01 -2.677403E+00 -7.998848E+00  2.144011E+00 -7.388605E-01
       778   4  2.115324E+00  3.214485E+01  4.246279E+00 -6.455828E+00  1.775401E+00 -5.649409E-01
       778   5 -1.964893E+01 -1.497666E+01 -4.425437E+00 -2.421014E+01 -2.337872E+00 -1.437551E+00
       778   6 -3.838929E+00  3.138397E+01  1.913938E+00 -2.250621E+01 -2.857333E+00 -1.056590E+00
       778   7 -1.894290E+01 -1.674215E+01 -4.743508E+00 -2.212400E+01  2.386283E+00 -1.414236E+00
       778   8 -3.041457E+00  2.983053E+01  1.688639E+00 -2.058098E+01  1.867530E+00 -1.184049E+00
       779   1 -1.092382E+01  5.636274E+01 -1.075771E+00 -3.626512E+00 -2.299831E+00 -2.471762E-01
       779   2  3.527505E+00  9.911002E+01  4.348028E+00 -2.132476E+00 -2.551999E+00 -3.086453E-02
       779   3 -1.103730E+01  5.457324E+01 -1.637254E+00 -2.186857E+00  2.182902E+00 -4.574352E-01
       779   4  3.543567E+00  9.761967E+01  3.919217E+00 -8.456535E-01  1.933245E+00 -3.376441E-01
       779   5 -1.610745E+01  5.396726E+01 -3.877045E+00 -1.682795E+01 -2.135249E+00 -8.093841E-01
       779   6 -1.787556E+00  9.658312E+01  1.240089E+00 -1.533392E+01 -2.528186E+00 -5.149650E-01
       779   7 -1.566932E+01  5.241191E+01 -4.209692E+00 -1.529623E+01  2.457818E+00 -1.026985E+00
       779   8 -1.221595E+00  9.532519E+01  1.036110E+00 -1.395502E+01  2.065554E+00 -8.280666E-01
       780   1 -7.699784E+00  1.212027E+02 -1.120676E+00  4.021780E+00 -2.464189E+00  1.535401E-01
       780   2  6.808307E+00  1.643706E+02  4.071720E+00  4.693578E+00 -2.573715E+00  4.410312E-01
       780   3 -8.070426E+00  1.196711E+02 -1.678200E+00  4.629031E+00  2.175088E+00 -1.456774E-01
       780   4  6.486402E+00  1.629566E+02  3.559064E+00  5.160382E+00  2.067870E+00  2.589941E-01
       780   5 -1.031811E+01  1.198380E+02 -3.051084E+00 -9.349418E+00 -2.074516E+00 -2.903649E-01
       780   6  4.352660E+00  1.631686E+02  2.520896E+00 -8.677620E+00 -2.313403E+00  2.883495E-02
       780   7 -1.021325E+01  1.185072E+02 -3.415375E+00 -8.601509E+00  2.469903E+00 -5.953795E-01
       780   8  4.508384E+00  1.619574E+02  2.206429E+00 -8.070157E+00  2.231634E+00 -1.585851E-01
       781   1 -1.301569E+01 -1.697118E+02 -4.732857E+00 -9.952279E-01 -2.975015E+00 -7.344443E+00
       781   2  6.128549E+00 -1.151769E+02  4.546380E+00 -1.207974E+00 -3.203096E+00 -5.153355E+00
       781   3 -1.354751E+01 -1.724647E+02 -5.759723E+00 -8.295640E-01  1.913989E+00 -6.359475E+00
       781   4  5.733652E+00 -1.176213E+02  3.667427E+00 -1.127597E+00  1.687310E+00 -4.504178E+00
       781   5 -1.102585E+01 -1.681101E+02 -1.383773E+00 -1.713803E+01 -3.261589E+00 -8.135703E+00
       781   6  7.666852E+00 -1.140268E+02  6.841884E+00 -1.735078E+01 -3.566448E+00 -5.867384E+00
       781   7 -1.128040E+01 -1.707342E+02 -2.258453E+00 -1.683677E+01  1.960281E+00 -7.161306E+00
       781   8  7.543201E+00 -1.163483E+02  6.101040E+00 -1.713481E+01  1.655797E+00 -5.227747E+00
       782   1 -1.430137E+01 -9.082125E+01 -3.477655E+00 -8.364265E+00 -3.104670E+00 -3.909346E+00
       782   2  3.894319E+00 -3.889143E+01  5.244826E+00 -7.173831E+00 -3.303256E+00 -2.701737E+00
       782   3 -1.479962E+01 -9.316320E+01 -4.348105E+00 -7.552201E+00  1.594198E+00 -3.466634E+00
       782   4  3.479264E+00 -4.104674E+01  4.465044E+00 -6.416515E+00  1.396512E+00 -2.487307E+00
       782   5 -1.752100E+01 -9.186890E+01 -3.750186E+00 -2.375147E+01 -3.318809E+00 -4.578062E+00
       782   6  3.675803E-01 -4.024619E+01  4.255699E+00 -2.256104E+01 -3.566680E+00 -3.323888E+00
       782   7 -1.778887E+01 -9.410768E+01 -4.507108E+00 -2.278311E+01  1.612426E+00 -4.144285E+00
       782   8  1.788011E-01 -4.230243E+01  3.579871E+00 -2.164742E+01  1.364796E+00 -3.117769E+00
       783   1 -1.354318E+01 -1.557479E+01 -1.873784E+00 -6.931147E+00 -2.848943E+00 -2.005372E+00
       783   2  2.623693E+00  3.134166E+01  5.099348E+00 -5.470672E+00 -3.048146E+00 -1.310475E+00
       783   3 -1.391430E+01 -1.760663E+01 -2.597479E+00 -5.978791E+00  1.716715E+00 -1.928883E+00
       783   4  2.325932E+00  2.947614E+01  4.453869E+00 -4.581167E+00  1.518545E+00 -1.382569E+00
       783   5 -1.811762E+01 -1.748455E+01 -3.665205E+00 -2.095701E+01 -2.878217E+00 -2.595163E+00
       783   6 -2.150349E+00  2.923230E+01  2.842175E+00 -1.949653E+01 -3.134001E+00 -1.858426E+00
       783   7 -1.822804E+01 -1.940398E+01 -4.274914E+00 -1.986158E+01  1.843363E+00 -2.526554E+00
       783   8 -2.190080E+00  2.747651E+01  2.304459E+00 -1.846395E+01  1.587857E+00 -1.937840E+00
       784   1 -1.068141E+01  5.378453E+01 -8.426788E-01 -1.390381E+00 -2.599664E+00 -8.512189E-01
       784   2  3.940321E+00  9.695691E+01  4.724057E+00 -1.224024E-01 -2.764995E+00 -2.914054E-01
       784   3 -1.104235E+01  5.197357E+01 -1.487157E+00 -6.576354E-01  1.902745E+00 -1.007722E+00
       784   4  3.627074E+00  9.525455E+01  4.129948E+00  5.650493E-01  1.738159E+00 -5.299346E-01
       784   5 -1.495418E+01  5.182522E+01 -3.100940E+00 -1.441324E+01 -2.474547E+00 -1.373820E+00
       784   6 -4.425387E-01  9.488751E+01  2.208921E+00 -1.314526E+01 -2.680653E+00 -7.865900E-01
       784   7 -1.512203E+01  5.009530E+01 -3.668369E+00 -1.353622E+01  2.119622E+00 -1.537305E+00
       784   8 -5.641627E-01  9.326472E+01  1.688430E+00 -1.231353E+01  1.913716E+00 -1.031735E+00
       785   1 -7.802944E+00  1.190346E+02 -7.986857E-01  4.941894E+00 -2.435550E+00  1.984431E-01
       785   2  6.946610E+00  1.625173E+02  4.883804E+00  5.401845E+00 -2.549087E+00  9.769204E-01
       785   3 -8.249533E+00  1.172767E+02 -1.447864E+00  5.188995E+00  2.077255E+00 -7.769818E-02
       785   4  6.456347E+00  1.606568E+02  4.191648E+00  5.595889E+00  1.964589E+00  6.800474E-01
       785   5 -9.656616E+00  1.180201E+02 -2.326610E+00 -8.164206E+00 -2.215586E+00 -2.964154E-01
       785   6  5.064289E+00  1.614742E+02  3.289032E+00 -7.704255E+00 -2.376887E+00  4.555366E-01
       785   7 -9.921815E+00  1.163370E+02 -2.907850E+00 -7.717786E+00  2.331491E+00 -5.791681E-01
       785   8  4.755034E+00  1.596881E+02  2.663922E+00 -7.310892E+00  2.170424E+00  1.516978E-01
       786   1 -1.347248E+01 -1.738014E+02 -5.490979E+00 -7.839413E-01 -2.876082E+00 -6.400969E+00
       786   2  6.087275E+00 -1.185860E+02  4.492781E+00 -1.131940E+00 -3.054306E+00 -4.950883E+00
       786   3 -1.379271E+01 -1.757485E+02 -6.205521E+00 -8.325271E-01  1.884071E+00 -5.586487E+00
       786   4  5.834138E+00 -1.203840E+02  3.852784E+00 -1.231109E+00  1.706678E+00 -4.363782E+00
       786   5 -1.132597E+01 -1.722753E+02 -2.550587E+00 -1.667622E+01 -3.037453E+00 -6.954529E+00
       786   6  7.934726E+00 -1.173590E+02  6.735389E+00 -1.702422E+01 -3.260161E+00 -5.468383E+00
       786   7 -1.149066E+01 -1.741475E+02 -3.170828E+00 -1.654643E+01  1.942448E+00 -6.147618E+00
       786   8  7.833050E+00 -1.190861E+02  6.180149E+00 -1.694501E+01  1.719964E+00 -4.888360E+00
       787   1 -1.449479E+01 -9.401948E+01 -3.367207E+00 -7.189724E+00 -3.193630E+00 -4.013727E+00
       787   2  3.842922E+00 -4.177700E+01  5.516028E+00 -6.081009E+00 -3.313845E+00 -2.903454E+00
       787   3 -1.498650E+01 -9.583293E+01 -4.076738E+00 -7.017932E+00  1.507967E+00 -3.583603E+00
       787   4  3.415920E+00 -4.344608E+01  4.877800E+00 -5.927489E+00  1.388053E+00 -2.674820E+00
       787   5 -1.739873E+01 -9.494673E+01 -3.554103E+00 -2.230161E+01 -3.369916E+00 -4.505206E+00
       787   6  6.740653E-01 -4.296917E+01  4.710980E+00 -2.119289E+01 -3.506198E+00 -3.359902E+00
       787   7 -1.777992E+01 -9.670848E+01 -4.201806E+00 -2.196094E+01  1.527068E+00 -4.081804E+00
       787   8  3.539497E-01 -4.459017E+01  4.126125E+00 -2.087049E+01  1.390866E+00 -3.137511E+00
       788   1 -1.356034E+01 -1.828006E+01 -1.542891E+00 -5.504085E+00 -3.019823E+00 -2.216654E+00
       788   2  2.696913E+00  2.887583E+01  5.492083E+00 -4.135463E+00 -3.118884E+00 -1.450553E+00
       788   3 -1.403493E+01 -1.989487E+01 -2.173669E+00 -5.164740E+00  1.568984E+00 -2.115919E+00
       788   4  2.270721E+00  2.736909E+01  4.914548E+00 -3.811636E+00  1.470178E+00 -1.497759E+00
       788   5 -1.770828E+01 -1.998792E+01 -3.087849E+00 -1.927609E+01 -3.070906E+00 -2.650674E+00
       788   6 -1.645520E+00  2.697346E+01  3.493288E+00 -1.790746E+01 -3.183613E+00 -1.858330E+00
       788   7 -1.807581E+01 -2.155590E+01 -3.669564E+00 -1.877715E+01  1.663919E+00 -2.555876E+00
       788   8 -1.967321E+00  2.551090E+01  2.958608E+00 -1.742405E+01  1.551280E+00 -1.911114E+00
       789   1 -1.069815E+01  5.140507E+01 -4.543057E-01 -2.807339E-01 -2.728653E+00 -9.357481E-01
       789   2  4.008769E+00  9.475459E+01  5.219246E+00  9.183437E-01 -2.819154E+00 -2.953761E-01
       789   3 -1.111956E+01  4.994502E+01 -1.012524E+00  1.237926E-02  1.768828E+00 -1.073956E+00
       789   4  3.607255E+00  9.333765E+01  4.684219E+00  1.192742E+00  1.678633E+00 -5.342648E-01
       789   5 -1.463132E+01  4.960970E+01 -2.505723E+00 -1.304719E+01 -2.659590E+00 -1.330183E+00
       789   6 -5.695281E-02  9.282666E+01  2.858529E+00 -1.184811E+01 -2.766550E+00 -6.796030E-01
       789   7 -1.494726E+01  4.819334E+01 -3.023749E+00 -1.259202E+01  1.940320E+00 -1.473786E+00
       789   8 -3.548242E-01  9.145160E+01  2.359464E+00 -1.141166E+01  1.833443E+00 -9.237472E-01
       790   1 -7.880418E+00  1.167972E+02 -2.781010E-01  5.303330E+00 -2.454142E+00  2.100076E-01
       790   2  6.911231E+00  1.602322E+02  5.592359E+00  5.680107E+00 -2.524612E+00  9.503697E-01
       790   3 -8.303499E+00  1.153712E+02 -8.194590E-01  5.365570E+00  1.989398E+00 -9.569671E-02
       790   4  6.471684E+00  1.587651E+02  5.037233E+00  5.713570E+00  1.919401E+00  5.628026E-01
       790   5 -9.468698E+00  1.158807E+02 -1.744948E+00 -7.463474E+00 -2.332336E+00 -1.744500E-01
       790   6  5.214697E+00  1.592074E+02  3.872923E+00 -7.086697E+00 -2.428113E+00  5.550733E-01
       790   7 -9.792988E+00  1.144938E+02 -2.254719E+00 -7.218127E+00  2.195857E+00 -4.854130E-01
       790   8  4.872462E+00  1.577780E+02  3.345928E+00 -6.870128E+00  2.100206E+00  1.620993E-01
       791   1 -1.378356E+01 -1.767130E+02 -6.170175E+00 -8.945320E-01 -2.674799E+00 -4.298249E+00
       791   2  6.046650E+00 -1.210917E+02  4.309240E+00 -1.321410E+00 -2.786363E+00 -3.433160E+00
       791   3 -1.397635E+01 -1.779302E+02 -6.623317E+00 -1.020713E+00  1.983625E+00 -3.586069E+00
       791   4  5.905935E+00 -1.221933E+02  3.914078E+00 -1.473854E+00  1.872493E+00 -2.901067E+00
       791   5 -1.157397E+01 -1.752467E+02 -3.492057E+00 -1.647434E+01 -2.750826E+00 -4.636195E+00
       791   6  8.024986E+00 -1.198566E+02  6.447766E+00 -1.690121E+01 -2.884939E+00 -3.743830E+00
       791   7 -1.169308E+01 -1.764250E+02 -3.889367E+00 -1.641254E+01  2.074191E+00 -3.928749E+00
       791   8  7.954714E+00 -1.209226E+02  6.100877E+00 -1.686568E+01  1.940194E+00 -3.216089E+00
       792   1 -1.484491E+01 -9.647274E+01 -3.482792E+00 -6.967578E+00 -2.963382E+00 -2.847696E+00
       792   2  3.647876E+00 -4.394810E+01  5.635197E+00 -5.884286E+00 -3.042417E+00 -2.113267E+00
       792   3 -1.515214E+01 -9.758482E+01 -3.925489E+00 -7.006423E+00  1.707994E+00 -2.446419E+00
       792   4  3.381982E+00 -4.496956E+01  5.239643E+00 -5.924070E+00  1.628974E+00 -1.889301E+00
       792   5 -1.763624E+01 -9.737784E+01 -3.708473E+00 -2.178160E+01 -3.051739E+00 -3.140637E+00
       792   6  6.287243E-01 -4.508103E+01  4.877917E+00 -2.069830E+01 -3.131581E+00 -2.385048E+00
       792   7 -1.788789E+01 -9.846203E+01 -4.113757E+00 -2.163693E+01  1.783253E+00 -2.743464E+00
       792   8  4.152063E-01 -4.607779E+01  4.512328E+00 -2.055457E+01  1.703415E+00 -2.164890E+00
       793   1 -1.383267E+01 -2.035305E+01 -1.371714E+00 -5.016927E+00 -2.900426E+00 -1.635880E+00
       793   2  2.508222E+00  2.698149E+01  5.763381E+00 -3.670757E+00 -2.950142E+00 -1.066062E+00
       793   3 -1.418981E+01 -2.136712E+01 -1.787304E+00 -4.956533E+00  1.687933E+00 -1.531988E+00
       793   4  2.182105E+00  2.603488E+01  5.383763E+00 -3.613557E+00  1.638270E+00 -1.112907E+00
       793   5 -1.780714E+01 -2.198358E+01 -2.832332E+00 -1.850842E+01 -2.914381E+00 -1.894192E+00
       793   6 -1.659992E+00  2.515722E+01  3.850696E+00 -1.716225E+01 -2.966839E+00 -1.308736E+00
       793   7 -1.809623E+01 -2.296746E+01 -3.215355E+00 -1.827726E+01  1.813783E+00 -1.793919E+00
       793   8 -1.920767E+00  2.423808E+01  3.497312E+00 -1.693428E+01  1.761339E+00 -1.358982E+00
       794   1 -1.088096E+01  4.958584E+01 -1.462522E-01  1.452643E-01 -2.681307E+00 -6.781137E-01
       794   2  3.860183E+00  9.300550E+01  5.571210E+00  1.315332E+00 -2.720599E+00 -1.880378E-01
       794   3 -1.121794E+01  4.866089E+01 -5.184834E-01  2.114875E-01  1.817519E+00 -8.222007E-01
       794   4  3.534500E+00  9.210314E+01  5.214051E+00  1.372322E+00  1.778379E+00 -4.470555E-01
       794   5 -1.463762E+01  4.786649E+01 -2.120744E+00 -1.233846E+01 -2.627743E+00 -9.132903E-01
       794   6 -4.437370E-02  9.113826E+01  3.251631E+00 -1.116839E+01 -2.674962E+00 -4.183675E-01
       794   7 -1.490027E+01  4.697186E+01 -2.466228E+00 -1.210460E+01  1.979205E+00 -1.060672E+00
       794   8 -2.978031E-01  9.026415E+01  2.916385E+00 -1.094377E+01  1.932026E+00 -6.806121E-01
       795   1 -8.023716E+00  1.150614E+02  1.170310E-01  5.376226E+00 -2.430397E+00  1.798087E-01
       795   2  6.790963E+00  1.584808E+02  6.079860E+00  5.708441E+00 -2.468028E+00  6.947084E-01
       795   3 -8.305740E+00  1.141777E+02 -2.182090E-01  5.339729E+00  1.983805E+00 -1.543584E-01
       795   4  6.501168E+00  1.575760E+02  5.739823E+00  5.657875E+00  1.946406E+00  2.701599E-01
       795   5 -9.472048E+00  1.141915E+02 -1.334241E+00 -7.075385E+00 -2.339206E+00 -5.084213E-02
       795   6  5.226091E+00  1.574944E+02  4.356664E+00 -6.743170E+00 -2.388916E+00  4.583332E-01
       795   7 -9.703915E+00  1.133258E+02 -1.659621E+00 -6.934121E+00  2.161271E+00 -3.882407E-01
       795   8  4.984821E+00  1.566060E+02  4.022677E+00 -6.615976E+00  2.111623E+00  3.047311E-02
       796   1 -1.391416E+01 -1.784121E+02 -6.516550E+00 -1.114831E+00 -2.428429E+00 -1.689538E+00
       796   2  6.015325E+00 -1.225850E+02  4.087987E+00 -1.580348E+00 -2.485826E+00 -1.342192E+00
       796   3 -1.394477E+01 -1.788960E+02 -6.698382E+00 -1.250269E+00  2.225718E+00 -1.043785E+00
       796   4  6.028188E+00 -1.229718E+02  3.953884E+00 -1.722969E+00  2.168439E+00 -8.263455E-01
       796   5 -1.172151E+01 -1.770106E+02 -4.037568E+00 -1.636707E+01 -2.449061E+00 -1.824927E+00
       796   6  8.045287E+00 -1.213462E+02  6.187367E+00 -1.683258E+01 -2.512474E+00 -1.455083E+00
       796   7 -1.173906E+01 -1.774823E+02 -4.191702E+00 -1.630913E+01  2.319639E+00 -1.181117E+00
       796   8  8.068879E+00 -1.217231E+02  6.075512E+00 -1.678183E+01  2.256258E+00 -9.408568E-01
       797   1 -1.513729E+01 -9.796267E+01 -3.724319E+00 -7.062056E+00 -2.615248E+00 -1.106661E+00
       797   2  3.484480E+00 -4.523106E+01  5.616645E+00 -5.980407E+00 -2.643075E+00 -8.105238E-01
       797   3 -1.529144E+01 -9.837627E+01 -3.911686E+00 -7.179184E+00  2.017611E+00 -7.057272E-01
       797   4  3.356397E+00 -4.558989E+01  5.461379E+00 -6.098520E+00  1.989800E+00 -5.936314E-01
       797   5 -1.785296E+01 -9.884004E+01 -3.933235E+00 -2.155471E+01 -2.612608E+00 -1.206915E+00
       797   6  5.378430E-01 -4.633941E+01  4.868798E+00 -2.047306E+01 -2.641260E+00 -8.987527E-01
       797   7 -1.795148E+01 -9.922570E+01 -4.083055E+00 -2.147873E+01  2.179755E+00 -8.074207E-01
       797   8  4.620627E-01 -4.667360E+01  4.743341E+00 -2.039807E+01  2.151107E+00 -6.831269E-01
       798   1 -1.410975E+01 -2.159767E+01 -1.362021E+00 -4.959903E+00 -2.599736E+00 -6.156416E-01
       798   2  2.283146E+00  2.584535E+01  5.837945E+00 -3.617460E+00 -2.616937E+00 -3.793506E-01
       798   3 -1.427416E+01 -2.194591E+01 -1.519729E+00 -5.033453E+00  1.989865E+00 -5.224218E-01
       798   4  2.136020E+00  2.553238E+01  5.702567E+00 -3.689178E+00  1.972633E+00 -4.399694E-01
       798   5 -1.798726E+01 -2.319366E+01 -2.804493E+00 -1.815254E+01 -2.563052E+00 -6.967108E-01
       798   6 -1.787497E+00  2.405623E+01  3.944839E+00 -1.681009E+01 -2.578720E+00 -4.528845E-01
       798   7 -1.809888E+01 -2.351833E+01 -2.936427E+00 -1.804690E+01  2.160326E+00 -6.046549E-01
       798   8 -1.884602E+00  2.376405E+01  3.828766E+00 -1.670262E+01  2.144650E+00 -5.145590E-01
       799   1 -1.110588E+01  4.849581E+01 -3.364555E-02  2.181036E-01 -2.487871E+00 -2.160918E-01
       799   2  3.675960E+00  9.197253E+01  5.762430E+00  1.377463E+00 -2.503803E+00 -6.351272E-03
       799   3 -1.123875E+01  4.820107E+01 -1.548039E-01  1.662418E-01  1.998543E+00 -3.815459E-01
       799   4  3.548125E+00  9.168518E+01  5.650664E+00  1.331091E+00  1.982520E+00 -3.043822E-01
       799   5 -1.476366E+01  4.680839E+01 -2.000592E+00 -1.197383E+01 -2.423001E+00 -2.865058E-01
       799   6 -1.483946E-01  9.011854E+01  3.406815E+00 -1.081447E+01 -2.434335E+00 -7.577702E-02
       799   7 -1.486683E+01  4.652466E+01 -2.114755E+00 -1.185412E+01  2.179195E+00 -4.529708E-01
       799   8 -2.489210E-01  8.983980E+01  3.296464E+00 -1.068927E+01  2.167837E+00 -3.748047E-01
       800   1 -8.162261E+00  1.140443E+02  3.232512E-01  5.303619E+00 -2.321705E+00  1.549942E-01
       800   2  6.602651E+00  1.573929E+02  6.191080E+00  5.614699E+00 -2.316770E+00  3.860578E-01
       800   3 -8.314183E+00  1.137447E+02  2.034938E-01  5.238198E+00  2.120257E+00 -2.109879E-01
       800   4  6.446164E+00  1.570809E+02  6.068503E+00  5.544216E+00  2.125276E+00 -3.299374E-02
       800   5 -9.549092E+00  1.131862E+02 -1.150393E+00 -6.841048E+00 -2.253129E+00  8.472923E-02
       800   6  5.149052E+00  1.564679E+02  4.561643E+00 -6.529968E+00 -2.252433E+00  3.125117E-01
       800   7 -9.679706E+00  1.128919E+02 -1.273643E+00 -6.731294E+00  2.238162E+00 -2.822617E-01
       800   8  5.012913E+00  1.561604E+02  4.433337E+00 -6.425276E+00  2.238880E+00 -1.075958E-01
       801   1 -2.076110E+01 -1.990772E+02 -1.233599E+01  7.387422E+00 -2.350351E+00 -1.124503E+00
       801   2  4.906659E+00 -1.295366E+02  3.580508E+00  6.329105E+00 -2.278059E+00 -9.404108E-01
       801   3 -2.080993E+01 -1.986966E+02 -1.223439E+01  7.335830E+00  2.525174E+00 -1.604337E+00
       801   4  4.851584E+00 -1.291703E+02  3.675603E+00  6.276842E+00  2.594213E+00 -1.233266E+00
       801   5 -2.079778E+01 -1.962956E+02 -1.002648E+01  2.690964E+01 -2.366251E+00 -1.241884E+00
       801   6  4.717250E+00 -1.270585E+02  5.405475E+00  2.480660E+01 -2.299873E+00 -1.061243E+00
       801   7 -2.085025E+01 -1.959288E+02 -9.924310E+00  2.679665E+01  2.674893E+00 -1.715272E+00
       801   8  4.658353E+00 -1.267057E+02  5.500229E+00  2.469622E+01  2.729134E+00 -1.348028E+00
       802   1 -2.180190E+01 -1.015111E+02 -5.320669E+00  9.093417E+00 -2.225867E+00 -8.202203E-01
       802   2 -1.343108E+00 -4.421230E+01  5.254704E+00  6.642702E+00 -2.194913E+00 -6.774672E-01
       802   3 -2.171203E+01 -1.010940E+02 -5.167112E+00  9.074881E+00  2.684926E+00 -9.846930E-01
       802   4 -1.266237E+00 -4.382501E+01  5.395071E+00  6.621425E+00  2.713081E+00 -6.808938E-01
       802   5 -2.743217E+01 -1.015140E+02 -6.131643E+00  2.696934E+01 -2.250785E+00 -9.411112E-01
       802   6 -6.881080E+00 -4.439853E+01  4.055429E+00  2.364316E+01 -2.223113E+00 -7.967594E-01
       802   7 -2.733860E+01 -1.011075E+02 -5.976028E+00  2.688979E+01  2.815849E+00 -1.099548E+00
       802   8 -6.801141E+00 -4.402174E+01  4.196683E+00  2.356386E+01  2.833077E+00 -7.944604E-01
       803   1 -1.972290E+01 -1.931208E+01 -2.047590E+00  2.761665E+00 -2.207767E+00 -5.874243E-01
       803   2 -2.603922E+00  3.003442E+01  5.349474E+00  3.654532E-01 -2.192244E+00 -4.799657E-01
       803   3 -1.959570E+01 -1.891316E+01 -1.888906E+00  2.765770E+00  2.617864E+00 -4.871720E-01
       803   4 -2.484145E+00  3.041694E+01  5.500651E+00  3.697115E-01  2.631071E+00 -2.466190E-01
       803   5 -2.633082E+01 -2.004665E+01 -3.993374E+00  1.971966E+01 -2.241585E+00 -7.067054E-01
       803   6 -9.109965E+00  2.913656E+01  3.033165E+00  1.655786E+01 -2.231584E+00 -6.003466E-01
       803   7 -2.618845E+01 -1.965292E+01 -3.829329E+00  1.966894E+01  2.723734E+00 -6.010740E-01
       803   8 -8.976209E+00  2.951361E+01  3.188296E+00  1.650977E+01  2.725091E+00 -3.618841E-01
       804   1 -1.512491E+01  5.307161E+01 -5.516046E-01 -5.535638E+00 -2.231984E+00 -4.098447E-01
       804   2 -4.221771E-01  9.656778E+01  4.709377E+00 -7.453783E+00 -2.222931E+00 -3.191914E-01
       804   3 -1.498647E+01  5.345541E+01 -3.947131E-01 -5.523341E+00  2.457540E+00 -9.411107E-02
       804   4 -2.900412E-01  9.693755E+01  4.859831E+00 -7.441918E+00  2.464707E+00  1.049029E-01
       804   5 -2.094636E+01  5.240073E+01 -2.845911E+00  1.080613E+01 -2.278245E+00 -5.315455E-01
       804   6 -6.201445E+00  9.572344E+01  2.040806E+00  8.203740E+00 -2.273634E+00 -4.420176E-01
       804   7 -2.079913E+01  5.277652E+01 -2.688128E+00  1.076575E+01  2.533852E+00 -2.111428E-01
       804   8 -6.061402E+00  9.608503E+01  2.190910E+00  8.165135E+00  2.531426E+00 -1.346910E-02
       805   1 -9.047796E+00  1.176234E+02 -3.598535E-01 -1.209109E+01 -2.271557E+00 -2.537246E-01
       805   2  2.928174E+00  1.545847E+02  2.482766E+00 -1.307679E+01 -2.274223E+00 -1.588803E-01
       805   3 -8.877173E+00  1.180105E+02 -1.929245E-01 -1.209064E+01  2.276328E+00  2.357851E-01
       805   4  3.105314E+00  1.549873E+02  2.655993E+00 -1.307738E+01  2.272146E+00  4.177571E-01
       805   5 -1.191113E+01  1.178957E+02 -2.055869E+00  3.137505E+00 -2.328770E+00 -3.815488E-01
       805   6 -2.470101E-02  1.546449E+02  3.832007E-01  1.557291E+00 -2.334878E+00 -2.975793E-01
       805   7 -1.174349E+01  1.182711E+02 -1.894299E+00  3.098357E+00  2.324780E+00  1.119171E-01
       805   8  1.490459E-01  1.550358E+02  5.500700E-01  1.518635E+00  2.313015E+00  2.828117E-01
       806   1 -2.077190E+01 -1.980877E+02 -1.199867E+01  7.289269E+00 -2.045954E+00 -3.741811E+00
       806   2  4.774342E+00 -1.286860E+02  3.650787E+00  6.223877E+00 -1.905591E+00 -2.997828E+00
       806   3 -2.068050E+01 -1.968634E+02 -1.160175E+01  7.214534E+00  2.902587E+00 -4.273764E+00
       806   4  4.853838E+00 -1.274911E+02  4.034939E+00  6.132253E+00  3.039405E+00 -3.323648E+00
       806   5 -2.077603E+01 -1.952806E+02 -9.562362E+00  2.670352E+01 -1.947384E+00 -4.083698E+00
       806   6  4.598570E+00 -1.262009E+02  5.555700E+00  2.459918E+01 -1.824301E+00 -3.353306E+00
       806   7 -2.073853E+01 -1.940919E+02 -9.186129E+00  2.656296E+01  3.181436E+00 -4.609385E+00
       806   8  4.626624E+00 -1.250401E+02  5.919279E+00  2.444526E+01  3.291290E+00 -3.673294E+00
       807   1 -2.171943E+01 -1.006290E+02 -5.288538E+00  9.075872E+00 -1.751437E+00 -2.515404E+00
       807   2 -1.358801E+00 -4.346908E+01  5.098647E+00  6.617555E+00 -1.675140E+00 -1.946369E+00
       807   3 -2.141830E+01 -9.936223E+01 -4.816620E+00  9.097890E+00  3.204246E+00 -2.701182E+00
       807   4 -1.093915E+00 -4.228718E+01  5.533821E+00  6.628999E+00  3.277495E+00 -1.955049E+00
       807   5 -2.733018E+01 -1.006319E+02 -6.045969E+00  2.684045E+01 -1.673785E+00 -2.873611E+00
       807   6 -6.897474E+00 -4.367451E+01  3.905330E+00  2.351212E+01 -1.615361E+00 -2.301106E+00
       807   7 -2.705334E+01 -9.938929E+01 -5.584315E+00  2.678598E+01  3.451082E+00 -3.053613E+00
       807   8 -6.656209E+00 -4.251614E+01  4.329529E+00  2.345082E+01  3.498129E+00 -2.304339E+00
       808   1 -1.966796E+01 -1.858055E+01 -2.234568E+00  2.800454E+00 -1.812668E+00 -1.592565E+00
       808   2 -2.578149E+00  3.071073E+01  5.121525E+00  4.019285E-01 -1.763219E+00 -1.170148E+00
       808   3 -1.932216E+01 -1.739834E+01 -1.775330E+00  2.891822E+00  3.018475E+00 -1.491044E+00
       808   4 -2.260729E+00  3.182681E+01  5.552034E+00  4.863761E-01  3.065516E+00 -9.288834E-01
       808   5 -2.626630E+01 -1.933563E+01 -4.190899E+00  1.965794E+01 -1.776657E+00 -1.945875E+00
       808   6 -9.084795E+00  2.978353E+01  2.772404E+00  1.649836E+01 -1.744352E+00 -1.521653E+00
       808   7 -2.593301E+01 -1.817216E+01 -3.738687E+00  1.967932E+01  3.199155E+00 -1.839551E+00
       808   8 -8.779857E+00  3.088119E+01  3.194964E+00  1.651599E+01  3.222474E+00 -1.275848E+00
       809   1 -1.507957E+01  5.373401E+01 -7.823708E-01 -5.486079E+00 -2.007946E+00 -8.985281E-01
       809   2 -3.912029E-01  9.719441E+01  4.466967E+00 -7.408201E+00 -1.959732E+00 -5.434858E-01
       809   3 -1.477203E+01  5.481353E+01 -3.660693E-01 -5.395911E+00  2.679694E+00 -5.745036E-01
       809   4 -1.057180E-01  9.822211E+01  4.860785E+00 -7.327323E+00  2.726118E+00 -1.154015E-01
       809   5 -2.091427E+01  5.302788E+01 -3.116384E+00  1.075983E+01 -2.018096E+00 -1.250401E+00
       809   6 -6.176174E+00  9.632330E+01  1.776668E+00  8.157475E+00 -1.980563E+00 -8.950269E-01
       809   7 -2.063435E+01  5.408240E+01 -2.715304E+00  1.078469E+01  2.785469E+00 -9.227371E-01
       809   8 -5.917649E+00  9.732654E+01  2.154737E+00  8.175780E+00  2.816326E+00 -4.635002E-01
       810   1 -8.985883E+00  1.182551E+02 -6.052006E-01 -1.208721E+01 -2.205857E+00 -2.890077E-01
       810   2  2.979614E+00  1.552231E+02  2.195509E+00 -1.307723E+01 -2.148854E+00  8.615536E-02
       810   3 -8.738572E+00  1.192529E+02 -2.320408E-01 -1.207769E+01  2.357339E+00  2.013453E-01
       810   4  3.237478E+00  1.562451E+02  2.578784E+00 -1.307563E+01  2.412951E+00  6.573927E-01
       810   5 -1.186366E+01  1.185041E+02 -2.312081E+00  3.073719E+00 -2.253126E+00 -6.503923E-01
       810   6  2.500504E-02  1.552732E+02  1.138576E-01  1.491817E+00 -2.205256E+00 -2.990758E-01
       810   7 -1.164804E+01  1.194783E+02 -1.956486E+00  3.046163E+00  2.406589E+00 -1.572201E-01
       810   8  2.519313E-01  1.562721E+02  4.791211E-01  1.457786E+00  2.449266E+00  2.747548E-01
       811   1 -2.050796E+01 -1.955662E+02 -1.102403E+01  7.170037E+00 -1.860457E+00 -5.828929E+00
       811   2  4.732159E+00 -1.265138E+02  3.948882E+00  6.066551E+00 -1.624935E+00 -4.490941E+00
       811   3 -2.033890E+01 -1.934545E+02 -1.033735E+01  7.124283E+00  3.273632E+00 -6.450029E+00
       811   4  4.864466E+00 -1.244922E+02  4.597048E+00  5.979652E+00  3.504945E+00 -4.864595E+00
       811   5 -2.052509E+01 -1.927250E+02 -8.383400E+00  2.646435E+01 -1.650839E+00 -6.411806E+00
       811   6  4.503603E+00 -1.240371E+02  5.952727E+00  2.432834E+01 -1.440720E+00 -5.087140E+00
       811   7 -2.048532E+01 -1.906827E+02 -7.749483E+00  2.633658E+01  3.697248E+00 -7.026110E+00
       811   8  4.512992E+00 -1.220816E+02  6.549674E+00  2.416382E+01  3.891662E+00 -5.454502E+00
       812   1 -2.147547E+01 -9.846114E+01 -5.157398E+00  9.171698E+00 -1.430440E+00 -3.657284E+00
       812   2 -1.303135E+00 -4.158287E+01  4.881519E+00  6.689462E+00 -1.296232E+00 -2.716874E+00
       812   3 -2.099303E+01 -9.632407E+01 -4.369916E+00  9.352240E+00  3.604889E+00 -3.871171E+00
       812   4 -8.743981E-01 -3.957316E+01  5.614211E+00  6.844057E+00  3.735649E+00 -2.728285E+00
       812   5 -2.711339E+01 -9.848049E+01 -5.861345E+00  2.679936E+01 -1.250867E+00 -4.256600E+00
       812   6 -6.899023E+00 -4.183536E+01  3.665865E+00  2.345381E+01 -1.144787E+00 -3.314758E+00
       812   7 -2.670766E+01 -9.639129E+01 -5.106704E+00  2.689131E+01  3.975607E+00 -4.464639E+00
       812   8 -6.543841E+00 -3.987177E+01  4.365893E+00  2.352415E+01  4.068817E+00 -3.320695E+00
       813   1 -1.952692E+01 -1.675065E+01 -2.526795E+00  3.043128E+00 -1.622888E+00 -2.165602E+00
       813   2 -2.505806E+00  3.239604E+01  4.743676E+00  6.274079E-01 -1.511253E+00 -1.544333E+00
       813   3 -1.903575E+01 -1.476485E+01 -1.782881E+00  3.365939E+00  3.215994E+00 -2.060264E+00
       813   4 -2.063393E+00  3.426650E+01  5.437977E+00  9.290126E-01  3.325220E+00 -1.297405E+00
       813   5 -2.617668E+01 -1.755735E+01 -4.527614E+00  1.977385E+01 -1.527066E+00 -2.763062E+00
       813   6 -9.064017E+00  3.141710E+01  2.346312E+00  1.660280E+01 -1.437962E+00 -2.137822E+00
       813   7 -2.575148E+01 -1.561482E+01 -3.814163E+00  2.001152E+01  3.456299E+00 -2.653733E+00
       813   8 -8.685132E+00  3.324570E+01  3.010261E+00  1.682310E+01  3.536416E+00 -1.887153E+00
       814   1 -1.502464E+01  5.534721E+01 -1.179059E+00 -5.263237E+00 -1.961092E+00 -1.154824E+00
       814   2 -3.558974E-01  9.872662E+01  4.083723E+00 -7.206444E+00 -1.849987E+00 -6.445829E-01
       814   3 -1.460634E+01  5.714359E+01 -5.144777E-01 -4.990230E+00  2.709330E+00 -8.310886E-01
       814   4  2.137210E-02  1.004253E+02  4.706405E+00 -6.956426E+00  2.818922E+00 -2.312795E-01
       814   5 -2.092946E+01  5.458642E+01 -3.553173E+00  1.086396E+01 -1.956738E+00 -1.748121E+00
       814   6 -6.182856E+00  9.782832E+01  1.413790E+00  8.245488E+00 -1.856849E+00 -1.234012E+00
       814   7 -2.059392E+01  5.633252E+01 -2.927975E+00  1.105636E+01  2.811571E+00 -1.422261E+00
       814   8 -5.885315E+00  9.947837E+01  1.997737E+00  8.418278E+00  2.905814E+00 -8.187377E-01
       815   1 -9.007259E+00  1.197263E+02 -1.027082E+00 -1.204726E+01 -2.251628E+00 -2.656516E-01
       815   2  2.941946E+00  1.566950E+02  1.716239E+00 -1.305661E+01 -2.144575E+00  3.184649E-01
       815   3 -8.637768E+00  1.213745E+02 -4.220738E-01 -1.197305E+01  2.331908E+00  2.004122E-01
       815   4  3.309770E+00  1.583370E+02  2.318654E+00 -1.300570E+01  2.437867E+00  8.497405E-01
       815   5 -1.191874E+01  1.199690E+02 -2.669314E+00  3.045270E+00 -2.304060E+00 -8.643311E-01
       815   6 -1.244090E-02  1.567716E+02 -2.272084E-01  1.446709E+00 -2.200554E+00 -3.035915E-01
       815   7 -1.164646E+01  1.215644E+02 -2.110084E+00  3.070990E+00  2.355607E+00 -3.970490E-01
       815   8  2.615806E-01  1.583626E+02  3.303058E-01  1.451019E+00  2.455029E+00  2.287114E-01
       816   1 -2.009389E+01 -1.914690E+02 -9.532756E+00  7.142134E+00 -1.845267E+00 -6.725207E+00
       816   2  4.600713E+00 -1.230656E+02  4.258103E+00  5.952963E+00 -1.518207E+00 -4.662785E+00
       816   3 -1.980176E+01 -1.883615E+02 -8.509914E+00  7.238335E+00  3.607990E+00 -7.525047E+00
       816   4  4.836395E+00 -1.200984E+02  5.221182E+00  5.968460E+00  3.928933E+00 -5.100020E+00
       816   5 -2.015531E+01 -1.885435E+02 -6.480156E+00  2.628932E+01 -1.559596E+00 -7.569961E+00
       816   6  4.206297E+00 -1.206330E+02  6.362680E+00  2.407551E+01 -1.264065E+00 -5.524838E+00
       816   7 -2.011266E+01 -1.855577E+02 -5.560518E+00  2.628966E+01  4.204948E+00 -8.359987E+00
       816   8  4.204925E+00 -1.177818E+02  7.225931E+00  2.400027E+01  4.477650E+00 -5.952982E+00
       817   1 -2.124356E+01 -9.502599E+01 -5.100107E+00  9.700388E+00 -1.497333E+00 -3.542231E+00
       817   2 -1.261271E+00 -3.848053E+01  4.630355E+00  7.157555E+00 -1.236431E+00 -2.506531E+00
       817   3 -2.076043E+01 -9.196414E+01 -4.034924E+00  1.047240E+01  3.595947E+00 -3.778614E+00
       817   4 -8.594523E-01 -3.561528E+01  5.611610E+00  7.860671E+00  3.852925E+00 -2.508907E+00
       817   5 -2.704274E+01 -9.512713E+01 -5.826540E+00  2.716713E+01 -1.276124E+00 -4.408558E+00
       817   6 -7.051239E+00 -3.885150E+01  3.298279E+00  2.376885E+01 -1.034528E+00 -3.367548E+00
       817   7 -2.678090E+01 -9.217708E+01 -4.856579E+00  2.783010E+01  4.035426E+00 -4.638865E+00
       817   8 -6.860617E+00 -3.609332E+01  4.187247E+00  2.436828E+01  4.262379E+00 -3.364260E+00
       818   1 -1.946248E+01 -1.375670E+01 -2.850199E+00  3.800881E+00 -1.810141E+00 -1.957006E+00
       818   2 -2.522554E+00  3.517619E+01  4.356453E+00  1.329594E+00 -1.529317E+00 -1.388911E+00
       818   3 -1.915975E+01 -1.102623E+01 -1.939478E+00  4.667435E+00  3.018344E+00 -1.834275E+00
       818   4 -2.299747E+00  3.771270E+01  5.184625E+00  2.123268E+00  3.296821E+00 -1.123978E+00
       818   5 -2.632704E+01 -1.470027E+01 -5.006792E+00  2.037482E+01 -1.713723E+00 -2.815001E+00
       818   6 -9.288330E+00  3.406408E+01  1.804593E+00  1.715527E+01 -1.424890E+00 -2.232690E+00
       818   7 -2.627950E+01 -1.209680E+01 -4.208583E+00  2.113077E+01  3.257537E+00 -2.689169E+00
       818   8 -9.309750E+00  3.647875E+01  2.524040E+00  1.784335E+01  3.537610E+00 -1.964869E+00
       819   1 -1.500653E+01  5.802009E+01 -1.562505E+00 -4.657452E+00 -2.163132E+00 -1.051004E+00
       819   2 -3.925866E-01  1.012318E+02  3.678621E+00 -6.652132E+00 -1.937122E+00 -5.909524E-01
       819   3 -1.463947E+01  6.049893E+01 -7.085993E-01 -4.020559E+00  2.489353E+00 -7.167114E-01
       819   4 -9.402110E-02  1.035451E+02  4.462102E+00 -6.070204E+00  2.714222E+00 -1.861750E-01
       819   5 -2.112048E+01  5.713200E+01 -4.070414E+00  1.132171E+01 -2.179265E+00 -1.889886E+00
       819   6 -6.388762E+00  1.002427E+02  9.532058E-01  8.657970E+00 -1.943424E+00 -1.415507E+00
       819   7 -2.096272E+01  5.950387E+01 -3.310986E+00  1.185500E+01  2.548164E+00 -1.555164E+00
       819   8 -6.291072E+00  1.024532E+02  1.645378E+00  9.140633E+00  2.779752E+00 -1.010380E+00
       820   1 -9.000998E+00  1.221584E+02 -1.401350E+00 -1.186422E+01 -2.415992E+00 -2.164729E-01
       820   2  2.970406E+00  1.591243E+02  1.411799E+00 -1.292281E+01 -2.228164E+00  4.251118E-01
       820   3 -8.619508E+00  1.243965E+02 -6.156403E-01 -1.164061E+01  2.143276E+00  2.123848E-01
       820   4  3.317232E+00  1.612763E+02  2.161232E+00 -1.274687E+01  2.331013E+00  8.627393E-01
       820   5 -1.205531E+01  1.223558E+02 -2.990843E+00  3.133791E+00 -2.496630E+00 -1.041631E+00
       820   6 -1.410480E-02  1.592646E+02 -2.310087E-01  1.489676E+00 -2.292653E+00 -4.053540E-01
       820   7 -1.187524E+01  1.244935E+02 -2.296228E+00  3.280162E+00  2.069926E+00 -6.150643E-01
       820   8  1.390841E-01  1.613201E+02  4.307191E-01  1.591393E+00  2.273564E+00  2.995569E-02
       821   1 -1.972757E+01 -1.856345E+02 -7.777362E+00  8.000181E+00 -2.447744E+00 -3.841399E+00
       821   2  4.259228E+00 -1.181284E+02  4.519680E+00  6.596126E+00 -1.864764E+00 -2.012054E+00
       821   3 -1.964055E+01 -1.811118E+02 -6.390836E+00  9.989404E+00  3.397632E+00 -4.888119E+00
       821   4  4.215996E+00 -1.139411E+02  5.765198E+00  8.298611E+00  3.970638E+00 -2.456883E+00
       821   5 -2.014398E+01 -1.827131E+02 -4.285132E+00  2.696064E+01 -2.332715E+00 -5.058073E+00
       821   6  3.253930E+00 -1.159745E+02  6.398963E+00  2.454194E+01 -1.679304E+00 -3.220250E+00
       821   7 -2.093507E+01 -1.785865E+02 -3.270846E+00  2.879751E+01  4.026024E+00 -6.087999E+00
       821   8  2.377829E+00 -1.121638E+02  7.288080E+00  2.610023E+01  4.642213E+00 -3.649354E+00
       822   1 -2.152860E+01 -9.021613E+01 -5.151584E+00  1.163182E+01 -2.379959E+00 -1.247476E+00
       822   2 -1.583663E+00 -3.394320E+01  4.701255E+00  8.907453E+00 -1.710608E+00 -8.426934E-01
       822   3 -2.188300E+01 -8.627199E+01 -4.073122E+00  1.403002E+01  2.628488E+00 -1.435221E+00
       822   4 -2.077838E+00 -3.035150E+01  5.631538E+00  1.106611E+01  3.294376E+00 -8.122542E-01
       822   5 -2.799975E+01 -9.068223E+01 -6.319947E+00  2.889162E+01 -2.338463E+00 -2.449140E+00
       822   6 -7.995924E+00 -3.464450E+01  2.988003E+00  2.532196E+01 -1.572879E+00 -2.014607E+00
       822   7 -2.914524E+01 -8.709907E+01 -5.582812E+00  3.113141E+01  2.869102E+00 -2.632572E+00
       822   8 -9.243146E+00 -3.139679E+01  3.592052E+00  2.732995E+01  3.621759E+00 -1.980144E+00
       823   1 -1.983092E+01 -9.423930E+00 -2.780697E+00  5.639712E+00 -2.430344E+00 -6.733052E-01
       823   2 -3.054352E+00  3.912038E+01  4.246737E+00  3.003117E+00 -1.821507E+00 -4.571735E-01
       823   3 -2.019846E+01 -6.005554E+00 -1.864771E+00  7.430955E+00  2.402192E+00 -5.215076E-01
       823   4 -3.549706E+00  4.222091E+01  5.028590E+00  4.614275E+00  3.008900E+00 -1.682593E-01
       823   5 -2.732671E+01 -1.069709E+01 -5.303724E+00  2.200706E+01 -2.423148E+00 -1.829115E+00
       823   6 -1.041799E+01  3.769843E+01  1.356386E+00  1.863154E+01 -1.722753E+00 -1.576779E+00
       823   7 -2.833748E+01 -7.576205E+00 -4.668105E+00  2.364666E+01  2.544267E+00 -1.675433E+00
       823   8 -1.152807E+01  4.051438E+01  1.869323E+00  2.009791E+01  3.236714E+00 -1.286107E+00
       824   1 -1.522574E+01  6.185610E+01 -1.624009E+00 -3.347132E+00 -2.535963E+00 -3.715377E-01
       824   2 -7.550710E-01  1.047359E+02  3.452471E+00 -5.476330E+00 -2.045951E+00 -2.090228E-01
       824   3 -1.538557E+01  6.489610E+01 -7.599071E-01 -2.143483E+00  2.124237E+00 -1.250885E-02
       824   4 -1.016642E+00  1.075206E+02  4.209225E+00 -4.435505E+00  2.613146E+00  2.264266E-01
       824   5 -2.189619E+01  6.067550E+01 -4.455517E+00  1.244029E+01 -2.583846E+00 -1.475839E+00
       824   6 -7.297086E+00  1.034539E+02  3.874939E-01  9.650056E+00 -1.976913E+00 -1.281954E+00
       824   7 -2.268567E+01  6.342513E+01 -3.867242E+00  1.350675E+01  2.156472E+00 -1.116966E+00
       824   8 -8.162329E+00  1.059600E+02  8.790866E-01  1.055944E+01  2.759289E+00 -8.466942E-01
       825   1 -9.023502E+00  1.256207E+02 -1.456482E+00 -1.139359E+01 -2.572474E+00 -5.460381E-02
       825   2  3.022537E+00  1.625602E+02  1.616027E+00 -1.256228E+01 -2.242788E+00  3.129641E-01
       825   3 -8.794511E+00  1.284430E+02 -5.412814E-01 -1.094236E+01  1.892756E+00  3.633647E-01
       825   4  3.198764E+00  1.652453E+02  2.474560E+00 -1.223426E+01  2.224192E+00  6.375141E-01
       825   5 -1.252911E+01  1.256069E+02 -3.223505E+00  3.462812E+00 -2.661754E+00 -1.125357E+00
       825   6 -2.118484E-01  1.626812E+02  2.315095E-01  1.714125E+00 -2.223925E+00 -7.550164E-01
       825   7 -1.281633E+01  1.281919E+02 -2.534947E+00  3.815428E+00  1.688969E+00 -7.153140E-01
       825   8 -5.311917E-01  1.651388E+02  8.733721E-01  1.947380E+00  2.133331E+00 -4.382010E-01
       826   1 -2.699779E+01 -2.169183E+02 -1.687181E+01  1.975883E+01 -2.309381E+00 -1.215000E+00
       826   2  3.455383E+00 -1.374929E+02  2.836891E+00  1.454155E+01 -2.235191E+00 -1.038298E+00
       826   3 -2.700454E+01 -2.163894E+02 -1.670481E+01  1.965948E+01  2.834807E+00 -1.407156E+00
       826   4  3.412513E+00 -1.370404E+02  2.967842E+00  1.445282E+01  2.888807E+00 -1.028972E+00
       826   5 -3.034912E+01 -2.099319E+02 -1.398169E+01  4.146432E+01 -2.388048E+00 -1.382764E+00
       826   6  1.280579E-01 -1.310358E+02  5.209916E+00  3.508548E+01 -2.326545E+00 -1.197181E+00
       826   7 -3.034969E+01 -2.094503E+02 -1.381746E+01  4.128335E+01  2.934003E+00 -1.553379E+00
       826   8  9.085467E-02 -1.306282E+02  5.337787E+00  3.491949E+01  2.965745E+00 -1.167471E+00
       827   1 -2.865663E+01 -1.068206E+02 -7.344658E+00  1.321497E+01 -2.176867E+00 -9.193173E-01
       827   2 -5.675643E+00 -4.521255E+01  4.650393E+00  7.792636E+00 -2.143154E+00 -7.753493E-01
       827   3 -2.855033E+01 -1.063325E+02 -7.160032E+00  1.317353E+01  2.981950E+00 -7.685166E-01
       827   4 -5.592660E+00 -4.476711E+01  4.812853E+00  7.762725E+00  2.998511E+00 -4.537476E-01
       827   5 -3.614408E+01 -1.028531E+02 -7.236860E+00  3.189187E+01 -2.282989E+00 -1.072613E+00
       827   6 -1.297868E+01 -4.162162E+01  4.327570E+00  2.555482E+01 -2.265305E+00 -9.259817E-01
       827   7 -3.600636E+01 -1.023930E+02 -7.043093E+00  3.178632E+01  3.040525E+00 -9.018450E-01
       827   8 -1.286608E+01 -4.120310E+01  4.498086E+00  2.546395E+01  3.032926E+00 -5.854087E-01
       828   1 -2.457438E+01 -1.907527E+01 -2.890843E+00  1.865263E+00 -2.155929E+00 -6.880272E-01
       828   2 -6.026720E+00  3.212827E+01  4.880313E+00 -3.084008E+00 -2.139833E+00 -5.820183E-01
       828   3 -2.442898E+01 -1.861404E+01 -2.706604E+00  1.874996E+00  2.887525E+00 -2.646838E-01
       828   4 -5.900294E+00  3.255574E+01  5.046461E+00 -3.065068E+00  2.889677E+00 -1.995747E-02
       828   5 -3.308079E+01 -1.630477E+01 -4.087902E+00  1.898515E+01 -2.295404E+00 -8.375980E-01
       828   6 -1.434122E+01  3.458159E+01  3.289012E+00  1.326300E+01 -2.294456E+00 -7.296565E-01
       828   7 -3.290478E+01 -1.586859E+01 -3.895456E+00  1.893695E+01  2.893025E+00 -3.967029E-01
       828   8 -1.418588E+01  3.498484E+01  3.462283E+00  1.322663E+01  2.873420E+00 -1.508531E-01
       829   1 -1.707328E+01  5.542531E+01 -9.349884E-01 -1.027938E+01 -2.182106E+00 -5.171456E-01
       829   2 -2.007429E+00  9.861743E+01  3.768200E+00 -1.438979E+01 -2.170139E+00 -4.278995E-01
       829   3 -1.694190E+01  5.584448E+01 -7.713986E-01 -1.024674E+01  2.693265E+00  1.163471E-01
       829   4 -1.889436E+00  9.901375E+01  3.918855E+00 -1.435009E+01  2.694410E+00  3.131121E-01
       829   5 -2.470386E+01  5.791999E+01 -2.557298E+00  5.622982E+00 -2.354666E+00 -6.658953E-01
       829   6 -9.506461E+00  1.008197E+02  1.775278E+00  8.467173E-01 -2.356613E+00 -5.766967E-01
       829   7 -2.454887E+01  5.831423E+01 -2.389120E+00  5.603642E+00  2.641707E+00 -1.780833E-02
       829   8 -9.366141E+00  1.011918E+02  1.929626E+00  8.366137E-01  2.623808E+00  1.782772E-01
       830   1 -6.457788E+00  1.199268E+02 -3.756077E-01 -2.103883E+01 -2.221265E+00 -3.730074E-01
       830   2  5.244668E+00  1.554030E+02  1.413154E+00 -2.425618E+01 -2.217614E+00 -2.930533E-01
       830   3 -6.324441E+00  1.203192E+02 -2.228592E-01 -2.099077E+01  2.480187E+00  4.154345E-01
       830   4  5.362437E+00  1.557668E+02  1.550926E+00 -2.420013E+01  2.476075E+00  5.721783E-01
       830   5 -1.261157E+01  1.223244E+02 -2.122999E+00 -6.615042E+00 -2.427451E+00 -5.232602E-01
       830   6 -8.382223E-01  1.575376E+02 -6.611895E-01 -1.039550E+01 -2.439394E+00 -4.402621E-01
       830   7 -1.245352E+01  1.226943E+02 -1.966029E+00 -6.617161E+00  2.366447E+00  2.762395E-01
       830   8 -6.969683E-01  1.578795E+02 -5.199561E-01 -1.038767E+01  2.343063E+00  4.355849E-01
       831   1 -2.684506E+01 -2.155332E+02 -1.619724E+01  1.954841E+01 -1.821038E+00 -3.753711E+00
       831   2  3.396992E+00 -1.364021E+02  3.111163E+00  1.434471E+01 -1.700352E+00 -3.006910E+00
       831   3 -2.670781E+01 -2.140249E+02 -1.569274E+01  1.934500E+01  3.418928E+00 -3.975591E+00
       831   4  3.477675E+00 -1.350275E+02  3.556047E+00  1.413868E+01  3.518158E+00 -3.012099E+00
       831   5 -3.017273E+01 -2.086074E+02 -1.324833E+01  4.110652E+01 -1.715580E+00 -4.173731E+00
       831   6  7.766220E-02 -1.300167E+02  5.506210E+00  3.474914E+01 -1.618362E+00 -3.421576E+00
       831   7 -3.007777E+01 -2.071720E+02 -1.276852E+01  4.080506E+01  3.713407E+00 -4.373811E+00
       831   8  1.180749E-01 -1.287113E+02  5.927164E+00  3.445031E+01  3.778995E+00 -3.406194E+00
       832   1 -2.850246E+01 -1.057403E+02 -7.164303E+00  1.312502E+01 -1.544520E+00 -2.509442E+00
       832   2 -5.666133E+00 -4.432086E+01  4.557321E+00  7.720597E+00 -1.491772E+00 -1.922276E+00
       832   3 -2.815910E+01 -1.042886E+02 -6.619314E+00  1.303450E+01  3.679324E+00 -2.368103E+00
       832   4 -5.364272E+00 -4.295890E+01  5.060447E+00  7.635939E+00  3.714212E+00 -1.601209E+00
       832   5 -3.593946E+01 -1.018214E+02 -7.032237E+00  3.168578E+01 -1.482489E+00 -2.920658E+00
       832   6 -1.293151E+01 -4.078653E+01  4.233481E+00  2.537233E+01 -1.459292E+00 -2.334438E+00
       832   7 -3.559066E+01 -1.004132E+02 -6.490417E+00  3.151720E+01  3.912579E+00 -2.759642E+00
       832   8 -1.262479E+01 -3.946623E+01  4.732885E+00  2.521344E+01  3.909448E+00 -1.994729E+00
       833   1 -2.448653E+01 -1.819663E+01 -3.042071E+00  1.881828E+00 -1.661721E+00 -1.575291E+00
       833   2 -5.998486E+00  3.291142E+01  4.643490E+00 -3.053430E+00 -1.632002E+00 -1.142042E+00
       833   3 -2.408577E+01 -1.681160E+01 -2.504081E+00  1.891263E+00  3.394571E+00 -1.155254E+00
       833   4 -5.634509E+00  3.421676E+01  5.144245E+00 -3.040095E+00  3.410399E+00 -5.822895E-01
       833   5 -3.295792E+01 -1.548361E+01 -4.248665E+00  1.889597E+01 -1.668387E+00 -1.989820E+00
       833   6 -1.428013E+01  3.530930E+01  3.041752E+00  1.319262E+01 -1.663804E+00 -1.556003E+00
       833   7 -3.255345E+01 -1.413981E+01 -3.715404E+00  1.883270E+01  3.532056E+00 -1.553395E+00
       833   8 -1.391292E+01  3.657495E+01  3.537263E+00  1.313654E+01  3.516163E+00 -9.806619E-01
       834   1 -1.705397E+01  5.617625E+01 -1.189170E+00 -1.022516E+01 -1.919049E+00 -8.932626E-01
       834   2 -2.001108E+00  9.932872E+01  3.523431E+00 -1.432548E+01 -1.878625E+00 -5.373936E-01
       834   3 -1.672929E+01  5.742808E+01 -7.177877E-01 -1.019839E+01  2.944985E+00 -2.658275E-01
       834   4 -1.707319E+00  1.005120E+02  3.962989E+00 -1.429750E+01  2.975045E+00  1.942970E-01
       834   5 -2.466005E+01  5.861597E+01 -2.820736E+00  5.581303E+00 -1.998812E+00 -1.311409E+00
       834   6 -9.470123E+00  1.014849E+02  1.536892E+00  8.191468E-01 -1.977976E+00 -9.544230E-01
       834   7 -2.434278E+01  5.982447E+01 -2.359633E+00  5.540075E+00  2.980915E+00 -6.710648E-01
       834   8 -9.183718E+00  1.026263E+02  1.965932E+00  7.819647E-01  2.986472E+00 -2.104179E-01
       835   1 -6.449853E+00  1.206089E+02 -6.241881E-01 -2.097431E+01 -2.165979E+00 -3.276444E-01
       835   2  5.213662E+00  1.560144E+02  1.118543E+00 -2.417888E+01 -2.111427E+00  1.345325E-03
       835   3 -6.219714E+00  1.217160E+02 -2.279192E-01 -2.097695E+01  2.539572E+00  4.529580E-01
       835   4  5.411492E+00  1.570511E+02  1.482248E+00 -2.417649E+01  2.586299E+00  8.602180E-01
       835   5 -1.256377E+01  1.229669E+02 -2.357467E+00 -6.642979E+00 -2.322202E+00 -7.490261E-01
       835   6 -8.322124E-01  1.581097E+02 -9.452421E-01 -1.040706E+01 -2.289005E+00 -4.149212E-01
       835   7 -1.232925E+01  1.240378E+02 -1.967150E+00 -6.710972E+00  2.476240E+00  4.168960E-02
       835   8 -6.304329E-01  1.591114E+02 -5.878680E-01 -1.046746E+01  2.497901E+00  4.536297E-01
       836   1 -2.633473E+01 -2.122841E+02 -1.461185E+01  1.917811E+01 -1.470740E+00 -5.749885E+00
       836   2  3.445587E+00 -1.337667E+02  3.756204E+00  1.396289E+01 -1.271168E+00 -4.390265E+00
       836   3 -2.614118E+01 -2.097214E+02 -1.377316E+01  1.892653E+01  4.008970E+00 -6.020743E+00
       836   4  3.555045E+00 -1.314157E+02  4.503188E+00  1.368953E+01  4.183720E+00 -4.407592E+00
       836   5 -2.968536E+01 -2.054223E+02 -1.154126E+01  4.055828E+01 -1.213136E+00 -6.449723E+00
       836   6  6.664186E-02 -1.274798E+02  6.178049E+00  3.419890E+01 -1.047015E+00 -5.084966E+00
       836   7 -2.960237E+01 -2.029680E+02 -1.075777E+01  4.018649E+01  4.485288E+00 -6.696350E+00
       836   8  7.113756E-02 -1.252316E+02  6.871992E+00  3.381177E+01  4.614814E+00 -5.079474E+00
       837   1 -2.812838E+01 -1.031296E+02 -6.766233E+00  1.300310E+01 -1.081371E+00 -3.535648E+00
       837   2 -5.542976E+00 -4.205697E+01  4.472445E+00  7.603508E+00 -9.882138E-01 -2.577032E+00
       837   3 -2.758386E+01 -1.006079E+02 -5.839654E+00  1.300863E+01  4.257053E+00 -3.400721E+00
       837   4 -5.057652E+00 -3.967658E+01  5.336045E+00  7.600317E+00  4.330569E+00 -2.242073E+00
       837   5 -3.556746E+01 -9.928750E+01 -6.627769E+00  3.142266E+01 -8.888993E-01 -4.228845E+00
       837   6 -1.283663E+01 -3.862196E+01  4.093346E+00  2.512096E+01 -8.336720E-01 -3.274744E+00
       837   7 -3.507367E+01 -9.683800E+01 -5.729641E+00  3.133375E+01  4.637859E+00 -4.073278E+00
       837   8 -1.239995E+01 -3.631067E+01  4.928992E+00  2.502796E+01  4.664130E+00 -2.920283E+00
       838   1 -2.426752E+01 -1.596537E+01 -3.229949E+00  1.956900E+00 -1.400932E+00 -2.055342E+00
       838   2 -5.865657E+00  3.496804E+01  4.347608E+00 -2.977027E+00 -1.317193E+00 -1.418141E+00
       838   3 -2.370209E+01 -1.357310E+01 -2.340605E+00  2.127500E+00  3.663040E+00 -1.626003E+00
       838   4 -5.357918E+00  3.722093E+01  5.175485E+00 -2.817414E+00  3.732813E+00 -8.462210E-01
       838   5 -3.278369E+01 -1.336396E+01 -4.520678E+00  1.883768E+01 -1.317345E+00 -2.759427E+00
       838   6 -1.419535E+01  3.725405E+01  2.653194E+00  1.314169E+01 -1.260392E+00 -2.119750E+00
       838   7 -3.227803E+01 -1.104627E+01 -3.665228E+00  1.891525E+01  3.891705E+00 -2.314667E+00
       838   8 -1.374501E+01  3.943541E+01  3.447933E+00  1.321248E+01  3.928069E+00 -1.533197E+00
       839   1 -1.698045E+01  5.813711E+01 -1.502112E+00 -1.013900E+01 -1.874775E+00 -1.073621E+00
       839   2 -1.924127E+00  1.012132E+02  3.298652E+00 -1.424153E+01 -1.772312E+00 -5.513666E-01
       839   3 -1.653874E+01  6.027735E+01 -7.293440E-01 -1.000291E+01  2.943935E+00 -4.418736E-01
       839   4 -1.536605E+00  1.032215E+02  4.013710E+00 -1.411602E+01  3.036845E+00  1.781191E-01
       839   5 -2.464865E+01  6.046181E+01 -3.227620E+00  5.541420E+00 -1.900534E+00 -1.780617E+00
       839   6 -9.442638E+00  1.032692E+02  1.245499E+00  7.823212E-01 -1.816985E+00 -1.250973E+00
       839   7 -2.427133E+01  6.252725E+01 -2.491875E+00  5.586927E+00  3.024833E+00 -1.138108E+00
       839   8 -9.117069E+00  1.052056E+02  1.924471E+00  8.210266E-01  3.094301E+00 -5.112471E-01
       840   1 -6.453474E+00  1.223661E+02 -8.607722E-01 -2.097856E+01 -2.249409E+00 -2.325165E-01
       840   2  5.163426E+00  1.576455E+02  8.580681E-01 -2.417713E+01 -2.137445E+00  3.087656E-01
       840   3 -6.131935E+00  1.242276E+02 -2.107975E-01 -2.097981E+01  2.443720E+00  5.452044E-01
       840   4  5.429319E+00  1.593760E+02  1.450420E+00 -2.418080E+01  2.548617E+00  1.158336E+00
       840   5 -1.258303E+01  1.246444E+02 -2.629813E+00 -6.768622E+00 -2.376652E+00 -9.342841E-01
       840   6 -8.852917E-01  1.596764E+02 -1.211648E+00 -1.052195E+01 -2.286453E+00 -3.795025E-01
       840   7 -1.229951E+01  1.264445E+02 -2.006188E+00 -6.857628E+00  2.400182E+00 -1.485900E-01
       840   8 -6.561609E-01  1.613476E+02 -6.451562E-01 -1.060995E+01  2.479961E+00  4.776786E-01
       841   1 -2.554921E+01 -2.069642E+02 -1.202912E+01  1.876922E+01 -1.367202E+00 -6.503504E+00
       841   2  3.394346E+00 -1.295115E+02  4.564167E+00  1.350428E+01 -1.088009E+00 -4.433519E+00
       841   3 -2.527335E+01 -2.031378E+02 -1.078539E+01  1.859264E+01  4.577703E+00 -6.822556E+00
       841   4  3.587429E+00 -1.259147E+02  5.710191E+00  1.327297E+01  4.825009E+00 -4.423921E+00
       841   5 -2.902244E+01 -2.002005E+02 -8.822664E+00  3.993807E+01 -1.015573E+00 -7.531628E+00
       841   6 -1.851100E-01 -1.234019E+02  6.917465E+00  3.354028E+01 -7.797930E-01 -5.475182E+00
       841   7 -2.895823E+01 -1.965270E+02 -7.676735E+00  3.963279E+01  5.210318E+00 -7.820235E+00
       841   8 -1.929361E-01 -1.199503E+02  7.969574E+00  3.318716E+01  5.399085E+00 -5.437001E+00
       842   1 -2.777461E+01 -9.885601E+01 -6.370903E+00  1.319694E+01 -1.120132E+00 -3.323933E+00
       842   2 -5.455355E+00 -3.821732E+01  4.387645E+00  7.765951E+00 -8.823565E-01 -2.268924E+00
       842   3 -2.725463E+01 -9.500252E+01 -5.052339E+00  1.370727E+01  4.316625E+00 -3.171935E+00
       842   4 -5.023912E+00 -3.460448E+01  5.604300E+00  8.222867E+00  4.533143E+00 -1.896303E+00
       842   5 -3.538787E+01 -9.519471E+01 -6.370328E+00  3.144047E+01 -8.756227E-01 -4.372469E+00
       842   6 -1.294455E+01 -3.498416E+01  3.807702E+00  2.511600E+01 -6.611237E-01 -3.315465E+00
       842   7 -3.508186E+01 -9.149303E+01 -5.153053E+00  3.182235E+01  4.766113E+00 -4.199058E+00
       842   8 -1.271708E+01 -3.151617E+01  4.926930E+00  2.545077E+01  4.949269E+00 -2.922631E+00
       843   1 -2.418074E+01 -1.221399E+01 -3.432938E+00  2.413806E+00 -1.622051E+00 -1.782634E+00
       843   2 -5.874927E+00  3.845757E+01  4.057248E+00 -2.554847E+00 -1.318306E+00 -1.177992E+00
       843   3 -2.391167E+01 -8.747940E+00 -2.310993E+00  3.026506E+00  3.427679E+00 -1.321532E+00
       843   4 -5.691109E+00  4.168999E+01  5.081150E+00 -1.996209E+00  3.717787E+00 -5.736936E-01
       843   5 -3.292807E+01 -9.837391E+00 -4.962491E+00  1.912059E+01 -1.512100E+00 -2.835957E+00
       843   6 -1.443043E+01  4.052383E+01  2.122895E+00  1.339774E+01 -1.209662E+00 -2.218368E+00
       843   7 -3.288932E+01 -6.529040E+00 -3.950874E+00  1.960513E+01  3.680937E+00 -2.360804E+00
       843   8 -1.446688E+01  4.360533E+01  3.040633E+00  1.383399E+01  3.963266E+00 -1.600752E+00
       844   1 -1.698442E+01  6.147051E+01 -1.783469E+00 -9.799494E+00 -2.141255E+00 -9.014391E-01
       844   2 -1.953283E+00  1.043698E+02  3.084690E+00 -1.393131E+01 -1.889126E+00 -3.942582E-01
       844   3 -1.662935E+01  6.460713E+01 -7.383967E-01 -9.379111E+00  2.623112E+00 -2.450280E-01
       844   4 -1.671696E+00  1.073085E+02  4.046589E+00 -1.355155E+01  2.866794E+00  3.515962E-01
       844   5 -2.487360E+01  6.358024E+01 -3.740165E+00  5.714357E+00 -2.149723E+00 -1.947546E+00
       844   6 -9.673549E+00  1.062297E+02  8.332729E-01  9.329423E-01 -1.895653E+00 -1.427245E+00
       844   7 -2.471097E+01  6.657968E+01 -2.789631E+00  6.017755E+00  2.710297E+00 -1.282819E+00
       844   8 -9.576583E+00  1.090368E+02  1.704031E+00  1.200623E+00  2.951907E+00 -6.735156E-01
       845   1 -6.461798E+00  1.253376E+02 -9.572476E-01 -2.095729E+01 -2.490207E+00 -6.445906E-02
       845   2  5.231726E+00  1.605362E+02  1.087816E+00 -2.416408E+01 -2.270393E+00  5.965214E-01
       845   3 -6.143222E+00  1.280521E+02 -5.259465E-02 -2.089403E+01  2.074644E+00  7.120314E-01
       845   4  5.446673E+00  1.629981E+02  1.884246E+00 -2.411430E+01  2.288989E+00  1.430360E+00
       845   5 -1.271716E+01  1.274583E+02 -2.866196E+00 -6.915446E+00 -2.599271E+00 -1.091109E+00
       845   6 -9.132061E-01  1.624404E+02 -1.058762E+00 -1.067043E+01 -2.394309E+00 -3.887999E-01
       845   7 -1.250450E+01  1.300679E+02 -2.021668E+00 -6.983887E+00  2.030416E+00 -3.100620E-01
       845   8 -8.002033E-01  1.648013E+02 -3.204976E-01 -1.074721E+01  2.227312E+00  4.494125E-01
       846   1 -2.488081E+01 -1.990118E+02 -8.798915E+00  1.902336E+01 -2.326081E+00 -3.476230E+00
       846   2  2.852360E+00 -1.231286E+02  5.197598E+00  1.361781E+01 -1.621913E+00 -1.694190E+00
       846   3 -2.505866E+01 -1.925334E+02 -6.895506E+00  2.038030E+01  4.286761E+00 -3.742037E+00
       846   4  2.442741E+00 -1.173164E+02  6.826531E+00  1.479425E+01  4.952555E+00 -1.555661E+00
       846   5 -2.887466E+01 -1.925893E+02 -5.819849E+00  3.992284E+01 -2.116712E+00 -5.171294E+00
       846   6 -1.314181E+00 -1.174362E+02  7.115595E+00  3.339884E+01 -1.399856E+00 -3.333741E+00
       846   7 -2.970212E+01 -1.864897E+02 -4.212748E+00  4.102420E+01  4.837187E+00 -5.401445E+00
       846   8 -2.339472E+00 -1.119834E+02  8.462131E+00  3.433338E+01  5.497457E+00 -3.161571E+00
       847   1 -2.828647E+01 -9.251476E+01 -6.288464E+00  1.458645E+01 -2.353810E+00 -1.043521E+00
       847   2 -6.002171E+00 -3.225813E+01  4.611393E+00  9.016889E+00 -1.516813E+00 -5.807090E-01
       847   3 -2.897850E+01 -8.691986E+01 -4.812237E+00  1.648076E+01  2.968028E+00 -8.325165E-01
       847   4 -6.888386E+00 -2.723886E+01  5.853562E+00  1.073140E+01  3.785238E+00 -1.545744E-01
       847   5 -3.656070E+01 -8.932116E+01 -6.819135E+00  3.256688E+01 -2.256771E+00 -2.654949E+00
       847   6 -1.412099E+01 -2.947078E+01  3.523844E+00  2.611674E+01 -1.356739E+00 -2.126989E+00
       847   7 -3.793360E+01 -8.411100E+01 -5.654831E+00  3.422185E+01  3.260477E+00 -2.425296E+00
       847   8 -1.565521E+01 -2.481789E+01  4.468237E+00  2.760363E+01  4.131321E+00 -1.683132E+00
       848   1 -2.481277E+01 -6.500378E+00 -3.211158E+00  3.761520E+00 -2.440059E+00 -4.965923E-01
       848   2 -6.667404E+00  4.371210E+01  4.092194E+00 -1.333158E+00 -1.669253E+00 -2.002565E-01
       848   3 -2.548448E+01 -1.762952E+00 -1.991192E+00  5.158606E+00  2.599569E+00  2.948517E-02
       848   4 -7.464619E+00  4.806149E+01  5.155639E+00 -7.900433E-02  3.357322E+00  4.700121E-01
       848   5 -3.419779E+01 -4.570073E+00 -5.251950E+00  2.022431E+01 -2.410661E+00 -2.026935E+00
       848   6 -1.584185E+01  4.534219E+01  1.646273E+00  1.438643E+01 -1.571778E+00 -1.693676E+00
       848   7 -3.544265E+01 -1.538367E-01 -4.294794E+00  2.143314E+01  2.770370E+00 -1.488442E+00
       848   8 -1.718672E+01  4.938449E+01  2.457869E+00  1.546082E+01  3.589996E+00 -1.011627E+00
       849   1 -1.744644E+01  6.652742E+01 -1.725693E+00 -8.893169E+00 -2.613346E+00 -1.838202E-01
       849   2 -2.564528E+00  1.090483E+02  2.938378E+00 -1.312160E+01 -1.929289E+00  7.496306E-02
       849   3 -1.795715E+01  7.071723E+01 -6.256568E-01 -7.984915E+00  2.159643E+00  5.392709E-01
       849   4 -3.141344E+00  1.130100E+02  3.948446E+00 -1.232598E+01  2.836340E+00  8.820436E-01
       849   5 -2.588994E+01  6.823642E+01 -4.164619E+00  6.410013E+00 -2.650527E+00 -1.685678E+00
       849   6 -1.081572E+01  1.105245E+02  2.253601E-01  1.540819E+00 -1.898731E+00 -1.422704E+00
       849   7 -2.687691E+01  7.216336E+01 -3.282582E+00  7.179337E+00  2.210291E+00 -9.565528E-01
       849   8 -1.184910E+01  1.142341E+02  1.025993E+00  2.203316E+00  2.951222E+00 -6.100040E-01
       850   1 -6.669998E+00  1.298289E+02 -8.032209E-01 -2.075887E+01 -2.696986E+00  2.047718E-01
       850   2  5.249035E+00  1.649931E+02  1.988256E+00 -2.400445E+01 -2.203780E+00  7.111177E-01
       850   3 -6.657798E+00  1.337420E+02  3.680051E-01 -2.045241E+01  1.598016E+00  1.001790E+00
       850   4  5.174408E+00  1.686652E+02  3.060018E+00 -2.375388E+01  2.087367E+00  1.552543E+00
       850   5 -1.327485E+01  1.316387E+02 -3.082529E+00 -6.946345E+00 -2.774884E+00 -1.303974E+00
       850   6 -1.216110E+00  1.666141E+02 -4.777626E-01 -1.073118E+01 -2.253666E+00 -7.792478E-01
       850   7 -1.354267E+01  1.353733E+02 -2.046562E+00 -6.774860E+00  1.568649E+00 -5.058250E-01
       850   8 -1.559970E+00  1.701145E+02  4.637023E-01 -1.061030E+01  2.084173E+00  6.314001E-02
       851   1 -3.379864E+01 -2.278346E+02 -1.903322E+01  3.581365E+01 -2.282328E+00 -1.310660E+00
       851   2  4.194212E-01 -1.435479E+02  2.633999E+00  2.595294E+01 -2.201303E+00 -1.129114E+00
       851   3 -3.376805E+01 -2.272325E+02 -1.882397E+01  3.560417E+01  3.104780E+00 -1.080233E+00
       851   4  3.964467E-01 -1.430334E+02  2.796713E+00  2.577447E+01  3.149287E+00 -7.013918E-01
       851   5 -4.118505E+01 -2.165857E+02 -1.596569E+01  5.790895E+01 -2.408000E+00 -1.529313E+00
       851   6 -6.717495E+00 -1.330467E+02  5.197160E+00  4.686582E+01 -2.352729E+00 -1.339402E+00
       851   7 -4.111175E+01 -2.160551E+02 -1.575211E+01  5.762011E+01  3.152721E+00 -1.263311E+00
       851   8 -6.700019E+00 -1.325998E+02  5.364040E+00  4.661224E+01  3.162082E+00 -8.780268E-01
       852   1 -3.496127E+01 -1.123161E+02 -8.827317E+00  1.835672E+01 -2.136904E+00 -1.007262E+00
       852   2 -9.118665E+00 -4.731900E+01  4.396484E+00  9.623358E+00 -2.104814E+00 -8.652520E-01
       852   3 -3.481106E+01 -1.117443E+02 -8.598615E+00  1.826319E+01  3.242882E+00 -4.338900E-01
       852   4 -9.007201E+00 -4.680374E+01  4.592219E+00  9.553594E+00  3.243175E+00 -1.203178E-01
       852   5 -4.476887E+01 -1.042096E+02 -8.050370E+00  3.721339E+01 -2.314089E+00 -1.211646E+00
       852   6 -1.862512E+01 -3.978868E+01  4.717315E+00  2.755654E+01 -2.307340E+00 -1.066269E+00
       852   7 -4.457066E+01 -1.036921E+02 -7.811635E+00  3.705649E+01  3.230554E+00 -6.044431E-01
       852   8 -1.846808E+01 -3.932514E+01  4.922441E+00  2.742650E+01  3.197330E+00 -2.891856E-01
       853   1 -2.822474E+01 -2.058093E+01 -3.489538E+00  4.889920E-01 -2.120544E+00 -7.817270E-01
       853   2 -7.853984E+00  3.203615E+01  4.634570E+00 -7.115589E+00 -2.105083E+00 -6.751479E-01
       853   3 -2.805589E+01 -2.004683E+01 -3.274021E+00  4.735469E-01  3.110006E+00  5.608654E-02
       853   4 -7.715160E+00  3.253011E+01  4.824849E+00 -7.111730E+00  3.099601E+00  3.019410E-01
       853   5 -3.872001E+01 -1.420085E+01 -4.077854E+00  1.732567E+01 -2.350169E+00 -9.824987E-01
       853   6 -1.806451E+01  3.793913E+01  3.631660E+00  8.960995E+00 -2.359676E+00 -8.750575E-01
       853   7 -3.850319E+01 -1.371212E+01 -3.850982E+00  1.725605E+01  3.025378E+00 -1.149438E-01
       853   8 -1.787998E+01  3.838966E+01  3.832544E+00  8.913123E+00  2.983353E+00  1.304017E-01
       854   1 -1.704501E+01  5.556570E+01 -9.849841E-01 -1.656166E+01 -2.153419E+00 -6.153982E-01
       854   2 -7.764637E-01  9.912806E+01  3.631460E+00 -2.299069E+01 -2.139298E+00 -5.252589E-01
       854   3 -1.691494E+01  5.604685E+01 -8.040106E-01 -1.653305E+01  2.868973E+00  4.170189E-01
       854   4 -6.731462E-01  9.957328E+01  3.789823E+00 -2.294485E+01  2.862939E+00  6.153195E-01
       854   5 -2.691119E+01  6.108267E+01 -2.249226E+00 -1.196276E+00 -2.435261E+00 -8.176493E-01
       854   6 -1.041469E+01  1.042289E+02  1.988134E+00 -8.268679E+00 -2.446573E+00 -7.262445E-01
       854   7 -2.673472E+01  6.152308E+01 -2.057378E+00 -1.217435E+00  2.708269E+00  2.395606E-01
       854   8 -1.026701E+01  1.046350E+02  2.156674E+00 -8.270519E+00  2.671617E+00  4.380637E-01
       855   1 -2.697273E+00  1.203451E+02 -1.569884E-01 -3.206645E+01 -2.200435E+00 -4.748720E-01
       855   2  1.023652E+01  1.565731E+02  1.758596E+00 -3.742792E+01 -2.195562E+00 -3.900008E-01
       855   3 -2.581482E+00  1.207828E+02  4.061111E-04 -3.200737E+01  2.600819E+00  6.941733E-01
       855   4  1.032588E+01  1.569731E+02  1.893503E+00 -3.735236E+01  2.590946E+00  8.577043E-01
       855   5 -1.153062E+01  1.252863E+02 -1.824957E+00 -1.799796E+01 -2.535790E+00 -6.786078E-01
       855   6  1.579112E+00  1.611526E+02 -2.383957E-01 -2.390866E+01 -2.557594E+00 -5.901922E-01
       855   7 -1.136875E+01  1.256868E+02 -1.657044E+00 -1.798654E+01  2.359578E+00  5.096137E-01
       855   8  1.712683E+00  1.615166E+02 -9.355015E-02 -2.387890E+01  2.319236E+00  6.759236E-01
       856   1 -3.352623E+01 -2.262236E+02 -1.815760E+01  3.538158E+01 -1.576968E+00 -3.633689E+00
       856   2  4.193801E-01 -1.422885E+02  3.024153E+00  2.557270E+01 -1.468448E+00 -2.890758E+00
       856   3 -3.332952E+01 -2.244990E+02 -1.756114E+01  3.498346E+01  3.922941E+00 -3.415892E+00
       856   4  5.299837E-01 -1.407395E+02  3.537608E+00  2.520040E+01  3.992918E+00 -2.462250E+00
       856   5 -4.083827E+01 -2.150950E+02 -1.505685E+01  5.733049E+01 -1.494028E+00 -4.136998E+00
       856   6 -6.660728E+00 -1.319148E+02  5.587078E+00  4.634702E+01 -1.424123E+00 -3.385721E+00
       856   7 -4.063625E+01 -2.134706E+02 -1.447562E+01  5.682859E+01  4.189130E+00 -3.883099E+00
       856   8 -6.545110E+00 -1.304606E+02  6.086116E+00  4.587649E+01  4.210573E+00 -2.923119E+00
       857   1 -3.471160E+01 -1.110382E+02 -8.541343E+00  1.815216E+01 -1.314558E+00 -2.386542E+00
       857   2 -9.058154E+00 -4.627355E+01  4.349787E+00  9.458983E+00 -1.287667E+00 -1.803940E+00
       857   3 -3.428292E+01 -1.093702E+02 -7.900134E+00  1.794275E+01  4.140127E+00 -1.812349E+00
       857   4 -8.688863E+00 -4.471709E+01  4.935148E+00  9.270677E+00  4.134240E+00 -1.050979E+00
       857   5 -4.445327E+01 -1.030412E+02 -7.771669E+00  3.689301E+01 -1.294674E+00 -2.875116E+00
       857   6 -1.851082E+01 -3.885628E+01  4.642924E+00  2.728201E+01 -1.306464E+00 -2.294105E+00
       857   7 -4.400011E+01 -1.014462E+02 -7.132967E+00  3.660371E+01  4.329812E+00 -2.267481E+00
       857   8 -1.811831E+01 -3.736933E+01  5.225700E+00  2.701771E+01  4.276810E+00 -1.509430E+00
       858   1 -2.810089E+01 -1.954687E+01 -3.611691E+00  4.382890E-01 -1.496248E+00 -1.479725E+00
       858   2 -7.809760E+00  3.296143E+01  4.413069E+00 -7.133595E+00 -1.485450E+00 -1.044667E+00
       858   3 -2.763782E+01 -1.795717E+01 -2.991385E+00  3.578037E-01  3.746382E+00 -6.431719E-01
       858   4 -7.396255E+00  3.445953E+01  4.986758E+00 -7.196812E+00  3.731217E+00 -6.679232E-02
       858   5 -3.854202E+01 -1.327287E+01 -4.233184E+00  1.717501E+01 -1.563188E+00 -1.975019E+00
       858   6 -1.797158E+01  3.876012E+01  3.371497E+00  8.847545E+00 -1.587866E+00 -1.541921E+00
       858   7 -3.805348E+01 -1.174706E+01 -3.613888E+00  1.702363E+01  3.824786E+00 -1.110007E+00
       858   8 -1.753387E+01  4.019710E+01  3.943955E+00  8.716631E+00  3.767466E+00 -5.369538E-01
       859   1 -1.703331E+01  5.645078E+01 -1.229188E+00 -1.653782E+01 -1.827214E+00 -8.279160E-01
       859   2 -7.922780E-01  9.995732E+01  3.402201E+00 -2.293728E+01 -1.796440E+00 -4.644657E-01
       859   3 -1.668244E+01  5.788031E+01 -6.977066E-01 -1.657907E+01  3.176204E+00  1.999525E-01
       859   4 -4.901844E-01  1.012948E+02  3.887641E+00 -2.296208E+01  3.187030E+00  6.716422E-01
       859   5 -2.684956E+01  6.186717E+01 -2.532525E+00 -1.265657E+00 -1.986728E+00 -1.332681E+00
       859   6 -1.038288E+01  1.049615E+02  1.720909E+00 -8.304585E+00 -1.989773E+00 -9.662671E-01
       859   7 -2.647281E+01  6.323668E+01 -2.002262E+00 -1.375871E+00  3.136316E+00 -2.816376E-01
       859   8 -1.005610E+01  1.062415E+02  2.204923E+00 -8.395458E+00  3.108190E+00  1.919822E-01
       860   1 -2.711182E+00  1.211359E+02 -3.899051E-01 -3.200375E+01 -2.154940E+00 -2.862108E-01
       860   2  1.015850E+01  1.572671E+02  1.456876E+00 -3.733553E+01 -2.111667E+00  5.812576E-02
       860   3 -2.468739E+00  1.223780E+02  4.649874E-02 -3.205261E+01  2.650578E+00  8.845354E-01
       860   4  1.034779E+01  1.584090E+02  1.843917E+00 -3.736477E+01  2.678793E+00  1.309946E+00
       860   5 -1.149044E+01  1.259839E+02 -2.095896E+00 -1.802569E+01 -2.414062E+00 -7.941101E-01
       860   6  1.548377E+00  1.617523E+02 -5.876002E-01 -2.390317E+01 -2.407341E+00 -4.394322E-01
       860   7 -1.120934E+01  1.271733E+02 -1.655984E+00 -1.814371E+01  2.487077E+00  3.948727E-01
       860   8  1.774729E+00  1.628433E+02 -1.974011E-01 -2.399888E+01  2.474863E+00  8.298739E-01
       861   1 -3.279463E+01 -2.224248E+02 -1.612809E+01  3.463506E+01 -1.069109E+00 -5.423095E+00
       861   2  5.672698E-01 -1.392500E+02  3.909212E+00  2.486743E+01 -8.989502E-01 -4.077072E+00
       861   3 -3.252833E+01 -2.194767E+02 -1.514288E+01  3.408214E+01  4.712029E+00 -5.196941E+00
       861   4  7.157343E-01 -1.365684E+02  4.773907E+00  2.433079E+01  4.838769E+00 -3.610860E+00
       861   5 -4.008643E+01 -2.114529E+02 -1.299393E+01  5.639478E+01 -8.068765E-01 -6.247255E+00
       861   6 -6.526687E+00 -1.290576E+02  6.426752E+00  4.546269E+01 -6.884335E-01 -4.894630E+00
       861   7 -3.986523E+01 -2.086394E+02 -1.204874E+01  5.571232E+01  5.180733E+00 -5.981800E+00
       861   8 -6.421000E+00 -1.265035E+02  7.253366E+00  4.480343E+01  5.244577E+00 -4.391366E+00
       862   1 -3.417450E+01 -1.079762E+02 -7.942675E+00  1.779338E+01 -7.290052E-01 -3.224083E+00
       862   2 -8.845253E+00 -4.364191E+01  4.342765E+00  9.132721E+00 -6.759323E-01 -2.277624E+00
       862   3 -3.351287E+01 -1.050380E+02 -6.850693E+00  1.759540E+01  4.863228E+00 -2.625748E+00
       862   4 -8.262625E+00 -4.087822E+01  5.353726E+00  8.944763E+00  4.881766E+00 -1.488545E+00
       862   5 -4.391696E+01 -1.001413E+02 -7.241680E+00  3.638819E+01 -5.493393E-01 -4.037152E+00
       862   6 -1.831589E+01 -3.639598E+01  4.530348E+00  2.681685E+01 -5.426437E-01 -3.096712E+00
       862   7 -4.328459E+01 -9.730904E+01 -6.178097E+00  3.608941E+01  5.221913E+00 -3.404948E+00
       862   8 -1.776123E+01 -3.373326E+01  5.513992E+00  2.653304E+01  5.185185E+00 -2.275578E+00
       863   1 -2.782191E+01 -1.694552E+01 -3.762574E+00  3.249374E-01 -1.176064E+00 -1.810320E+00
       863   2 -7.645050E+00  3.535911E+01  4.123313E+00 -7.221017E+00 -1.115341E+00 -1.163242E+00
       863   3 -2.717396E+01 -1.415413E+01 -2.726977E+00  3.162460E-01  4.075328E+00 -9.584444E-01
       863   4 -7.067603E+00  3.799244E+01  5.085976E+00 -7.223376E+00  4.110073E+00 -1.678279E-01
       863   5 -3.828699E+01 -1.084219E+01 -4.504831E+00  1.693017E+01 -1.115625E+00 -2.640266E+00
       863   6 -1.783531E+01  4.098926E+01  2.953456E+00  8.634566E+00 -1.092435E+00 -1.994673E+00
       863   7 -3.767262E+01 -8.151699E+00 -3.499247E+00  1.682685E+01  4.281416E+00 -1.761253E+00
       863   8 -1.729004E+01  4.352610E+01  3.887147E+00  8.541837E+00  4.271938E+00 -9.734703E-01
       864   1 -1.696428E+01  5.872516E+01 -1.551045E+00 -1.660166E+01 -1.781500E+00 -8.766084E-01
       864   2 -7.350534E-01  1.021287E+02  3.180603E+00 -2.297497E+01 -1.690594E+00 -3.252282E-01
       864   3 -1.647529E+01  6.121665E+01 -6.603402E-01 -1.662160E+01  3.163837E+00  1.561209E-01
       864   4 -3.190773E-01  1.044593E+02  3.997305E+00 -2.298493E+01  3.235126E+00  8.155707E-01
       864   5 -2.680368E+01  6.397464E+01 -2.983985E+00 -1.458086E+00 -1.843450E+00 -1.719034E+00
       864   6 -1.034996E+01  1.069709E+02  1.370161E+00 -8.465483E+00 -1.788354E+00 -1.159933E+00
       864   7 -2.633563E+01  6.637306E+01 -2.118801E+00 -1.571968E+00  3.219584E+00 -6.648675E-01
       864   8 -9.954167E+00  1.092122E+02  2.162116E+00 -8.565445E+00  3.250011E+00  1.314080E-03
       865   1 -2.713209E+00  1.231488E+02 -6.083797E-01 -3.211675E+01 -2.282353E+00 -4.879157E-02
       865   2  1.008664E+01  1.591124E+02  1.219016E+00 -3.741429E+01 -2.186607E+00  5.327192E-01
       865   3 -2.351276E+00  1.252877E+02  1.319851E-01 -3.224271E+01  2.496838E+00  1.134688E+00
       865   4  1.036511E+01  1.610765E+02  1.878412E+00 -3.751994E+01  2.577127E+00  1.800436E+00
       865   5 -1.148615E+01  1.278439E+02 -2.436563E+00 -1.826813E+01 -2.474577E+00 -8.895378E-01
       865   6  1.474250E+00  1.634423E+02 -9.623511E-01 -2.410633E+01 -2.422209E+00 -2.878068E-01
       865   7 -1.110697E+01  1.299062E+02 -1.706583E+00 -1.848960E+01  2.402497E+00  3.113198E-01
       865   8  1.769166E+00  1.653326E+02 -3.132200E-01 -2.430375E+01  2.435427E+00  9.965549E-01
       866   1 -3.171635E+01 -2.161571E+02 -1.290463E+01  3.366176E+01 -9.281030E-01 -5.956170E+00
       866   2  6.033948E-01 -1.343027E+02  4.974724E+00  2.391460E+01 -6.913583E-01 -3.961491E+00
       866   3 -3.131027E+01 -2.115763E+02 -1.138742E+01  3.306755E+01  5.395900E+00 -5.649358E+00
       866   4  8.711820E-01 -1.300658E+02  6.341058E+00  2.331542E+01  5.583043E+00 -3.377464E+00
       866   5 -3.911250E+01 -2.054313E+02 -9.844537E+00  5.518805E+01 -5.510531E-01 -7.198525E+00
       866   6 -6.635208E+00 -1.243891E+02  7.315130E+00  4.428891E+01 -3.778764E-01 -5.208333E+00
       866   7 -3.883375E+01 -2.010310E+02 -8.404945E+00  5.443959E+01  6.008790E+00 -6.848283E+00
       866   8 -6.488122E+00 -1.203233E+02  8.607576E+00  4.354375E+01  6.119588E+00 -4.583460E+00
       867   1 -3.369155E+01 -1.029166E+02 -7.366908E+00  1.757849E+01 -7.886075E-01 -2.913127E+00
       867   2 -8.707383E+00 -3.912730E+01  4.303840E+00  8.923263E+00 -5.641650E-01 -1.874459E+00
       867   3 -3.309274E+01 -9.830621E+01 -5.793142E+00  1.773161E+01  4.922766E+00 -2.266058E+00
       867   4 -8.222486E+00 -3.482080E+01  5.747034E+00  9.053633E+00  5.111845E+00 -1.028172E+00
       867   5 -4.360070E+01 -9.535902E+01 -6.887884E+00  3.598213E+01 -5.295968E-01 -4.160508E+00
       867   6 -1.835228E+01 -3.216091E+01  4.243628E+00  2.642559E+01 -3.403506E-01 -3.118170E+00
       867   7 -4.317497E+01 -9.093765E+01 -5.410643E+00  3.598916E+01  5.365975E+00 -3.480121E+00
       867   8 -1.803215E+01 -2.803430E+01  5.594618E+00  2.641702E+01  5.510746E+00 -2.240373E+00
       868   1 -2.773780E+01 -1.251859E+01 -3.966681E+00  4.183142E-01 -1.447798E+00 -1.490044E+00
       868   2 -7.683223E+00  3.948132E+01  3.802611E+00 -7.127472E+00 -1.126822E+00 -8.523345E-01
       868   3 -2.745927E+01 -8.370992E+00 -2.636422E+00  7.069531E-01  3.786712E+00 -6.049585E-01
       868   4 -7.506011E+00  4.335567E+01  5.016069E+00 -6.862158E+00  4.082255E+00  1.768439E-01
       868   5 -3.839350E+01 -6.700714E+00 -4.974399E+00  1.684354E+01 -1.321313E+00 -2.743473E+00
       868   6 -1.806138E+01  4.483299E+01  2.365531E+00  8.556219E+00 -1.020416E+00 -2.094760E+00
       868   7 -3.828918E+01 -2.735086E+00 -3.741086E+00  1.699359E+01  4.056932E+00 -1.833109E+00
       868   8 -1.805067E+01  4.853343E+01  3.486050E+00  8.689207E+00  4.325836E+00 -1.041576E+00
       869   1 -1.701808E+01  6.264102E+01 -1.877343E+00 -1.657002E+01 -2.108096E+00 -6.613099E-01
       869   2 -8.303330E-01  1.058299E+02  2.931843E+00 -2.293313E+01 -1.838512E+00 -9.222495E-02
       869   3 -1.665741E+01  6.637694E+01 -6.532730E-01 -1.640840E+01  2.767615E+00  3.949633E-01
       869   4 -5.645039E-01  1.093253E+02  4.051426E+00 -2.278099E+01  3.018050E+00  1.072114E+00
       869   5 -2.701489E+01  6.762364E+01 -3.568784E+00 -1.600967E+00 -2.105100E+00 -1.914010E+00
       869   6 -1.060136E+01  1.104111E+02  8.613428E-01 -8.590850E+00 -1.859108E+00 -1.331131E+00
       869   7 -2.677590E+01  7.120807E+01 -2.418535E+00 -1.565533E+00  2.886376E+00 -8.381133E-01
       869   8 -1.045228E+01  1.137612E+02  1.909836E+00 -8.559619E+00  3.108279E+00 -1.481072E-01
       870   1 -2.724945E+00  1.265947E+02 -7.131434E-01 -3.235012E+01 -2.586691E+00  2.071300E-01
       870   2  1.013922E+01  1.624432E+02  1.478291E+00 -3.761338E+01 -2.379802E+00  9.815412E-01
       870   3 -2.344316E+00  1.297934E+02  3.491571E-01 -3.251711E+01  2.038558E+00  1.399209E+00
       870   4  1.039940E+01  1.653719E+02  2.419734E+00 -3.776254E+01  2.229257E+00  2.263279E+00
       870   5 -1.157372E+01  1.310531E+02 -2.779527E+00 -1.867950E+01 -2.715525E+00 -1.034091E+00
       870   6  1.438592E+00  1.665302E+02 -9.678040E-01 -2.447645E+01 -2.554282E+00 -2.251603E-01
       870   7 -1.121707E+01  1.341389E+02 -1.751616E+00 -1.897631E+01  2.012370E+00  1.748431E-01
       870   8  1.675545E+00  1.693502E+02 -5.984095E-02 -2.475036E+01  2.153248E+00  1.072713E+00
       871   1 -3.092602E+01 -2.067699E+02 -9.221987E+00  3.299777E+01 -2.260338E+00 -3.091203E+00
       871   2 -4.762905E-02 -1.268164E+02  5.650068E+00  2.322141E+01 -1.497763E+00 -1.371198E+00
       871   3 -3.121211E+01 -1.991414E+02 -6.999370E+00  3.340434E+01  4.803120E+00 -2.610235E+00
       871   4 -6.139315E-01 -1.199575E+02  7.550967E+00  2.356637E+01  5.513564E+00 -5.923794E-01
       871   5 -3.871005E+01 -1.964902E+02 -6.503708E+00  5.421170E+01 -1.926170E+00 -5.091310E+00
       871   6 -7.683490E+00 -1.173553E+02  7.596639E+00  4.330009E+01 -1.205577E+00 -3.315731E+00
       871   7 -3.939549E+01 -1.892215E+02 -4.493346E+00  5.434058E+01  5.386106E+00 -4.566651E+00
       871   8 -8.627978E+00 -1.108370E+02  9.296144E+00  4.338222E+01  6.041119E+00 -2.495719E+00
       872   1 -3.439097E+01 -9.533125E+01 -7.306877E+00  1.819133E+01 -2.367837E+00 -8.681685E-01
       872   2 -9.481899E+00 -3.204429E+01  4.470993E+00  9.472302E+00 -1.403034E+00 -3.415505E-01
       872   3 -3.534253E+01 -8.861412E+01 -5.567856E+00  1.929675E+01  3.219250E+00 -1.959387E-01
       872   4 -1.067036E+01 -2.602337E+01  5.924933E+00  1.048793E+01  4.150913E+00  5.248455E-01
       872   5 -4.481975E+01 -8.827670E+01 -7.289179E+00  3.629492E+01 -2.165180E+00 -2.776061E+00
       872   6 -1.961970E+01 -2.555498E+01  3.974989E+00  2.668926E+01 -1.185758E+00 -2.171996E+00
       872   7 -4.626870E+01 -8.195194E+01 -5.805642E+00  3.712583E+01  3.596897E+00 -2.074253E+00
       872   8 -2.128139E+01 -1.990740E+01  5.185524E+00  2.744384E+01  4.534614E+00 -1.277478E+00
       873   1 -2.864515E+01 -5.721622E+00 -3.826656E+00  1.114301E+00 -2.489895E+00 -3.815266E-01
       873   2 -8.788371E+00  4.572766E+01  3.706000E+00 -6.491712E+00 -1.591467E+00 -4.008359E-03
       873   3 -2.959066E+01 -5.353835E-02 -2.409051E+00  1.940296E+00  2.734554E+00  5.442416E-01
       873   4 -9.889586E+00  5.091726E+01  4.928954E+00 -5.743489E+00  3.609160E+00  1.062538E+00
       873   5 -3.978625E+01 -3.630425E-01 -5.258019E+00  1.727089E+01 -2.379040E+00 -2.190547E+00
       873   6 -1.963035E+01  5.064045E+01  1.863624E+00  8.935481E+00 -1.456022E+00 -1.766762E+00
       873   7 -4.115992E+01  4.977325E+00 -4.057720E+00  1.788023E+01  2.982540E+00 -1.242496E+00
       873   8 -2.114056E+01  5.551696E+01  2.878699E+00  9.476828E+00  3.875571E+00 -6.790118E-01
       874   1 -1.775828E+01  6.860908E+01 -1.965475E+00 -1.615799E+01 -2.713166E+00 -1.017930E-01
       874   2 -1.756259E+00  1.113332E+02  2.611995E+00 -2.255338E+01 -1.914041E+00  2.442084E-01
       874   3 -1.852750E+01  7.357449E+01 -7.130890E-01 -1.563426E+01  2.164445E+00  9.930361E-01
       874   4 -2.632091E+00  1.159730E+02  3.730773E+00 -2.208267E+01  2.945347E+00  1.446259E+00
       874   5 -2.812259E+01  7.320718E+01 -4.016345E+00 -1.422539E+00 -2.679457E+00 -1.865909E+00
       874   6 -1.188344E+01  1.155419E+02  1.877160E-01 -8.434930E+00 -1.865501E+00 -1.500764E+00
       874   7 -2.920884E+01  7.792041E+01 -2.927024E+00 -1.066050E+00  2.310726E+00 -7.536177E-01
       874   8 -1.306319E+01  1.199399E+02  1.149861E+00 -8.124460E+00  3.101740E+00 -2.821254E-01
       875   1 -3.060751E+00  1.317944E+02 -6.954170E-01 -3.256236E+01 -2.831593E+00  3.177523E-01
       875   2  1.001376E+01  1.675809E+02  2.263775E+00 -3.780271E+01 -2.297083E+00  9.673986E-01
       875   3 -3.156508E+00  1.363086E+02  6.170765E-01 -3.251831E+01  1.509911E+00  1.491720E+00
       875   4  9.791794E+00  1.717830E+02  3.440720E+00 -3.776269E+01  2.027537E+00  2.237412E+00
       875   5 -1.208003E+01  1.359472E+02 -3.050262E+00 -1.912445E+01 -2.875695E+00 -1.431701E+00
       875   6  1.131767E+00  1.713568E+02 -5.003810E-01 -2.488940E+01 -2.368753E+00 -7.548548E-01
       875   7 -1.230499E+01  1.402949E+02 -1.820821E+00 -1.923164E+01  1.574434E+00 -2.412476E-01
       875   8  7.853770E-01  1.753985E+02  5.961317E-01 -2.499472E+01  2.060126E+00  5.308727E-01
       876   1 -4.308552E+01 -2.336365E+02 -2.026077E+01  5.349701E+01 -2.249324E+00 -1.415024E+00
       876   2 -4.880847E+00 -1.468140E+02  2.751161E+00  3.890509E+01 -2.164783E+00 -1.225867E+00
       876   3 -4.297762E+01 -2.329970E+02 -2.000891E+01  5.316645E+01  3.323852E+00 -6.759392E-01
       876   4 -4.848444E+00 -1.462635E+02  2.947724E+00  3.862450E+01  3.356413E+00 -2.966267E-01
       876   5 -5.464356E+01 -2.181593E+02 -1.717987E+01  7.484540E+01 -2.418640E+00 -1.692893E+00
       876   6 -1.596161E+01 -1.323063E+02  5.337630E+00  5.911104E+01 -2.372597E+00 -1.498846E+00
       876   7 -5.445954E+01 -2.176159E+02 -1.691770E+01  7.444758E+01  3.321362E+00 -9.051743E-01
       876   8 -1.585691E+01 -1.318465E+02  5.544549E+00  5.876679E+01  3.306350E+00 -5.236147E-01
       877   1 -4.094351E+01 -1.163796E+02 -9.614265E+00  2.460574E+01 -2.092159E+00 -1.097935E+00
       877   2 -1.189059E+01 -4.937478E+01  4.529326E+00  1.229238E+01 -2.058675E+00 -9.559070E-01
       877   3 -4.074356E+01 -1.157443E+02 -9.346537E+00  2.444556E+01  3.458684E+00 -1.931168E-02
       877   4 -1.174761E+01 -4.879826E+01  4.756009E+00  1.217040E+01  3.446514E+00  2.894194E-01
       877   5 -5.380006E+01 -1.043793E+02 -8.574602E+00  4.279389E+01 -2.339149E+00 -1.368283E+00
       877   6 -2.429360E+01 -3.813830E+01  5.107136E+00  2.958976E+01 -2.343343E+00 -1.226260E+00
       877   7 -5.352483E+01 -1.038191E+02 -8.291140E+00  4.258066E+01  3.371351E+00 -2.430443E-01
       877   8 -2.407886E+01 -3.763306E+01  5.349164E+00  2.941733E+01  3.313534E+00  6.335282E-02
       878   1 -3.037643E+01 -2.304770E+01 -3.756754E+00 -9.069385E-01 -2.074975E+00 -8.759676E-01
       878   2 -7.591624E+00  3.064506E+01  4.795370E+00 -1.135586E+01 -2.058646E+00 -7.695508E-01
       878   3 -3.018368E+01 -2.243829E+01 -3.509741E+00 -9.549534E-01  3.295451E+00  4.490267E-01
       878   4 -7.445050E+00  3.120972E+01  5.008974E+00 -1.137319E+01  3.274064E+00  6.927839E-01
       878   5 -4.340396E+01 -1.322551E+01 -4.056712E+00  1.515135E+01 -2.397666E+00 -1.149323E+00
       878   6 -2.022035E+01  3.983449E+01  4.067164E+00  3.977458E+00 -2.418191E+00 -1.044687E+00
       878   7 -4.314040E+01 -1.267992E+01 -3.793000E+00  1.505805E+01  3.115194E+00  2.172583E-01
       878   8 -2.000605E+01  4.033834E+01  4.296972E+00  3.916898E+00  3.050369E+00  4.573098E-01
       879   1 -1.497246E+01  5.383354E+01 -8.154325E-01 -2.353623E+01 -2.111997E+00 -7.154570E-01
       879   2  3.243115E+00  9.802253E+01  4.011713E+00 -3.240178E+01 -2.096933E+00 -6.223560E-01
       879   3 -1.484217E+01  5.438851E+01 -6.137719E-01 -2.351945E+01  3.012705E+00  7.818001E-01
       879   4  3.332045E+00  9.853649E+01  4.183019E+00 -3.235803E+01  2.997889E+00  9.832054E-01
       879   5 -2.739395E+01  6.230838E+01 -1.947417E+00 -8.988820E+00 -2.508335E+00 -9.962429E-01
       879   6 -8.846697E+00  1.059541E+02  2.487479E+00 -1.846348E+01 -2.530706E+00 -9.042568E-01
       879   7 -2.719527E+01  6.280654E+01 -1.728940E+00 -9.013509E+00  2.737105E+00  5.362169E-01
       879   8 -8.692147E+00  1.064137E+02  2.675106E+00 -1.845947E+01  2.679639E+00  7.349902E-01
       880   1  3.399414E+00  1.187860E+02  3.302668E-01 -4.365512E+01 -2.167293E+00 -5.770795E-01
       880   2  1.818626E+01  1.558966E+02  2.589422E+00 -5.121181E+01 -2.162372E+00 -4.866353E-01
       880   3  3.496767E+00  1.192928E+02  4.983047E-01 -4.359256E+01  2.693034E+00  1.032961E+00
       880   4  1.824389E+01  1.563616E+02  2.728139E+00 -5.112369E+01  2.675679E+00  1.203472E+00
       880   5 -8.126562E+00  1.263685E+02 -1.353578E+00 -3.024320E+01 -2.638234E+00 -8.655687E-01
       880   6  6.935878E+00  1.630087E+02  5.644190E-01 -3.832350E+01 -2.672736E+00 -7.742632E-01
       880   7 -7.959565E+00  1.268240E+02 -1.167937E+00 -3.022026E+01  2.317340E+00  7.721528E-01
       880   8  7.060542E+00  1.634245E+02  7.202950E-01 -3.827344E+01  2.256672E+00  9.424075E-01
       881   1 -4.264159E+01 -2.318987E+02 -1.924751E+01  5.281640E+01 -1.367941E+00 -3.469723E+00
       881   2 -4.774516E+00 -1.454599E+02  3.204974E+00  3.831246E+01 -1.277611E+00 -2.726151E+00
       881   3 -4.231784E+01 -2.300196E+02 -1.855838E+01  5.219093E+01  4.331960E+00 -2.727094E+00
       881   4 -4.567217E+00 -1.437726E+02  3.795224E+00  3.774087E+01  4.367902E+00 -1.782236E+00
       881   5 -5.407567E+01 -2.165986E+02 -1.615258E+01  7.403829E+01 -1.301966E+00 -4.060319E+00
       881   6 -1.574967E+01 -1.311314E+02  5.777380E+00  5.839869E+01 -1.265241E+00 -3.311933E+00
       881   7 -5.369978E+01 -2.148468E+02 -1.546939E+01  7.331824E+01  4.572503E+00 -3.268605E+00
       881   8 -1.549279E+01 -1.295645E+02  6.362549E+00  5.773757E+01  4.545334E+00 -2.321669E+00
       882   1 -4.060453E+01 -1.149640E+02 -9.283315E+00  2.425638E+01 -1.114297E+00 -2.210591E+00
       882   2 -1.178794E+01 -4.821345E+01  4.479760E+00  1.200987E+01 -1.108584E+00 -1.640229E+00
       882   3 -4.006693E+01 -1.131060E+02 -8.547471E+00  2.389996E+01  4.518975E+00 -1.123593E+00
       882   4 -1.133310E+01 -4.648045E+01  5.146720E+00  1.169353E+01  4.478062E+00 -3.811018E-01
       882   5 -5.335574E+01 -1.031204E+02 -8.263122E+00  4.234550E+01 -1.138575E+00 -2.791782E+00
       882   6 -2.409768E+01 -3.713284E+01  5.022905E+00  2.921308E+01 -1.183801E+00 -2.226573E+00
       882   7 -5.276191E+01 -1.013604E+02 -7.524002E+00  4.191653E+01  4.657721E+00 -1.658922E+00
       882   8 -2.358923E+01 -3.549297E+01  5.693317E+00  2.882774E+01  4.557723E+00 -9.239483E-01
       883   1 -3.022947E+01 -2.187757E+01 -3.894532E+00 -1.041615E+00 -1.348502E+00 -1.346691E+00
       883   2 -7.556576E+00  3.169286E+01  4.535639E+00 -1.143672E+01 -1.355657E+00 -9.160214E-01
       883   3 -2.968757E+01 -2.009177E+01 -3.190155E+00 -1.230109E+00  4.035986E+00 -2.478678E-02
       883   4 -7.083542E+00  3.337586E+01  5.182285E+00 -1.159274E+01  3.991055E+00  5.449496E-01
       883   5 -4.316823E+01 -1.220124E+01 -4.233639E+00  1.493146E+01 -1.478336E+00 -1.941552E+00
       883   6 -2.010322E+01  4.074036E+01  3.763812E+00  3.815237E+00 -1.533125E+00 -1.516423E+00
       883   7 -4.257353E+01 -1.050116E+01 -3.524601E+00  1.467917E+01  4.048719E+00 -5.796845E-01
       883   8 -1.957966E+01  4.234160E+01  4.415138E+00  3.598296E+00  3.949553E+00 -1.740126E-02
       884   1 -1.498382E+01  5.484264E+01 -1.105348E+00 -2.356049E+01 -1.746888E+00 -7.393277E-01
       884   2  3.178673E+00  9.896620E+01  3.724375E+00 -3.237802E+01 -1.731682E+00 -3.663263E-01
       884   3 -1.458088E+01  5.645188E+01 -5.060522E-01 -2.368912E+01  3.358787E+00  7.485059E-01
       884   4  3.515247E+00  1.004739E+02  4.267589E+00 -3.247612E+01  3.344096E+00  1.231031E+00
       884   5 -2.732162E+01  6.318121E+01 -2.281995E+00 -9.092210E+00 -1.987473E+00 -1.352105E+00
       884   6 -8.833310E+00  1.067648E+02  2.151852E+00 -1.851554E+01 -2.019629E+00 -9.797973E-01
       884   7 -2.686340E+01  6.471210E+01 -1.676460E+00 -9.282295E+00  3.238788E+00  1.692847E-01
       884   8 -8.443695E+00  1.081976E+02  2.701221E+00 -1.867252E+01  3.171509E+00  6.496201E-01
       885   1  3.332528E+00  1.196858E+02  3.008505E-02 -4.361339E+01 -2.157953E+00 -2.258461E-01
       885   2  1.802390E+01  1.566846E+02  2.190798E+00 -5.112318E+01 -2.134165E+00  1.405540E-01
       885   3  3.619290E+00  1.210888E+02  5.231287E-01 -4.373261E+01  2.710766E+00  1.386756E+00
       885   4  1.824167E+01  1.579817E+02  2.626267E+00 -5.120965E+01  2.711439E+00  1.836995E+00
       885   5 -8.106888E+00  1.271390E+02 -1.704777E+00 -3.027774E+01 -2.519105E+00 -8.523111E-01
       885   6  6.848949E+00  1.636647E+02  9.868936E-02 -3.830815E+01 -2.546584E+00 -4.802389E-01
       885   7 -7.750426E+00  1.284730E+02 -1.199564E+00 -3.045749E+01  2.448036E+00  7.873590E-01
       885   8  7.133782E+00  1.648956E+02  5.460346E-01 -3.845279E+01  2.393401E+00  1.242141E+00
       886   1 -4.162835E+01 -2.277343E+02 -1.694011E+01  5.163009E+01 -7.396174E-01 -5.021099E+00
       886   2 -4.457885E+00 -1.421480E+02  4.204952E+00  3.721986E+01 -6.084432E-01 -3.689899E+00
       886   3 -4.117593E+01 -2.244723E+02 -1.579711E+01  5.072391E+01  5.270409E+00 -4.221727E+00
       886   4 -4.163844E+00 -1.391889E+02  5.202402E+00  3.636858E+01  5.342142E+00 -2.668027E+00
       886   5 -5.298519E+01 -2.126686E+02 -1.386390E+01  7.267720E+01 -4.643748E-01 -5.972211E+00
       886   6 -1.538536E+01 -1.280669E+02  6.700306E+00  5.714065E+01 -4.021900E-01 -4.637341E+00
       886   7 -5.251537E+01 -2.095709E+02 -1.274765E+01  7.164646E+01  5.736467E+00 -5.120976E+00
       886   8 -1.507467E+01 -1.252632E+02  7.672868E+00  5.617149E+01  5.728812E+00 -3.566570E+00
       887   1 -3.990871E+01 -1.115573E+02 -8.605856E+00  2.360455E+01 -4.379645E-01 -2.837060E+00
       887   2 -1.148493E+01 -4.529244E+01  4.466584E+00  1.142600E+01 -4.181655E-01 -1.917504E+00
       887   3 -3.909236E+01 -1.082580E+02 -7.354703E+00  2.315445E+01  5.344513E+00 -1.707039E+00
       887   4 -1.077803E+01 -4.219908E+01  5.616243E+00  1.101196E+01  5.316261E+00 -6.078003E-01
       887   5 -5.261831E+01 -9.993655E+01 -7.680865E+00  4.155853E+01 -2.729070E-01 -3.780079E+00
       887   6 -2.376721E+01 -3.443597E+01  4.890978E+00  2.850069E+01 -3.126128E-01 -2.868820E+00
       887   7 -5.179051E+01 -9.677276E+01 -6.450904E+00  4.100998E+01  5.677721E+00 -2.604501E+00
       887   8 -2.304930E+01 -3.147131E+01  6.020771E+00  2.799303E+01  5.581561E+00 -1.515975E+00
       888   1 -2.988677E+01 -1.896412E+01 -4.074779E+00 -1.379795E+00 -9.828374E-01 -1.521201E+00
       888   2 -7.368634E+00  3.437376E+01  4.182654E+00 -1.172022E+01 -9.448838E-01 -8.772221E-01
       888   3 -2.913055E+01 -1.582295E+01 -2.900597E+00 -1.599753E+00  4.412178E+00 -1.849225E-01
       888   4 -6.706301E+00  3.733490E+01  5.268300E+00 -1.191203E+01  4.412388E+00  6.000322E-01
       888   5 -4.280650E+01 -9.505626E+00 -4.543266E+00  1.447286E+01 -9.501166E-01 -2.485783E+00
       888   6 -1.990246E+01  4.320787E+01  3.274764E+00  3.416750E+00 -9.638247E-01 -1.846689E+00
       888   7 -4.204584E+01 -6.490134E+00 -3.391136E+00  1.416201E+01  4.587528E+00 -1.111198E+00
       888   8 -1.923582E+01  4.604910E+01  4.339538E+00  3.138158E+00  4.529473E+00 -3.330125E-01
       889   1 -1.490423E+01  5.738395E+01 -1.505583E+00 -2.381060E+01 -1.699533E+00 -6.666484E-01
       889   2  3.214174E+00  1.013856E+02  3.403994E+00 -3.257536E+01 -1.630690E+00 -9.174778E-02
       889   3 -1.433059E+01  6.018468E+01 -4.989153E-01 -2.401341E+01  3.348052E+00  8.194121E-01
       889   4  3.694862E+00  1.040119E+02  4.324580E+00 -3.274799E+01  3.386936E+00  1.505587E+00
       889   5 -2.721898E+01  6.551423E+01 -2.819372E+00 -9.458203E+00 -1.803918E+00 -1.652649E+00
       889   6 -8.781502E+00  1.089789E+02  1.686587E+00 -1.882391E+01 -1.787488E+00 -1.075231E+00
       889   7 -2.662439E+01  6.820264E+01 -1.827385E+00 -9.748297E+00  3.364508E+00 -1.345853E-01
       889   8 -8.280691E+00  1.114976E+02  2.593215E+00 -1.908017E+01  3.345736E+00  5.526373E-01
       890   1  3.329595E+00  1.219193E+02 -3.002016E-01 -4.387960E+01 -2.334728E+00  1.266031E-01
       890   2  1.791052E+01  1.587289E+02  1.796899E+00 -5.133056E+01 -2.274006E+00  7.542694E-01
       890   3  3.790320E+00  1.243280E+02  5.450606E-01 -4.416162E+01  2.513632E+00  1.754080E+00
       890   4  1.827124E+01  1.609598E+02  2.553362E+00 -5.157410E+01  2.549792E+00  2.471825E+00
       890   5 -8.061907E+00  1.291751E+02 -2.179475E+00 -3.065762E+01 -2.591584E+00 -8.728235E-01
       890   6  6.766551E+00  1.655042E+02 -4.691407E-01 -3.862477E+01 -2.592221E+00 -2.335012E-01
       890   7 -7.541047E+00  1.314912E+02 -1.332407E+00 -3.102432E+01  2.361174E+00  7.818319E-01
       890   8  7.185078E+00  1.676462E+02  2.891181E-01 -3.894968E+01  2.331676E+00  1.510063E+00
       891   1 -4.020657E+01 -2.208449E+02 -1.342153E+01  4.998391E+01 -6.015253E-01 -5.408159E+00
       891   2 -4.230804E+00 -1.367333E+02  5.342170E+00  3.566745E+01 -4.195053E-01 -3.472972E+00
       891   3 -3.954396E+01 -2.157234E+02 -1.165811E+01  4.886941E+01  5.984392E+00 -4.456146E+00
       891   4 -3.770235E+00 -1.320397E+02  6.908491E+00  3.460417E+01  6.101294E+00 -2.274550E+00
       891   5 -5.157922E+01 -2.061075E+02 -1.046409E+01  7.080250E+01 -1.667270E-01 -6.833615E+00
       891   6 -1.520488E+01 -1.229946E+02  7.651317E+00  5.537196E+01 -6.996272E-02 -4.899359E+00
       891   7 -5.095240E+01 -2.011976E+02 -8.756500E+00  6.952850E+01  6.628094E+00 -5.826793E+00
       891   8 -1.477801E+01 -1.185012E+02  9.165172E+00  5.415770E+01  6.648336E+00 -3.649358E+00
       892   1 -3.927938E+01 -1.059106E+02 -7.997026E+00  2.288210E+01 -5.445607E-01 -2.479342E+00
       892   2 -1.127576E+01 -4.027321E+01  4.377504E+00  1.076011E+01 -3.327992E-01 -1.464673E+00
       892   3 -3.855132E+01 -1.007364E+02 -6.211398E+00  2.258933E+01  5.364059E+00 -1.291808E+00
       892   4 -1.070168E+01 -3.545959E+01  6.001622E+00  1.048714E+01  5.527799E+00 -9.405796E-02
       892   5 -5.208113E+01 -9.462581E+01 -7.294197E+00  4.064635E+01 -2.553579E-01 -3.902086E+00
       892   6 -2.365414E+01 -2.974465E+01  4.570845E+00  2.765435E+01 -9.784569E-02 -2.882424E+00
       892   7 -5.145601E+01 -8.967198E+01 -5.589604E+00  4.020261E+01  5.821857E+00 -2.670757E+00
       892   8 -2.317788E+01 -2.514061E+01  6.118144E+00  2.723781E+01  5.922933E+00 -1.470359E+00
       893   1 -2.977219E+01 -1.401323E+01 -4.351694E+00 -1.716865E+00 -1.307434E+00 -1.200705E+00
       893   2 -7.423361E+00  3.897006E+01  3.751199E+00 -1.201379E+01 -9.820956E-01 -5.430333E-01
       893   3 -2.943453E+01 -9.358958E+00 -2.850936E+00 -1.815811E+00  4.071428E+00  1.572098E-01
       893   4 -7.219680E+00  4.330527E+01  5.109607E+00 -1.209907E+01  4.359797E+00  9.561707E-01
       893   5 -4.280260E+01 -4.880476E+00 -5.061020E+00  1.395964E+01 -1.160805E+00 -2.626552E+00
       893   6 -2.006736E+01  4.748870E+01  2.602904E+00  2.954984E+00 -8.772342E-01 -1.956855E+00
       893   7 -4.257173E+01 -4.348081E-01 -3.640946E+00  1.371866E+01  4.358437E+00 -1.232681E+00
       893   8 -1.996558E+01  5.162479E+01  3.884409E+00  2.734091E+00  4.598553E+00 -4.234692E-01
       894   1 -1.496714E+01  6.173579E+01 -1.958508E+00 -2.414204E+01 -2.072829E+00 -4.630917E-01
       894   2  3.069065E+00  1.054896E+02  2.996522E+00 -3.285766E+01 -1.809432E+00  1.505594E-01
       894   3 -1.455197E+01  6.590450E+01 -5.909096E-01 -2.428995E+01  2.907304E+00  1.031453E+00
       894   4  3.362577E+00  1.093881E+02  4.240534E+00 -3.298399E+01  3.140858E+00  1.758260E+00
       894   5 -2.735449E+01  6.956928E+01 -3.501141E+00 -9.954462E+00 -2.065736E+00 -1.889264E+00
       894   6 -9.003786E+00  1.127909E+02  1.042096E+00 -1.926412E+01 -1.849267E+00 -1.264179E+00
       894   7 -2.699539E+01  7.356689E+01 -2.189517E+00 -1.022688E+01  3.035290E+00 -3.643331E-01
       894   8 -8.763980E+00  1.165255E+02  2.232503E+00 -1.950975E+01  3.216681E+00  3.724883E-01
       895   1  3.338594E+00  1.257025E+02 -5.803713E-01 -4.442053E+01 -2.689838E+00  3.838381E-01
       895   2  1.793570E+01  1.623759E+02  1.819902E+00 -5.180372E+01 -2.527241E+00  1.239668E+00
       895   3  3.837412E+00  1.292469E+02  6.147860E-01 -4.484542E+01  2.018726E+00  2.004617E+00
       895   4  1.830195E+01  1.656611E+02  2.891606E+00 -5.218710E+01  2.155240E+00  2.957426E+00
       895   5 -8.049953E+00  1.326940E+02 -2.677517E+00 -3.135573E+01 -2.841063E+00 -1.044441E+00
       895   6  6.776611E+00  1.688793E+02 -6.974022E-01 -3.924897E+01 -2.746432E+00 -1.698485E-01
       895   7 -7.516614E+00  1.361126E+02 -1.499008E+00 -3.189402E+01  1.978423E+00  6.036392E-01
       895   8  7.175991E+00  1.720436E+02  3.581883E-01 -3.974132E+01  2.042395E+00  1.574002E+00
       896   1 -3.913597E+01 -2.106068E+02 -9.588316E+00  4.825603E+01 -2.216135E+00 -2.858950E+00
       896   2 -4.748302E+00 -1.285694E+02  5.993924E+00  3.401941E+01 -1.463828E+00 -1.145611E+00
       896   3 -3.929747E+01 -2.023550E+02 -7.134699E+00  4.769742E+01  5.121431E+00 -1.679396E+00
       896   4 -5.235049E+00 -1.211290E+02  8.097749E+00  3.348752E+01  5.805871E+00  2.963476E-01
       896   5 -5.071001E+01 -1.963614E+02 -6.916991E+00  6.875713E+01 -1.736829E+00 -5.049892E+00
       896   6 -1.593632E+01 -1.153197E+02  7.977813E+00  5.342340E+01 -1.058680E+00 -3.289058E+00
       896   7 -5.111402E+01 -1.884895E+02 -4.630518E+00  6.792639E+01  5.818971E+00 -3.815307E+00
       896   8 -1.665243E+01 -1.082388E+02  9.923844E+00  5.263395E+01  6.417335E+00 -1.795240E+00
       897   1 -4.000069E+01 -9.748212E+01 -7.979534E+00  2.256347E+01 -2.388590E+00 -7.670798E-01
       897   2 -1.212835E+01 -3.242903E+01  4.477535E+00  1.046552E+01 -1.352903E+00 -1.608833E-01
       897   3 -4.102884E+01 -9.009963E+01 -6.060225E+00  2.278812E+01  3.389512E+00  4.145644E-01
       897   4 -1.342904E+01 -2.578657E+01  6.086128E+00  1.068168E+01  4.380053E+00  1.199027E+00
       897   5 -5.315664E+01 -8.673737E+01 -7.671126E+00  4.002104E+01 -2.072913E+00 -2.875816E+00
       897   6 -2.484042E+01 -2.241095E+01  4.303204E+00  2.706811E+01 -1.062304E+00 -2.195984E+00
       897   7 -5.452608E+01 -7.976523E+01 -5.961996E+00  3.997125E+01  3.864747E+00 -1.654937E+00
       897   8 -2.646558E+01 -1.615864E+01  5.712139E+00  2.702327E+01  4.822258E+00 -7.988022E-01
       898   1 -3.079534E+01 -6.458062E+00 -4.281620E+00 -1.796490E+00 -2.528497E+00 -3.335777E-01
       898   2 -8.699472E+00  4.589052E+01  3.550837E+00 -1.207867E+01 -1.555691E+00  1.273583E-01
       898   3 -3.186217E+01 -1.930996E-01 -2.720795E+00 -1.642979E+00  2.835782E+00  1.045112E+00
       898   4 -9.968900E+00  5.160002E+01  4.877844E+00 -1.193608E+01  3.773346E+00  1.645527E+00
       898   5 -4.415635E+01  2.184909E+00 -5.347314E+00  1.360250E+01 -2.329687E+00 -2.342715E+00
       898   6 -2.165955E+01  5.394108E+01  2.061296E+00  2.625123E+00 -1.372671E+00 -1.827184E+00
       898   7 -4.551618E+01  8.102146E+00 -3.965179E+00  1.352793E+01  3.169615E+00 -9.313932E-01
       898   8 -2.320870E+01  5.931859E+01  3.217795E+00  2.549923E+00  4.085173E+00 -2.779255E-01
       899   1 -1.581535E+01  6.833147E+01 -2.144212E+00 -2.433237E+01 -2.773330E+00 -1.029392E-01
       899   2  1.977667E+00  1.115430E+02  2.533363E+00 -3.301884E+01 -1.922225E+00  3.171869E-01
       899   3 -1.669126E+01  7.378850E+01 -7.792634E-01 -2.429902E+01  2.208739E+00  1.415422E+00
       899   4  9.404960E-01  1.165758E+02  3.716545E+00 -3.298651E+01  3.030817E+00  1.949591E+00
       899   5 -2.843132E+01  7.575457E+01 -3.985817E+00 -1.038361E+01 -2.683102E+00 -2.048685E+00
       899   6 -1.031905E+01  1.184463E+02  2.812394E-01 -1.965413E+01 -1.853309E+00 -1.590503E+00
       899   7 -2.952043E+01  8.093121E+01 -2.757129E+00 -1.053802E+01  2.417995E+00 -5.020318E-01
       899   8 -1.156051E+01  1.232105E+02  1.333844E+00 -1.980169E+01  3.213639E+00  6.890337E-02
       900   1  3.015238E+00  1.313416E+02 -7.020499E-01 -4.511564E+01 -2.939435E+00  2.980213E-01
       900   2  1.777468E+01  1.679337E+02  2.406021E+00 -5.243176E+01 -2.423197E+00  1.036587E+00
       900   3  2.928066E+00  1.361819E+02  7.042787E-01 -4.542817E+01  1.503771E+00  1.867878E+00
       900   4  1.753190E+01  1.724247E+02  3.654754E+00 -5.271611E+01  1.993925E+00  2.706123E+00
       900   5 -8.428438E+00  1.380117E+02 -3.029958E+00 -3.226173E+01 -2.968086E+00 -1.610695E+00
       900   6  6.553646E+00  1.741193E+02 -3.539620E-01 -4.007968E+01 -2.505121E+00 -8.433210E-01
       900   7 -8.580733E+00  1.426575E+02 -1.691877E+00 -3.272722E+01  1.587163E+00 -1.477086E-02
       900   8  6.248170E+00  1.784233E+02  8.289207E-01 -4.051100E+01  2.019452E+00  8.511160E-01
       901   1 -5.547713E+01 -2.350844E+02 -2.114532E+01  7.155192E+01 -2.206393E+00 -1.532773E+00
       901   2 -1.260014E+01 -1.470860E+02  3.022944E+00  5.229731E+01 -2.120176E+00 -1.335652E+00
       901   3 -5.525526E+01 -2.344473E+02 -2.085324E+01  7.110297E+01  3.488815E+00 -2.289258E-01
       901   4 -1.248253E+01 -1.465334E+02  3.250712E+00  5.191539E+01  3.508835E+00  1.487061E-01
       901   5 -7.119773E+01 -2.155354E+02 -1.815765E+01  9.124363E+01 -2.415916E+00 -1.878334E+00
       901   6 -2.761826E+01 -1.287219E+02  5.526894E+00  7.093524E+01 -2.381408E+00 -1.681870E+00
       901   7 -7.086788E+01 -2.150163E+02 -1.784892E+01  9.074769E+01  3.437219E+00 -5.141056E-01
       901   8 -2.739796E+01 -1.282806E+02  5.771575E+00  7.050884E+01  3.396884E+00 -1.404333E-01
       902   1 -4.745249E+01 -1.186944E+02 -1.004413E+01  3.135623E+01 -2.039751E+00 -1.199975E+00
       902   2 -1.465111E+01 -5.079446E+01  4.856161E+00  1.543764E+01 -2.005087E+00 -1.057594E+00
       902   3 -4.718541E+01 -1.180200E+02 -9.740850E+00  3.112626E+01  3.620838E+00  4.378579E-01
       902   4 -1.446395E+01 -5.017577E+01  5.110604E+00  1.525851E+01  3.597228E+00  7.387523E-01
       902   5 -6.363821E+01 -1.030697E+02 -8.968505E+00  4.807172E+01 -2.354341E+00 -1.549450E+00
       902   6 -3.021742E+01 -3.610829E+01  5.474789E+00  3.133449E+01 -2.369855E+00 -1.412683E+00
       902   7 -6.326986E+01 -1.024889E+02 -8.643347E+00  4.780621E+01  3.457596E+00  1.463420E-01
       902   8 -2.993354E+01 -3.557816E+01  5.750975E+00  3.112156E+01  3.376199E+00  4.387080E-01
       903   1 -3.149750E+01 -2.586306E+01 -3.816407E+00 -2.060960E+00 -2.020099E+00 -9.808576E-01
       903   2 -5.704387E+00  2.836749E+01  5.180173E+00 -1.540812E+01 -2.002408E+00 -8.747428E-01
       903   3 -3.127643E+01 -2.519154E+01 -3.541724E+00 -2.149425E+00  3.435535E+00  8.793475E-01
       903   4 -5.549115E+00  2.899519E+01  5.413968E+00 -1.545567E+01  3.404560E+00  1.117353E+00
       903   5 -4.736483E+01 -1.282104E+01 -4.043523E+00  1.261971E+01 -2.434329E+00 -1.344593E+00
       903   6 -2.104387E+01  4.063223E+01  4.523508E+00 -1.390205E+00 -2.465816E+00 -1.245504E+00
       903   7 -4.705019E+01 -1.222938E+01 -3.745954E+00  1.250134E+01  3.157599E+00  5.678188E-01
       903   8 -2.079891E+01  4.118403E+01  4.779954E+00 -1.466327E+00  3.071091E+00  7.963657E-01
       904   1 -1.107201E+01  5.052082E+01 -5.727541E-01 -3.043571E+01 -2.058732E+00 -8.270939E-01
       904   2  9.672445E+00  9.510291E+01  4.560351E+00 -4.175463E+01 -2.043093E+00 -7.316744E-01
       904   3 -1.094276E+01  5.114707E+01 -3.526184E-01 -3.044087E+01  3.120376E+00  1.175266E+00
       904   4  9.743538E+00  9.568899E+01  4.743519E+00 -4.172435E+01  3.096835E+00  1.376245E+00
       904   5 -2.615669E+01  6.186189E+01 -1.681254E+00 -1.717096E+01 -2.568659E+00 -1.209071E+00
       904   6 -4.971125E+00  1.057786E+02  3.053745E+00 -2.904529E+01 -2.602645E+00 -1.120137E+00
       904   7 -2.593836E+01  6.241697E+01 -1.438065E+00 -1.720336E+01  2.727636E+00  8.381328E-01
       904   8 -4.814384E+00  1.062968E+02  3.259708E+00 -2.904112E+01  2.649352E+00  1.030676E+00
       905   1  1.182546E+01  1.150033E+02  8.297082E-01 -5.495460E+01 -2.121675E+00 -6.931431E-01
       905   2  2.886391E+01  1.525921E+02  3.414812E+00 -6.466498E+01 -2.118901E+00 -5.973316E-01
       905   3  1.190251E+01  1.155875E+02  1.009272E+00 -5.490035E+01  2.755709E+00  1.389818E+00
       905   4  2.888762E+01  1.531381E+02  3.560314E+00 -6.457823E+01  2.728595E+00  1.565325E+00
       905   5 -2.276005E+00  1.252192E+02 -8.799757E-01 -4.268834E+01 -2.726881E+00 -1.094367E+00
       905   6  1.513307E+01  1.622293E+02  1.352141E+00 -5.287759E+01 -2.775504E+00 -1.004180E+00
       905   7 -2.110394E+00  1.257394E+02 -6.765818E-01 -4.265948E+01  2.244862E+00  1.024607E+00
       905   8  1.524218E+01  1.627141E+02  1.521234E+00 -5.281524E+01  2.162447E+00  1.193013E+00
       906   1 -5.480767E+01 -2.333219E+02 -2.004623E+01  7.062377E+01 -1.190370E+00 -3.308067E+00
       906   2 -1.234152E+01 -1.457231E+02  3.497577E+00  5.148994E+01 -1.122552E+00 -2.566017E+00
       906   3 -5.429120E+01 -2.313636E+02 -1.926875E+01  6.976357E+01  4.643423E+00 -1.989183E+00
       906   4 -1.197871E+01 -1.439616E+02  4.161795E+00  5.070960E+01  4.642486E+00 -1.057478E+00
       906   5 -7.035044E+01 -2.139949E+02 -1.704604E+01  9.022397E+01 -1.134837E+00 -3.987688E+00
       906   6 -2.720076E+01 -1.275786E+02  5.991352E+00  7.004126E+01 -1.135417E+00 -3.247301E+00
       906   7 -6.973766E+01 -2.121891E+02 -1.626532E+01  8.928912E+01  4.863056E+00 -2.608229E+00
       906   8 -2.674632E+01 -1.259610E+02  6.659754E+00  6.919027E+01  4.784726E+00 -1.681580E+00
       907   1 -4.700198E+01 -1.172078E+02 -9.707689E+00  3.085242E+01 -9.491990E-01 -2.035795E+00
       907   2 -1.448936E+01 -4.957059E+01  4.772681E+00  1.502467E+01 -9.634603E-01 -1.481317E+00
       907   3 -4.632210E+01 -1.152130E+02 -8.884386E+00  3.033428E+01  4.800460E+00 -3.870109E-01
       907   4 -1.392153E+01 -4.770717E+01  5.514560E+00  1.456502E+01  4.727019E+00  3.302383E-01
       907   5 -6.303711E+01 -1.017754E+02 -8.645850E+00  4.749867E+01 -1.013540E+00 -2.717571E+00
       907   6 -2.991751E+01 -3.507233E+01  5.366389E+00  3.085568E+01 -1.091492E+00 -2.174056E+00
       907   7 -6.226818E+01 -9.990110E+01 -7.812256E+00  4.692400E+01  4.889898E+00 -1.011963E+00
       907   8 -2.926460E+01 -3.332315E+01  6.118974E+00  3.034225E+01  4.745028E+00 -3.086155E-01
       908   1 -3.132362E+01 -2.459822E+01 -3.998625E+00 -2.296357E+00 -1.223063E+00 -1.221945E+00
       908   2 -5.680647E+00  2.950670E+01  4.855701E+00 -1.557035E+01 -1.246927E+00 -8.017561E-01
       908   3 -3.068448E+01 -2.265562E+01 -3.217436E+00 -2.609250E+00  4.250359E+00  6.289180E-01
       908   4 -5.134339E+00  3.134127E+01  5.568536E+00 -1.583604E+01  4.177824E+00  1.182464E+00
       908   5 -4.706066E+01 -1.173114E+01 -4.253878E+00  1.232538E+01 -1.414249E+00 -1.928632E+00
       908   6 -2.089754E+01  4.160259E+01  4.167923E+00 -1.608722E+00 -1.498315E+00 -1.519838E+00
       908   7 -4.634028E+01 -9.893898E+00 -3.461214E+00  1.196310E+01  4.195499E+00 -2.751716E-02
       908   8 -2.027332E+01  4.333687E+01  4.892487E+00 -1.921569E+00  4.056396E+00  5.122211E-01
       909   1 -1.111201E+01  5.163116E+01 -9.349249E-01 -3.052762E+01 -1.675593E+00 -6.735100E-01
       909   2  9.547053E+00  9.614640E+01  4.183651E+00 -4.178243E+01 -1.677764E+00 -2.979828E-01
       909   3 -1.064200E+01  5.339294E+01 -2.722883E-01 -3.075940E+01  3.488753E+00  1.310306E+00
       909   4  9.931160E+00  9.780564E+01  4.782188E+00 -4.197129E+01  3.447327E+00  1.792707E+00
       909   5 -2.607440E+01  6.281076E+01 -2.075489E+00 -1.731718E+01 -1.996119E+00 -1.410548E+00
       909   6 -4.981401E+00  1.066654E+02  2.641528E+00 -2.912512E+01 -2.058508E+00 -1.042775E+00
       909   7 -2.552251E+01  6.447725E+01 -1.399380E+00 -1.759566E+01  3.285516E+00  6.162497E-01
       909   8 -4.518545E+00  1.082336E+02  3.253646E+00 -2.935873E+01  3.178736E+00  1.088965E+00
       910   1  1.169365E+01  1.160037E+02  4.285360E-01 -5.495536E+01 -2.163074E+00 -2.076148E-01
       910   2  2.860098E+01  1.534762E+02  2.880312E+00 -6.460566E+01 -2.163834E+00  1.743794E-01
       910   3  1.203989E+01  1.175545E+02  9.781220E-01 -5.515983E+01  2.731587E+00  1.873655E+00
       910   4  2.886292E+01  1.549262E+02  3.367521E+00 -6.476730E+01  2.699812E+00  2.339101E+00
       910   5 -2.286068E+00  1.260680E+02 -1.319892E+00 -4.273998E+01 -2.621731E+00 -9.741106E-01
       910   6  1.497971E+01  1.629601E+02  7.630757E-01 -5.286718E+01 -2.686569E+00 -5.957585E-01
       910   7 -1.845859E+00  1.275350E+02 -7.508722E-01 -4.298873E+01  2.370572E+00  1.142580E+00
       910   8  1.533222E+01  1.643300E+02  1.269590E+00 -5.307136E+01  2.270659E+00  1.602878E+00
       911   1 -5.343335E+01 -2.289890E+02 -1.757464E+01  6.898057E+01 -4.740933E-01 -4.639435E+00
       911   2 -1.177517E+01 -1.422995E+02  4.533876E+00  4.998937E+01 -3.889701E-01 -3.324581E+00
       911   3 -5.270319E+01 -2.255510E+02 -1.628883E+01  6.770185E+01  5.690084E+00 -3.230730E+00
       911   4 -1.125151E+01 -1.391840E+02  5.652044E+00  4.880229E+01  5.701153E+00 -1.709225E+00
       911   5 -6.882547E+01 -2.099499E+02 -1.459570E+01  8.843996E+01 -1.734666E-01 -5.705649E+00
       911   6 -2.651246E+01 -1.244481E+02  6.959377E+00  6.840741E+01 -1.738775E-01 -4.393400E+00
       911   7 -6.801911E+01 -2.067051E+02 -1.332402E+01  8.705510E+01  6.167559E+00 -4.233829E+00
       911   8 -2.591620E+01 -1.215150E+02  8.065257E+00  6.711985E+01  6.083390E+00 -2.718547E+00
       912   1 -4.610583E+01 -1.135916E+02 -9.019766E+00  2.987654E+01 -2.141349E-01 -2.466060E+00
       912   2 -1.405715E+01 -4.647403E+01  4.705577E+00  1.415177E+01 -2.269801E-01 -1.576604E+00
       912   3 -4.508548E+01 -1.100425E+02 -7.628832E+00  2.914443E+01  5.692820E+00 -7.660644E-01
       912   4 -1.318448E+01 -4.315277E+01  5.975105E+00  1.348270E+01  5.619460E+00  2.920110E-01
       912   5 -6.203941E+01 -9.842391E+01 -8.042584E+00  4.641425E+01 -5.484879E-02 -3.533923E+00
       912   6 -2.939801E+01 -3.223683E+01  5.197109E+00  2.987954E+01 -1.412503E-01 -2.657038E+00
       912   7 -6.096359E+01 -9.503775E+01 -6.663849E+00  4.559660E+01  6.009544E+00 -1.777817E+00
       912   8 -2.847218E+01 -2.907016E+01  6.455945E+00  2.912912E+01  5.854701E+00 -7.352842E-01
       913   1 -3.088978E+01 -2.147104E+01 -4.248990E+00 -2.891905E+00 -8.306901E-01 -1.256644E+00
       913   2 -5.450306E+00  3.238349E+01  4.400784E+00 -1.608296E+01 -8.162895E-01 -6.256943E-01
       913   3 -2.999095E+01 -1.807419E+01 -2.954811E+00 -3.350898E+00  4.657537E+00  6.006085E-01
       913   4 -4.675565E+00  3.558464E+01  5.590797E+00 -1.649157E+01  4.623420E+00  1.366406E+00
       913   5 -4.655179E+01 -8.854714E+00 -4.614877E+00  1.163359E+01 -8.229771E-01 -2.354356E+00
       913   6 -2.059949E+01  4.423598E+01  3.598187E+00 -2.213225E+00 -8.746552E-01 -1.733246E+00
       913   7 -4.560886E+01 -5.607312E+00 -3.333766E+00  1.109599E+01  4.801315E+00 -4.488960E-01
       913   8 -1.978234E+01  4.729475E+01  4.776458E+00 -2.696885E+00  4.694762E+00  3.046933E-01
       914   1 -1.100136E+01  5.436206E+01 -1.451278E+00 -3.099340E+01 -1.634336E+00 -5.062628E-01
       914   2  9.572839E+00  9.874656E+01  3.719285E+00 -4.217193E+01 -1.592847E+00  7.655744E-02
       914   3 -1.031259E+01  5.739255E+01 -3.437729E-01 -3.140063E+01  3.478493E+00  1.462055E+00
       914   4  1.014556E+01  1.015975E+02  4.730398E+00 -4.253097E+01  3.480685E+00  2.153308E+00
       914   5 -2.588702E+01  6.530706E+01 -2.706147E+00 -1.787339E+01 -1.780911E+00 -1.636824E+00
       914   6 -4.886724E+00  1.090361E+02  2.056843E+00 -2.960128E+01 -1.806418E+00 -1.059229E+00
       914   7 -2.514115E+01  6.820538E+01 -1.604098E+00 -1.835343E+01  3.449343E+00  3.726352E-01
       914   8 -4.259040E+00  1.117607E+02  3.063334E+00 -3.003006E+01  3.379385E+00  1.056763E+00
       915   1  1.169960E+01  1.183961E+02 -6.601472E-02 -5.540062E+01 -2.393004E+00  2.130676E-01
       915   2  2.844842E+01  1.556684E+02  2.264311E+00 -6.497338E+01 -2.376148E+00  8.682852E-01
       915   3  1.228559E+01  1.210105E+02  8.727550E-01 -5.585386E+01  2.496366E+00  2.302196E+00
       915   4  2.891866E+01  1.581145E+02  3.110496E+00 -6.537461E+01  2.480376E+00  3.046771E+00
       915   5 -2.182544E+00  1.282421E+02 -1.933545E+00 -4.326977E+01 -2.708232E+00 -9.493318E-01
       915   6  1.490703E+01  1.649288E+02  2.169746E-04 -5.331611E+01 -2.766576E+00 -2.952676E-01
       915   7 -1.505431E+00  1.307480E+02 -9.839532E-01 -4.378870E+01  2.284484E+00  1.175473E+00
       915   8  1.546505E+01  1.672708E+02  8.573220E-01 -5.378048E+01  2.188987E+00  1.917327E+00
       916   1 -5.154375E+01 -2.218045E+02 -1.389328E+01  6.662578E+01 -3.415397E-01 -4.949308E+00
       916   2 -1.122113E+01 -1.366840E+02  5.670563E+00  4.779725E+01 -2.289664E-01 -3.056452E+00
       916   3 -5.051668E+01 -2.164100E+02 -1.193188E+01  6.496523E+01  6.418709E+00 -3.341202E+00
       916   4 -1.046016E+01 -1.317608E+02  7.400648E+00  4.623912E+01  6.450511E+00 -1.220454E+00
       916   5 -6.683944E+01 -2.031426E+02 -1.100272E+01  8.588729E+01  1.694733E-01 -6.514916E+00
       916   6 -2.589495E+01 -1.192174E+02  7.947537E+00  6.602799E+01  1.778248E-01 -4.626694E+00
       916   7 -6.576861E+01 -1.979928E+02 -9.079125E+00  8.408224E+01  7.122581E+00 -4.840276E+00
       916   8 -2.509209E+01 -1.145253E+02  9.642937E+00  6.433311E+01  7.039562E+00 -2.728073E+00
       917   1 -4.523888E+01 -1.075947E+02 -8.434001E+00  2.859039E+01 -3.683690E-01 -2.102478E+00
       917   2 -1.368876E+01 -4.115699E+01  4.535687E+00  1.297460E+01 -1.786032E-01 -1.105747E+00
       917   3 -4.429867E+01 -1.020711E+02 -6.476375E+00  2.780985E+01  5.668572E+00 -3.472715E-01
       917   4 -1.295003E+01 -3.603140E+01  6.304480E+00  1.225642E+01  5.797812E+00  8.213360E-01
       917   5 -6.117171E+01 -9.280467E+01 -7.643738E+00  4.495974E+01 -3.477155E-02 -3.670340E+00
       917   6 -2.903577E+01 -2.728583E+01  4.833406E+00  2.854223E+01  8.182897E-02 -2.670722E+00
       917   7 -6.026526E+01 -8.753325E+01 -5.751732E+00  4.403843E+01  6.159992E+00 -1.861007E+00
       917   8 -2.832874E+01 -2.239969E+01  6.540688E+00  2.769017E+01  6.208116E+00 -6.923958E-01
       918   1 -3.066327E+01 -1.618361E+01 -4.618151E+00 -3.712947E+00 -1.200391E+00 -9.635994E-01
       918   2 -5.450549E+00  3.728144E+01  3.842990E+00 -1.681691E+01 -8.825054E-01 -2.930087E-01
       918   3 -3.019327E+01 -1.120476E+01 -2.979867E+00 -4.242123E+00  4.274783E+00  9.001906E-01
       918   4 -5.153828E+00  4.190927E+01  5.315669E+00 -1.729624E+01  4.544988E+00  1.706283E+00
       918   5 -4.635034E+01 -3.927745E+00 -5.187442E+00  1.065640E+01 -1.031170E+00 -2.538146E+00
       918   6 -2.062713E+01  4.878630E+01  2.838130E+00 -3.096257E+00 -7.749340E-01 -1.857045E+00
       918   7 -4.592457E+01  8.130199E-01 -3.615659E+00  9.993980E+00  4.578095E+00 -6.287861E-01
       918   8 -2.037235E+01  5.318707E+01  4.248005E+00 -3.702815E+00  4.780377E+00  1.855809E-01
       919   1 -1.100097E+01  5.899431E+01 -2.041940E+00 -3.173034E+01 -2.043291E+00 -3.404223E-01
       919   2  9.441321E+00  1.031102E+02  3.137770E+00 -4.282494E+01 -1.799651E+00  2.973832E-01
       919   3 -1.047016E+01  6.344443E+01 -5.579293E-01 -3.222322E+01  3.009695E+00  1.618886E+00
       919   4  9.819679E+00  1.072711E+02  4.481406E+00 -4.326846E+01  3.214308E+00  2.366553E+00
       919   5 -2.588128E+01  6.961560E+01 -3.486463E+00 -1.875127E+01 -2.035199E+00 -1.920733E+00
       919   6 -5.018450E+00  1.130843E+02  1.281165E+00 -3.038933E+01 -1.857106E+00 -1.275892E+00
       919   7 -2.535420E+01  7.386942E+01 -2.045926E+00 -1.935750E+01  3.134692E+00  7.771567E-02
       919   8 -4.643430E+00  1.170573E+02  2.583684E+00 -3.094146E+01  3.268622E+00  8.305952E-01
       920   1  1.178310E+01  1.223848E+02 -5.396538E-01 -5.627421E+01 -2.788315E+00  4.306279E-01
       920   2  2.849738E+01  1.595149E+02  2.033010E+00 -6.575431E+01 -2.682632E+00  1.327323E+00
       920   3  1.243952E+01  1.261445E+02  7.615368E-01 -5.696908E+01  1.981248E+00  2.492569E+00
       920   4  2.900543E+01  1.630282E+02  3.207941E+00 -6.639014E+01  2.052744E+00  3.483547E+00
       920   5 -2.026940E+00  1.319509E+02 -2.578601E+00 -4.426695E+01 -2.957352E+00 -1.166308E+00
       920   6  1.501229E+01  1.684934E+02 -4.261174E-01 -5.421582E+01 -2.934466E+00 -2.658657E-01
       920   7 -1.298234E+00  1.355666E+02 -1.283721E+00 -4.505434E+01  1.919805E+00  9.309306E-01
       920   8  1.558996E+01  1.718683E+02  7.431216E-01 -5.494056E+01  1.904009E+00  1.924056E+00
       921   1 -4.996436E+01 -2.111948E+02 -9.961428E+00  6.380990E+01 -2.168804E+00 -2.743127E+00
       921   2 -1.137435E+01 -1.282541E+02  6.279099E+00  4.515773E+01 -1.461779E+00 -1.010221E+00
       921   3 -4.981697E+01 -2.026670E+02 -7.325206E+00  6.231651E+01  5.352182E+00 -8.667817E-01
       921   4 -1.160826E+01 -1.205647E+02  8.538308E+00  4.376370E+01  5.973396E+00  1.113682E+00
       921   5 -6.529132E+01 -1.930630E+02 -7.272030E+00  8.278141E+01 -1.537085E+00 -5.064230E+00
       921   6 -2.610344E+01 -1.113150E+02  8.305788E+00  6.311400E+01 -9.264154E-01 -3.291225E+00
       921   7 -6.527858E+01 -1.849560E+02 -4.778139E+00  8.103498E+01  6.189347E+00 -3.119134E+00
       921   8 -2.646427E+01 -1.040232E+02  1.043148E+01  6.148046E+01  6.702901E+00 -1.102536E+00
       922   1 -4.577567E+01 -9.871299E+01 -8.474702E+00  2.727859E+01 -2.410838E+00 -7.418781E-01
       922   2 -1.442531E+01 -3.290702E+01  4.561255E+00  1.176989E+01 -1.347120E+00 -4.766683E-02
       922   3 -4.668897E+01 -9.099306E+01 -6.415971E+00  2.661020E+01  3.494145E+00  9.726629E-01
       922   4 -1.565521E+01 -2.595131E+01  6.286968E+00  1.116117E+01  4.500514E+00  1.835350E+00
       922   5 -6.191057E+01 -8.450320E+01 -8.009859E+00  4.336082E+01 -1.976252E+00 -2.993182E+00
       922   6 -2.996057E+01 -1.958374E+01  4.558611E+00  2.706446E+01 -9.663873E-01 -2.230628E+00
       922   7 -6.305211E+01 -7.722900E+01 -6.133823E+00  4.243336E+01  4.078691E+00 -1.229472E+00
       922   8 -3.140717E+01 -1.305159E+01  6.111431E+00  2.620937E+01  5.023614E+00 -3.009321E-01
       923   1 -3.161740E+01 -8.200211E+00 -4.620936E+00 -4.645671E+00 -2.554625E+00 -3.499172E-01
       923   2 -6.724888E+00  4.457321E+01  3.537741E+00 -1.766404E+01 -1.547606E+00  1.954991E-01
       923   3 -3.263870E+01 -1.625194E+00 -2.952815E+00 -5.217228E+00  2.906400E+00  1.513458E+00
       923   4 -7.999258E+00  5.054307E+01  4.940120E+00 -1.818788E+01  3.867417E+00  2.193955E+00
       923   5 -4.749697E+01  3.527797E+00 -5.482806E+00  9.460355E+00 -2.269507E+00 -2.507241E+00
       923   6 -2.208537E+01  5.557394E+01  2.253317E+00 -4.194813E+00 -1.308832E+00 -1.903618E+00
       923   7 -4.870900E+01  9.719648E+00 -3.968963E+00  8.666664E+00  3.321364E+00 -6.017463E-01
       923   8 -2.354155E+01  6.117824E+01  3.509064E+00 -4.930767E+00  4.229938E+00  1.349746E-01
       924   1 -1.180679E+01  6.594281E+01 -2.326871E+00 -3.260085E+01 -2.812756E+00 -1.718571E-01
       924   2  8.329838E+00  1.094672E+02  2.533326E+00 -4.361172E+01 -1.940277E+00  3.221884E-01
       924   3 -1.266304E+01  7.164934E+01 -8.837387E-01 -3.313825E+01  2.246876E+00  1.795623E+00
       924   4  7.264893E+00  1.146939E+02  3.761920E+00 -4.410470E+01  3.081046E+00  2.401361E+00
       924   5 -2.680196E+01  7.611882E+01 -4.014669E+00 -1.984519E+01 -2.671957E+00 -2.259703E+00
       924   6 -6.244017E+00  1.190106E+02  4.341989E-01 -3.139017E+01 -1.847190E+00 -1.719435E+00
       924   7 -2.779441E+01  8.150535E+01 -2.692119E+00 -2.056989E+01  2.503250E+00 -2.551433E-01
       924   8 -7.439252E+00  1.239309E+02  1.547753E+00 -3.206261E+01  3.284627E+00  3.951650E-01
       925   1  1.157501E+01  1.282445E+02 -7.959753E-01 -5.748924E+01 -3.031723E+00  1.896172E-01
       925   2  2.841299E+01  1.652985E+02  2.457669E+00 -6.686853E+01 -2.547985E+00  9.883136E-01
       925   3  1.156931E+01  1.332383E+02  6.752437E-01 -5.821460E+01  1.487365E+00  2.165276E+00
       925   4  2.822655E+01  1.699317E+02  3.758638E+00 -6.753890E+01  1.937829E+00  3.058458E+00
       925   5 -2.205518E+00  1.374685E+02 -3.010961E+00 -4.565989E+01 -3.040755E+00 -1.855497E+00
       925   6  1.495419E+01  1.739462E+02 -1.754427E-01 -5.550101E+01 -2.627820E+00 -1.033148E+00
       925   7 -2.229776E+00  1.422363E+02 -1.599070E+00 -4.652603E+01  1.583762E+00  1.531197E-01
       925   8  1.475003E+01  1.783622E+02  1.068765E+00 -5.630665E+01  1.959021E+00  1.068478E+00
       926   1 -7.116066E+01 -2.324933E+02 -2.193314E+01  8.904061E+01 -2.149478E+00 -1.664819E+00
       926   2 -2.280022E+01 -1.443874E+02  3.328048E+00  6.536096E+01 -2.063394E+00 -1.459750E+00
       926   3 -7.079214E+01 -2.319036E+02 -2.160609E+01  8.848765E+01  3.600394E+00  2.369667E-01
       926   4 -2.257014E+01 -1.438711E+02  3.582260E+00  6.488789E+01  3.607633E+00  6.107745E-01
       926   5 -9.084845E+01 -2.091406E+02 -1.908873E+01  1.062433E+02 -2.395175E+00 -2.085283E+00
       926   6 -4.157097E+01 -1.224210E+02  5.701612E+00  8.164310E+01 -2.373737E+00 -1.888781E+00
       926   7 -9.034516E+01 -2.086868E+02 -1.873880E+01  1.056714E+02  3.501996E+00 -1.129407E-01
       926   8 -4.121260E+01 -1.220326E+02  5.979212E+00  8.115207E+01  3.436464E+00  2.484135E-01
       927   1 -5.491611E+01 -1.192837E+02 -1.034616E+01  3.808000E+01 -1.976455E+00 -1.314978E+00
       927   2 -1.775128E+01 -5.140261E+01  5.235177E+00  1.872905E+01 -1.940953E+00 -1.171915E+00
       927   3 -5.456584E+01 -1.185994E+02 -1.001258E+01  3.778377E+01  3.727723E+00  9.133515E-01
       927   4 -1.750795E+01 -5.076601E+01  5.512520E+00  1.849292E+01  3.693948E+00  1.204190E+00
       927   5 -7.436301E+01 -1.003388E+02 -9.330937E+00  5.258257E+01 -2.354311E+00 -1.755932E+00
       927   6 -3.641513E+01 -3.355488E+01  5.805503E+00  3.252136E+01 -2.381106E+00 -1.626278E+00
       927   7 -7.388983E+01 -9.976275E+01 -8.969370E+00  5.227479E+01  3.490603E+00  5.399252E-01
       927   8 -3.605424E+01 -3.302058E+01  6.111012E+00  3.227423E+01  3.387396E+00  8.139318E-01
       928   1 -3.202459E+01 -2.879001E+01 -3.812832E+00 -2.914295E+00 -1.953568E+00 -1.097776E+00
       928   2 -2.669930E+00  2.534956E+01  5.613066E+00 -1.903624E+01 -1.934503E+00 -9.919381E-01
       928   3 -3.176926E+01 -2.807511E+01 -3.515387E+00 -3.047720E+00  3.527175E+00  1.324728E+00
       928   4 -2.502794E+00  2.602660E+01  5.862992E+00 -1.912139E+01  3.488024E+00  1.554144E+00
       928   5 -5.069882E+01 -1.278580E+01 -4.053975E+00  9.767671E+00 -2.454500E+00 -1.568785E+00
       928   6 -2.068638E+01  4.044596E+01  4.950506E+00 -6.926805E+00 -2.496490E+00 -1.477683E+00
       928   7 -5.033101E+01 -1.216347E+01 -3.727394E+00  9.625560E+00  3.153568E+00  9.148368E-01
       928   8 -2.041125E+01  4.103521E+01  5.229639E+00 -7.020246E+00  3.047364E+00  1.126642E+00
       929   1 -5.611035E+00  4.582444E+01 -3.487346E-01 -3.676327E+01 -1.991850E+00 -9.510999E-01
       929   2  1.813451E+01  9.031807E+01  5.086131E+00 -5.041877E+01 -1.975807E+00 -8.540341E-01
       929   3 -5.483523E+00  4.651211E+01 -1.140755E-01 -3.680016E+01  3.189378E+00  1.577594E+00
       929   4  1.818532E+01  9.097151E+01  5.278345E+00 -5.041434E+01  3.158002E+00  1.774571E+00
       929   5 -2.324601E+01  5.985275E+01 -1.463980E+00 -2.532105E+01 -2.609805E+00 -1.455826E+00
       929   6  1.048645E+00  1.035697E+02  3.575896E+00 -3.945566E+01 -2.654993E+00 -1.373344E+00
       929   7 -2.301274E+01  6.045801E+01 -1.200032E+00 -2.536554E+01  2.681963E+00  1.125886E+00
       929   8  1.201330E+00  1.041447E+02  3.797436E+00 -3.945851E+01  2.584470E+00  1.305947E+00
       930   1  2.248476E+01  1.089627E+02  1.243878E+00 -6.534624E+01 -2.060324E+00 -8.239501E-01
       930   2  4.212510E+01  1.465176E+02  4.094712E+00 -7.708500E+01 -2.060156E+00 -7.245819E-01
       930   3  2.253604E+01  1.096228E+02  1.432320E+00 -6.531281E+01  2.790362E+00  1.746086E+00
       930   4  4.210806E+01  1.471471E+02  4.245258E+00 -7.701460E+01  2.753550E+00  1.922407E+00
       930   5  5.996594E+00  1.216697E+02 -4.776452E-01 -5.474863E+01 -2.793059E+00 -1.363996E+00
       930   6  2.609844E+01  1.585464E+02  2.015293E+00 -6.690112E+01 -2.855549E+00 -1.279386E+00
       930   7  6.151285E+00  1.222562E+02 -2.591120E-01 -5.472154E+01  2.148430E+00  1.249489E+00
       930   8  2.618129E+01  1.591057E+02  2.195946E+00 -6.683682E+01  2.045145E+00  1.409241E+00
       931   1 -7.020837E+01 -2.308088E+02 -2.077798E+01  8.788995E+01 -1.034704E+00 -3.172210E+00
       931   2 -2.233782E+01 -1.431017E+02  3.803313E+00  6.435629E+01 -9.923144E-01 -2.434941E+00
       931   3 -6.944324E+01 -2.288628E+02 -1.992413E+01  8.680968E+01  4.864726E+00 -1.247745E+00
       931   4 -2.176886E+01 -1.413461E+02  4.531495E+00  6.337674E+01  4.825533E+00 -3.338313E-01
       931   5 -8.966784E+01 -2.077099E+02 -1.790880E+01  1.050503E+02 -9.832282E-01 -3.938585E+00
       931   6 -4.089999E+01 -1.213831E+02  6.182811E+00  8.059834E+01 -1.022924E+00 -3.212226E+00
       931   7 -8.876925E+01 -2.059376E+02 -1.704327E+01  1.039251E+02  5.068816E+00 -1.943541E+00
       931   8 -4.020397E+01 -1.197911E+02  6.923762E+00  7.957625E+01  4.939112E+00 -1.044516E+00
       932   1 -5.432252E+01 -1.177934E+02 -1.002086E+01  3.742637E+01 -8.122023E-01 -1.887684E+00
       932   2 -1.750373E+01 -5.017161E+01  5.107669E+00  1.818447E+01 -8.455496E-01 -1.351589E+00
       932   3 -5.346830E+01 -1.157309E+02 -9.122344E+00  3.674594E+01  4.988107E+00  3.510103E-01
       932   4 -1.679546E+01 -4.823944E+01  5.913256E+00  1.757769E+01  4.884515E+00  1.038666E+00
       932   5 -7.357629E+01 -9.906530E+01 -9.002503E+00  5.190127E+01 -9.100100E-01 -2.673968E+00
       932   6 -3.598761E+01 -3.253379E+01  5.672306E+00  3.195045E+01 -1.019137E+00 -2.156847E+00
       932   7 -7.260461E+01 -9.714259E+01 -8.086776E+00  5.118833E+01  5.033243E+00 -3.690784E-01
       932   8 -3.516698E+01 -3.073382E+01  6.495810E+00  3.131277E+01  4.846620E+00  2.961607E-01
       933   1 -3.180710E+01 -2.747476E+01 -4.047069E+00 -3.259533E+00 -1.116313E+00 -1.127828E+00
       933   2 -2.645140E+00  2.654585E+01  5.219559E+00 -1.929384E+01 -1.155555E+00 -7.224692E-01
       933   3 -3.105120E+01 -2.543040E+01 -3.200546E+00 -3.704957E+00  4.387917E+00  1.276777E+00
       933   4 -2.009586E+00  2.848326E+01  5.988110E+00 -1.967998E+01  4.290472E+00  1.807075E+00
       933   5 -5.031245E+01 -1.166524E+01 -4.296544E+00  9.400318E+00 -1.362718E+00 -1.954899E+00
       933   6 -2.050119E+01  4.145550E+01  4.547079E+00 -7.205515E+00 -1.473982E+00 -1.568981E+00
       933   7 -4.945074E+01 -9.743031E+00 -3.431765E+00  8.926869E+00  4.268975E+00  5.086222E-01
       933   8 -1.976401E+01  4.327686E+01  5.334437E+00 -7.618411E+00  4.093500E+00  1.016632E+00
       934   1 -5.673739E+00  4.700902E+01 -7.864665E-01 -3.693999E+01 -1.609219E+00 -6.484832E-01
       934   2  1.795092E+01  9.144348E+01  4.618851E+00 -5.051985E+01 -1.628433E+00 -2.777391E-01
       934   3 -5.124580E+00  4.887947E+01 -7.054210E-02 -3.728530E+01  3.564095E+00  1.850601E+00
       934   4  1.839231E+01  9.321612E+01  5.263857E+00 -5.081268E+01  3.497411E+00  2.322425E+00
       934   5 -2.315123E+01  6.085969E+01 -1.912377E+00 -2.551763E+01 -2.003219E+00 -1.522253E+00
       934   6  1.014961E+00  1.045239E+02  3.096081E+00 -3.957577E+01 -2.094294E+00 -1.168626E+00
       934   7 -2.249839E+01  6.262054E+01 -1.176101E+00 -2.588884E+01  3.280779E+00  1.027723E+00
       934   8  1.556207E+00  1.061921E+02  3.761820E+00 -3.989342E+01  3.137331E+00  1.480118E+00
       935   1  2.228483E+01  1.100519E+02  7.409621E-01 -6.541027E+01 -2.158701E+00 -2.481280E-01
       935   2  4.175660E+01  1.474938E+02  3.426271E+00 -7.708038E+01 -2.184468E+00  1.395678E-01
       935   3  2.269492E+01  1.117160E+02  1.337833E+00 -6.571015E+01  2.720080E+00  2.314231E+00
       935   4  4.206607E+01  1.490678E+02  3.957413E+00 -7.733065E+01  2.656163E+00  2.782052E+00
       935   5  5.950819E+00  1.225953E+02 -9.954454E-01 -5.482963E+01 -2.705703E+00 -1.170297E+00
       935   6  2.587244E+01  1.593597E+02  1.319385E+00 -6.691281E+01 -2.806495E+00 -7.980602E-01
       935   7  6.472922E+00  1.241639E+02 -3.724909E-01 -5.515221E+01  2.266671E+00  1.434689E+00
       935   8  2.629004E+01  1.608424E+02  1.876739E+00 -6.718488E+01  2.123785E+00  1.885206E+00
       936   1 -6.837906E+01 -2.265006E+02 -1.819216E+01  8.581604E+01 -2.532211E-01 -4.308773E+00
       936   2 -2.142922E+01 -1.397298E+02  4.847598E+00  6.246463E+01 -2.189127E-01 -3.013100E+00
       936   3 -6.729486E+01 -2.230444E+02 -1.678882E+01  8.418157E+01  5.992979E+00 -2.268570E+00
       936   4 -2.060400E+01 -1.365970E+02  6.065548E+00  6.095219E+01  5.939846E+00 -7.812675E-01
       936   5 -8.761617E+01 -2.037250E+02 -1.532188E+01  1.028874E+02  8.169110E-02 -5.473542E+00
       936   6 -3.979856E+01 -1.183347E+02  7.186995E+00  7.862244E+01  1.592440E-02 -4.190228E+00
       936   7 -8.640643E+01 -2.004874E+02 -1.392159E+01  1.011775E+02  6.491718E+00 -3.360083E+00
       936   8 -3.885377E+01 -1.154081E+02  8.403803E+00  7.703855E+01  6.329459E+00 -1.889363E+00
       937   1 -5.316266E+01 -1.141077E+02 -9.345462E+00  3.612382E+01 -4.254837E-02 -2.143844E+00
       937   2 -1.688329E+01 -4.702065E+01  4.974376E+00  1.701425E+01 -8.813911E-02 -1.285624E+00
       937   3 -5.188763E+01 -1.104356E+02 -7.838296E+00  3.510465E+01  5.923172E+00  1.495234E-01
       937   4 -1.579847E+01 -4.358488E+01  6.343109E+00  1.608171E+01  5.805732E+00  1.164854E+00
       937   5 -7.225527E+01 -9.567301E+01 -8.384103E+00  5.053161E+01  1.201241E-01 -3.327810E+00
       937   6 -3.522176E+01 -2.966970E+01  5.466517E+00  3.071642E+01 -1.210157E-02 -2.489376E+00
       937   7 -7.088544E+01 -9.218810E+01 -6.880306E+00  4.945039E+01  6.232348E+00 -9.689583E-01
       937   8 -3.404613E+01 -2.641129E+01  6.833598E+00  2.972488E+01  6.020839E+00  2.311101E-02
       938   1 -3.123455E+01 -2.424081E+01 -4.375636E+00 -4.128047E+00 -7.134149E-01 -1.043273E+00
       938   2 -2.329740E+00  2.952508E+01  4.659977E+00 -2.005582E+01 -7.226322E-01 -4.312609E-01
       938   3 -3.015348E+01 -2.069254E+01 -2.981309E+00 -4.838391E+00  4.812037E+00  1.356783E+00
       938   4 -1.406969E+00  3.287144E+01  5.936319E+00 -2.069640E+01  4.744775E+00  2.095218E+00
       938   5 -4.961116E+01 -8.705439E+00 -4.705901E+00  8.472448E+00 -7.237243E-01 -2.271397E+00
       938   6 -2.006550E+01  4.417032E+01  3.904177E+00 -8.024179E+00 -8.120902E-01 -1.676510E+00
       938   7 -4.845142E+01 -5.328339E+00 -3.316286E+00  7.704511E+00  4.929063E+00  1.853087E-01
       938   8 -1.906702E+01  4.735383E+01  5.177369E+00 -8.719754E+00  4.776644E+00  9.038269E-01
       939   1 -5.496126E+00  4.984657E+01 -1.418595E+00 -3.763985E+01 -1.581672E+00 -4.122510E-01
       939   2  1.799988E+01  9.415297E+01  4.015942E+00 -5.112496E+01 -1.568158E+00  1.659277E-01
       939   3 -4.663248E+00  5.301981E+01 -2.278087E-01 -3.826312E+01  3.549183E+00  2.055384E+00
       939   4  1.869058E+01  9.714822E+01  5.101321E+00 -5.168523E+01  3.515339E+00  2.735782E+00
       939   5 -2.284776E+01  6.344501E+01 -2.626336E+00 -2.627169E+01 -1.763748E+00 -1.688667E+00
       939   6  1.181878E+00  1.069891E+02  2.408652E+00 -4.023281E+01 -1.829681E+00 -1.125249E+00
       939   7 -2.192851E+01  6.646771E+01 -1.433091E+00 -2.694640E+01  3.477600E+00  8.276241E-01
       939   8  1.955828E+00  1.098406E+02  3.497562E+00 -4.084235E+01  3.359401E+00  1.490996E+00
       940   1  2.232221E+01  1.125402E+02  8.922433E-02 -6.605064E+01 -2.440675E+00  2.023233E-01
       940   2  4.158716E+01  1.497819E+02  2.601718E+00 -7.763047E+01 -2.468116E+00  8.653106E-01
       940   3  2.304819E+01  1.152866E+02  1.104013E+00 -6.668108E+01  2.449445E+00  2.764011E+00
       940   4  4.217987E+01  1.523736E+02  3.521113E+00 -7.819938E+01  2.382050E+00  3.511877E+00
       940   5  6.129787E+00  1.248554E+02 -1.728317E+00 -5.551626E+01 -2.803848E+00 -1.125980E+00
       940   6  2.582843E+01  1.614179E+02  3.920642E-01 -6.750735E+01 -2.917264E+00 -4.782523E-01
       940   7  6.969110E+00  1.274794E+02 -6.953470E-01 -5.618842E+01  2.184383E+00  1.478293E+00
       940   8  2.653051E+01  1.638924E+02  1.329992E+00 -6.811635E+01  2.026873E+00  2.208990E+00
       941   1 -6.587399E+01 -2.193169E+02 -1.437911E+01  8.278480E+01 -1.218038E-01 -4.574555E+00
       941   2 -2.040202E+01 -1.341675E+02  5.972474E+00  5.965286E+01 -8.721023E-02 -2.718898E+00
       941   3 -6.438699E+01 -2.138921E+02 -1.226419E+01  8.060338E+01  6.737540E+00 -2.292689E+00
       941   4 -1.924484E+01 -1.292247E+02  7.831797E+00  5.761565E+01  6.676228E+00 -2.243633E-01
       941   5 -8.491160E+01 -1.969520E+02 -1.154761E+01  9.971165E+01  4.744381E-01 -6.244729E+00
       941   6 -3.860900E+01 -1.131877E+02  8.213427E+00  7.567388E+01  3.896153E-01 -4.403059E+00
       941   7 -8.331768E+01 -1.918027E+02 -9.456392E+00  9.741710E+01  7.513697E+00 -3.884962E+00
       941   8 -3.734982E+01 -1.085049E+02  1.005216E+01  7.352958E+01  7.323021E+00 -1.835211E+00
       942   1 -5.194136E+01 -1.079920E+02 -8.792736E+00  3.426553E+01 -2.378238E-01 -1.795149E+00
       942   2 -1.624556E+01 -4.161070E+01  4.721167E+00  1.531080E+01 -7.768492E-02 -8.127255E-01
       942   3 -5.069955E+01 -1.023182E+02 -6.696260E+00  3.299293E+01  5.864294E+00  5.482642E-01
       942   4 -1.525672E+01 -3.635210E+01  6.606406E+00  1.413789E+01  5.952020E+00  1.692116E+00
       942   5 -7.094562E+01 -8.996688E+01 -7.972424E+00  4.854574E+01  1.501739E-01 -3.483863E+00
       942   6 -3.450665E+01 -2.465591E+01  5.063699E+00  2.889166E+01  2.207463E-01 -2.504340E+00
       942   7 -6.967906E+01 -8.457607E+01 -5.928768E+00  4.715615E+01  6.400258E+00 -1.076618E+00
       942   8 -3.349361E+01 -1.966577E+01  6.900257E+00  2.760748E+01  6.390894E+00  6.093030E-02
       943   1 -3.079671E+01 -1.880519E+01 -4.836888E+00 -5.455673E+00 -1.120759E+00 -7.910623E-01
       943   2 -2.182529E+00  3.455553E+01  3.980819E+00 -2.125816E+01 -8.180446E-01 -1.104223E-01
       943   3 -3.011416E+01 -1.367069E+01 -3.087788E+00 -6.430953E+00  4.397926E+00  1.598962E+00
       943   4 -1.716232E+00  3.932313E+01  5.544978E+00 -2.215155E+01  4.643390E+00  2.407139E+00
       943   5 -4.912044E+01 -3.659328E+00 -5.328283E+00  7.024972E+00 -9.223151E-01 -2.498206E+00
       943   6 -1.987005E+01  4.882659E+01  3.065852E+00 -9.340960E+00 -6.983588E-01 -1.811896E+00
       943   7 -4.842935E+01  1.207675E+00 -3.634100E+00  5.937175E+00  4.722147E+00 -5.433436E-02
       943   8 -1.939505E+01  5.333932E+01  4.578885E+00 -1.034180E+01  4.882891E+00  7.568667E-01
       944   1 -5.353383E+00  5.460747E+01 -2.138815E+00 -3.880445E+01 -2.019999E+00 -2.937046E-01
       944   2  1.795865E+01  9.864072E+01  3.277585E+00 -5.217675E+01 -1.801409E+00  3.565336E-01
       944   3 -4.646605E+00  5.920160E+01 -5.612645E-01 -3.965959E+01  3.060429E+00  2.146155E+00
       944   4  1.848002E+01  1.029391E+02  4.701317E+00 -5.295888E+01  3.232119E+00  2.899715E+00
       944   5 -2.263213E+01  6.786009E+01 -3.493344E+00 -2.754044E+01 -2.004798E+00 -2.018318E+00
       944   6  1.207514E+00  1.111425E+02  1.522728E+00 -4.138438E+01 -1.866877E+00 -1.368285E+00
       944   7 -2.188716E+01  7.223274E+01 -1.949537E+00 -2.848817E+01  3.185214E+00  4.678004E-01
       944   8  1.765948E+00  1.152292E+02  2.915245E+00 -4.225523E+01  3.271350E+00  1.218987E+00
       945   1  2.253493E+01  1.166172E+02 -5.553502E-01 -6.726625E+01 -2.868877E+00  3.685759E-01
       945   2  4.171799E+01  1.537244E+02  2.156387E+00 -7.873551E+01 -2.819961E+00  1.277788E+00
       945   3  2.337931E+01  1.204832E+02  8.289092E-01 -6.823443E+01  1.920398E+00  2.882088E+00
       945   4  4.239466E+01  1.573585E+02  3.411455E+00 -7.963123E+01  1.928437E+00  3.879365E+00
       945   5  6.470719E+00  1.286427E+02 -2.494913E+00 -5.681333E+01 -3.045301E+00 -1.389970E+00
       945   6  2.607440E+01  1.650739E+02 -1.893245E-01 -6.869067E+01 -3.090178E+00 -4.919058E-01
       945   7  7.415085E+00  1.323470E+02 -1.108983E+00 -5.784838E+01  1.844393E+00  1.165017E+00
       945   8  2.684757E+01  1.685532E+02  1.068292E+00 -6.965065E+01  1.754390E+00  2.149229E+00
       946   1 -6.355621E+01 -2.087293E+02 -1.033351E+01  7.892992E+01 -2.116248E+00 -2.697924E+00
       946   2 -1.997207E+01 -1.258222E+02  6.550343E+00  5.605456E+01 -1.470068E+00 -9.371952E-01
       946   3 -6.293098E+01 -2.001970E+02 -7.545336E+00  7.654160E+01  5.515035E+00 -1.011539E-01
       946   4 -1.979529E+01 -1.181397E+02  8.935526E+00  5.382893E+01  6.057311E+00  1.895526E+00
       946   5 -8.248786E+01 -1.869336E+02 -7.631289E+00  9.562157E+01 -1.325823E+00 -5.114407E+00
       946   6 -3.810711E+01 -1.054094E+02  8.602760E+00  7.185296E+01 -7.940638E-01 -3.321875E+00
       946   7 -8.191250E+01 -1.788680E+02 -4.968747E+00  9.301285E+01  6.500998E+00 -2.435018E+00
       946   8 -3.797668E+01 -9.816783E+01  1.087101E+01  6.941873E+01  6.918018E+00 -4.113044E-01
       947   1 -5.207968E+01 -9.899583E+01 -8.882171E+00  3.195944E+01 -2.427998E+00 -7.736679E-01
       947   2 -1.666324E+01 -3.326410E+01  4.685458E+00  1.318487E+01 -1.360222E+00  1.121931E-02
       947   3 -5.270194E+01 -9.119464E+01 -6.707959E+00  3.041092E+01  3.545709E+00  1.495837E+00
       947   4 -1.765868E+01 -2.624310E+01  6.503106E+00  1.175638E+01  4.544276E+00  2.440427E+00
       947   5 -7.116005E+01 -8.159535E+01 -8.331314E+00  4.599492E+01 -1.868997E+00 -3.136675E+00
       947   6 -3.499257E+01 -1.689919E+01  4.781396E+00  2.653297E+01 -8.784723E-01 -2.288264E+00
       947   7 -7.192213E+01 -7.428365E+01 -6.321929E+00  4.421437E+01  4.246103E+00 -8.084974E-01
       947   8 -3.612034E+01 -1.034304E+01  6.443801E+00  2.488382E+01  5.160151E+00  1.966184E-01
       948   1 -3.149061E+01 -1.068468E+01 -4.898864E+00 -7.268298E+00 -2.570173E+00 -4.179326E-01
       948   2 -3.271184E+00  4.195720E+01  3.588949E+00 -2.292283E+01 -1.552559E+00  2.149443E-01
       948   3 -3.231237E+01 -4.033324E+00 -3.147192E+00 -8.578971E+00  2.938420E+00  1.952917E+00
       948   4 -4.398808E+00  4.797872E+01  5.049917E+00 -2.413497E+01  3.900214E+00  2.714307E+00
       948   5 -4.989346E+01  3.890450E+00 -5.632793E+00  4.985221E+00 -2.196474E+00 -2.696958E+00
       948   6 -2.103433E+01  5.568322E+01  2.442254E+00 -1.122251E+01 -1.249420E+00 -2.007213E+00
       948   7 -5.082608E+01  1.011835E+01 -4.018903E+00  3.473913E+00  3.434763E+00 -2.756625E-01
       948   8 -2.226725E+01  6.130096E+01  3.772950E+00 -1.262623E+01  4.320124E+00  5.402068E-01
       949   1 -5.967010E+00  6.167389E+01 -2.507669E+00 -4.039119E+01 -2.837382E+00 -2.909014E-01
       949   2  1.697488E+01  1.050951E+02  2.555420E+00 -5.363292E+01 -1.959912E+00  2.803236E-01
       949   3 -6.683046E+00  6.743759E+01 -1.007427E+00 -4.153338E+01  2.256515E+00  2.144111E+00
       949   4  1.600566E+01  1.103561E+02  3.819287E+00 -5.469094E+01  3.087744E+00  2.820966E+00
       949   5 -2.326891E+01  7.444374E+01 -4.062142E+00 -2.931555E+01 -2.641739E+00 -2.505785E+00
       949   6  1.987828E-01  1.171316E+02  6.025379E-01 -4.302103E+01 -1.833729E+00 -1.888909E+00
       949   7 -2.405683E+01  7.984927E+01 -2.669855E+00 -3.062682E+01  2.560498E+00 -2.667589E-02
       949   8 -8.388403E-01  1.220498E+02  1.764057E+00 -4.424104E+01  3.317399E+00  6.938574E-01
       950   1  2.253692E+01  1.225289E+02 -9.212337E-01 -6.901329E+01 -3.099711E+00  2.280000E-02
       950   2  4.180871E+01  1.595820E+02  2.467521E+00 -8.035478E+01 -2.651370E+00  8.644749E-01
       950   3  2.268591E+01  1.275507E+02  6.001238E-01 -7.017215E+01  1.451844E+00  2.415569E+00
       950   4  4.174963E+01  1.642444E+02  3.809427E+00 -8.143506E+01  1.860974E+00  3.344355E+00
       950   5  6.567773E+00  1.341907E+02 -2.993144E+00 -5.869502E+01 -3.079920E+00 -2.156200E+00
       950   6  2.625878E+01  1.705843E+02 -3.136248E-05 -7.043934E+01 -2.717087E+00 -1.299570E+00
       950   7  6.739280E+00  1.389583E+02 -1.522464E+00 -5.997219E+01  1.568233E+00  2.747256E-01
       950   8  2.622168E+01  1.750028E+02  1.294001E+00 -7.163331E+01  1.887742E+00  1.216732E+00
       951   1 -9.005323E+01 -2.260579E+02 -2.269980E+01  1.051608E+02 -2.076082E+00 -1.807404E+00
       951   2 -3.541914E+01 -1.388299E+02  3.611802E+00  7.747717E+01 -1.991480E+00 -1.594382E+00
       951   3 -8.951189E+01 -2.255603E+02 -2.234474E+01  1.045289E+02  3.659253E+00  7.093167E-01
       951   4 -3.505397E+01 -1.383878E+02  3.886654E+00  7.693180E+01  3.654227E+00  1.077467E+00
       951   5 -1.133303E+02 -1.993116E+02 -2.001780E+01  1.190925E+02 -2.352657E+00 -2.309248E+00
       951   6 -5.758400E+01 -1.136483E+02  5.838890E+00  9.066332E+01 -2.344822E+00 -2.115349E+00
       951   7 -1.126347E+02 -1.989612E+02 -1.963370E+01  1.184765E+02  3.517925E+00  2.863974E-01
       951   8 -5.707179E+01 -1.133445E+02  6.143577E+00  9.013294E+01  3.428612E+00  6.310416E-01
       952   1 -6.346526E+01 -1.182566E+02 -1.062930E+01  4.438481E+01 -1.899653E+00 -1.439326E+00
       952   2 -2.133881E+01 -5.120071E+01  5.589965E+00  2.194334E+01 -1.863638E+00 -1.295012E+00
       952   3 -6.301837E+01 -1.175918E+02 -1.027136E+01  4.403160E+01  3.779366E+00  1.394451E+00
       952   4 -2.102843E+01 -5.057070E+01  5.885214E+00  2.165466E+01  3.736962E+00  1.673903E+00
       952   5 -8.585648E+01 -9.637277E+01 -9.699531E+00  5.599862E+01 -2.333971E+00 -1.983833E+00
       952   6 -4.279735E+01 -3.055264E+01  6.091720E+00  3.298838E+01 -2.371519E+00 -1.863100E+00
       952   7 -8.527145E+01 -9.582575E+01 -9.307607E+00  5.566340E+01  3.473552E+00  9.250640E-01
       952   8 -4.235469E+01 -3.003371E+01  6.421480E+00  3.271681E+01  3.351008E+00  1.177094E+00
       953   1 -3.219623E+01 -3.175387E+01 -3.821825E+00 -3.447518E+00 -1.873225E+00 -1.222580E+00
       953   2  1.213519E+00  2.165576E+01  6.005679E+00 -2.206732E+01 -1.852775E+00 -1.116530E+00
       953   3 -3.190070E+01 -3.101532E+01 -3.506499E+00 -3.627606E+00  3.569165E+00  1.774196E+00
       953   4  1.396615E+00  2.236683E+01  6.267847E+00 -2.219577E+01  3.523520E+00  1.993414E+00
       953   5 -5.339905E+01 -1.312266E+01 -4.094148E+00  6.644662E+00 -2.452586E+00 -1.817764E+00
       953   6 -1.921165E+01  3.926633E+01  5.326711E+00 -1.243076E+01 -2.504167E+00 -1.736613E+00
       953   7 -5.297792E+01 -1.248468E+01 -3.743470E+00  6.482079E+00  3.106194E+00  1.247085E+00
       953   8 -1.890774E+01  3.988226E+01  5.624668E+00 -1.254249E+01  2.982969E+00  1.438170E+00
       954   1  1.178201E+00  3.988139E+01 -1.833203E-01 -4.218079E+01 -1.909396E+00 -1.082377E+00
       954   2  2.833183E+01  8.374835E+01  5.522975E+00 -5.793487E+01 -1.892849E+00 -9.839811E-01
       954   3  1.304611E+00  4.061848E+01  6.208843E-02 -4.225828E+01  3.217998E+00  1.980674E+00
       954   4  2.836164E+01  8.446093E+01  5.721416E+00 -5.796860E+01  3.180259E+00  2.171140E+00
       954   5 -1.872367E+01  5.631259E+01 -1.297767E+00 -3.309286E+01 -2.625596E+00 -1.731251E+00
       954   6  9.078515E+00  9.930679E+01  4.024071E+00 -4.922746E+01 -2.680977E+00 -1.657992E+00
       954   7 -1.847992E+01  5.696051E+01 -1.016710E+00 -3.315392E+01  2.603462E+00  1.391220E+00
       954   8  9.221543E+00  9.993474E+01  4.258542E+00 -4.924544E+01  2.489236E+00  1.553898E+00
       955   1  3.516447E+01  1.007733E+02  1.548142E+00 -7.432579E+01 -1.980500E+00 -9.633514E-01
       955   2  5.773331E+01  1.377935E+02  4.610584E+00 -8.787989E+01 -1.982411E+00 -8.621387E-01
       955   3  3.518556E+01  1.015040E+02  1.742542E+00 -7.432680E+01  2.796924E+00  2.097103E+00
       955   4  5.766986E+01  1.385039E+02  4.763820E+00 -8.784246E+01  2.751891E+00  2.270350E+00
       955   5  1.657963E+01  1.157169E+02 -1.571395E-01 -6.589594E+01 -2.829380E+00 -1.667778E+00
       955   6  3.969339E+01  1.519730E+02  2.550399E+00 -7.977915E+01 -2.904251E+00 -1.592698E+00
       955   7  1.671421E+01  1.163687E+02  7.380321E-02 -6.588054E+01  2.032908E+00  1.442168E+00
       955   8  3.973975E+01  1.526084E+02  2.740501E+00 -7.972594E+01  1.911291E+00  1.587181E+00
       956   1 -8.876452E+01 -2.245445E+02 -2.150021E+01  1.038345E+02 -8.934220E-01 -3.064075E+00
       956   2 -3.470295E+01 -1.376987E+02  4.084182E+00  7.631076E+01 -8.772956E-01 -2.335310E+00
       956   3 -8.770604E+01 -2.227023E+02 -2.058513E+01  1.025685E+02  5.002042E+00 -5.180437E-01
       956   4 -3.388619E+01 -1.360292E+02  4.863764E+00  7.515881E+01  4.925566E+00  3.729586E-01
       956   5 -1.117735E+02 -1.980700E+02 -1.877537E+01  1.177853E+02 -8.399027E-01 -3.913884E+00
       956   6 -5.661995E+01 -1.127802E+02  6.338074E+00  8.951502E+01 -9.179048E-01 -3.208103E+00
       956   7 -1.105537E+02 -1.964160E+02 -1.784076E+01  1.165124E+02  5.195694E+00 -1.288959E+00
       956   8 -5.564946E+01 -1.112879E+02  7.138504E+00  8.835653E+01  5.017295E+00 -4.254268E-01
       957   1 -6.269480E+01 -1.168236E+02 -1.031628E+01  4.359869E+01 -6.954201E-01 -1.769912E+00
       957   2 -2.097507E+01 -5.001286E+01  5.421851E+00  2.127598E+01 -7.462661E-01 -1.253678E+00
       957   3 -6.163813E+01 -1.147647E+02 -9.356291E+00  4.276860E+01  5.087775E+00  1.073086E+00
       957   4 -2.010112E+01 -4.807513E+01  6.279103E+00  2.052957E+01  4.957337E+00  1.728140E+00
       957   5 -8.485985E+01 -9.517026E+01 -9.362540E+00  5.523653E+01 -8.183882E-01 -2.663819E+00
       957   6 -4.222131E+01 -2.958675E+01  5.939927E+00  3.234388E+01 -9.558919E-01 -2.177003E+00
       957   7 -8.366416E+01 -9.326478E+01 -8.378603E+00  5.440494E+01  5.095676E+00  2.529640E-01
       957   8 -4.121418E+01 -2.779395E+01  6.822181E+00  3.159602E+01  4.871884E+00  8.747353E-01
       958   1 -3.191311E+01 -3.042915E+01 -4.103045E+00 -3.904574E+00 -1.022032E+00 -1.065780E+00
       958   2  1.258567E+00  2.287705E+01  5.551287E+00 -2.242925E+01 -1.074726E+00 -6.775997E-01
       958   3 -3.102131E+01 -2.834021E+01 -3.203118E+00 -4.481628E+00  4.451387E+00  1.904382E+00
       958   4  2.000281E+00  2.486646E+01  6.365065E+00 -2.293913E+01  4.332529E+00  2.407188E+00
       958   5 -5.291762E+01 -1.200322E+01 -4.361746E+00  6.211296E+00 -1.314140E+00 -2.021370E+00
       958   6 -1.897731E+01  4.029154E+01  4.885130E+00 -1.277007E+01 -1.449441E+00 -1.662988E+00
       958   7 -5.190146E+01 -1.004841E+01 -3.436891E+00  5.633597E+00  4.276150E+00  1.014581E+00
       958   8 -1.811598E+01  4.215377E+01  5.724733E+00 -1.328057E+01  4.069117E+00  1.484380E+00
       959   1  1.105931E+00  4.111487E+01 -6.871613E-01 -4.245619E+01 -1.542066E+00 -6.609092E-01
       959   2  2.810143E+01  8.493796E+01  4.978027E+00 -5.812915E+01 -1.576385E+00 -2.999272E-01
       959   3  1.746185E+00  4.304791E+01  7.165767E-02 -4.291981E+01  3.585982E+00  2.361631E+00
       959   4  2.861024E+01  8.678253E+01  5.660165E+00 -5.853446E+01  3.497334E+00  2.815774E+00
       959   5 -1.861187E+01  5.736051E+01 -1.789590E+00 -3.334583E+01 -1.998614E+00 -1.683680E+00
       959   6  9.024483E+00  1.003186E+02  3.490688E+00 -4.940025E+01 -2.115032E+00 -1.351214E+00
       959   7 -1.785205E+01  5.917408E+01 -1.003703E+00 -3.380955E+01  3.231395E+00  1.395966E+00
       959   8  9.648655E+00  1.020495E+02  4.200607E+00 -4.980565E+01  3.056072E+00  1.818966E+00
       960   1  3.490111E+01  1.019402E+02  9.584255E-01 -7.447417E+01 -2.135471E+00 -3.378640E-01
       960   2  5.726384E+01  1.388574E+02  3.829054E+00 -8.795643E+01 -2.183605E+00  4.656542E-02
       960   3  3.537783E+01  1.036804E+02  1.592466E+00 -7.487625E+01  2.681118E+00  2.709465E+00
       960   4  5.762233E+01  1.405211E+02  4.394700E+00 -8.830566E+01  2.588763E+00  3.168499E+00
       960   5  1.649451E+01  1.167161E+02 -7.368055E-01 -6.602088E+01 -2.757959E+00 -1.430869E+00
       960   6  3.939145E+01  1.528720E+02  1.769773E+00 -7.983315E+01 -2.890384E+00 -1.075401E+00
       960   7  1.709535E+01  1.183535E+02 -7.016078E-02 -6.642019E+01  2.145831E+00  1.664845E+00
       960   8  3.986996E+01  1.544376E+02  2.368469E+00 -8.017973E+01  1.965456E+00  2.092782E+00
       961   1 -8.638958E+01 -2.204330E+02 -1.881551E+01  1.013934E+02 -6.576177E-02 -4.023780E+00
       961   2 -3.336263E+01 -1.345252E+02  5.135175E+00  7.407790E+01 -8.293798E-02 -2.752441E+00
       961   3 -8.488780E+01 -2.171046E+02 -1.732025E+01  9.944841E+01  6.190185E+00 -1.336855E+00
       961   4 -3.217453E+01 -1.315046E+02  6.431785E+00  7.227627E+01  6.073859E+00  1.104559E-01
       961   5 -1.091181E+02 -1.943021E+02 -1.606042E+01  1.153222E+02  3.098348E-01 -5.272461E+00
       961   6 -5.502947E+01 -1.099473E+02  7.381945E+00  8.726131E+01  1.805383E-01 -4.026483E+00
       961   7 -1.074534E+02 -1.912112E+02 -1.455845E+01  1.133428E+02  6.716297E+00 -2.503642E+00
       961   8 -5.368612E+01 -1.071504E+02  8.687358E+00  8.542707E+01  6.479479E+00 -1.086446E+00
       962   1 -6.120332E+01 -1.131976E+02 -9.652588E+00  4.199301E+01  8.934375E-02 -1.870449E+00
       962   2 -2.010229E+01 -4.692015E+01  5.228944E+00  1.982271E+01  1.247704E-02 -1.044807E+00
       962   3 -5.962534E+01 -1.095224E+02 -8.051246E+00  4.070386E+01  6.046993E+00  1.030478E+00
       962   4 -1.875935E+01 -4.347680E+01  6.678209E+00  1.863769E+01  5.888461E+00  2.000594E+00
       962   5 -8.315810E+01 -9.185479E+01 -8.723995E+00  5.361805E+01  2.646316E-01 -3.163391E+00
       962   6 -4.115535E+01 -2.679617E+01  5.707189E+00  3.087841E+01  8.985564E-02 -2.367716E+00
       962   7 -8.145462E+01 -8.838550E+01 -7.117828E+00  5.229950E+01  6.357028E+00 -1.891323E-01
       962   8 -3.969209E+01 -2.354766E+01  7.163288E+00  2.966543E+01  6.093694E+00  7.471029E-01
       963   1 -3.114759E+01 -2.718956E+01 -4.501432E+00 -5.043467E+00 -6.221990E-01 -8.802794E-01
       963   2  1.710138E+00  2.587050E+01  4.899944E+00 -2.344552E+01 -6.535172E-01 -2.902648E-01
       963   3 -2.984411E+01 -2.358945E+01 -3.025018E+00 -6.001518E+00  4.880992E+00  2.074353E+00
       963   4  2.818835E+00  2.927210E+01  6.246964E+00 -2.431922E+01  4.783540E+00  2.780705E+00
       963   5 -5.197953E+01 -9.051841E+00 -4.808919E+00  5.061009E+00 -6.402064E-01 -2.237802E+00
       963   6 -1.836264E+01  4.300813E+01  4.183290E+00 -1.379721E+01 -7.619786E-01 -1.674716E+00
       963   7 -5.057037E+01 -5.640113E+00 -3.329468E+00  4.074194E+00  4.980133E+00  7.803180E-01
       963   8 -1.715219E+01  4.623065E+01  5.535207E+00 -1.469838E+01  4.786640E+00  1.456589E+00
       964   1  1.392721E+00  4.398128E+01 -1.419698E+00 -4.339703E+01 -1.534191E+00 -3.764329E-01
       964   2  2.821446E+01  8.768954E+01  4.258527E+00 -5.896335E+01 -1.546454E+00  1.893488E-01
       964   3  2.399116E+00  4.721530E+01 -1.612755E-01 -4.423738E+01  3.561987E+00  2.598921E+00
       964   4  2.905027E+01  9.075334E+01  5.403936E+00 -5.972994E+01  3.495599E+00  3.258839E+00
       964   5 -1.816032E+01  5.996498E+01 -2.570992E+00 -3.429551E+01 -1.740117E+00 -1.802140E+00
       964   6  9.294431E+00  1.028183E+02  2.722116E+00 -5.024292E+01 -1.842412E+00 -1.262590E+00
       964   7 -1.704521E+01  6.303417E+01 -1.302690E+00 -3.515968E+01  3.457826E+00  1.227808E+00
       964   8  1.023516E+01  1.057250E+02  3.878795E+00 -5.103234E+01  3.296826E+00  1.858920E+00
       965   1  3.499787E+01  1.044685E+02  1.751358E-01 -7.531885E+01 -2.465430E+00  1.146755E-01
       965   2  5.710709E+01  1.411945E+02  2.832357E+00 -8.870431E+01 -2.532596E+00  7.700115E-01
       965   3  3.587688E+01  1.072800E+02  1.250261E+00 -7.612636E+01  2.378246E+00  3.153968E+00
       965   4  5.783318E+01  1.438673E+02  3.809589E+00 -8.944456E+01  2.265222E+00  3.887605E+00
       965   5  1.676610E+01  1.190137E+02 -1.564100E+00 -6.686678E+01 -2.862883E+00 -1.385337E+00
       965   6  3.939524E+01  1.549799E+02  7.133630E-01 -8.058221E+01 -3.024667E+00 -7.602888E-01
       965   7  1.777403E+01  1.216929E+02 -4.638011E-01 -6.768797E+01  2.071491E+00  1.701890E+00
       965   8  4.024593E+01  1.575264E+02  1.716449E+00 -8.133562E+01  1.859970E+00  2.403047E+00
       966   1 -8.312893E+01 -2.135009E+02 -1.486808E+01  9.776891E+01  6.527226E-02 -4.254376E+00
       966   2 -3.172497E+01 -1.292353E+02  6.260400E+00  7.071317E+01  2.141597E-02 -2.440063E+00
       966   3 -8.109519E+01 -2.082451E+02 -1.263396E+01  9.512507E+01  6.948271E+00 -1.279407E+00
       966   4 -3.008494E+01 -1.244479E+02  8.222024E+00  6.824404E+01  6.795044E+00  7.315671E-01
       966   5 -1.055775E+02 -1.878032E+02 -1.210627E+01  1.116254E+02  7.521789E-01 -6.003971E+00
       966   6 -5.315206E+01 -1.050926E+02  8.454771E+00  8.382809E+01  5.772786E-01 -4.217152E+00
       966   7 -1.033891E+02 -1.828469E+02 -9.884042E+00  1.089123E+02  7.801754E+00 -2.941164E+00
       966   8 -5.136459E+01 -1.005876E+02  1.040774E+01  8.129351E+01  7.508224E+00 -9.628801E-01
       967   1 -5.950817E+01 -1.071685E+02 -9.122521E+00  3.959480E+01 -1.408554E-01 -1.543634E+00
       967   2 -1.908147E+01 -4.160018E+01  4.905682E+00  1.761425E+01 -1.329664E-02 -5.750702E-01
       967   3 -5.787684E+01 -1.015169E+02 -6.912793E+00  3.785439E+01  5.962198E+00  1.404240E+00
       967   4 -1.775784E+01 -3.636361E+01  6.886155E+00  1.600364E+01  6.006827E+00  2.522528E+00
       967   5 -8.130362E+01 -8.625858E+01 -8.292183E+00  5.114978E+01  3.104863E-01 -3.337162E+00
       967   6 -3.998931E+01 -2.189410E+01  5.275768E+00  2.860333E+01  3.345467E-01 -2.380663E+00
       967   7 -7.960038E+01 -8.091578E+01 -6.124133E+00  4.932768E+01  6.550709E+00 -3.171321E-01
       967   8 -3.859633E+01 -1.695030E+01  7.218863E+00  2.691502E+01  6.484800E+00  7.852262E-01
       968   1 -3.039453E+01 -2.177653E+01 -5.041329E+00 -6.869527E+00 -1.060747E+00 -6.732562E-01
       968   2  2.104732E+00  3.088130E+01  4.118048E+00 -2.511674E+01 -7.771179E-01  1.670602E-02
       968   3 -2.941886E+01 -1.663467E+01 -3.201692E+00 -8.282316E+00  4.444533E+00  2.255939E+00
       968   4  2.818163E+00  3.565479E+01  5.757022E+00 -2.642131E+01  4.662631E+00  3.063930E+00
       968   5 -5.111019E+01 -4.050297E+00 -5.470594E+00  3.165936E+00 -8.230917E-01 -2.504261E+00
       968   6 -1.785842E+01  4.762456E+01  3.281853E+00 -1.553433E+01 -6.329782E-01 -1.816809E+00
       968   7 -5.008286E+01  7.990524E-01 -3.675590E+00  1.671891E+00  4.798333E+00  4.855953E-01
       968   8 -1.709481E+01  5.211960E+01  4.880185E+00 -1.691650E+01  4.917334E+00  1.288071E+00
       969   1  1.760711E+00  4.873604E+01 -2.248891E+00 -4.499016E+01 -1.996795E+00 -3.065499E-01
       969   2  2.834475E+01  9.218123E+01  3.392093E+00 -6.042211E+01 -1.804032E+00  3.499726E-01
       969   3  2.703628E+00  5.335529E+01 -5.950291E-01 -4.620612E+01  3.059634E+00  2.623420E+00
       969   4  2.906709E+01  9.650886E+01  4.881448E+00 -6.154623E+01  3.198806E+00  3.375182E+00
       969   5 -1.766573E+01  6.435769E+01 -3.508147E+00 -3.594434E+01 -1.962836E+00 -2.172737E+00
       969   6  9.544782E+00  1.069619E+02  1.749365E+00 -5.175505E+01 -1.863479E+00 -1.526440E+00
       969   7 -1.665104E+01  6.873472E+01 -1.879187E+00 -3.722361E+01  3.194456E+00  8.091705E-01
       969   8  1.033663E+01  1.110581E+02  3.216604E+00 -5.293983E+01  3.235656E+00  1.548246E+00
       970   1  3.539521E+01  1.085360E+02 -6.069142E-01 -7.687405E+01 -2.920330E+00  2.290629E-01
       970   2  5.737734E+01  1.451454E+02  2.221611E+00 -9.013759E+01 -2.922528E+00  1.131764E+00
       970   3  3.645892E+01  1.124196E+02  8.440131E-01 -7.810944E+01  1.839952E+00  3.200978E+00
       970   4  5.825054E+01  1.488138E+02  3.540199E+00 -9.129086E+01  1.791360E+00  4.184068E+00
       970   5  1.733367E+01  1.227863E+02 -2.425455E+00 -6.845408E+01 -3.090527E+00 -1.691792E+00
       970   6  3.982468E+01  1.586431E+02  1.618213E-02 -8.204633E+01 -3.195306E+00 -8.154879E-01
       970   7  1.851845E+01  1.264948E+02 -9.652704E-01 -6.972611E+01  1.761613E+00  1.326303E+00
       970   8  4.081490E+01  1.621440E+02  1.345228E+00 -8.323482E+01  1.606498E+00  2.280816E+00
       971   1 -7.986102E+01 -2.032618E+02 -1.068829E+01  9.297718E+01 -2.062119E+00 -2.689853E+00
       971   2 -3.051087E+01 -1.212678E+02  6.823514E+00  6.623965E+01 -1.481675E+00 -9.029894E-01
       971   3 -7.859144E+01 -1.949609E+02 -7.769445E+00  8.975483E+01  5.603145E+00  6.564473E-01
       971   4 -2.976752E+01 -1.138105E+02  9.315722E+00  6.323452E+01  6.063585E+00  2.664752E+00
       971   5 -1.020987E+02 -1.781676E+02 -8.002688E+00  1.066757E+02 -1.105926E+00 -5.178659E+00
       971   6 -5.176741E+01 -9.772540E+01  8.877959E+00  7.920509E+01 -6.559424E-01 -3.370592E+00
       971   7 -1.008073E+02 -1.703745E+02 -5.194929E+00  1.032799E+02  6.742678E+00 -1.737739E+00
       971   8 -5.100214E+01 -9.074746E+01  1.126787E+01  7.603579E+01  7.062427E+00  2.862869E-01
       972   1 -5.904327E+01 -9.835263E+01 -9.248996E+00  3.634057E+01 -2.438048E+00 -8.440397E-01
       972   2 -1.898588E+01 -3.342520E+01  4.822715E+00  1.460095E+01 -1.380341E+00  3.363504E-02
       972   3 -5.920492E+01 -9.069368E+01 -6.975590E+00  3.394741E+01  3.544904E+00  1.999280E+00
       972   4 -1.958910E+01 -2.655029E+01  6.716261E+00  1.238157E+01  4.522678E+00  3.026562E+00
       972   5 -8.081243E+01 -7.810752E+01 -8.643060E+00  4.771374E+01 -1.746712E+00 -3.301537E+00
       972   6 -3.986448E+01 -1.434720E+01  4.989296E+00  2.541713E+01 -7.875393E-01 -2.366731E+00
       972   7 -8.103878E+01 -7.098003E+01 -6.519812E+00  4.512868E+01  4.368002E+00 -3.913288E-01
       972   8 -4.052827E+01 -7.976792E+00  6.742234E+00  2.301524E+01  5.240360E+00  6.896348E-01
       973   1 -3.064465E+01 -1.377321E+01 -5.149281E+00 -9.543871E+00 -2.575616E+00 -5.212546E-01
       973   2  1.377853E+00  3.816373E+01  3.655733E+00 -2.759113E+01 -1.562090E+00  2.024539E-01
       973   3 -3.112026E+01 -7.240850E+00 -3.328509E+00 -1.157617E+01  2.926827E+00  2.372754E+00
       973   4  5.387090E-01  4.406085E+01  5.165379E+00 -2.948106E+01  3.875943E+00  3.216515E+00
       973   5 -5.134710E+01  3.343655E+00 -5.780920E+00  3.201507E-01 -2.105557E+00 -2.910299E+00
       973   6 -1.857243E+01  5.432539E+01  2.626871E+00 -1.817243E+01 -1.183777E+00 -2.135390E+00
       973   7 -5.186678E+01  9.415825E+00 -4.084009E+00 -1.877360E+00  3.510663E+00  4.098829E-02
       973   8 -1.945284E+01  5.978392E+01  4.020196E+00 -2.022010E+01  4.362472E+00  9.332009E-01
       974   1  1.483443E+00  5.571818E+01 -2.687269E+00 -4.729015E+01 -2.845796E+00 -4.425181E-01
       974   2  2.762967E+01  9.855343E+01  2.573936E+00 -6.255335E+01 -1.974388E+00  2.084970E-01
       974   3  1.027863E+00  6.138145E+01 -1.140586E+00 -4.903444E+01  2.232227E+00  2.471667E+00
       974   4  2.687417E+01  1.037110E+02  3.867979E+00 -6.417941E+01  3.050569E+00  3.220637E+00
       974   5 -1.789153E+01  7.082538E+01 -4.110458E+00 -3.838097E+01 -2.585228E+00 -2.781306E+00
       974   6  8.877397E+00  1.128395E+02  7.703740E-01 -5.401721E+01 -1.802691E+00 -2.090933E+00
       974   7 -1.836312E+01  7.609869E+01 -2.659421E+00 -4.026236E+01  2.592466E+00  1.825102E-01
       974   8  8.107300E+00  1.176242E+02  1.974501E+00 -5.577463E+01  3.317351E+00  9.685822E-01
       975   1  3.569886E+01  1.143615E+02 -1.058967E+00 -7.914363E+01 -3.137438E+00 -1.798834E-01
       975   2  5.773376E+01  1.509497E+02  2.454953E+00 -9.225896E+01 -2.724384E+00  6.944072E-01
       975   3  3.607900E+01  1.193081E+02  5.054028E-01 -8.073291E+01  1.398146E+00  2.638020E+00
       975   4  5.787448E+01  1.555465E+02  3.832134E+00 -9.374981E+01  1.766862E+00  3.591650E+00
       975   5  1.778376E+01  1.282309E+02 -2.974383E+00 -7.080564E+01 -3.076776E+00 -2.498011E+00
       975   6  4.032630E+01  1.640860E+02  1.668641E-01 -8.424649E+01 -2.762402E+00 -1.620098E+00
       975   7  1.822273E+01  1.329011E+02 -1.451354E+00 -7.248219E+01  1.546471E+00  3.621196E-01
       975   8  4.052417E+01  1.684177E+02  1.505756E+00 -8.582120E+01  1.812693E+00  1.317413E+00
       976   1 -1.118839E+02 -2.160268E+02 -2.345252E+01  1.191762E+02 -1.985208E+00 -1.954285E+00
       976   2 -5.028127E+01 -1.306057E+02  3.858944E+00  8.809590E+01 -1.903021E+00 -1.733320E+00
       976   3 -1.111509E+02 -2.156597E+02 -2.307654E+01  1.184995E+02  3.664774E+00  1.182744E+00
       976   4 -4.976359E+01 -1.302701E+02  4.148934E+00  8.750459E+01  3.648744E+00  1.543597E+00
       976   5 -1.381987E+02 -1.864522E+02 -2.093947E+01  1.291263E+02 -2.285924E+00 -2.543714E+00
       976   6 -7.531698E+01 -1.027429E+02  5.936448E+00  9.751360E+01 -2.291285E+00 -2.355161E+00
       976   7 -1.373012E+02 -1.862353E+02 -2.052830E+01  1.285057E+02  3.486068E+00  6.785433E-01
       976   8 -7.464223E+01 -1.025481E+02  6.262737E+00  9.697526E+01  3.375640E+00  1.002208E+00
       977   1 -7.305940E+01 -1.157370E+02 -1.092574E+01  4.996726E+01 -1.808046E+00 -1.566947E+00
       977   2 -2.544499E+01 -5.023662E+01  5.894713E+00  2.492598E+01 -1.771701E+00 -1.420577E+00
       977   3 -7.250543E+01 -1.151182E+02 -1.054911E+01  4.957122E+01  3.775448E+00  1.875279E+00
       977   4 -2.505829E+01 -4.963536E+01  6.203367E+00  2.459297E+01  3.726270E+00  2.142749E+00
       977   5 -9.790245E+01 -9.140654E+01 -1.007930E+01  5.809214E+01 -2.289479E+00 -2.226981E+00
       977   6 -4.922812E+01 -2.725452E+01  6.333861E+00  3.265294E+01 -2.336733E+00 -2.116866E+00
       977   7 -9.720278E+01 -9.090798E+01 -9.662629E+00  5.774790E+01  3.409199E+00  1.295851E+00
       977   8 -4.870161E+01 -2.676627E+01  6.683508E+00  3.236918E+01  3.270458E+00  1.522899E+00
       978   1 -3.213880E+01 -3.471764E+01 -3.867789E+00 -3.635752E+00 -1.777905E+00 -1.348826E+00
       978   2  5.747366E+00  1.736428E+01  6.331458E+00 -2.434879E+01 -1.756010E+00 -1.241757E+00
       978   3 -3.179716E+01 -3.397391E+01 -3.538801E+00 -3.861705E+00  3.560560E+00  2.223076E+00
       978   4  5.951682E+00  1.809449E+01  6.602772E+00 -2.452463E+01  3.510280E+00  2.431470E+00
       978   5 -5.542529E+01 -1.389474E+01 -4.161327E+00  3.338707E+00 -2.423980E+00 -2.085085E+00
       978   6 -1.665953E+01  3.707542E+01  5.650536E+00 -1.768921E+01 -2.483831E+00 -2.015500E+00
       978   7 -5.495168E+01 -1.325330E+01 -3.790678E+00  3.160053E+00  3.018717E+00  1.559804E+00
       978   8 -1.632805E+01  3.770908E+01  5.964345E+00 -1.781987E+01  2.881656E+00  1.727200E+00
       979   1  9.070918E+00  3.284396E+01 -8.280132E-02 -4.641571E+01 -1.810355E+00 -1.213672E+00
       979   2  3.997938E+01  7.557309E+01  5.863569E+00 -6.392552E+01 -1.792918E+00 -1.113739E+00
       979   3  9.198868E+00  3.361811E+01  1.704188E-01 -4.654229E+01  3.204678E+00  2.382191E+00
       979   4  3.999007E+01  7.633516E+01  6.066124E+00 -6.400988E+01  3.162479E+00  2.564816E+00
       979   5 -1.268305E+01  5.128875E+01 -1.175595E+00 -4.016116E+01 -2.610861E+00 -2.028064E+00
       979   6  1.895878E+01  9.306807E+01  4.402380E+00 -5.793285E+01 -2.674881E+00 -1.966173E+00
       979   7 -1.243205E+01  5.197286E+01 -8.800590E-01 -4.024402E+01  2.495524E+00  1.631726E+00
       979   8  1.908845E+01  9.374498E+01  4.648016E+00 -5.797533E+01  2.367702E+00  1.773409E+00
       980   1  4.957026E+01  9.066051E+01  1.753172E+00 -8.145360E+01 -1.880822E+00 -1.102838E+00
       980   2  7.536022E+01  1.266938E+02  4.987708E+00 -9.652721E+01 -1.883810E+00 -1.000906E+00
       980   3  4.956029E+01  9.145475E+01  1.951546E+00 -8.150388E+01  2.773908E+00  2.443831E+00
       980   4  7.524886E+01  1.274798E+02  5.142228E+00 -9.654108E+01  2.722877E+00  2.611142E+00
       980   5  2.927725E+01  1.074848E+02  9.482651E-02 -7.563764E+01 -2.829920E+00 -1.996994E+00
       980   6  5.568397E+01  1.426858E+02  2.984639E+00 -9.093831E+01 -2.914913E+00 -1.934695E+00
       980   7  2.938533E+01  1.082003E+02  3.364794E-01 -7.564609E+01  1.901951E+00  1.603538E+00
       980   8  5.568706E+01  1.433971E+02  3.183106E+00 -9.091198E+01  1.765554E+00  1.728881E+00
       981   1 -1.102153E+02 -2.147602E+02 -2.221128E+01  1.177392E+02 -7.635261E-01 -2.974898E+00
       981   2 -4.926870E+01 -1.296917E+02  4.332478E+00  8.681873E+01 -7.722882E-01 -2.258532E+00
       981   3 -1.088295E+02 -2.131001E+02 -2.124935E+01  1.163376E+02  5.056681E+00  1.988828E-01
       981   4 -4.817143E+01 -1.281777E+02  5.151544E+00  8.553517E+01  4.946459E+00  1.061652E+00
       981   5 -1.362385E+02 -1.854602E+02 -1.963649E+01  1.277796E+02 -7.016449E-01 -3.905983E+00
       981   6 -7.403282E+01 -1.020932E+02  6.457851E+00  9.632178E+01 -8.145729E-01 -3.227273E+00
       981   7 -1.346743E+02 -1.839939E+02 -1.864753E+01  1.264153E+02  5.245240E+00 -6.469608E-01
       981   8 -7.276540E+01 -1.007613E+02  7.305547E+00  9.507360E+01  5.023748E+00  1.732608E-01
       982   1 -7.208155E+01 -1.144133E+02 -1.061982E+01  4.907680E+01 -5.936581E-01 -1.675287E+00
       982   2 -2.493614E+01 -4.913500E+01  5.694348E+00  2.415341E+01 -6.595231E-01 -1.179786E+00
       982   3 -7.079865E+01 -1.124219E+02 -9.611120E+00  4.812110E+01  5.102993E+00  1.776122E+00
       982   4 -2.387365E+01 -4.724838E+01  6.592634E+00  2.328462E+01  4.950152E+00  2.396393E+00
       982   5 -9.667904E+01 -9.031463E+01 -9.728681E+00  5.728527E+01 -7.317865E-01 -2.680547E+00
       982   6 -4.848775E+01 -2.637522E+01  6.171332E+00  3.195986E+01 -8.935767E-01 -2.227406E+00
       982   7 -9.524410E+01 -8.848264E+01 -8.689326E+00  5.636459E+01  5.082685E+00  8.502650E-01
       982   8 -4.727943E+01 -2.463910E+01  7.101680E+00  3.112439E+01  4.827832E+00  1.423976E+00
       983   1 -3.176718E+01 -3.341966E+01 -4.186830E+00 -4.200298E+00 -9.353135E-01 -1.027371E+00
       983   2  5.834332E+00  1.858129E+01  5.827548E+00 -2.481938E+01 -9.988771E-01 -6.572694E-01
       983   3 -3.072098E+01 -3.133819E+01 -3.243885E+00 -4.900191E+00  4.443472E+00  2.510338E+00
       983   4  6.699727E+00  2.057616E+01  6.677768E+00 -2.544956E+01  4.307505E+00  2.983382E+00
       983   5 -5.483835E+01 -1.280211E+01 -4.445684E+00  2.850357E+00 -1.260636E+00 -2.120291E+00
       983   6 -1.636649E+01  3.809679E+01  5.180870E+00 -1.808703E+01 -1.415876E+00 -1.792693E+00
       983   7 -5.365675E+01 -1.086017E+01 -3.471110E+00  2.182063E+00  4.223298E+00  1.488175E+00
       983   8 -1.537062E+01  3.995962E+01  6.064010E+00 -1.868705E+01  3.990585E+00  1.915223E+00
       984   1  9.005918E+00  3.410239E+01 -6.405475E-01 -4.680126E+01 -1.469529E+00 -6.988109E-01
       984   2  3.971816E+01  7.680855E+01  5.255927E+00 -6.423159E+01 -1.516133E+00 -3.504924E-01
       984   3  9.750783E+00  3.605603E+01  1.527153E-01 -4.738296E+01  3.556231E+00  2.846807E+00
       984   4  4.030704E+01  7.868676E+01  5.967855E+00 -6.475366E+01  3.449906E+00  3.278929E+00
       984   5 -1.254872E+01  5.236310E+01 -1.700075E+00 -4.047612E+01 -1.974002E+00 -1.883594E+00
       984   6  1.888935E+01  9.412799E+01  3.828496E+00 -5.817129E+01 -2.111378E+00 -1.577206E+00
       984   7 -1.167523E+01  5.419319E+01 -8.729872E-01 -4.102816E+01  3.143699E+00  1.723574E+00
       984   8  1.960254E+01  9.588889E+01  4.575343E+00 -5.866494E+01  2.942415E+00  2.110889E+00
       985   1  4.925399E+01  9.189284E+01  1.093801E+00 -8.170832E+01 -2.088225E+00 -4.592411E-01
       985   2  7.480105E+01  1.278382E+02  4.115904E+00 -9.671304E+01 -2.154333E+00 -8.475218E-02
       985   3  4.980269E+01  9.367563E+01  1.757089E+00 -8.221735E+01  2.616626E+00  3.070150E+00
       985   4  7.521276E+01  1.295596E+02  4.708478E+00 -9.716973E+01  2.501456E+00  3.512129E+00
       985   5  2.915239E+01  1.085536E+02 -5.319602E-01 -7.582382E+01 -2.769719E+00 -1.739249E+00
       985   6  5.530655E+01  1.436709E+02  2.139051E+00 -9.105828E+01 -2.927870E+00 -1.408655E+00
       985   7  2.983147E+01  1.102317E+02  1.707056E-01 -7.630180E+01  2.014355E+00  1.842672E+00
       985   8  5.584455E+01  1.452926E+02  2.771811E+00 -9.148513E+01  1.803699E+00  2.238389E+00
       986   1 -1.072185E+02 -2.109856E+02 -1.942986E+01  1.150238E+02  9.091836E-02 -3.767852E+00
       986   2 -4.741990E+01 -1.268376E+02  5.398568E+00  8.432091E+01  2.567695E-02 -2.527368E+00
       986   3 -1.052472E+02 -2.079053E+02 -1.786408E+01  1.128352E+02  6.282165E+00 -4.257909E-01
       986   4 -4.581767E+01 -1.240368E+02  6.756249E+00  8.228610E+01  6.108302E+00  9.736862E-01
       986   5 -1.329230E+02 -1.820341E+02 -1.679759E+01  1.251205E+02  5.128408E-01 -5.089832E+00
       986   6 -7.189570E+01 -9.958230E+01  7.547433E+00  9.387726E+01  3.260979E-01 -3.890444E+00
       986   7 -1.307642E+02 -1.792002E+02 -1.521604E+01  1.229461E+02  6.840438E+00 -1.659202E+00
       986   8 -7.011464E+01 -9.701327E+01  8.923220E+00  9.185593E+01  6.537437E+00 -3.060104E-01
       987   1 -7.019573E+01 -1.109577E+02 -9.958689E+00  4.721366E+01  1.882118E-01 -1.633446E+00
       987   2 -2.374981E+01 -4.619737E+01  5.455335E+00  2.245068E+01  8.367023E-02 -8.419534E-01
       987   3 -6.827122E+01 -1.073828E+02 -8.281603E+00  4.568951E+01  6.068803E+00  1.881309E+00
       987   4 -2.210623E+01 -4.283903E+01  6.969830E+00  2.104046E+01  5.874704E+00  2.803284E+00
       987   5 -9.454985E+01 -8.717409E+01 -9.062955E+00  5.547380E+01  3.862198E-01 -3.031194E+00
       987   6 -4.707595E+01 -2.374327E+01  5.922798E+00  3.030628E+01  1.744687E-01 -2.282624E+00
       987   7 -9.247864E+01 -8.381530E+01 -7.372965E+00  5.396005E+01  6.388806E+00  5.628519E-01
       987   8 -4.529158E+01 -2.058921E+01  7.452539E+00  2.890596E+01  6.081202E+00  1.437634E+00
       988   1 -3.075471E+01 -3.026317E+01 -4.640818E+00 -5.590998E+00 -5.503475E-01 -7.550720E-01
       988   2  6.474359E+00  2.151086E+01  5.101966E+00 -2.608086E+01 -6.008347E-01 -1.884245E-01
       988   3 -2.919003E+01 -2.669917E+01 -3.097167E+00 -6.778887E+00  4.868547E+00  2.757862E+00
       988   4  7.806494E+00  2.488801E+01  6.507170E+00 -2.717585E+01  4.745451E+00  3.429465E+00
       988   5 -5.362378E+01 -9.937343E+00 -4.918963E+00  1.505166E+00 -5.632277E-01 -2.243421E+00
       988   6 -1.553438E+01  4.074692E+01  4.434716E+00 -1.930507E+01 -7.136846E-01 -1.716073E+00
       988   7 -5.193441E+01 -6.571623E+00 -3.364515E+00  3.236211E-01  4.961594E+00  1.338078E+00
       988   8 -1.408202E+01  4.393591E+01  5.852933E+00 -2.039401E+01  4.733416E+00  1.966940E+00
       989   1  9.446423E+00  3.692902E+01 -1.454298E+00 -4.797947E+01 -1.485601E+00 -3.814466E-01
       989   2  3.993934E+01  7.954188E+01  4.443936E+00 -6.529925E+01 -1.519741E+00  1.674392E-01
       989   3  1.065629E+01  4.015171E+01 -1.405492E-01 -4.902798E+01  3.520278E+00  3.102901E+00
       989   4  4.094880E+01  8.260756E+01  5.638497E+00 -6.626824E+01  3.426605E+00  3.736602E+00
       989   5 -1.191800E+01  5.492695E+01 -2.533223E+00 -4.161059E+01 -1.700277E+00 -1.962356E+00
       989   6  1.929293E+01  9.660968E+01  2.998305E+00 -5.919704E+01 -1.833274E+00 -1.453193E+00
       989   7 -1.058415E+01  5.797726E+01 -1.202069E+00 -4.265034E+01  3.397587E+00  1.580912E+00
       989   8  2.042224E+01  9.951121E+01  4.212003E+00 -6.015763E+01  3.200860E+00  2.172069E+00
       990   1  4.944134E+01  9.441288E+01  2.062909E-01 -8.276192E+01 -2.460236E+00 -2.368501E-02
       990   2  7.468974E+01  1.301824E+02  2.983709E+00 -9.766993E+01 -2.560104E+00  6.130527E-01
       990   3  5.048900E+01  9.723267E+01  1.330147E+00 -8.374138E+01  2.286161E+00  3.492325E+00
       990   4  7.556307E+01  1.328810E+02  4.007344E+00 -9.858044E+01  2.135771E+00  4.199472E+00
       990   5  2.953511E+01  1.108474E+02 -1.431593E+00 -7.682858E+01 -2.875304E+00 -1.704201E+00
       990   6  5.537800E+01  1.457927E+02  9.836140E-01 -9.196822E+01 -3.076670E+00 -1.113731E+00
       990   7  3.072106E+01  1.135312E+02 -2.753632E-01 -7.779054E+01  1.953159E+00  1.863542E+00
       990   8  5.638522E+01  1.483616E+02  2.040669E+00 -9.286193E+01  1.697709E+00  2.522006E+00
       991   1 -1.030835E+02 -2.045074E+02 -1.534109E+01  1.109279E+02  2.175726E-01 -3.961937E+00
       991   2 -4.505382E+01 -1.219983E+02  6.539215E+00  8.050576E+01  1.015028E-01 -2.197425E+00
       991   3 -1.004255E+02 -1.995773E+02 -1.301240E+01  1.079049E+02  7.044704E+00 -2.796733E-01
       991   4 -4.285400E+01 -1.175065E+02  8.583599E+00  7.767576E+01  6.808406E+00  1.663443E+00
       991   5 -1.284541E+02 -1.759980E+02 -1.266621E+01  1.210383E+02  9.998510E-01 -5.773913E+00
       991   6 -6.923687E+01 -9.518482E+01  8.673882E+00  9.007507E+01  7.442975E-01 -4.053385E+00
       991   7 -1.256084E+02 -1.713812E+02 -1.033868E+01  1.179994E+02  7.978767E+00 -1.996129E+00
       991   8 -6.685797E+01 -9.098800E+01  1.072061E+01  8.723007E+01  7.594504E+00 -1.026874E-01
       992   1 -6.791723E+01 -1.051904E+02 -9.437894E+00  4.434101E+01 -7.287650E-02 -1.329649E+00
       992   2 -2.224008E+01 -4.112379E+01  5.078180E+00  1.978901E+01  2.290204E-02 -3.760667E-01
       992   3 -6.581328E+01 -9.970666E+01 -7.134113E+00  4.218107E+01  5.963547E+00  2.232518E+00
       992   4 -2.050132E+01 -3.604118E+01  7.138283E+00  1.778032E+01  5.967818E+00  3.322379E+00
       992   5 -9.206052E+01 -8.185051E+01 -8.603676E+00  5.260187E+01  4.514020E-01 -3.217931E+00
       992   6 -4.537143E+01 -1.909746E+01  5.473791E+00  2.764530E+01  4.319511E-01 -2.288649E+00
       992   7 -8.984855E+01 -7.669290E+01 -6.330895E+00  5.040498E+01  6.612858E+00  4.227909E-01
       992   8 -4.352865E+01 -1.432365E+01  7.507427E+00  2.560148E+01  6.495419E+00  1.484110E+00
       993   1 -2.958703E+01 -2.502192E+01 -5.243508E+00 -7.879921E+00 -1.014732E+00 -5.937900E-01
       993   2  7.212780E+00  2.636825E+01  4.237048E+00 -2.819618E+01 -7.516452E-01  1.054921E-01
       993   3 -2.824021E+01 -2.000073E+01 -3.328289E+00 -9.699832E+00  4.417251E+00  2.880669E+00
       993   4  8.248619E+00  3.103139E+01  5.938836E+00 -2.988846E+01  4.608040E+00  3.687128E+00
       993   5 -5.229273E+01 -5.118636E+00 -5.608763E+00 -7.901137E-01 -7.253410E-01 -2.544789E+00
       993   6 -1.464060E+01  4.520022E+01  3.485143E+00 -2.142646E+01 -5.686307E-01 -1.859358E+00
       993   7 -5.086031E+01 -4.070229E-01 -3.727991E+00 -2.651153E+00  4.812101E+00  9.954576E-01
       993   8 -1.352190E+01  4.956891E+01  5.156712E+00 -2.315800E+01  4.891369E+00  1.784766E+00
       994   1  1.012056E+01  4.155987E+01 -2.371603E+00 -4.998218E+01 -1.967778E+00 -3.589705E-01
       994   2  4.032052E+01  8.393139E+01  3.475873E+00 -6.715488E+01 -1.799502E+00  3.003993E-01
       994   3  1.135951E+01  4.610229E+01 -6.536003E-01 -5.154057E+01  3.010383E+00  3.064454E+00
       994   4  4.130142E+01  8.819446E+01  5.020675E+00 -6.860816E+01  3.119599E+00  3.809940E+00
       994   5 -1.107829E+01  5.918909E+01 -3.524779E+00 -4.361118E+01 -1.900302E+00 -2.368299E+00
       994   6  1.983270E+01  1.006458E+02  1.958973E+00 -6.105062E+01 -1.836352E+00 -1.731776E+00
       994   7 -9.741658E+00  6.347577E+01 -1.822664E+00 -4.519652E+01  3.169192E+00  1.111263E+00
       994   8  2.090825E+01  1.046649E+02  3.490971E+00 -6.252974E+01  3.169878E+00  1.831198E+00
       995   1  5.007835E+01  9.838800E+01 -6.832967E-01 -8.464439E+01 -2.936666E+00  4.093637E-02
       995   2  7.515532E+01  1.340660E+02  2.247703E+00 -9.942621E+01 -2.981964E+00  9.245743E-01
       995   3  5.139517E+01  1.022161E+02  8.233796E-01 -8.613249E+01  1.743069E+00  3.472655E+00
       995   4  7.625612E+01  1.376977E+02  3.618918E+00 -1.008268E+02  1.646948E+00  4.428242E+00
       995   5  3.037023E+01  1.145294E+02 -2.365266E+00 -7.868803E+01 -3.084483E+00 -2.047516E+00
       995   6  5.603199E+01  1.493927E+02  2.006137E-01 -9.370239E+01 -3.239413E+00 -1.206339E+00
       995   7  3.182299E+01  1.181754E+02 -8.414744E-01 -8.017861E+01  1.678006E+00  1.433737E+00
       995   8  5.726437E+01  1.528503E+02  1.590493E+00 -9.510537E+01  1.468647E+00  2.344475E+00
       996   1 -9.867948E+01 -1.948867E+02 -1.101652E+01  1.053475E+02 -2.010719E+00 -2.698880E+00
       996   2 -4.287657E+01 -1.146522E+02  7.099686E+00  7.528442E+01 -1.495323E+00 -8.916338E-01
       996   3 -9.660552E+01 -1.870281E+02 -7.983175E+00  1.013849E+02  5.604524E+00  1.419112E+00
       996   4 -4.141594E+01 -1.076133E+02  9.685629E+00  7.158258E+01  5.986976E+00  3.429571E+00
       996   5 -1.237638E+02 -1.670023E+02 -8.378801E+00  1.153949E+02 -8.813761E-01 -5.241707E+00
       996   6 -6.681678E+01 -8.845832E+01  9.133608E+00  8.479413E+01 -5.108610E-01 -3.426790E+00
       996   7 -1.216075E+02 -1.596809E+02 -5.441636E+00  1.113193E+02  6.902130E+00 -1.019968E+00
       996   8 -6.527657E+01 -8.192628E+01  1.163227E+01  8.098531E+01  7.130235E+00  9.921074E-01
       997   1 -6.665850E+01 -9.681128E+01 -9.592113E+00  4.022910E+01 -2.440332E+00 -9.389984E-01
       997   2 -2.144969E+01 -3.335414E+01  4.959172E+00  1.596390E+01 -1.403232E+00  3.334029E-02
       997   3 -6.619584E+01 -8.949812E+01 -7.231743E+00  3.705804E+01  3.488672E+00  2.490854E+00
       997   4 -2.150716E+01 -2.681391E+01  6.918079E+00  1.301194E+01  4.436865E+00  3.600761E+00
       997   5 -9.069462E+01 -7.416410E+01 -8.944387E+00  4.838891E+01 -1.606635E+00 -3.479101E+00
       997   6 -4.447471E+01 -1.198214E+01  5.187719E+00  2.372409E+01 -6.882990E-01 -2.459159E+00
       997   7 -9.023136E+01 -6.741497E+01 -6.719421E+00  4.507949E+01  4.442966E+00  2.395404E-02
       997   8 -4.453035E+01 -5.977085E+00  7.020783E+00  2.064055E+01  5.265982E+00  1.177634E+00
       998   1 -2.922056E+01 -1.735860E+01 -5.386836E+00 -1.135688E+01 -2.570176E+00 -6.462693E-01
       998   2  7.013442E+00  3.332934E+01  3.717713E+00 -3.143347E+01 -1.571973E+00  1.709773E-01
       998   3 -2.920924E+01 -1.111615E+01 -3.505844E+00 -1.406290E+01  2.868751E+00  2.779579E+00
       998   4  6.597234E+00  3.894628E+01  5.270060E+00 -3.396098E+01  3.795370E+00  3.706866E+00
       998   5 -5.183934E+01  1.908402E+00 -5.920296E+00 -4.366208E+00 -1.992190E+00 -3.139902E+00
       998   6 -1.475635E+01  5.155437E+01  2.806631E+00 -2.475839E+01 -1.105335E+00 -2.281134E+00
       998   7 -5.181505E+01  7.663135E+00 -4.149164E+00 -7.189699E+00  3.550413E+00  3.483508E-01
       998   8 -1.515903E+01  5.670677E+01  4.256734E+00 -2.739809E+01  4.360500E+00  1.314111E+00
       999   1  1.031807E+01  4.828190E+01 -2.866380E+00 -5.295854E+01 -2.835803E+00 -6.125388E-01
       999   2  4.000832E+01  9.006205E+01  2.579851E+00 -6.993431E+01 -1.979604E+00  1.197446E-01
       999   3  1.024053E+01  5.370791E+01 -1.278454E+00 -5.527295E+01  2.173148E+00  2.786193E+00
       999   4  3.957973E+01  9.499276E+01  3.901785E+00 -7.210296E+01  2.970560E+00  3.607719E+00
       999   5 -1.077037E+01  6.537596E+01 -4.152472E+00 -4.665877E+01 -2.496668E+00 -3.076770E+00
       999   6  1.962564E+01  1.062631E+02  9.340408E-01 -6.389832E+01 -1.747254E+00 -2.315663E+00
       999   7 -1.081590E+01  7.038963E+01 -2.647174E+00 -4.906734E+01  2.602536E+00  3.756599E-01
       999   8  1.922874E+01  1.107998E+02  2.179206E+00 -6.615718E+01  3.288897E+00  1.223511E+00
      1000   1  5.077301E+01  1.040092E+02 -1.202602E+00 -8.740882E+01 -3.142717E+00 -4.017444E-01
      1000   2  7.586357E+01  1.397059E+02  2.427035E+00 -1.020296E+02 -2.763884E+00  4.984201E-01
      1000   3  5.146133E+01  1.087896E+02  4.015426E-01 -8.940705E+01  1.327426E+00  2.844440E+00
      1000   4  7.627714E+01  1.441520E+02  3.837052E+00 -1.039143E+02  1.657565E+00  3.815925E+00
      1000   5  3.124905E+01  1.197611E+02 -2.952229E+00 -8.147379E+01 -3.026203E+00 -2.866847E+00
      1000   6  5.692263E+01  1.546637E+02  3.275908E-01 -9.632625E+01 -2.757883E+00 -1.976711E+00
      1000   7  3.202648E+01  1.242507E+02 -1.379291E+00 -8.352114E+01  1.522761E+00  4.245767E-01
      1000   8  5.742272E+01  1.588312E+02  1.709694E+00 -9.825819E+01  1.738878E+00  1.383878E+00
      1001   1 -1.362215E+02 -2.027715E+02 -2.417718E+01  1.304134E+02 -1.877298E+00 -2.098913E+00
      1001   2 -6.709626E+01 -1.199983E+02  4.072222E+00  9.671703E+01 -1.798087E+00 -1.870043E+00
      1001   3 -1.352869E+02 -2.025629E+02 -2.378681E+01  1.297336E+02  3.615045E+00  1.654120E+00
      1001   4 -6.641539E+01 -1.197931E+02  4.372451E+00  9.611228E+01  3.589952E+00  2.006269E+00
      1001   5 -1.648685E+02 -1.710835E+02 -2.183679E+01  1.357771E+02 -2.193912E+00 -2.782077E+00
      1001   6 -9.433318E+01 -9.012904E+01  6.000311E+00  1.017937E+02 -2.211241E+00 -2.601469E+00
      1001   7 -1.637690E+02 -1.710179E+02 -2.140495E+01  1.351963E+02  3.406288E+00  1.060193E+00
      1001   8 -9.349480E+01 -9.005760E+01  6.343479E+00  1.012827E+02  3.278532E+00  1.359021E+00
      1002   1 -8.356464E+01 -1.118674E+02 -1.123399E+01  5.457183E+01 -1.701655E+00 -1.691556E+00
      1002   2 -3.004322E+01 -4.856758E+01  6.148923E+00  2.755286E+01 -1.664987E+00 -1.542235E+00
      1002   3 -8.289660E+01 -1.113159E+02 -1.084373E+01  5.415113E+01  3.715006E+00  2.352324E+00
      1002   4 -2.957269E+01 -4.801331E+01  6.467266E+00  2.718685E+01  3.661247E+00  2.607675E+00
      1002   5 -1.102328E+02 -8.569946E+01 -1.046201E+01  5.870417E+01 -2.218214E+00 -2.478718E+00
      1002   6 -5.555348E+01 -2.382956E+01  6.537312E+00  3.148283E+01 -2.273559E+00 -2.380770E+00
      1002   7 -1.094200E+02 -8.526212E+01 -1.002542E+01  5.837159E+01  3.299626E+00  1.649032E+00
      1002   8 -5.494376E+01 -2.338227E+01  6.903332E+00  3.120063E+01  3.148548E+00  1.848619E+00
      1003   1 -3.193919E+01 -3.763017E+01 -3.948982E+00 -3.449989E+00 -1.667561E+00 -1.470038E+00
      1003   2  1.075567E+01  1.259750E+01  6.592414E+00 -2.574424E+01 -1.644151E+00 -1.360947E+00
      1003   3 -3.154538E+01 -3.689776E+01 -3.609775E+00 -3.718888E+00  3.500354E+00  2.668654E+00
      1003   4  1.098763E+01  1.333266E+01  6.870526E+00 -2.597000E+01  3.447410E+00  2.866246E+00
      1003   5 -5.674388E+01 -1.515338E+01 -4.247488E+00 -3.383023E-02 -2.365297E+00 -2.363757E+00
      1003   6 -1.309126E+01  3.389756E+01  5.929298E+00 -2.248230E+01 -2.431773E+00 -2.307117E+00
      1003   7 -5.621919E+01 -1.451753E+01 -3.860032E+00 -2.234239E-01  2.894000E+00  1.850734E+00
      1003   8 -1.273283E+01  3.454208E+01  6.256940E+00 -2.263236E+01  2.746682E+00  1.992166E+00
      1004   1  1.781762E+01  2.491726E+01 -3.781936E-02 -4.923549E+01 -1.694879E+00 -1.338042E+00
      1004   2  5.275641E+01  6.606066E+01  6.121827E+00 -6.806902E+01 -1.676206E+00 -1.236023E+00
      1004   3  1.795254E+01  2.571600E+01  2.212865E-01 -4.941882E+01  3.147852E+00  2.781006E+00
      1004   4  5.275384E+01  6.686145E+01  6.327473E+00 -6.821633E+01  3.103156E+00  2.955288E+00
      1004   5 -5.270994E+00  4.488960E+01 -1.086566E+00 -4.621445E+01 -2.561703E+00 -2.338662E+00
      1004   6  3.046657E+01  8.502874E+01  4.724983E+00 -6.517449E+01 -2.632396E+00 -2.289784E+00
      1004   7 -5.014145E+00  4.560410E+01 -7.782842E-01 -4.632507E+01  2.361232E+00  1.846870E+00
      1004   8  3.058221E+01  8.575016E+01  4.980981E+00 -6.525213E+01  2.223440E+00  1.964936E+00
      1005   1  6.532501E+01  7.895095E+01  1.879272E+00 -8.634964E+01 -1.761749E+00 -1.234491E+00
      1005   2  9.457462E+01  1.136079E+02  5.257910E+00 -1.025719E+02 -1.764603E+00 -1.132281E+00
      1005   3  6.528783E+01  7.979977E+01  2.080744E+00 -8.646495E+01  2.718805E+00  2.787567E+00
      1005   4  9.441937E+01  1.144615E+02  5.413436E+00 -1.026566E+02  2.664371E+00  2.947206E+00
      1005   5  4.380169E+01  9.720975E+01  2.963812E-01 -8.352023E+01 -2.790344E+00 -2.342863E+00
      1005   6  7.372413E+01  1.309865E+02  3.346140E+00 -9.985293E+01 -2.882719E+00 -2.295782E+00
      1005   7  4.388105E+01  9.798592E+01  5.481816E-01 -8.356686E+01  1.758429E+00  1.735613E+00
      1005   8  7.368215E+01  1.317715E+02  3.553044E+00 -9.987169E+01  1.611433E+00  1.837618E+00
      1006   1 -1.341456E+02 -2.018060E+02 -2.289467E+01  1.289452E+02 -6.456713E-01 -2.894365E+00
      1006   2 -6.575744E+01 -1.193468E+02  4.552251E+00  9.539226E+01 -6.760972E-01 -2.193947E+00
      1006   3 -1.324098E+02 -2.003872E+02 -2.189796E+01  1.274694E+02  5.026276E+00  9.045358E-01
      1006   4 -6.435623E+01 -1.180418E+02  5.400961E+00  9.402829E+01  4.888059E+00  1.734203E+00
      1006   5 -1.624961E+02 -1.703780E+02 -2.047487E+01  1.344756E+02 -5.682627E-01 -3.906055E+00
      1006   6 -9.271710E+01 -8.972709E+01  6.547704E+00  1.006267E+02 -7.106037E-01 -3.260263E+00
      1006   7 -1.605769E+02 -1.691478E+02 -1.944385E+01  1.330854E+02  5.216058E+00 -1.780769E-02
      1006   8 -9.114078E+01 -8.859892E+01  7.432663E+00  9.934370E+01  4.959566E+00  7.520481E-01
      1007   1 -8.235584E+01 -1.106940E+02 -1.092934E+01  5.361404E+01 -5.048308E-01 -1.594007E+00
      1007   2 -2.936477E+01 -4.758703E+01  5.924812E+00  2.669992E+01 -5.824578E-01 -1.119676E+00
      1007   3 -8.082789E+01 -1.088220E+02 -9.882568E+00  5.256601E+01  5.034599E+00  2.460908E+00
      1007   4 -2.809447E+01 -4.579837E+01  6.855483E+00  2.573432E+01  4.864796E+00  3.044899E+00
      1007   5 -1.087750E+02 -8.474484E+01 -1.009346E+01  5.789428E+01 -6.463906E-01 -2.715170E+00
      1007   6 -5.463952E+01 -2.305831E+01  6.370919E+00  3.077055E+01 -8.273334E-01 -2.298543E+00
      1007   7 -1.070914E+02 -8.302901E+01 -9.009112E+00  5.692140E+01  4.997118E+00  1.422626E+00
      1007   8 -5.321957E+01 -2.141649E+01  7.341018E+00  2.987639E+01  4.718562E+00  1.944473E+00
      1008   1 -3.145742E+01 -3.639061E+01 -4.297046E+00 -4.112277E+00 -8.537024E-01 -1.002023E+00
      1008   2  1.090662E+01  1.378298E+01  6.049264E+00 -2.632346E+01 -9.250691E-01 -6.500575E-01
      1008   3 -3.023968E+01 -3.436110E+01 -3.319444E+00 -4.919309E+00  4.365352E+00  3.096736E+00
      1008   4  1.191335E+01  1.574300E+01  6.929251E+00 -2.706450E+01  4.217193E+00  3.538977E+00
      1008   5 -5.604384E+01 -1.410690E+01 -4.541460E+00 -5.633074E-01 -1.196975E+00 -2.241564E+00
      1008   6 -1.273092E+01  3.489972E+01  5.440037E+00 -2.293474E+01 -1.367262E+00 -1.947041E+00
      1008   7 -5.468774E+01 -1.221398E+01 -3.525280E+00 -1.303534E+00  4.114822E+00  1.930930E+00
      1008   8 -1.159062E+01  3.673071E+01  6.360294E+00 -2.361196E+01  3.863209E+00  2.312037E+00
      1009   1  1.777957E+01  2.617693E+01 -6.385656E-01 -4.973997E+01 -1.389452E+00 -7.492530E-01
      1009   2  5.248481E+01  6.732169E+01  5.464366E+00 -6.850385E+01 -1.444944E+00 -4.149893E-01
      1009   3  1.864403E+01  2.811422E+01  1.828788E-01 -5.043514E+01  3.475503E+00  3.311556E+00
      1009   4  5.316875E+01  6.919932E+01  6.200920E+00 -6.914311E+01  3.356467E+00  3.719251E+00
      1009   5 -5.107462E+00  4.597742E+01 -1.634948E+00 -4.659692E+01 -1.923672E+00 -2.109357E+00
      1009   6  3.038949E+01  8.612645E+01  4.120941E+00 -6.549240E+01 -2.076929E+00 -1.832449E+00
      1009   7 -4.112307E+00  4.779466E+01 -7.725095E-01 -4.723016E+01  3.022424E+00  2.015612E+00
      1009   8  3.120001E+01  8.789042E+01  4.899986E+00 -6.607232E+01  2.801862E+00  2.362892E+00
      1010   1  6.497216E+01  8.023322E+01  1.164712E+00 -8.673328E+01 -2.015494E+00 -5.951707E-01
      1010   2  9.394365E+01  1.148204E+02  4.314750E+00 -1.028963E+02 -2.094576E+00 -2.348924E-01
      1010   3  6.560251E+01  8.202886E+01  1.852021E+00 -8.735224E+01  2.526086E+00  3.407021E+00
      1010   4  9.441776E+01  1.165705E+02  4.929386E+00 -1.034676E+02  2.394458E+00  3.826517E+00
      1010   5  4.364144E+01  9.834183E+01 -3.658710E-01 -8.378770E+01 -2.735705E+00 -2.078804E+00
      1010   6  7.327728E+01  1.320537E+02  2.451025E+00 -1.000657E+02 -2.912971E+00 -1.778857E+00
      1010   7  4.440239E+01  1.000376E+02  3.680655E-01 -8.434562E+01  1.876105E+00  1.978352E+00
      1010   8  7.387822E+01  1.337092E+02  3.113485E+00 -1.005783E+02  1.643179E+00  2.334976E+00
      1011   1 -1.304718E+02 -1.984724E+02 -2.001669E+01  1.260698E+02  2.143807E-01 -3.525915E+00
      1011   2 -6.334192E+01 -1.169034E+02  5.642277E+00  9.272544E+01  1.078055E-01 -2.322752E+00
      1011   3 -1.279916E+02 -1.957305E+02 -1.839670E+01  1.237201E+02  6.264218E+00  4.713049E-01
      1011   4 -6.128582E+01 -1.144047E+02  7.047460E+00  9.052842E+01  6.042209E+00  1.815138E+00
      1011   5 -1.584886E+02 -1.673808E+02 -1.751648E+01  1.317419E+02  6.885237E-01 -4.914389E+00
      1011   6 -8.999707E+01 -8.761336E+01  7.687409E+00  9.809400E+01  4.536921E-01 -3.770145E+00
      1011   7 -1.558094E+02 -1.648827E+02 -1.587199E+01  1.294600E+02  6.859696E+00 -8.242370E-01
      1011   8 -8.775100E+01 -8.534363E+01  9.119752E+00  9.596112E+01  6.502585E+00  4.551697E-01
      1012   1 -8.002396E+01 -1.074980E+02 -1.026156E+01  5.155703E+01  2.564289E-01 -1.419385E+00
      1012   2 -2.781240E+01 -4.488366E+01  5.652647E+00  2.479753E+01  1.295373E-01 -6.634614E-01
      1012   3 -7.771588E+01 -1.041068E+02 -8.523249E+00  4.984736E+01  5.989061E+00  2.707088E+00
      1012   4 -2.583072E+01 -4.168589E+01  7.220650E+00  2.320271E+01  5.766941E+00  3.578291E+00
      1012   5 -1.061851E+02 -8.185363E+01 -9.395123E+00  5.596011E+01  4.883758E-01 -2.920244E+00
      1012   6 -5.284677E+01 -2.064970E+01  6.116134E+00  2.898495E+01  2.471558E-01 -2.222648E+00
      1012   7 -1.037196E+02 -7.867864E+01 -7.635712E+00  5.430548E+01  6.329432E+00  1.289334E+00
      1012   8 -5.071384E+01 -1.765610E+01  7.707924E+00  2.744251E+01  5.987335E+00  2.097683E+00
      1013   1 -3.014903E+01 -3.339268E+01 -4.793365E+00 -5.722322E+00 -4.942053E-01 -6.535501E-01
      1013   2  1.178442E+01  1.658100E+01  5.265266E+00 -2.780878E+01 -5.598836E-01 -1.107449E-01
      1013   3 -2.828715E+01 -2.993881E+01 -3.193976E+00 -7.110017E+00  4.776746E+00  3.413625E+00
      1013   4  1.337561E+01  1.986596E+01  6.719174E+00 -2.910198E+01  4.633785E+00  4.048958E+00
      1013   5 -5.451973E+01 -1.139113E+01 -5.030970E+00 -2.065214E+00 -4.870038E-01 -2.275890E+00
      1013   6 -1.164748E+01  3.742791E+01  4.661795E+00 -2.431677E+01 -6.603070E-01 -1.787179E+00
      1013   7 -5.252289E+01 -8.136273E+00 -3.412620E+00 -3.406868E+00  4.877925E+00  1.863012E+00
      1013   8 -9.925947E+00  4.052435E+01  6.137253E+00 -2.556601E+01  4.622743E+00  2.440595E+00
      1014   1  1.841762E+01  2.890320E+01 -1.516682E+00 -5.114263E+01 -1.432246E+00 -4.100646E-01
      1014   2  5.285825E+01  6.998180E+01  4.579806E+00 -6.980102E+01 -1.483640E+00  1.193874E-01
      1014   3  1.986125E+01  3.205331E+01 -1.565517E-01 -5.238125E+01  3.426229E+00  3.577577E+00
      1014   4  5.407114E+01  7.299203E+01  5.815883E+00 -7.096002E+01  3.311370E+00  4.181606E+00
      1014   5 -4.267989E+00  4.845142E+01 -2.506717E+00 -4.789853E+01 -1.637986E+00 -2.153568E+00
      1014   6  3.095688E+01  8.854583E+01  3.244747E+00 -6.669274E+01 -1.795248E+00 -1.679312E+00
      1014   7 -2.692748E+00  5.142952E+01 -1.121268E+00 -4.909224E+01  3.302037E+00  1.895616E+00
      1014   8  3.229723E+01  9.139265E+01  4.508252E+00 -6.780872E+01  3.077526E+00  2.441444E+00
      1015   1  6.528409E+01  8.270090E+01  1.955200E-01 -8.799631E+01 -2.422845E+00 -1.896033E-01
      1015   2  9.391360E+01  1.171317E+02  3.076574E+00 -1.040700E+02 -2.547392E+00  4.213395E-01
      1015   3  6.651913E+01  8.548153E+01  1.360314E+00 -8.913804E+01  2.173754E+00  3.795956E+00
      1015   4  9.495227E+01  1.198099E+02  4.139231E+00 -1.051456E+02  1.995314E+00  4.468536E+00
      1015   5  4.415611E+01  1.005971E+02 -1.320341E+00 -8.494879E+01 -2.835879E+00 -2.061147E+00
      1015   6  7.343894E+01  1.341578E+02  1.219660E+00 -1.011414E+02 -3.066974E+00 -1.513540E+00
      1015   7  4.553211E+01  1.032447E+02 -1.156713E-01 -8.603988E+01  1.833473E+00  1.978364E+00
      1015   8  7.461435E+01  1.367094E+02  2.323629E+00 -1.021684E+02  1.545274E+00  2.585026E+00
      1016   1 -1.253721E+02 -1.926017E+02 -1.578426E+01  1.216533E+02  3.294338E-01 -3.680130E+00
      1016   2 -6.015488E+01 -1.126521E+02  6.809408E+00  8.858999E+01  1.521572E-01 -1.974470E+00
      1016   3 -1.220259E+02 -1.881167E+02 -1.337871E+01  1.183547E+02  7.017410E+00  7.140909E-01
      1016   4 -5.733153E+01 -1.085645E+02  8.922355E+00  8.548964E+01  6.712171E+00  2.578377E+00
      1016   5 -1.530274E+02 -1.619440E+02 -1.321405E+01  1.274339E+02  1.212125E+00 -5.542531E+00
      1016   6 -8.648903E+01 -8.379386E+01  8.871492E+00  9.406128E+01  8.898651E-01 -3.899454E+00
      1016   7 -1.494746E+02 -1.577731E+02 -1.079911E+01  1.241789E+02  8.035776E+00 -1.047775E+00
      1016   8 -8.346830E+01 -8.000168E+01  1.099763E+01  9.100215E+01  7.577932E+00  7.478789E-01
      1017   1 -7.706908E+01 -1.021354E+02 -9.739579E+00  4.830318E+01 -3.304340E-02 -1.138473E+00
      1017   2 -2.572143E+01 -4.018551E+01  5.235535E+00  2.176009E+01  3.409251E-02 -2.013895E-01
      1017   3 -7.441823E+01 -9.694096E+01 -7.356311E+00  4.579366E+01  5.866271E+00  3.039448E+00
      1017   4 -2.349513E+01 -3.536744E+01  7.363660E+00  1.941330E+01  5.835623E+00  4.097799E+00
      1017   5 -1.029888E+02 -7.693014E+01 -8.903527E+00  5.278697E+01  5.748205E-01 -3.114725E+00
      1017   6 -5.053120E+01 -1.637426E+01  5.658598E+00  2.602432E+01  5.170677E-01 -2.216988E+00
      1017   7 -1.002049E+02 -7.206721E+01 -6.540181E+00  5.029239E+01  6.585904E+00  1.145913E+00
      1017   8 -4.817674E+01 -1.186986E+01  7.771580E+00  2.369174E+01  6.424510E+00  2.160395E+00
      1018   1 -2.847675E+01 -2.845003E+01 -5.445159E+00 -8.414649E+00 -9.797623E-01 -5.376772E-01
      1018   2  1.295510E+01  2.116978E+01  4.334003E+00 -3.032120E+01 -7.373675E-01  1.710626E-01
      1018   3 -2.668641E+01 -2.365898E+01 -3.465431E+00 -1.059142E+01  4.317049E+00  3.480687E+00
      1018   4  1.438364E+01  2.562222E+01  6.089928E+00 -3.235905E+01  4.482093E+00  4.284625E+00
      1018   5 -5.265455E+01 -6.867754E+00 -5.739404E+00 -4.692475E+00 -6.242582E-01 -2.607284E+00
      1018   6 -1.029257E+01  4.161643E+01  3.676510E+00 -2.676708E+01 -4.992586E-01 -1.926681E+00
      1018   7 -5.075423E+01 -2.392565E+00 -3.783370E+00 -6.863443E+00  4.766552E+00  1.480131E+00
      1018   8 -8.757525E+00  4.576877E+01  5.413232E+00 -2.879940E+01  4.809538E+00  2.252412E+00
      1019   1  1.947439E+01  3.330843E+01 -2.504525E+00 -5.351796E+01 -1.929751E+00 -4.334493E-01
      1019   2  5.356589E+01  7.417548E+01  3.531070E+00 -7.202664E+01 -1.783548E+00  2.267292E-01
      1019   3  2.106675E+01  3.768612E+01 -7.310139E-01 -5.538521E+01  2.914521E+00  3.480131E+00
      1019   4  5.486095E+01  7.829228E+01  5.124233E+00 -7.378198E+01  2.997542E+00  4.216464E+00
      1019   5 -3.022292E+00  5.249340E+01 -3.539603E+00 -5.020707E+01 -1.811574E+00 -2.589418E+00
      1019   6  3.184630E+01  9.239227E+01  2.154614E+00 -6.885439E+01 -1.778914E+00 -1.967140E+00
      1019   7 -1.314254E+00  5.661152E+01 -1.772243E+00 -5.205956E+01  3.113968E+00  1.382929E+00
      1019   8  3.325352E+01  9.626171E+01  3.744999E+00 -7.059559E+01  3.079633E+00  2.078470E+00
      1020   1  6.621495E+01  8.651189E+01 -7.783371E-01 -9.018458E+01 -2.916008E+00 -1.727668E-01
      1020   2  9.462972E+01  1.208809E+02  2.244869E+00 -1.061358E+02 -2.995531E+00  6.836484E-01
      1020   3  6.782038E+01  9.022302E+01  7.771727E-01 -9.190287E+01  1.630819E+00  3.713962E+00
      1020   4  9.599215E+01  1.244161E+02  3.662174E+00 -1.077662E+02  1.497195E+00  4.633321E+00
      1020   5  4.529831E+01  1.041260E+02 -2.309382E+00 -8.705518E+01 -3.022571E+00 -2.435988E+00
      1020   6  7.435771E+01  1.376354E+02  3.723805E-01 -1.031286E+02 -3.217010E+00 -1.639247E+00
      1020   7  4.704761E+01  1.076556E+02 -7.283934E-01 -8.873883E+01  1.597621E+00  1.502257E+00
      1020   8  7.585964E+01  1.409975E+02  1.817074E+00 -1.047257E+02  1.345830E+00  2.359389E+00
      1021   1 -1.196795E+02 -1.838169E+02 -1.131425E+01  1.154736E+02 -1.965564E+00 -2.714549E+00
      1021   2 -5.686457E+01 -1.061246E+02  7.374283E+00  8.278735E+01 -1.511764E+00 -8.934140E-01
      1021   3 -1.166577E+02 -1.765843E+02 -8.179597E+00  1.109016E+02  5.509637E+00  2.185117E+00
      1021   4 -5.455033E+01 -9.967242E+01  1.004368E+01  7.850570E+01  5.821217E+00  4.188270E+00
      1021   5 -1.470007E+02 -1.537860E+02 -8.750552E+00  1.212986E+02 -6.560942E-01 -5.294713E+00
      1021   6 -8.290869E+01 -7.788561E+01  9.369176E+00  8.830068E+01 -3.598013E-01 -3.482384E+00
      1021   7 -1.438487E+02 -1.471043E+02 -5.696021E+00  1.166852E+02  6.970129E+00 -2.854479E-01
      1021   8 -8.046915E+01 -7.195289E+01  1.196746E+01  8.397982E+01  7.115628E+00  1.702436E+00
      1022   1 -7.484714E+01 -9.441321E+01 -9.915704E+00  4.346684E+01 -2.434502E+00 -1.048494E+00
      1022   2 -2.407363E+01 -3.302252E+01  5.088223E+00  1.723866E+01 -1.427726E+00  1.956583E-02
      1022   3 -7.360889E+01 -8.762862E+01 -7.478210E+00  3.962064E+01  3.374080E+00  2.972271E+00
      1022   4 -2.344225E+01 -2.698504E+01  7.104933E+00  1.364562E+01  4.285092E+00  4.164084E+00
      1022   5 -1.005999E+02 -6.990902E+01 -9.231921E+00  4.794448E+01 -1.447514E+00 -3.660635E+00
      1022   6 -4.871997E+01 -9.873368E+00  5.377290E+00  2.149704E+01 -5.786029E-01 -2.558359E+00
      1022   7 -9.930642E+01 -6.370648E+01 -6.913714E+00  4.402546E+01  4.469238E+00  4.374157E-01
      1022   8 -4.803448E+01 -4.387764E+00  7.284278E+00  1.783474E+01  5.236513E+00  1.659322E+00
      1023   1 -2.733634E+01 -2.132106E+01 -5.616479E+00 -1.259677E+01 -2.552989E+00 -7.827940E-01
      1023   2  1.343501E+01  2.763141E+01  3.767442E+00 -3.423852E+01 -1.580494E+00  1.294652E-01
      1023   3 -2.670719E+01 -1.551985E+01 -3.681261E+00 -1.589801E+01  2.762721E+00  3.175965E+00
      1023   4  1.356698E+01  3.282926E+01  5.358796E+00 -3.733466E+01  3.658067E+00  4.186973E+00
      1023   5 -5.137207E+01 -3.843676E-01 -6.047839E+00 -8.888369E+00 -1.853416E+00 -3.377207E+00
      1023   6 -9.675939E+00  4.746267E+01  2.981423E+00 -3.069756E+01 -1.010463E+00 -2.436949E+00
      1023   7 -5.068297E+01  4.914497E+00 -4.207433E+00 -1.224909E+01  3.554987E+00  6.471957E-01
      1023   8 -9.485291E+00  5.218227E+01  4.485632E+00 -3.385049E+01  4.316031E+00  1.682918E+00
      1024   1  2.027535E+01  3.961554E+01 -3.045748E+00 -5.710360E+01 -2.806403E+00 -7.902469E-01
      1024   2  5.378152E+01  7.992205E+01  2.570592E+00 -7.539890E+01 -1.974017E+00  2.369990E-02
      1024   3  2.068667E+01  4.468292E+01 -1.419151E+00 -5.993033E+01  2.078931E+00  3.091659E+00
      1024   4  5.378643E+01  8.451417E+01  3.919727E+00 -7.806022E+01  2.848029E+00  3.985283E+00
      1024   5 -2.067910E+00  5.826032E+01 -4.185507E+00 -5.378808E+01 -2.372598E+00 -3.382392E+00
      1024   6  3.220897E+01  9.762133E+01  1.093977E+00 -7.222220E+01 -1.663416E+00 -2.553746E+00
      1024   7 -1.585653E+00  6.290444E+01 -2.627569E+00 -5.665739E+01  2.593074E+00  5.557005E-01
      1024   8  3.228318E+01  1.018092E+02  2.380438E+00 -7.492431E+01  3.235056E+00  1.461334E+00
      1025   1  6.738655E+01  9.182477E+01 -1.351030E+00 -9.339927E+01 -3.115870E+00 -6.303596E-01
      1025   2  9.577278E+01  1.262567E+02  2.385256E+00 -1.091856E+02 -2.769828E+00  2.910078E-01
      1025   3  6.845752E+01  9.635691E+01  2.916175E-01 -9.576882E+01  1.239495E+00  3.041445E+00
      1025   4  9.653059E+01  1.304747E+02  3.827534E+00 -1.114325E+02  1.533389E+00  4.025745E+00
      1025   5  4.667740E+01  1.090525E+02 -2.924634E+00 -9.022450E+01 -2.925632E+00 -3.250309E+00
      1025   6  7.570593E+01  1.426457E+02  4.853355E-01 -1.061348E+02 -2.700415E+00 -2.354832E+00
      1025   7  4.786031E+01  1.132887E+02 -1.302261E+00 -9.259951E+01  1.499706E+00  4.685600E-01
      1025   8  7.657249E+01  1.465805E+02  1.910869E+00 -1.083869E+02  1.669577E+00  1.424656E+00
      1026   1 -1.624929E+02 -1.868008E+02 -2.485669E+01  1.382840E+02 -1.753551E+00 -2.235781E+00
      1026   2 -8.546503E+01 -1.073850E+02  4.260573E+00  1.028997E+02 -1.677649E+00 -1.998957E+00
      1026   3 -1.613562E+02 -1.867661E+02 -2.445776E+01  1.376471E+02  3.508020E+00  2.119683E+00
      1026   4 -8.461786E+01 -1.073244E+02  4.566739E+00  1.023181E+02  3.476292E+00  2.462151E+00
      1026   5 -1.926386E+02 -1.538429E+02 -2.269429E+01  1.385957E+02 -2.076206E+00 -3.018510E+00
      1026   6 -1.141131E+02 -7.630654E+01  6.037609E+00  1.031947E+02 -2.103684E+00 -2.848082E+00
      1026   7 -1.913480E+02 -1.539330E+02 -2.224744E+01  1.381014E+02  3.278493E+00  1.427728E+00
      1026   8 -1.131184E+02 -7.636213E+01  6.393540E+00  1.027481E+02  3.138031E+00  1.698585E+00
      1027   1 -9.478574E+01 -1.068202E+02 -1.154156E+01  5.797671E+01 -1.581341E+00 -1.807715E+00
      1027   2 -3.507329E+01 -4.625832E+01  6.361103E+00  2.971305E+01 -1.544473E+00 -1.654547E+00
      1027   3 -9.400066E+01 -1.063515E+02 -1.114213E+01  5.755291E+01  3.597048E+00  2.821917E+00
      1027   4 -3.451357E+01 -4.576519E+01  6.686071E+00  2.932828E+01  3.540927E+00  3.065360E+00
      1027   5 -1.225477E+02 -7.952996E+01 -1.083685E+01  5.773378E+01 -2.118649E+00 -2.732672E+00
      1027   6 -6.161366E+01 -2.044256E+01  6.709118E+00  2.948196E+01 -2.180132E+00 -2.648244E+00
      1027   7 -1.216280E+02 -7.915982E+01 -1.038456E+01  5.743480E+01  3.146605E+00  1.981796E+00
      1027   8 -6.092403E+01 -2.004123E+01  7.088746E+00  2.921588E+01  2.987505E+00  2.151986E+00
      1028   1 -3.167903E+01 -4.041737E+01 -4.054579E+00 -2.870660E+00 -1.543378E+00 -1.580763E+00
      1028   2  1.604898E+01  7.522688E+00  6.799613E+00 -2.614580E+01 -1.518342E+00 -1.468563E+00
      1028   3 -3.122711E+01 -3.971081E+01 -3.707936E+00 -3.177662E+00  3.387349E+00  3.107883E+00
      1028   4  1.631648E+01  8.249323E+00  7.082906E+00 -2.642256E+01  3.333839E+00  3.295138E+00
      1028   5 -5.734573E+01 -1.691526E+01 -4.343344E+00 -3.345189E+00 -2.274236E+00 -2.647023E+00
      1028   6 -8.609960E+00  2.981275E+01  6.171690E+00 -2.659886E+01 -2.345246E+00 -2.604392E+00
      1028   7 -5.677205E+01 -1.629117E+01 -3.941592E+00 -3.540639E+00  2.734742E+00  2.118100E+00
      1028   8 -8.224420E+00  3.046236E+01  6.511803E+00 -2.676909E+01  2.581272E+00  2.231974E+00
      1029   1  2.712817E+01  1.636600E+01 -3.458061E-02 -5.045359E+01 -1.564294E+00 -1.449731E+00
      1029   2  6.628477E+01  5.555800E+01  6.315260E+00 -7.010520E+01 -1.544151E+00 -1.344829E+00
      1029   3  2.727864E+01  1.717610E+01  2.292883E-01 -5.070032E+01  3.045940E+00  3.175266E+00
      1029   4  6.627905E+01  5.638483E+01  6.523818E+00 -7.032695E+01  3.000679E+00  3.341307E+00
      1029   5  3.303116E+00  3.729741E+01 -1.019904E+00 -5.096728E+01 -2.475333E+00 -2.655584E+00
      1029   6  4.330057E+01  7.545622E+01  5.005501E+00 -7.059737E+01 -2.550521E+00 -2.621014E+00
      1029   7  3.567139E+00  3.803644E+01 -6.996827E-01 -5.111204E+01  2.203570E+00  2.036476E+00
      1029   8  4.340535E+01  7.621669E+01  5.272031E+00 -7.072143E+01  2.059709E+00  2.129007E+00
      1030   1  8.197449E+01  6.606101E+01  1.946608E+00 -8.870650E+01 -1.625138E+00 -1.351838E+00
      1030   2  1.148488E+02  9.902496E+01  5.448332E+00 -1.056425E+02 -1.626869E+00 -1.249138E+00
      1030   3  8.191957E+01  6.695259E+01  2.151293E+00 -8.890243E+01  2.628855E+00  3.128229E+00
      1030   4  1.146603E+02  9.993414E+01  5.605596E+00 -1.058178E+02  2.573490E+00  3.279513E+00
      1030   5  5.977350E+01  8.523084E+01  4.633879E-01 -8.914518E+01 -2.707765E+00 -2.696993E+00
      1030   6  9.335765E+01  1.172896E+02  3.656828E+00 -1.060641E+02 -2.804640E+00 -2.666719E+00
      1030   7  5.982711E+01  8.606240E+01  7.256924E-01 -8.924566E+01  1.604853E+00  1.840180E+00
      1030   8  9.327498E+01  1.181426E+02  3.873174E+00 -1.061477E+02  1.451656E+00  1.916429E+00
      1031   1 -1.600011E+02 -1.861670E+02 -2.353391E+01  1.368730E+02 -5.423909E-01 -2.814818E+00
      1031   2 -8.378586E+01 -1.070232E+02  4.750893E+00  1.015988E+02 -5.900060E-01 -2.133113E+00
      1031   3 -1.579056E+02 -1.850277E+02 -2.251220E+01  1.353926E+02  4.907259E+00  1.597448E+00
      1031   4 -8.206851E+01 -1.059630E+02  5.621277E+00  1.002132E+02  4.748321E+00  2.390234E+00
      1031   5 -1.898657E+02 -1.534361E+02 -2.127591E+01  1.374288E+02 -4.413670E-01 -3.907673E+00
      1031   6 -1.121701E+02 -7.616178E+01  6.613219E+00  1.021250E+02 -6.061866E-01 -3.299439E+00
      1031   7 -1.875937E+02 -1.524684E+02 -2.021252E+01  1.360831E+02  5.105788E+00  5.955888E-01
      1031   8 -1.102838E+02 -7.526199E+01  7.527590E+00  1.008668E+02  4.824070E+00  1.309551E+00
      1032   1 -9.333175E+01 -1.058266E+02 -1.123411E+01  5.699576E+01 -4.291407E-01 -1.518034E+00
      1032   2 -3.420692E+01 -4.542549E+01  6.119828E+00  2.881083E+01 -5.145777E-01 -1.064857E+00
      1032   3 -9.154658E+01 -1.041128E+02 -1.015790E+01  5.589555E+01  4.881979E+00  3.126611E+00
      1032   4 -3.271418E+01 -4.377039E+01  7.076200E+00  2.778016E+01  4.701528E+00  3.673576E+00
      1032   5 -1.208582E+02 -7.872624E+01 -1.044783E+01  5.696598E+01 -5.605484E-01 -2.759986E+00
      1032   6 -6.052398E+01 -1.979093E+01  6.543883E+00  2.878245E+01 -7.544486E-01 -2.381949E+00
      1032   7 -1.189236E+02 -7.715488E+01 -9.326806E+00  5.598216E+01  4.840529E+00  1.968744E+00
      1032   8 -5.888730E+01 -1.826956E+01  7.547277E+00  2.786252E+01  4.546857E+00  2.435997E+00
      1033   1 -3.106795E+01 -3.926373E+01 -4.424968E+00 -3.616179E+00 -7.766130E-01 -9.807919E-01
      1033   2  1.628597E+01  8.651012E+00  6.225184E+00 -2.682966E+01 -8.525010E-01 -6.464524E-01
      1033   3 -2.966353E+01 -3.732228E+01 -3.419168E+00 -4.508825E+00  4.217376E+00  3.664302E+00
      1033   4  1.745086E+01  1.054238E+01  7.130003E+00 -2.766664E+01  4.062286E+00  4.075566E+00
      1033   5 -5.652844E+01 -1.592863E+01 -4.641826E+00 -3.900510E+00 -1.120135E+00 -2.375967E+00
      1033   6 -8.174690E+00  3.078292E+01  5.669176E+00 -2.710109E+01 -1.300147E+00 -2.116114E+00
      1033   7 -5.499127E+01 -1.411182E+01 -3.590095E+00 -4.689923E+00  3.953850E+00  2.343767E+00
      1033   8 -6.881241E+00  3.255713E+01  6.622071E+00 -2.783951E+01  3.690661E+00  2.676733E+00
      1034   1  2.713957E+01  1.760211E+01 -6.699319E-01 -5.108278E+01 -1.301739E+00 -8.015599E-01
      1034   2  6.602765E+01  5.682090E+01  5.617728E+00 -7.068316E+01 -1.362626E+00 -4.817187E-01
      1034   3  2.813957E+01  1.949108E+01  1.752764E-01 -5.188243E+01  3.343574E+00  3.759166E+00
      1034   4  6.682374E+01  5.866723E+01  6.375506E+00 -7.143606E+01  3.216967E+00  4.141386E+00
      1034   5  3.504794E+00  3.838602E+01 -1.585395E+00 -5.142240E+01 -1.844458E+00 -2.349778E+00
      1034   6  4.322769E+01  7.657977E+01  4.379361E+00 -7.100858E+01 -2.008093E+00 -2.104572E+00
      1034   7  4.630118E+00  4.016656E+01 -6.916200E-01 -5.212713E+01  2.870823E+00  2.275833E+00
      1034   8  4.414558E+01  7.832396E+01  5.187627E+00 -7.167055E+01  2.638162E+00  2.580252E+00
      1035   1  8.160804E+01  6.737227E+01  1.187772E+00 -8.924066E+01 -1.918592E+00 -7.319837E-01
      1035   2  1.141719E+02  1.002855E+02  4.447999E+00 -1.061344E+02 -2.005514E+00 -3.881896E-01
      1035   3  8.233351E+01  6.915353E+01  1.895862E+00 -8.997032E+01  2.407466E+00  3.727279E+00
      1035   4  1.147229E+02  1.020373E+02  5.082142E+00 -1.068254E+02  2.265946E+00  4.121232E+00
      1035   5  5.958836E+01  8.641567E+01 -2.256223E-01 -8.951555E+01 -2.653263E+00 -2.435149E+00
      1035   6  9.285483E+01  1.184284E+02  2.723374E+00 -1.063986E+02 -2.842495E+00 -2.169624E+00
      1035   7  6.043790E+01  8.810926E+01  5.367019E-01 -9.015403E+01  1.733494E+00  2.079766E+00
      1035   8  9.352668E+01  1.200976E+02  3.413348E+00 -1.070020E+02  1.486911E+00  2.392804E+00
      1036   1 -1.556219E+02 -1.833426E+02 -2.056178E+01  1.339669E+02  3.004607E-01 -3.289024E+00
      1036   2 -8.076866E+01 -1.050517E+02  5.870384E+00  9.887309E+01  1.615794E-01 -2.128288E+00
      1036   3 -1.526089E+02 -1.810006E+02 -1.890013E+01  1.315500E+02  6.130874E+00  1.353837E+00
      1036   4 -7.823224E+01 -1.029122E+02  7.312968E+00  9.659540E+01  5.872711E+00  2.635854E+00
      1036   5 -1.851606E+02 -1.509166E+02 -1.820416E+01  1.347519E+02  8.334290E-01 -4.739412E+00
      1036   6 -1.088539E+02 -7.448843E+01  7.804764E+00  9.961608E+01  5.623266E-01 -3.657165E+00
      1036   7 -1.819512E+02 -1.488031E+02 -1.650938E+01  1.324583E+02  6.769585E+00 -1.774429E-03
      1036   8 -1.061296E+02 -7.256308E+01  9.283478E+00  9.745504E+01  6.373189E+00  1.196062E+00
      1037   1 -9.051742E+01 -1.029568E+02 -1.055361E+01  5.482208E+01  2.940117E-01 -1.218474E+00
      1037   2 -3.224798E+01 -4.301689E+01  5.824520E+00  2.677104E+01  1.511709E-01 -4.989957E-01
      1037   3 -8.779749E+01 -9.981268E+01 -8.765205E+00  5.298789E+01  5.806871E+00  3.508614E+00
      1037   4 -2.989827E+01 -4.003853E+01  7.437099E+00  2.504320E+01  5.565570E+00  4.327251E+00
      1037   5 -1.177905E+02 -7.613425E+01 -9.714169E+00  5.498870E+01  5.723141E-01 -2.822003E+00
      1037   6 -5.832819E+01 -1.765075E+01  6.289593E+00  2.692950E+01  3.103348E-01 -2.178344E+00
      1037   7 -1.149136E+02 -7.319497E+01 -7.896128E+00  5.325660E+01  6.179518E+00  1.989711E+00
      1037   8 -5.582721E+01 -1.486520E+01  7.934924E+00  2.529873E+01  5.814111E+00  2.727850E+00
      1038   1 -2.942203E+01 -3.648612E+01 -4.953366E+00 -5.401313E+00 -4.525871E-01 -5.645396E-01
      1038   2  1.744550E+01  1.126000E+01  5.394964E+00 -2.850642E+01 -5.288901E-01 -4.540352E-02
      1038   3 -2.723186E+01 -3.320259E+01 -3.307003E+00 -6.948277E+00  4.606239E+00  4.044764E+00
      1038   4  1.932794E+01  1.439660E+01  6.890660E+00 -2.996498E+01  4.449919E+00  4.643245E+00
      1038   5 -5.466989E+01 -1.340900E+01 -5.140219E+00 -5.512386E+00 -4.084003E-01 -2.324561E+00
      1038   6 -6.811859E+00  3.314591E+01  4.868225E+00 -2.861244E+01 -5.978496E-01 -1.876477E+00
      1038   7 -5.234390E+01 -1.031467E+01 -3.466218E+00 -6.971381E+00  4.732065E+00  2.357625E+00
      1038   8 -4.797901E+00  3.610366E+01  6.394525E+00 -2.998701E+01  4.458547E+00  2.881273E+00
      1039   1  2.801662E+01  2.017455E+01 -1.599570E+00 -5.268812E+01 -1.373261E+00 -4.485558E-01
      1039   2  6.659665E+01  5.935700E+01  4.675354E+00 -7.219777E+01 -1.436808E+00  6.036765E-02
      1039   3  2.972290E+01  2.320032E+01 -1.994359E-01 -5.409091E+01  3.280388E+00  4.029542E+00
      1039   4  6.804257E+01  6.226258E+01  5.947819E+00 -7.352708E+01  3.151029E+00  4.602132E+00
      1039   5  4.579638E+00  4.072962E+01 -2.485959E+00 -5.286775E+01 -1.549597E+00 -2.362060E+00
      1039   6  4.398782E+01  7.889824E+01  3.468533E+00 -7.236991E+01 -1.724000E+00 -1.925656E+00
      1039   7  6.416833E+00  4.359315E+01 -1.052065E+00 -5.418777E+01  3.174824E+00  2.178441E+00
      1039   8  4.556083E+01  8.164999E+01  4.777246E+00 -7.361990E+01  2.931266E+00  2.675392E+00
      1040   1  8.208058E+01  6.974532E+01  1.535264E-01 -9.070899E+01 -2.354030E+00 -3.649249E-01
      1040   2  1.142624E+02  1.025239E+02  3.125611E+00 -1.075286E+02 -2.495048E+00  2.160623E-01
      1040   3  8.352441E+01  7.244606E+01  1.354410E+00 -9.199887E+01  2.039970E+00  4.076477E+00
      1040   4  1.154880E+02  1.051410E+02  4.222862E+00 -1.087601E+02  1.843055E+00  4.709709E+00
      1040   5  6.025716E+01  8.860100E+01 -1.222334E+00 -9.082835E+01 -2.741999E+00 -2.437853E+00
      1040   6  9.313209E+01  1.204846E+02  1.432820E+00 -1.076433E+02 -2.992753E+00 -1.938424E+00
      1040   7  6.183764E+01  9.117957E+01  2.648016E-02 -9.203368E+01  1.715112E+00  2.058117E+00
      1040   8  9.449061E+01  1.229859E+02  2.579847E+00 -1.087935E+02  1.405622E+00  2.607097E+00
      1041   1 -1.495004E+02 -1.781868E+02 -1.618950E+01  1.294017E+02  3.952502E-01 -3.401337E+00
      1041   2 -7.669733E+01 -1.014854E+02  7.070128E+00  9.456763E+01  1.707058E-01 -1.761912E+00
      1041   3 -1.454206E+02 -1.742317E+02 -1.372012E+01  1.259470E+02  6.858854E+00  1.698046E+00
      1041   4 -7.320410E+01 -9.788174E+01  9.240805E+00  9.130316E+01  6.501960E+00  3.474785E+00
      1041   5 -1.786767E+02 -1.461663E+02 -1.374015E+01  1.303939E+02  1.383898E+00 -5.305159E+00
      1041   6 -1.044584E+02 -7.132468E+01  9.047533E+00  9.550668E+01  1.011542E+00 -3.748256E+00
      1041   7 -1.743853E+02 -1.425122E+02 -1.125068E+01  1.270450E+02  7.966267E+00 -1.030594E-01
      1041   8 -1.007626E+02 -6.800356E+01  1.124243E+01  9.234238E+01  7.454852E+00  1.584900E+00
      1042   1 -8.681433E+01 -9.810997E+01 -1.002400E+01  5.130304E+01 -2.197667E-02 -9.608046E-01
      1042   2 -2.950182E+01 -3.879637E+01  5.377549E+00  2.345690E+01  2.093472E-02 -4.149758E-02
      1042   3 -8.355617E+01 -9.330180E+01 -7.572796E+00  4.853313E+01  5.668233E+00  3.824859E+00
      1042   4 -2.672755E+01 -3.433249E+01  7.564723E+00  2.084999E+01  5.609583E+00  4.849274E+00
      1042   5 -1.138370E+02 -7.170319E+01 -9.187734E+00  5.163525E+01  6.808305E-01 -3.019667E+00
      1042   6 -5.534780E+01 -1.382956E+01  5.830368E+00  2.377281E+01  5.914973E-01 -2.157203E+00
      1042   7 -1.104327E+02 -6.721844E+01 -6.744758E+00  4.893653E+01  6.468859E+00  1.850497E+00
      1042   8 -5.243260E+01 -9.671335E+00  8.014343E+00  2.123361E+01  6.272774E+00  2.813379E+00
      1043   1 -2.716890E+01 -3.194684E+01 -5.644104E+00 -8.416601E+00 -9.547986E-01 -4.940287E-01
      1043   2  1.912566E+01  1.548296E+01  4.410022E+00 -3.134939E+01 -7.326668E-01  2.242043E-01
      1043   3 -2.487229E+01 -2.747700E+01 -3.608342E+00 -1.088187E+01  4.144160E+00  4.058872E+00
      1043   4  2.100909E+01  1.964011E+01  6.213684E+00 -3.367371E+01  4.285768E+00  4.859463E+00
      1043   5 -5.221269E+01 -9.268415E+00 -5.860036E+00 -8.386544E+00 -5.173473E-01 -2.681371E+00
      1043   6 -4.936215E+00  3.698877E+01  3.856914E+00 -3.132066E+01 -4.215804E-01 -2.008248E+00
      1043   7 -4.979218E+01 -5.108276E+00 -3.836435E+00 -1.079471E+01  4.663689E+00  1.941862E+00
      1043   8 -2.932689E+00  4.085201E+01  5.653152E+00 -3.359045E+01  4.674783E+00  2.693677E+00
      1044   1  2.952509E+01  2.426652E+01 -2.644694E+00 -5.538322E+01 -1.881927E+00 -5.169481E-01
      1044   2  6.770062E+01  6.327221E+01  3.561364E+00 -7.475176E+01 -1.755116E+00  1.428743E-01
      1044   3  3.152337E+01  2.840488E+01 -8.217787E-01 -5.751185E+01  2.772560E+00  3.876456E+00
      1044   4  6.936197E+01  6.717233E+01  5.198245E+00 -7.676900E+01  2.833566E+00  4.601789E+00
      1044   5  6.283857E+00  4.447871E+01 -3.550129E+00 -5.542787E+01 -1.693772E+00 -2.823087E+00
      1044   6  4.528063E+01  8.248615E+01  2.339353E+00 -7.479454E+01 -1.687745E+00 -2.218406E+00
      1044   7  8.406672E+00  4.836426E+01 -1.722956E+00 -5.749675E+01  3.031599E+00  1.630015E+00
      1044   8  4.706293E+01  8.614566E+01  3.984161E+00 -7.675453E+01  2.968425E+00  2.297190E+00
      1045   1  8.335814E+01  7.332804E+01 -8.876171E-01 -9.317269E+01 -2.859585E+00 -3.949382E-01
      1045   2  1.152832E+02  1.060763E+02  2.218770E+00 -1.098822E+02 -2.964145E+00  4.293369E-01
      1045   3  8.528722E+01  7.686945E+01  7.124554E-01 -9.509100E+01  1.502298E+00  3.935471E+00
      1045   4  1.169420E+02  1.094634E+02  3.678369E+00 -1.117177E+02  1.341610E+00  4.813229E+00
      1045   5  6.174474E+01  9.192436E+01 -2.253944E+00 -9.314972E+01 -2.903025E+00 -2.839800E+00
      1045   6  9.435543E+01  1.237885E+02  5.366993E-01 -1.098602E+02 -3.125867E+00 -2.093603E+00
      1045   7  6.381801E+01  9.529357E+01 -6.194508E-01 -9.499480E+01  1.522714E+00  1.542651E+00
      1045   8  9.615436E+01  1.270117E+02  2.033003E+00 -1.116253E+02  1.240865E+00  2.339671E+00
      1046   1 -1.424078E+02 -1.704023E+02 -1.158001E+01  1.228468E+02 -1.929073E+00 -2.732270E+00
      1046   2 -7.218068E+01 -9.592724E+01  7.642318E+00  8.838353E+01 -1.532165E+00 -9.029905E-01
      1046   3 -1.383221E+02 -1.639467E+02 -8.355739E+00  1.178311E+02  5.313064E+00  2.945137E+00
      1046   4 -6.890078E+01 -9.020105E+01  1.038630E+01  8.367134E+01  5.562263E+00  4.933341E+00
      1046   5 -1.712289E+02 -1.389864E+02 -9.110883E+00  1.239975E+02 -4.335035E-01 -5.333231E+00
      1046   6 -9.962917E+01 -6.636235E+01  9.583290E+00  8.947269E+01 -2.045466E-01 -3.531995E+00
      1046   7 -1.669800E+02 -1.330767E+02 -5.949365E+00  1.190198E+02  6.941224E+00  4.563317E-01
      1046   8 -9.619233E+01 -6.115035E+01  1.227363E+01  8.479649E+01  7.014866E+00  2.409783E+00
      1047   1 -8.348990E+01 -9.122512E+01 -1.021911E+01  4.591471E+01 -2.420452E+00 -1.165597E+00
      1047   2 -2.686033E+01 -3.240694E+01  5.206733E+00  1.839114E+01 -1.453728E+00 -2.039114E-03
      1047   3 -8.134648E+01 -8.512556E+01 -7.712983E+00  4.153134E+01  3.199474E+00  3.441052E+00
      1047   4 -2.541574E+01 -2.701614E+01  7.275270E+00  1.428096E+01  4.065894E+00  4.713204E+00
      1047   5 -1.103082E+02 -6.550399E+01 -9.502396E+00  4.634497E+01 -1.269131E+00 -3.838809E+00
      1047   6 -5.250714E+01 -8.087410E+00  5.557187E+00  1.880032E+01 -4.577068E-01 -2.658328E+00
      1047   7 -1.080681E+02 -5.998644E+01 -7.097797E+00  4.196346E+01  4.445771E+00  8.468608E-01
      1047   8 -5.096865E+01 -3.248171E+00  7.533694E+00  1.469191E+01  5.151606E+00  2.131620E+00
      1048   1 -2.511928E+01 -2.551675E+01 -5.838838E+00 -1.317106E+01 -2.523583E+00 -9.235186E-01
      1048   2  2.041734E+01  2.129244E+01  3.803054E+00 -3.583073E+01 -1.587148E+00  8.382150E-02
      1048   3 -2.375777E+01 -2.028729E+01 -3.854071E+00 -1.695999E+01  2.608196E+00  3.561115E+00
      1048   4  2.120815E+01  2.595042E+01  5.430836E+00 -3.939936E+01  3.463686E+00  4.654898E+00
      1048   5 -4.998571E+01 -3.471711E+00 -6.162052E+00 -1.306063E+01 -1.687673E+00 -3.614264E+00
      1048   6 -3.473724E+00  4.219493E+01  3.150913E+00 -3.572526E+01 -8.972374E-01 -2.596165E+00
      1048   7 -4.852916E+01  1.256291E+00 -4.255745E+00 -1.684332E+01  3.525290E+00  9.372685E-01
      1048   8 -2.590381E+00  4.637589E+01  4.707945E+00 -3.928794E+01  4.230487E+00  2.038360E+00
      1049   1  3.104427E+01  3.002478E+01 -3.225209E+00 -5.948338E+01 -2.757726E+00 -9.677596E-01
      1049   2  6.855728E+01  6.850913E+01  2.546203E+00 -7.863546E+01 -1.957696E+00 -7.282009E-02
      1049   3  3.204328E+01  3.462729E+01 -1.561502E+00 -6.274088E+01  1.949218E+00  3.388802E+00
      1049   4  6.909158E+01  7.266354E+01  3.922521E+00 -8.171715E+01  2.682822E+00  4.353140E+00
      1049   5  7.981981E+00  4.970999E+01 -4.208472E+00 -5.944078E+01 -2.211366E+00 -3.689252E+00
      1049   6  4.630939E+01  8.721879E+01  1.251173E+00 -7.859463E+01 -1.549155E+00 -2.797048E+00
      1049   7  9.080374E+00  5.389182E+01 -2.598364E+00 -6.268311E+01  2.565732E+00  7.243176E-01
      1049   8  4.694056E+01  9.097185E+01  2.579985E+00 -8.166181E+01  3.157981E+00  1.683086E+00
      1050   1  8.508620E+01  7.824034E+01 -1.504077E+00 -9.677706E+01 -3.058630E+00 -8.565092E-01
      1050   2  1.169390E+02  1.110979E+02  2.329299E+00 -1.133278E+02 -2.743834E+00  8.279516E-02
      1050   3  8.660804E+01  8.245056E+01  1.765765E-01 -9.946517E+01  1.133333E+00  3.232009E+00
      1050   4  1.181080E+02  1.150178E+02  3.804287E+00 -1.158910E+02  1.393604E+00  4.225422E+00
      1050   5  6.368856E+01  9.646780E+01 -2.890020E+00 -9.663872E+01 -2.774093E+00 -3.637663E+00
      1050   6  9.622445E+01  1.284615E+02  6.419898E-01 -1.131949E+02 -2.588500E+00 -2.742249E+00
      1050   7  6.533628E+01  1.003877E+02 -1.218015E+00 -9.928506E+01  1.478955E+00  4.984084E-01
      1050   8  9.751578E+01  1.321038E+02  2.112090E+00 -1.157179E+02  1.607148E+00  1.445499E+00
      1051   1 -1.900027E+02 -1.687474E+02 -2.547678E+01  1.423130E+02 -1.615703E+00 -2.360825E+00
      1051   2 -1.048947E+02 -9.323164E+01  4.432284E+00  1.062831E+02 -1.543466E+00 -2.115881E+00
      1051   3 -1.886747E+02 -1.688896E+02 -2.507477E+01  1.417673E+02  3.342253E+00  2.574019E+00
      1051   4 -1.038870E+02 -9.331965E+01  4.740410E+00  1.057633E+02  3.306468E+00  2.906379E+00
      1051   5 -2.207164E+02 -1.354621E+02 -2.349951E+01  1.372740E+02 -1.933166E+00 -3.248098E+00
      1051   6 -1.340716E+02 -6.183424E+01  6.054785E+00  1.015137E+02 -1.968554E+00 -3.089669E+00
      1051   7 -2.192565E+02 -1.356995E+02 -2.304294E+01  1.369123E+02  3.103016E+00  1.776488E+00
      1051   8 -1.329366E+02 -6.201019E+01  6.419734E+00  1.011681E+02  2.955037E+00  2.017091E+00
      1052   1 -1.064810E+02 -1.008056E+02 -1.183569E+01  5.999467E+01 -1.448834E+00 -1.911293E+00
      1052   2 -4.044985E+01 -4.338628E+01  6.540918E+00  3.130409E+01 -1.411855E+00 -1.753346E+00
      1052   3 -1.055808E+02 -1.004287E+02 -1.143120E+01  5.959126E+01  3.420845E+00  3.279158E+00
      1052   4 -3.979871E+01 -4.296403E+01  6.869764E+00  3.091670E+01  3.364735E+00  3.511270E+00
      1052   5 -1.345284E+02 -7.318930E+01 -1.119397E+01  5.513619E+01 -1.990113E+00 -2.983256E+00
      1052   6 -6.725053E+01 -1.724942E+01  6.855114E+00  2.668357E+01 -2.055418E+00 -2.913368E+00
      1052   7 -1.335128E+02 -7.288574E+01 -1.072981E+01  5.489236E+01  2.952153E+00  2.290639E+00
      1052   8 -6.648745E+01 -1.689471E+01  7.245876E+00  2.644797E+01  2.789818E+00  2.430168E+00
      1053   1 -3.144248E+01 -4.298840E+01 -4.172402E+00 -1.896631E+00 -1.407131E+00 -1.676848E+00
      1053   2  2.141750E+01  2.341091E+00  6.964524E+00 -2.548517E+01 -1.380702E+00 -1.560489E+00
      1053   3 -3.092696E+01 -4.232023E+01 -3.820690E+00 -2.234603E+00  3.220927E+00  3.536505E+00
      1053   4  2.172953E+01  3.045997E+00  7.251856E+00 -2.581168E+01  3.168695E+00  3.714158E+00
      1053   5 -5.725003E+01 -1.916024E+01 -4.440714E+00 -6.467585E+00 -2.149656E+00 -2.928624E+00
      1053   6 -3.363335E+00  2.495513E+01  6.385381E+00 -2.984977E+01 -2.223011E+00 -2.900863E+00
      1053   7 -5.662985E+01 -1.855209E+01 -4.026767E+00 -6.663482E+00  2.543597E+00  2.359730E+00
      1053   8 -2.949215E+00  2.560494E+01  6.737143E+00 -3.004066E+01  2.388241E+00  2.444955E+00
      1054   1  3.667360E+01  7.504586E+00 -6.035653E-02 -4.994285E+01 -1.421089E+00 -1.544491E+00
      1054   2  8.013144E+01  4.447485E+01  6.458501E+00 -6.985079E+01 -1.399348E+00 -1.435740E+00
      1054   3  3.685053E+01  8.311384E+00  2.075141E-01 -5.025782E+01  2.897462E+00  3.561602E+00
      1054   4  8.013637E+01  4.531249E+01  6.670208E+00 -7.015673E+01  2.853522E+00  3.719987E+00
      1054   5  1.276951E+01  2.876343E+01 -9.665352E-01 -5.417747E+01 -2.350319E+00 -2.972010E+00
      1054   6  5.708434E+01  6.469970E+01  5.254469E+00 -7.390812E+01 -2.427517E+00 -2.952593E+00
      1054   7  1.304463E+01  2.952004E+01 -6.348334E-01 -5.436294E+01  2.025363E+00  2.199747E+00
      1054   8  5.718538E+01  6.549125E+01  5.532065E+00 -7.408998E+01  1.879685E+00  2.265595E+00
      1055   1  9.899983E+01  5.247831E+01  1.971216E+00 -8.830833E+01 -1.473935E+00 -1.450075E+00
      1055   2  1.355751E+02  8.351522E+01  5.579027E+00 -1.054741E+02 -1.473808E+00 -1.346095E+00
      1055   3  9.894192E+01  5.339683E+01  2.179682E+00 -8.859915E+01  2.501577E+00  3.463905E+00
      1055   4  1.353706E+02  8.446361E+01  5.739513E+00 -1.057583E+02  2.447553E+00  3.607074E+00
      1055   5  7.672990E+01  7.197618E+01  6.074566E-01 -9.219054E+01 -2.580475E+00 -3.051577E+00
      1055   6  1.140298E+02  1.021071E+02  3.930918E+00 -1.092047E+02 -2.678753E+00 -3.039121E+00
      1055   7  7.676601E+01  7.285442E+01  8.811626E-01 -9.236074E+01  1.443856E+00  1.918347E+00
      1055   8  1.139176E+02  1.030187E+02  4.158532E+00 -1.093730E+02  1.289108E+00  1.967339E+00
      1056   1 -1.871082E+02 -1.684525E+02 -2.411657E+01  1.410519E+02 -4.563238E-01 -2.732299E+00
      1056   2 -1.028787E+02 -9.316762E+01  4.934566E+00  1.050818E+02 -5.159269E-01 -2.070839E+00
      1056   3 -1.846575E+02 -1.676108E+02 -2.307795E+01  1.396404E+02  4.697230E+00  2.271969E+00
      1056   4 -1.008445E+02 -9.237050E+01  5.820341E+00  1.037371E+02  4.525736E+00  3.025757E+00
      1056   5 -2.175766E+02 -1.353417E+02 -2.202862E+01  1.363310E+02 -3.224593E-01 -3.907146E+00
      1056   6 -1.318245E+02 -6.193663E+01  6.659002E+00  1.006135E+02 -5.017967E-01 -3.339600E+00
      1056   7 -2.149694E+02 -1.346425E+02 -2.094099E+01  1.351016E+02  4.913572E+00  1.187252E+00
      1056   8 -1.296398E+02 -6.127203E+01  7.596477E+00  9.944113E+01  4.617571E+00  1.841732E+00
      1057   1 -1.047785E+02 -1.000091E+02 -1.152358E+01  5.903921E+01 -3.673404E-01 -1.442121E+00
      1057   2 -3.938504E+01 -4.271935E+01  6.286704E+00  3.038816E+01 -4.565354E-01 -1.009622E+00
      1057   3 -1.027313E+02 -9.847860E+01 -1.042476E+01  5.793203E+01  4.645125E+00  3.769406E+00
      1057   4 -3.766102E+01 -4.122282E+01  7.263586E+00  2.932931E+01  4.460554E+00  4.279420E+00
      1057   5 -1.326208E+02 -7.253738E+01 -1.078377E+01  5.445602E+01 -4.735671E-01 -2.809330E+00
      1057   6 -6.599071E+01 -1.672000E+01  6.694262E+00  2.602946E+01 -6.738601E-01 -2.471137E+00
      1057   7 -1.304410E+02 -7.112520E+01 -9.632732E+00  5.350525E+01  4.614724E+00  2.485181E+00
      1057   8 -6.413822E+01 -1.533364E+01  7.726080E+00  2.511932E+01  4.314985E+00  2.896288E+00
      1058   1 -3.068629E+01 -4.194408E+01 -4.560742E+00 -2.706052E+00 -7.049250E-01 -9.574597E-01
      1058   2  2.176189E+01  3.387720E+00  6.364406E+00 -2.626486E+01 -7.818727E-01 -6.397367E-01
      1058   3 -2.908353E+01 -4.011897E+01 -3.531833E+00 -3.658143E+00  3.999576E+00  4.210989E+00
      1058   4  2.309978E+01  5.182579E+00  7.290349E+00 -2.717841E+01  3.843063E+00  4.591922E+00
      1058   5 -5.631438E+01 -1.824246E+01 -4.740238E+00 -7.032205E+00 -1.028548E+00 -2.516180E+00
      1058   6 -2.845723E+00  2.588286E+01  5.874366E+00 -3.039576E+01 -1.212413E+00 -2.291740E+00
      1058   7 -5.459320E+01 -1.652032E+01 -3.657638E+00 -7.845821E+00  3.743226E+00  2.725728E+00
      1058   8 -1.392604E+00  2.758149E+01  6.856575E+00 -3.117707E+01  3.476392E+00  3.009543E+00
      1059   1  3.675865E+01  8.690327E+00 -7.245525E-01 -5.069855E+01 -1.207604E+00 -8.479937E-01
      1059   2  7.991765E+01  4.571180E+01  5.727818E+00 -7.058248E+01 -1.270429E+00 -5.421223E-01
      1059   3  3.791032E+01  1.050301E+01  1.412649E-01 -5.158963E+01  3.160079E+00  4.189978E+00
      1059   4  8.084458E+01  4.749891E+01  6.504734E+00 -7.144154E+01  3.031096E+00  4.546765E+00
      1059   5  1.302043E+01  2.983907E+01 -1.544341E+00 -5.470981E+01 -1.734437E+00 -2.595344E+00
      1059   6  5.703176E+01  6.583340E+01  4.611896E+00 -7.442578E+01 -1.902691E+00 -2.383041E+00
      1059   7  1.428416E+01  3.156358E+01 -6.219572E-01 -5.547401E+01  2.692009E+00  2.506341E+00
      1059   8  5.806807E+01  6.753806E+01  5.447726E+00 -7.516328E+01  2.454753E+00  2.766358E+00
      1060   1  9.864949E+01  5.379089E+01  1.175835E+00 -8.901163E+01 -1.800123E+00 -8.595680E-01
      1060   2  1.348865E+02  8.479531E+01  4.531703E+00 -1.061592E+02 -1.890122E+00 -5.330730E-01
      1060   3  9.948739E+01  5.553227E+01  1.903170E+00 -8.984968E+01  2.258735E+00  4.034423E+00
      1060   4  1.355339E+02  8.652254E+01  5.184502E+00 -1.069723E+02  2.113577E+00  4.401541E+00
      1060   5  7.653720E+01  7.319752E+01 -1.020771E-01 -9.268512E+01 -2.521295E+00 -2.796032E+00
      1060   6  1.134934E+02  1.033002E+02  2.967538E+00 -1.096893E+02 -2.715492E+00 -2.566989E+00
      1060   7  7.748552E+01  7.487056E+01  6.873771E-01 -9.340319E+01  1.588587E+00  2.152566E+00
      1060   8  1.142488E+02  1.049637E+02  3.684483E+00 -1.103871E+02  1.336854E+00  2.419538E+00
      1061   1 -1.820240E+02 -1.661703E+02 -2.105562E+01  1.382527E+02  3.452187E-01 -3.054313E+00
      1061   2 -9.924948E+01 -9.169942E+01  6.085747E+00  1.024153E+02  1.842992E-01 -1.939252E+00
      1061   3 -1.784734E+02 -1.642625E+02 -1.936234E+01  1.358697E+02  5.878345E+00  2.214385E+00
      1061   4 -9.622325E+01 -8.995302E+01  7.557601E+00  1.001460E+02  5.597429E+00  3.430725E+00
      1061   5 -2.121979E+02 -1.333128E+02 -1.885176E+01  1.338454E+02  9.443209E-01 -4.563255E+00
      1061   6 -1.279244E+02 -6.071590E+01  7.901728E+00  9.824386E+01  6.500130E-01 -3.547483E+00
      1061   7 -2.084662E+02 -1.316044E+02 -1.711646E+01  1.316397E+02  6.567411E+00  7.994231E-01
      1061   8 -1.247243E+02 -5.915583E+01  9.418972E+00  9.614232E+01  6.147946E+00  1.910737E+00
      1062   1 -1.014626E+02 -9.750939E+01 -1.082739E+01  5.683610E+01  2.998205E-01 -1.025676E+00
      1062   2 -3.699328E+01 -4.064818E+01  5.974903E+00  2.828328E+01  1.481471E-01 -3.425857E-01
      1062   3 -9.831487E+01 -9.465672E+01 -8.998031E+00  5.494696E+01  5.521543E+00  4.281551E+00
      1062   4 -3.425597E+01 -3.793170E+01  7.624887E+00  2.648225E+01  5.270734E+00  5.047150E+00
      1062   5 -1.290757E+02 -7.027088E+01 -1.001423E+01  5.252102E+01  6.381545E-01 -2.731583E+00
      1062   6 -6.338384E+01 -1.487353E+01  6.445142E+00  2.417950E+01  3.650493E-01 -2.143531E+00
      1062   7 -1.257820E+02 -6.759928E+01 -8.146106E+00  5.078047E+01  5.940021E+00  2.659424E+00
      1062   8 -6.050548E+01 -1.232701E+01  8.137361E+00  2.251982E+01  5.563510E+00  3.325267E+00
      1063   1 -2.867124E+01 -3.943546E+01 -5.114343E+00 -4.612413E+00 -4.257016E-01 -4.809586E-01
      1063   2  2.323987E+01  5.759909E+00  5.496613E+00 -2.809142E+01 -5.079201E-01  1.523000E-02
      1063   3 -2.612902E+01 -3.636894E+01 -3.427941E+00 -6.269224E+00  4.357482E+00  4.650108E+00
      1063   4  2.544025E+01  8.703295E+00  7.028938E+00 -2.967395E+01  4.194571E+00  5.211994E+00
      1063   5 -5.410633E+01 -1.595146E+01 -5.242416E+00 -8.701864E+00 -3.259383E-01 -2.381639E+00
      1063   6 -1.182679E+00  2.804797E+01  5.057502E+00 -3.199627E+01 -5.244022E-01 -1.975282E+00
      1063   7 -5.143713E+01 -1.305344E+01 -3.519177E+00 -1.022892E+01  4.526474E+00  2.821395E+00
      1063   8  1.141049E+00  3.083255E+01  6.630001E+00 -3.345488E+01  4.243823E+00  3.289626E+00
      1064   1  3.791265E+01  1.106172E+01 -1.696501E+00 -5.247645E+01 -1.309587E+00 -4.875360E-01
      1064   2  8.072425E+01  4.807675E+01  4.738217E+00 -7.229438E+01 -1.380321E+00  7.857227E-04
      1064   3  3.990741E+01  1.392068E+01 -2.608214E-01 -5.400993E+01  3.082619E+00  4.460864E+00
      1064   4  8.243119E+01  5.083592E+01  6.043824E+00 -7.376696E+01  2.945408E+00  5.001523E+00
      1064   5  1.435356E+01  3.201915E+01 -2.466416E+00 -5.627033E+01 -1.433765E+00 -2.577155E+00
      1064   6  5.801201E+01  6.801711E+01  3.674846E+00 -7.592943E+01 -1.618014E+00 -2.180253E+00
      1064   7  1.647002E+01  3.473506E+01 -9.880623E-01 -5.768359E+01  3.018391E+00  2.432688E+00
      1064   8  5.983758E+01  7.064124E+01  5.026014E+00 -7.728682E+01  2.764774E+00  2.878761E+00
      1065   1  9.932091E+01  5.602797E+01  8.863690E-02 -9.067518E+01 -2.256902E+00 -5.367619E-01
      1065   2  1.351403E+02  8.691908E+01  3.140744E+00 -1.077719E+02 -2.406384E+00  1.259779E-02
      1065   3  1.009956E+02  5.861305E+01  1.322614E+00 -9.209428E+01  1.882606E+00  4.340101E+00
      1065   4  1.365765E+02  8.943879E+01  4.270190E+00 -1.091453E+02  1.676660E+00  4.931918E+00
      1065   5  7.738473E+01  7.528299E+01 -1.131564E+00 -9.414174E+01 -2.593540E+00 -2.819696E+00
      1065   6  1.139156E+02  1.052775E+02  1.630276E+00 -1.111032E+02 -2.853760E+00 -2.371231E+00
      1065   7  7.918467E+01  7.776507E+01  1.589074E-01 -9.544340E+01  1.599393E+00  2.110705E+00
      1065   8  1.154741E+02  1.077002E+02  2.818473E+00 -1.123637E+02  1.280254E+00  2.598888E+00
      1066   1 -1.748621E+02 -1.617917E+02 -1.655205E+01  1.337251E+02  4.112157E-01 -3.125325E+00
      1066   2 -9.426469E+01 -8.887641E+01  7.319519E+00  9.810452E+01  1.546563E-01 -1.556550E+00
      1066   3 -1.700266E+02 -1.584200E+02 -1.402953E+01  1.302458E+02  6.565248E+00  2.660564E+00
      1066   4 -9.007560E+01 -8.580834E+01  9.539298E+00  9.479358E+01  6.175417E+00  4.344624E+00
      1066   5 -2.046972E+02 -1.292889E+02 -1.423795E+01  1.296216E+02  1.511612E+00 -5.062442E+00
      1066   6 -1.226351E+02 -5.824487E+01  9.201786E+00  9.422054E+01  1.107202E+00 -3.597119E+00
      1066   7 -1.996600E+02 -1.261901E+02 -1.168447E+01  1.263102E+02  7.767241E+00  8.254954E-01
      1066   8 -1.182525E+02 -5.543259E+01  1.145700E+01  9.106859E+01  7.223788E+00  2.399787E+00
      1067   1 -9.696619E+01 -9.325726E+01 -1.028775E+01  5.318531E+01 -4.051765E-02 -7.922824E-01
      1067   2 -3.354085E+01 -3.697999E+01  5.504566E+00  2.480823E+01 -1.683998E-02  1.085462E-01
      1067   3 -9.305842E+01 -8.890709E+01 -7.778046E+00  5.025981E+01  5.368694E+00  4.583265E+00
      1067   4 -3.017422E+01 -3.293820E+01  7.743498E+00  2.203422E+01  5.289651E+00  5.572350E+00
      1067   5 -1.243405E+02 -6.639035E+01 -9.452613E+00  4.912045E+01  7.691009E-01 -2.928410E+00
      1067   6 -5.970732E+01 -1.156175E+01  5.988801E+00  2.094245E+01  6.557291E-01 -2.103978E+00
      1067   7 -1.202867E+02 -6.234124E+01 -6.938876E+00  4.632378E+01  6.261944E+00  2.531013E+00
      1067   8 -5.619944E+01 -7.803824E+00  8.237089E+00  1.829093E+01  6.041354E+00  3.438948E+00
      1068   1 -2.577880E+01 -3.538151E+01 -5.837129E+00 -7.852488E+00 -9.399860E-01 -4.560803E-01
      1068   2  2.549208E+01  9.538573E+00  4.467100E+00 -3.118139E+01 -7.374596E-01  2.716807E-01
      1068   3 -2.292688E+01 -3.130486E+01 -3.752185E+00 -1.052259E+01  3.898899E+00  4.613690E+00
      1068   4  2.788079E+01  1.333231E+01  6.313551E+00 -3.371846E+01  4.019721E+00  5.410400E+00
      1068   5 -5.101725E+01 -1.225703E+01 -5.968503E+00 -1.172433E+01 -4.036437E-01 -2.759589E+00
      1068   6  1.258340E+00  3.148439E+01  4.027428E+00 -3.487842E+01 -3.340847E-01 -2.096253E+00
      1068   7 -4.803884E+01 -8.470442E+00 -3.883366E+00 -1.428437E+01  4.505284E+00  2.379770E+00
      1068   8  3.769971E+00  3.500331E+01  5.879056E+00 -3.731041E+01  4.489518E+00  3.108326E+00
      1069   1  3.993170E+01  1.476738E+01 -2.789271E+00 -5.542362E+01 -1.825099E+00 -6.005056E-01
      1069   2  8.228651E+01  5.164192E+01  3.570027E+00 -7.512071E+01 -1.715036E+00  5.845878E-02
      1069   3  4.238011E+01  1.860487E+01 -9.215359E-01 -5.775369E+01  2.584437E+00  4.255118E+00
      1069   4  8.435957E+01  5.526610E+01  5.247417E+00 -7.734777E+01  2.627671E+00  4.968488E+00
      1069   5  1.655880E+01  3.541821E+01 -3.554185E+00 -5.901454E+01 -1.545930E+00 -3.058993E+00
      1069   6  5.975453E+01  7.129037E+01  2.515718E+00 -7.856129E+01 -1.561602E+00 -2.474384E+00
      1069   7  1.913096E+01  3.902126E+01 -1.671035E+00 -6.123896E+01  2.924060E+00  1.855526E+00
      1069   8  6.194814E+01  7.469193E+01  4.212490E+00 -8.068713E+01  2.838592E+00  2.491463E+00
      1070   1  1.009944E+02  5.932438E+01 -1.007957E+00 -9.337455E+01 -2.770139E+00 -6.132012E-01
      1070   2  1.365182E+02  9.021636E+01  2.172886E+00 -1.103825E+02 -2.890798E+00  1.765567E-01
      1070   3  1.032794E+02  6.265105E+01  6.340112E-01 -9.545490E+01  1.355934E+00  4.142950E+00
      1070   4  1.385068E+02  9.341018E+01  3.672711E+00 -1.123909E+02  1.178465E+00  4.976427E+00
      1070   5  7.925290E+01  7.835603E+01 -2.196263E+00 -9.663989E+01 -2.725988E+00 -3.244732E+00
      1070   6  1.154820E+02  1.083615E+02  6.962635E-01 -1.135204E+02 -2.966128E+00 -2.552443E+00
      1070   7  8.167436E+01  8.152885E+01 -5.104947E-01 -9.860892E+01  1.454500E+00  1.562487E+00
      1070   8  1.176036E+02  1.114093E+02  2.242544E+00 -1.154218E+02  1.155049E+00  2.295781E+00
      1071   1 -1.663066E+02 -1.551178E+02 -1.181328E+01  1.270456E+02 -1.902857E+00 -2.750924E+00
      1071   2 -8.845081E+01 -8.438990E+01  7.899622E+00  9.176426E+01 -1.557587E+00 -9.179665E-01
      1071   3 -1.610779E+02 -1.495511E+02 -8.510462E+00  1.217806E+02  5.012973E+00  3.686460E+00
      1071   4 -8.412650E+01 -7.949445E+01  1.070958E+01  8.679776E+01  5.208791E+00  5.654304E+00
      1071   5 -1.957927E+02 -1.231708E+02 -9.454750E+00  1.232160E+02 -2.165082E-01 -5.355940E+00
      1071   6 -1.165119E+02 -5.430549E+01  9.775066E+00  8.813960E+01 -4.714921E-02 -3.572573E+00
      1071   7 -1.903840E+02 -1.181246E+02 -6.195991E+00  1.180722E+02  6.813138E+00  1.192960E+00
      1071   8 -1.120143E+02 -4.989972E+01  1.255012E+01  8.328784E+01  6.826439E+00  3.104424E+00
      1072   1 -9.243810E+01 -8.734568E+01 -1.050045E+01  4.745004E+01 -2.398218E+00 -1.285715E+00
      1072   2 -2.980313E+01 -3.149253E+01  5.313119E+00  1.938117E+01 -1.481500E+00 -2.834448E-02
      1072   3 -8.929095E+01 -8.205502E+01 -7.933764E+00  4.269834E+01  2.964687E+00  3.892157E+00
      1072   4 -2.744796E+01 -2.686311E+01  7.428207E+00  1.490645E+01  3.778970E+00  5.242103E+00
      1072   5 -1.195950E+02 -6.112287E+01 -9.752481E+00  4.359125E+01 -1.072139E+00 -4.007866E+00
      1072   6 -5.575775E+01 -6.681691E+00  5.726299E+00  1.571133E+01 -3.257760E-01 -2.754500E+00
      1072   7 -1.163250E+02 -5.639424E+01 -7.268083E+00  3.892132E+01  4.372296E+00  1.248413E+00
      1072   8 -5.328349E+01 -2.584614E+00  7.768467E+00  1.131443E+01  5.011554E+00  2.589945E+00
      1073   1 -2.271388E+01 -2.978155E+01 -6.052731E+00 -1.301620E+01 -2.482290E+00 -1.063465E+00
      1073   2  2.770252E+01  1.457189E+01  3.824403E+00 -3.608201E+01 -1.592342E+00  3.750073E-02
      1073   3 -2.052882E+01 -2.522966E+01 -4.022630E+00 -1.715967E+01  2.405107E+00  3.931793E+00
      1073   4  2.924225E+01  1.859109E+01  5.486457E+00 -4.000293E+01  3.212181E+00  5.106209E+00
      1073   5 -4.776085E+01 -7.254244E+00 -6.261655E+00 -1.670966E+01 -1.494690E+00 -3.844315E+00
      1073   6  3.653487E+00  3.594938E+01  3.315032E+00 -3.960872E+01 -7.648690E-01 -2.753243E+00
      1073   7 -4.545925E+01 -3.185620E+00 -4.292412E+00 -2.077683E+01  3.462257E+00  1.217104E+00
      1073   8  5.306623E+00  3.950927E+01  4.923947E+00 -4.345680E+01  4.105396E+00  2.378085E+00
      1074   1  4.226434E+01  1.986532E+01 -3.404153E+00 -5.991891E+01 -2.690909E+00 -1.139572E+00
      1074   2  8.388076E+01  5.626249E+01  2.507206E+00 -7.941103E+01 -1.931705E+00 -1.652631E-01
      1074   3  4.393272E+01  2.391434E+01 -1.704722E+00 -6.350490E+01  1.783589E+00  3.675989E+00
      1074   4  8.502555E+01  5.989557E+01  3.910943E+00 -8.282124E+01  2.474723E+00  4.708867E+00
      1074   5  1.907747E+01  4.002292E+01 -4.220466E+00 -6.333749E+01 -2.012461E+00 -3.989529E+00
      1074   6  6.152821E+01  7.543957E+01  1.406444E+00 -8.268649E+01 -1.403341E+00 -3.038399E+00
      1074   7  2.086135E+01  4.366865E+01 -2.558637E+00 -6.684721E+01  2.521982E+00  8.821497E-01
      1074   8  6.278564E+01  7.868819E+01  2.778764E+00 -8.602362E+01  3.059888E+00  1.888935E+00
      1075   1  1.033491E+02  6.375582E+01 -1.661480E+00 -9.729230E+01 -2.973409E+00 -1.073348E+00
      1075   2  1.387575E+02  9.480291E+01  2.259011E+00 -1.141582E+02 -2.688432E+00 -1.183504E-01
      1075   3  1.053809E+02  6.758062E+01  5.707058E-02 -1.002323E+02  1.007693E+00  3.416754E+00
      1075   4  1.403968E+02  9.836316E+01  3.767481E+00 -1.169785E+02  1.236969E+00  4.416671E+00
      1075   5  8.181606E+01  8.245174E+01 -2.847736E+00 -1.003724E+02 -2.571433E+00 -4.019195E+00
      1075   6  1.179275E+02  1.126312E+02  7.978716E-01 -1.171180E+02 -2.421838E+00 -3.127967E+00
      1075   7  8.397773E+01  8.600314E+01 -1.125544E+00 -1.032220E+02  1.461952E+00  5.175672E-01
      1075   8  1.196932E+02  1.159305E+02  2.313987E+00 -1.198514E+02  1.553303E+00  1.451210E+00
      1076   1 -2.179586E+02 -1.493457E+02 -2.602689E+01  1.421647E+02 -1.465594E+00 -2.471052E+00
      1076   2 -1.248159E+02 -7.807704E+01  4.593993E+00  1.066047E+02 -1.397447E+00 -2.217699E+00
      1076   3 -2.164618E+02 -1.496545E+02 -2.562689E+01  1.417575E+02  3.117780E+00  3.010370E+00
      1076   4 -1.236623E+02 -7.830748E+01  4.900389E+00  1.061853E+02  3.080493E+00  3.332815E+00
      1076   5 -2.482506E+02 -1.167367E+02 -2.424366E+01  1.316643E+02 -1.765290E+00 -3.466696E+00
      1076   6 -1.535834E+02 -4.730972E+01  6.056192E+00  9.666617E+01 -1.806138E+00 -3.321510E+00
      1076   7 -2.466541E+02 -1.171005E+02 -2.378233E+01  1.314775E+02  2.881689E+00  2.100892E+00
      1076   8 -1.523330E+02 -4.758968E+01  6.426575E+00  9.645539E+01  2.731621E+00  2.310035E+00
      1077   1 -1.183704E+02 -9.406884E+01 -1.210557E+01  6.048230E+01 -1.306068E+00 -1.999287E+00
      1077   2 -4.606564E+01 -4.004595E+01  6.695983E+00  3.223688E+01 -1.269367E+00 -1.835696E+00
      1077   3 -1.173623E+02 -9.378633E+01 -1.169984E+01  6.012376E+01  3.186814E+00  3.717926E+00
      1077   4 -4.532387E+01 -3.969984E+01  7.026362E+00  3.186447E+01  3.132824E+00  3.939609E+00
      1077   5 -1.458484E+02 -6.697449E+01 -1.152587E+01  5.092704E+01 -1.832637E+00 -3.225386E+00
      1077   6 -7.231251E+01 -1.439316E+01  6.979932E+00  2.314961E+01 -1.899266E+00 -3.170703E+00
      1077   7 -1.447533E+02 -6.673105E+01 -1.105357E+01  5.075857E+01  2.718978E+00  2.571569E+00
      1077   8 -7.148548E+01 -1.408166E+01  7.379595E+00  2.295797E+01  2.558396E+00  2.679914E+00
      1078   1 -3.131524E+01 -4.524653E+01 -4.292783E+00 -5.498636E-01 -1.261314E+00 -1.755323E+00
      1078   2  2.663644E+01 -2.725898E+00  7.096137E+00 -2.374194E+01 -1.233696E+00 -1.633704E+00
      1078   3 -3.073154E+01 -4.462754E+01 -3.938140E+00 -9.101789E-01  3.001042E+00  3.949124E+00
      1078   4  2.700263E+01 -2.055590E+00  7.386557E+00 -2.411514E+01  2.951991E+00  4.118276E+00
      1078   5 -5.650296E+01 -2.183499E+01 -4.533012E+00 -9.282861E+00 -1.991095E+00 -3.202786E+00
      1078   6  2.461012E+00  1.950392E+01  6.575437E+00 -3.208070E+01 -2.064250E+00 -3.190294E+00
      1078   7 -5.583973E+01 -2.124547E+01 -4.108853E+00 -9.474384E+00  2.323822E+00  2.573071E+00
      1078   8  2.905594E+00  2.014851E+01  6.938032E+00 -3.229270E+01  2.171230E+00  2.629343E+00
      1079   1  4.609817E+01 -1.319864E+00 -1.050008E-01 -4.764698E+01 -1.267853E+00 -1.619178E+00
      1079   2  9.382433E+01  3.326418E+01  6.562341E+00 -6.721404E+01 -1.244738E+00 -1.505597E+00
      1079   3  4.631526E+01 -5.321032E-01  1.665198E-01 -4.803244E+01  2.702092E+00  3.935592E+00
      1079   4  9.385783E+01  3.409492E+01  6.777877E+00 -6.761100E+01  2.661047E+00  4.087210E+00
      1079   5  2.280747E+01  1.959531E+01 -9.203696E-01 -5.566120E+01 -2.185890E+00 -3.281279E+00
      1079   6  7.137894E+01  5.317371E+01  5.478032E+00 -7.489270E+01 -2.262590E+00 -3.277484E+00
      1079   7  2.309997E+01  2.036082E+01 -5.774149E-01 -5.589302E+01  1.829995E+00  2.335830E+00
      1079   8  7.148708E+01  5.398554E+01  5.767539E+00 -7.514247E+01  1.686803E+00  2.374505E+00
      1080   1  1.158389E+02  3.874004E+01  1.965209E+00 -8.504603E+01 -1.311516E+00 -1.525847E+00
      1080   2  1.560899E+02  6.770634E+01  5.663369E+00 -1.019254E+02 -1.309043E+00 -1.419636E+00
      1080   3  1.157978E+02  3.966612E+01  2.178446E+00 -8.544313E+01  2.335419E+00  3.791217E+00
      1080   4  1.558930E+02  6.867284E+01  5.828980E+00 -1.023339E+02  2.284776E+00  3.926985E+00
      1080   5  9.414275E+01  5.794471E+01  7.360963E-01 -9.242884E+01 -2.407754E+00 -3.399120E+00
      1080   6  1.351099E+02  8.603041E+01  4.176969E+00 -1.090200E+02 -2.504190E+00 -3.404910E+00
      1080   7  9.417449E+01  5.885673E+01  1.022338E+00 -9.268342E+01  1.278382E+00  1.970945E+00
      1080   8  1.349852E+02  8.698561E+01  4.417918E+00 -1.092915E+02  1.126889E+00  1.992082E+00
      1081   1 -2.146972E+02 -1.493727E+02 -2.463331E+01  1.411455E+02 -3.897827E-01 -2.646281E+00
      1081   2 -1.224851E+02 -7.829997E+01  5.108099E+00  1.055793E+02 -4.559992E-01 -2.005341E+00
      1081   3 -2.119123E+02 -1.488270E+02 -2.358493E+01  1.398770E+02  4.395610E+00  2.918862E+00
      1081   4 -1.201474E+02 -7.776780E+01  6.003718E+00  1.043395E+02  4.219964E+00  3.633271E+00
      1081   5 -2.447983E+02 -1.168671E+02 -2.272489E+01  1.310283E+02 -2.127774E-01 -3.903517E+00
      1081   6 -1.510723E+02 -4.763082E+01  6.688148E+00  9.600350E+01 -3.983404E-01 -3.378076E+00
      1081   7 -2.418878E+02 -1.164227E+02 -2.161987E+01  1.299844E+02  4.640323E+00  1.748352E+00
      1081   8 -1.486131E+02 -4.719192E+01  7.643464E+00  9.497624E+01  4.341358E+00  2.341964E+00
      1082   1 -1.164277E+02 -9.347435E+01 -1.178877E+01  5.960322E+01 -3.210430E-01 -1.364202E+00
      1082   2 -4.479988E+01 -3.955429E+01  6.431437E+00  3.134579E+01 -4.097693E-01 -9.511316E-01
      1082   3 -1.141233E+02 -9.214025E+01 -1.067345E+01  5.853674E+01  4.324546E+00  4.382275E+00
      1082   4 -4.284344E+01 -3.823118E+01  7.424275E+00  3.029839E+01  4.142629E+00  4.856532E+00
      1082   5 -1.437475E+02 -6.646350E+01 -1.109518E+01  5.037810E+01 -3.852446E-01 -2.859710E+00
      1082   6 -7.089565E+01 -1.398020E+01  6.825403E+00  2.257250E+01 -5.849656E-01 -2.561528E+00
      1082   7 -1.413366E+02 -6.521263E+01 -9.919712E+00  4.950412E+01  4.322372E+00  2.966323E+00
      1082   8 -6.883524E+01 -1.273367E+01  7.881507E+00  2.170819E+01  4.026074E+00  3.321175E+00
      1083   1 -3.040205E+01 -4.433071E+01 -4.696403E+00 -1.400340E+00 -6.399465E-01 -9.285462E-01
      1083   2  2.710846E+01 -1.783939E+00  6.474227E+00 -2.460459E+01 -7.147585E-01 -6.260237E-01
      1083   3 -2.859395E+01 -4.264263E+01 -3.648679E+00 -2.381668E+00  3.712853E+00  4.732001E+00
      1083   4  2.863136E+01 -1.077824E-01  7.418416E+00 -2.557098E+01  3.560235E+00  5.083953E+00
      1083   5 -5.545159E+01 -2.099123E+01 -4.831549E+00 -9.840353E+00 -9.215150E-01 -2.656574E+00
      1083   6  3.067190E+00  2.037926E+01  6.059142E+00 -3.266356E+01 -1.103338E+00 -2.467527E+00
      1083   7 -5.354794E+01 -1.937524E+01 -3.722040E+00 -1.065128E+01  3.486178E+00  3.074173E+00
      1083   8  4.683829E+00  2.198911E+01  7.068148E+00 -3.346726E+01  3.223708E+00  3.308872E+00
      1084   1  4.628347E+01 -2.123938E-01 -7.938050E-01 -4.852599E+01 -1.109395E+00 -8.836917E-01
      1084   2  9.368736E+01  3.444361E+01  5.803601E+00 -6.810445E+01 -1.170989E+00 -5.906794E-01
      1084   3  4.760186E+01  1.499882E+00  9.035319E-02 -4.949128E+01  2.924795E+00  4.601398E+00
      1084   4  9.476451E+01  3.614596E+01  6.598622E+00 -6.905787E+01  2.798374E+00  4.933747E+00
      1084   5  2.312086E+01  2.064226E+01 -1.506982E+00 -5.627335E+01 -1.593222E+00 -2.838405E+00
      1084   6  7.136739E+01  5.429785E+01  4.823421E+00 -7.552742E+01 -1.760217E+00 -2.659155E+00
      1084   7  2.453032E+01  2.229477E+01 -5.580318E-01 -5.708304E+01  2.488830E+00  2.707368E+00
      1084   8  7.253411E+01  5.594524E+01  5.686016E+00 -7.633174E+01  2.254629E+00  2.922793E+00
      1085   1  1.155408E+02  4.002010E+01  1.138735E+00 -8.593188E+01 -1.664057E+00 -9.709998E-01
      1085   2  1.554323E+02  6.896936E+01  4.576434E+00 -1.028242E+02 -1.752773E+00 -6.611987E-01
      1085   3  1.165108E+02  4.169631E+01  1.884682E+00 -8.687244E+01  2.077793E+00  4.328739E+00
      1085   4  1.561989E+02  7.064488E+01  5.247994E+00 -1.037577E+02  1.934878E+00  4.669406E+00
      1085   5  9.396656E+01  5.917986E+01  1.069908E-02 -9.306664E+01 -2.340170E+00 -3.151062E+00
      1085   6  1.345707E+02  8.725147E+01  3.189961E+00 -1.096804E+02 -2.532427E+00 -2.959022E+00
      1085   7  9.502673E+01  6.081456E+01  8.270487E-01 -9.386146E+01  1.443224E+00  2.200538E+00
      1085   8  1.354262E+02  8.888936E+01  3.934387E+00 -1.104739E+02  1.194769E+00  2.420767E+00
      1086   1 -2.089402E+02 -1.476314E+02 -2.149181E+01  1.385922E+02  3.465796E-01 -2.823580E+00
      1086   2 -1.182612E+02 -7.733773E+01  6.289889E+00  1.030931E+02  1.742217E-01 -1.755127E+00
      1086   3 -2.048672E+02 -1.461658E+02 -1.977528E+01  1.363470E+02  5.506345E+00  3.040633E+00
      1086   4 -1.147531E+02 -7.599536E+01  7.784292E+00  1.009243E+02  5.216469E+00  4.190257E+00
      1086   5 -2.387990E+02 -1.153070E+02 -1.945251E+01  1.288649E+02  1.019871E+00 -4.387872E+00
      1086   6 -1.466252E+02 -4.684619E+01  7.979577E+00  9.388637E+01  7.158561E-01 -3.440318E+00
      1086   7 -2.345734E+02 -1.139989E+02 -1.768502E+01  1.268468E+02  6.254077E+00  1.566914E+00
      1086   8 -1.429699E+02 -4.565017E+01  9.528673E+00  9.193242E+01  5.828234E+00  2.589993E+00
      1087   1 -1.126115E+02 -9.136709E+01 -1.107708E+01  5.746336E+01  2.733502E-01 -8.397221E-01
      1087   2 -4.196574E+01 -3.784528E+01  6.106904E+00  2.925408E+01  1.199114E-01 -1.919499E-01
      1087   3 -1.090339E+02 -8.883123E+01 -9.214506E+00  5.559452E+01  5.134475E+00  5.017664E+00
      1087   4 -3.883311E+01 -3.541723E+01  7.788292E+00  2.744574E+01  4.883842E+00  5.731177E+00
      1087   5 -1.397437E+02 -6.452639E+01 -1.029092E+01  4.857151E+01  6.861191E-01 -2.647059E+00
      1087   6 -6.788505E+01 -1.243503E+01  6.584200E+00  2.079773E+01  4.117493E-01 -2.114814E+00
      1087   7 -1.360425E+02 -6.213607E+01 -8.380151E+00  4.689461E+01  5.613461E+00  3.290920E+00
      1087   8 -6.463213E+01 -1.014260E+01  8.317690E+00  1.917188E+01  5.238322E+00  3.884256E+00
      1088   1 -2.799788E+01 -4.212626E+01 -5.270893E+00 -3.366094E+00 -4.143323E-01 -3.991220E-01
      1088   2  2.893304E+01  3.136850E-01  5.574900E+00 -2.653084E+01 -4.977965E-01  7.549359E-02
      1088   3 -2.508957E+01 -3.931020E+01 -3.550340E+00 -5.076585E+00  4.031638E+00  5.225014E+00
      1088   4  3.147002E+01  3.029854E+00  7.139563E+00 -2.818900E+01  3.868907E+00  5.751545E+00
      1088   5 -5.288994E+01 -1.894812E+01 -5.334208E+00 -1.151150E+01 -2.390124E-01 -2.441972E+00
      1088   6  5.043512E+00  2.232422E+01  5.231564E+00 -3.430852E+01 -4.391252E-01 -2.077397E+00
      1088   7 -4.987306E+01 -1.626889E+01 -3.567130E+00 -1.305319E+01  4.264060E+00  3.251182E+00
      1088   8  7.686646E+00  2.491219E+01  6.846473E+00 -3.580549E+01  3.981743E+00  3.663894E+00
      1089   1  4.774703E+01  1.917145E+00 -1.801603E+00 -5.043830E+01 -1.243003E+00 -5.209234E-01
      1089   2  9.477098E+01  3.659399E+01  4.774399E+00 -6.998523E+01 -1.316125E+00 -5.227342E-02
      1089   3  5.005039E+01  4.574950E+00 -3.340899E-01 -5.206251E+01  2.833073E+00  4.870301E+00
      1089   4  9.676274E+01  3.917163E+01  6.110616E+00 -7.156751E+01  2.694538E+00  5.379793E+00
      1089   5  2.473065E+01  2.263214E+01 -2.445104E+00 -5.791631E+01 -1.290218E+00 -2.790492E+00
      1089   6  7.259350E+01  5.631677E+01  3.866640E+00 -7.715010E+01 -1.476930E+00 -2.433505E+00
      1089   7  2.713827E+01  2.517606E+01 -9.254411E-01 -5.938545E+01  2.835249E+00  2.659428E+00
      1089   8  7.468749E+01  5.878765E+01  5.258274E+00 -7.858381E+01  2.580684E+00  3.054114E+00
      1090   1  1.164501E+02  4.207962E+01  7.219129E-03 -8.777371E+01 -2.135082E+00 -6.957955E-01
      1090   2  1.558945E+02  7.093446E+01  3.128301E+00 -1.046461E+02 -2.285656E+00 -1.778642E-01
      1090   3  1.183771E+02  4.451771E+01  1.272376E+00 -8.929779E+01  1.699985E+00  4.589485E+00
      1090   4  1.575660E+02  7.332383E+01  4.288867E+00 -1.061421E+02  1.493867E+00  5.139934E+00
      1090   5  9.501929E+01  6.113620E+01 -1.044199E+00 -9.465542E+01 -2.391470E+00 -3.194548E+00
      1090   6  1.351708E+02  8.911749E+01  1.815598E+00 -1.112592E+02 -2.651242E+00 -2.797625E+00
      1090   7  9.705252E+01  6.349834E+01  2.862319E-01 -9.603212E+01  1.487584E+00  2.141638E+00
      1090   8  1.369466E+02  9.143606E+01  3.044112E+00 -1.126135E+02  1.170200E+00  2.568354E+00
      1091   1 -2.007595E+02 -1.440477E+02 -1.686856E+01  1.342948E+02  3.753764E-01 -2.856358E+00
      1091   2 -1.123689E+02 -7.527720E+01  7.556310E+00  9.894864E+01  1.023395E-01 -1.359510E+00
      1091   3 -1.951743E+02 -1.412820E+02 -1.430280E+01  1.309293E+02  6.136524E+00  3.585611E+00
      1091   4 -1.074833E+02 -7.276902E+01  9.817307E+00  9.571625E+01  5.732799E+00  5.175580E+00
      1091   5 -2.303270E+02 -1.120048E+02 -1.470240E+01  1.249606E+02  1.593135E+00 -4.818509E+00
      1091   6 -1.404710E+02 -4.506597E+01  9.333867E+00  9.011393E+01  1.175119E+00 -3.446759E+00
      1091   7 -2.245636E+02 -1.094690E+02 -1.209435E+01  1.218214E+02  7.438953E+00  1.721989E+00
      1091   8 -1.354137E+02 -4.277232E+01  1.164201E+01  8.709577E+01  6.885415E+00  3.180638E+00
      1092   1 -1.073060E+02 -8.775535E+01 -1.052749E+01  5.382605E+01 -8.943583E-02 -6.324910E-01
      1092   2 -3.778146E+01 -3.477604E+01  5.617102E+00  2.574616E+01 -7.970551E-02  2.500621E-01
      1092   3 -1.027292E+02 -8.390946E+01 -7.967886E+00  5.086080E+01  4.968604E+00  5.305285E+00
      1092   4 -3.379824E+01 -3.120169E+01  7.901279E+00  2.290888E+01  4.877095E+00  6.259014E+00
      1092   5 -1.342319E+02 -6.122132E+01 -9.695332E+00  4.526399E+01  8.392745E-01 -2.839664E+00
      1092   6 -6.350638E+01 -9.659234E+00  6.133670E+00  1.760339E+01  7.099365E-01 -2.054714E+00
      1092   7 -1.295216E+02 -5.763913E+01 -7.118652E+00  4.248317E+01  5.966982E+00  3.178985E+00
      1092   8 -5.939358E+01 -6.332988E+00  8.440449E+00  1.494153E+01  5.732599E+00  4.030410E+00
      1093   1 -2.442919E+01 -3.861597E+01 -6.021465E+00 -6.719139E+00 -9.359306E-01 -4.205233E-01
      1093   2  3.180150E+01  3.588989E+00  4.506984E+00 -2.977043E+01 -7.523795E-01  3.168287E-01
      1093   3 -2.099026E+01 -3.498408E+01 -3.893236E+00 -9.498309E+00  3.582388E+00  5.140187E+00
      1093   4  3.473093E+01  6.968925E+00  6.392167E+00 -3.243471E+01  3.685115E+00  5.932826E+00
      1093   5 -4.915015E+01 -1.573891E+01 -6.063067E+00 -1.457470E+01 -2.829326E-01 -2.836899E+00
      1093   6  8.077013E+00  2.531367E+01  4.188281E+00 -3.727134E+01 -2.361821E-01 -2.185261E+00
      1093   7 -4.559385E+01 -1.236377E+01 -3.921569E+00 -1.719222E+01  4.293623E+00  2.790638E+00
      1093   8  1.112100E+01  2.845096E+01  6.091954E+00 -3.978128E+01  4.256463E+00  3.493855E+00
      1094   1  5.032170E+01  5.177688E+00 -2.935565E+00 -5.355721E+01 -1.761003E+00 -6.785673E-01
      1094   2  9.684232E+01  3.974899E+01  3.559701E+00 -7.301520E+01 -1.665206E+00 -2.037105E-02
      1094   3  5.325317E+01  8.666631E+00 -1.026778E+00 -5.601846E+01  2.350240E+00  4.614471E+00
      1094   4  9.936301E+01  4.304983E+01  5.275110E+00 -7.538981E+01  2.379857E+00  5.315731E+00
      1094   5  2.746637E+01  2.563959E+01 -3.550614E+00 -6.076842E+01 -1.368187E+00 -3.289163E+00
      1094   6  7.482141E+01  5.923156E+01  2.684470E+00 -7.992445E+01 -1.400484E+00 -2.726187E+00
      1094   7  3.051081E+01  2.892419E+01 -1.614582E+00 -6.307966E+01  2.793306E+00  2.060227E+00
      1094   8  7.745267E+01  6.233894E+01  4.431383E+00 -8.215534E+01  2.692296E+00  2.663196E+00
      1095   1  1.185638E+02  4.503826E+01 -1.136307E+00 -9.065908E+01 -2.651336E+00 -8.187516E-01
      1095   2  1.576794E+02  7.392260E+01  2.109455E+00 -1.074729E+02 -2.779741E+00 -6.367157E-02
      1095   3  1.212321E+02  4.811263E+01  5.456995E-01 -9.285629E+01  1.190124E+00  4.338673E+00
      1095   4  1.600281E+02  7.688454E+01  3.648562E+00 -1.096149E+02  1.005649E+00  5.127555E+00
      1095   5  9.729817E+01  6.392080E+01 -2.134957E+00 -9.728557E+01 -2.492889E+00 -3.639074E+00
      1095   6  1.371163E+02  9.194026E+01  8.519679E-01 -1.138407E+02 -2.739456E+00 -3.001829E+00
      1095   7  1.000871E+02  6.686900E+01 -3.992609E-01 -9.933565E+01  1.393819E+00  1.566935E+00
      1095   8  1.395831E+02  9.478320E+01  2.447798E+00 -1.158413E+02  1.089056E+00  2.235267E+00
      1096   1 -1.907344E+02 -1.385382E+02 -1.201351E+01  1.277586E+02 -1.887262E+00 -2.771593E+00
      1096   2 -1.052368E+02 -7.191400E+01  8.142962E+00  9.269460E+01 -1.588418E+00 -9.379320E-01
      1096   3 -1.843266E+02 -1.339290E+02 -8.643285E+00  1.224587E+02  4.610876E+00  4.394938E+00
      1096   4 -9.982783E+01 -6.791462E+01  1.101050E+01  8.766919E+01  4.762307E+00  6.339173E+00
      1096   5 -2.199850E+02 -1.069748E+02 -9.778646E+00  1.188084E+02 -7.171482E-03 -5.363199E+00
      1096   6 -1.330570E+02 -4.217458E+01  9.943450E+00  8.422337E+01  1.107774E-01 -3.602664E+00
      1096   7 -2.133990E+02 -1.028399E+02 -6.432843E+00  1.137125E+02  6.586253E+00  1.911093E+00
      1096   8 -1.274759E+02 -3.862073E+01  1.279577E+01  7.939107E+01  6.551186E+00  3.775489E+00
      1097   1 -1.015193E+02 -8.290508E+01 -1.075783E+01  4.797252E+01 -2.367965E+00 -1.405962E+00
      1097   2 -3.288614E+01 -3.027662E+01  5.406370E+00  2.016374E+01 -1.511336E+00 -5.792834E-02
      1097   3 -9.730767E+01 -7.850842E+01 -8.138419E+00  4.304464E+01  2.670933E+00  4.319043E+00
      1097   4 -2.955716E+01 -2.648892E+01  7.562775E+00  1.549946E+01  3.425449E+00  5.743212E+00
      1097   5 -1.282384E+02 -5.694598E+01 -9.979713E+00  3.972216E+01 -8.577351E-01 -4.163494E+00
      1097   6 -5.840914E+01 -5.701342E+00  5.883845E+00  1.231743E+01 -1.835218E-01 -2.843599E+00
      1097   7 -1.238949E+02 -5.307092E+01 -7.422177E+00  3.495708E+01  4.249442E+00  1.637017E+00
      1097   8 -5.495201E+01 -2.406945E+00  7.987654E+00  7.807930E+00  4.817508E+00  3.028637E+00
      1098   1 -2.027851E+01 -3.393997E+01 -6.256703E+00 -1.210500E+01 -2.429724E+00 -1.199286E+00
      1098   2  3.500654E+01  7.754753E+00  3.831792E+00 -3.492226E+01 -1.596649E+00 -7.669144E-03
      1098   3 -1.720827E+01 -3.014236E+01 -4.185627E+00 -1.644945E+01  2.154365E+00  4.283252E+00
      1098   4  3.735906E+01  1.106218E+01  5.525924E+00 -3.905577E+01  2.904591E+00  5.534934E+00
      1098   5 -4.481555E+01 -1.159892E+01 -6.345479E+00 -1.968581E+01 -1.275089E+00 -4.061823E+00
      1098   6  1.145990E+01  2.896988E+01  3.473281E+00 -4.216083E+01 -6.133678E-01 -2.903755E+00
      1098   7 -4.162189E+01 -8.248455E+00 -4.316578E+00 -2.388329E+01  3.367135E+00  1.484151E+00
      1098   8  1.393273E+01  3.185278E+01  5.132922E+00 -4.615398E+01  3.942692E+00  2.698727E+00
      1099   1  5.353846E+01  9.529488E+00 -3.581513E+00 -5.830772E+01 -2.607575E+00 -1.301917E+00
      1099   2  9.924943E+01  4.366841E+01  2.454385E+00 -7.758717E+01 -1.897775E+00 -2.509897E-01
      1099   3  5.593594E+01  1.295784E+01 -1.847799E+00 -6.210230E+01  1.582126E+00  3.949871E+00
      1099   4  1.010666E+02  4.671544E+01  3.885859E+00 -8.121706E+01  2.223782E+00  5.048210E+00
      1099   5  3.085753E+01  2.955316E+01 -4.221133E+00 -6.526357E+01 -1.776597E+00 -4.276479E+00
      1099   6  7.739734E+01  6.273283E+01  1.559573E+00 -8.425178E+01 -1.226271E+00 -3.271845E+00
      1099   7  3.337387E+01  3.261095E+01 -2.508160E+00 -6.892069E+01  2.463100E+00  1.028825E+00
      1099   8  7.933072E+01  6.542714E+01  2.976572E+00 -8.774996E+01  2.942537E+00  2.077932E+00
      1100   1  1.216025E+02  4.892181E+01 -1.822248E+00 -9.479957E+01 -2.863475E+00 -1.276093E+00
      1100   2  1.605633E+02  7.800469E+01  2.174683E+00 -1.114990E+02 -2.607158E+00 -3.067982E-01
      1100   3  1.241907E+02  5.230973E+01 -6.596542E-02 -9.791260E+01  8.612142E-01  3.594379E+00
      1100   4  1.627215E+02  8.115440E+01  3.717640E+00 -1.145054E+02  1.061903E+00  4.599201E+00
      1100   5  1.005228E+02  6.751846E+01 -2.797270E+00 -1.011745E+02 -2.318945E+00 -4.386518E+00
      1100   6  1.401846E+02  9.575330E+01  9.529940E-01 -1.176250E+02 -2.201473E+00 -3.502581E+00
      1100   7  1.032346E+02  7.066189E+01 -1.024441E+00 -1.041495E+02  1.449528E+00  5.283418E-01
      1100   8  1.424637E+02  9.867016E+01  2.516724E+00 -1.204988E+02  1.509166E+00  1.445277E+00
      1101   1 -2.455043E+02 -1.293978E+02 -2.649926E+01  1.376638E+02 -1.305206E+00 -2.564497E+00
      1101   2 -1.446078E+02 -6.251265E+01  4.749704E+00  1.037183E+02 -1.241854E+00 -2.302334E+00
      1101   3 -2.438726E+02 -1.298512E+02 -2.610647E+01  1.374393E+02  2.836019E+00  3.421149E+00
      1101   4 -1.433321E+02 -6.286943E+01  5.050870E+00  1.034356E+02  2.799515E+00  3.734461E+00
      1101   5 -2.743626E+02 -9.848991E+01 -2.491935E+01  1.217906E+02 -1.573681E+00 -3.670586E+00
      1101   6 -1.720074E+02 -3.334451E+01  6.044948E+00  8.869444E+01 -1.617379E+00 -3.539414E+00
      1101   7 -2.726737E+02 -9.894827E+01 -2.445844E+01  1.218151E+02  2.617236E+00  2.395184E+00
      1101   8 -1.706747E+02 -3.370305E+01  6.417340E+00  8.864746E+01  2.470651E+00  2.572603E+00
      1102   1 -1.301464E+02 -8.688529E+01 -1.234385E+01  5.934767E+01 -1.155503E+00 -2.069723E+00
      1102   2 -5.179616E+01 -3.634911E+01  6.831099E+00  3.243933E+01 -1.119557E+00 -1.899610E+00
      1102   3 -1.290430E+02 -8.669347E+01 -1.194049E+01  5.905773E+01  2.896279E+00  4.131286E+00
      1102   4 -5.096845E+01 -3.608012E+01  7.160750E+00  3.209979E+01  2.846448E+00  4.343809E+00
      1102   5 -1.561852E+02 -6.117673E+01 -1.182649E+01  4.518340E+01 -1.646908E+00 -3.454535E+00
      1102   6 -7.666109E+01 -1.200102E+01  7.086662E+00  1.896878E+01 -1.712189E+00 -3.415260E+00
      1102   7 -1.550315E+02 -6.098159E+01 -1.134961E+01  4.510743E+01  2.450526E+00  2.820258E+00
      1102   8 -7.578262E+01 -1.172593E+01  7.493043E+00  1.883273E+01  2.296857E+00  2.897716E+00
      1103   1 -3.137925E+01 -4.709784E+01 -4.408849E+00  1.124705E+00 -1.108614E+00 -1.814302E+00
      1103   2  3.147666E+01 -7.451316E+00  7.200017E+00 -2.094622E+01 -1.080424E+00 -1.686465E+00
      1103   3 -3.072412E+01 -4.653653E+01 -4.053139E+00  7.525759E-01  2.728807E+00  4.339424E+00
      1103   4  3.190698E+01 -6.827854E+00  7.492964E+00 -2.136026E+01  2.684446E+00  4.501352E+00
      1103   5 -5.517569E+01 -2.485921E+01 -4.615607E+00 -1.168759E+01 -1.799043E+00 -3.464125E+00
      1103   6  8.644158E+00  1.367297E+01  6.745136E+00 -3.318008E+01 -1.869497E+00 -3.466980E+00
      1103   7 -5.447326E+01 -2.428983E+01 -4.183047E+00 -1.187004E+01  2.079058E+00  2.755384E+00
      1103   8  9.122478E+00  1.430699E+01  7.118096E+00 -3.341301E+01  1.933831E+00  2.783027E+00
      1104   1  5.503545E+01 -9.746083E+00 -1.615886E-01 -4.358580E+01 -1.108129E+00 -1.672023E+00
      1104   2  1.068739E+02  2.239950E+01  6.633672E+00 -6.220238E+01 -1.084013E+00 -1.552527E+00
      1104   3  5.530780E+01 -8.994446E+00  1.133772E-01 -4.404101E+01  2.459899E+00  4.291612E+00
      1104   4  1.069565E+02  2.320321E+01  6.853878E+00 -6.269357E+01  2.423157E+00  4.437741E+00
      1104   5  3.305998E+01  1.014172E+01 -8.769985E-01 -5.530392E+01 -1.982536E+00 -3.577269E+00
      1104   6  8.570368E+01  4.133970E+01  5.680225E+00 -7.342983E+01 -2.056075E+00 -3.589079E+00
      1104   7  3.337888E+01  1.090570E+01 -5.227973E-01 -5.558666E+01  1.620913E+00  2.443544E+00
      1104   8  8.583365E+01  4.215795E+01  5.982676E+00 -7.375577E+01  1.484637E+00  2.455333E+00
      1105   1  1.319101E+02  2.540570E+01  1.936196E+00 -7.892747E+01 -1.141860E+00 -1.577086E+00
      1105   2  1.757047E+02  5.225556E+01  5.710019E+00 -9.499307E+01 -1.136893E+00 -1.467516E+00
      1105   3  1.319098E+02  2.631639E+01  2.155446E+00 -7.943801E+01  2.129568E+00  4.105680E+00
      1105   4  1.755438E+02  5.321427E+01  5.882836E+00 -9.553615E+01  2.083985E+00  4.235230E+00
      1105   5  1.114401E+02  4.368402E+01  8.540658E-01 -8.974289E+01 -2.190099E+00 -3.732447E+00
      1105   6  1.559181E+02  6.970454E+01  4.399946E+00 -1.053863E+02 -2.281597E+00 -3.756266E+00
      1105   7  1.114858E+02  4.461262E+01  1.154211E+00 -9.009393E+01  1.111457E+00  1.998718E+00
      1105   8  1.558040E+02  7.068302E+01  4.656448E+00 -1.057761E+02  9.678322E-01  1.992334E+00
      1106   1 -2.419341E+02 -1.297074E+02 -2.507758E+01  1.369726E+02 -3.437783E-01 -2.558216E+00
      1106   2 -1.420022E+02 -6.299315E+01  5.274378E+00  1.029409E+02 -4.115565E-01 -1.936823E+00
      1106   3 -2.388512E+02 -1.294374E+02 -2.402577E+01  1.359180E+02  4.004812E+00  3.526897E+00
      1106   4 -1.393877E+02 -6.271222E+01  6.174782E+00  1.018682E+02  3.833045E+00  4.203307E+00
      1106   5 -2.706739E+02 -9.881478E+01 -2.335831E+01  1.215346E+02 -1.125395E-01 -3.897404E+00
      1106   6 -1.692891E+02 -3.383878E+01  6.702976E+00  8.832903E+01 -2.962745E-01 -3.413761E+00
      1106   7 -2.675071E+02 -9.859443E+01 -2.224225E+01  1.207396E+02  4.289688E+00  2.268611E+00
      1106   8 -1.665922E+02 -3.360186E+01  7.671115E+00  8.750200E+01  3.998767E+00  2.802195E+00
      1107   1 -1.279838E+02 -8.648543E+01 -1.202347E+01  5.859507E+01 -2.911071E-01 -1.284119E+00
      1107   2 -5.033578E+01 -3.603318E+01  6.557668E+00  3.161261E+01 -3.755457E-01 -8.887146E-01
      1107   3 -1.254372E+02 -8.534822E+01 -1.089715E+01  5.761759E+01  3.922935E+00  4.956329E+00
      1107   4 -4.815364E+01 -3.488831E+01  7.562526E+00  3.061793E+01  3.750017E+00  5.396958E+00
      1107   5 -1.539262E+02 -6.078504E+01 -1.137689E+01  4.480445E+01 -2.955454E-01 -2.909249E+00
      1107   6 -7.510759E+01 -1.169135E+01  6.939539E+00  1.849740E+01 -4.877482E-01 -2.650172E+00
      1107   7 -1.513084E+02 -5.968685E+01 -1.018246E+01  4.404916E+01  3.967452E+00  3.405112E+00
      1107   8 -7.285469E+01 -1.058056E+01  8.016109E+00  1.771399E+01  3.684042E+00  3.705086E+00
      1108   1 -3.030178E+01 -4.632459E+01 -4.826053E+00  2.595007E-01 -5.834183E-01 -8.927215E-01
      1108   2  3.209474E+01 -6.634810E+00  6.559301E+00 -2.187403E+01 -6.530939E-01 -6.034542E-01
      1108   3 -2.828712E+01 -4.478698E+01 -3.763390E+00 -7.184170E-01  3.358952E+00  5.220574E+00
      1108   4  3.381045E+01 -5.094023E+00  7.519213E+00 -2.286641E+01  3.215324E+00  5.545760E+00
      1108   5 -5.401411E+01 -2.409108E+01 -4.911790E+00 -1.222165E+01 -7.989584E-01 -2.793070E+00
      1108   6  9.345238E+00  1.448729E+01  6.226270E+00 -3.379170E+01 -9.727410E-01 -2.638413E+00
      1108   7 -5.193467E+01 -2.258617E+01 -3.779012E+00 -1.300288E+01  3.186617E+00  3.385186E+00
      1108   8  1.112564E+01  1.599968E+01  7.259771E+00 -3.459626E+01  2.936588E+00  3.572133E+00
      1109   1  5.534801E+01 -8.745934E+00 -8.719922E-01 -4.457933E+01 -1.009676E+00 -9.058602E-01
      1109   2  1.068498E+02  2.348668E+01  5.850710E+00 -6.324984E+01 -1.067315E+00 -6.240700E-01
      1109   3  5.684595E+01 -7.154477E+00  2.862357E-02 -4.559761E+01  2.638426E+00  4.989026E+00
      1109   4  1.080955E+02  2.508087E+01  6.663083E+00 -6.428109E+01  2.519068E+00  5.298736E+00
      1109   5  3.345172E+01  1.114252E+01 -1.469583E+00 -5.599622E+01 -1.421122E+00 -3.072511E+00
      1109   6  8.575853E+01  4.243054E+01  5.017231E+00 -7.418868E+01 -1.581189E+00 -2.925527E+00
      1109   7  3.501263E+01  1.271001E+01 -4.957730E-01 -5.683531E+01  2.264556E+00  2.878253E+00
      1109   8  8.706723E+01  4.400446E+01  5.906035E+00 -7.504823E+01  2.040840E+00  3.050105E+00
      1110   1  1.317055E+02  2.661401E+01  1.082825E+00 -8.000180E+01 -1.514589E+00 -1.061718E+00
      1110   2  1.751274E+02  5.345725E+01  4.589092E+00 -9.611728E+01 -1.598284E+00 -7.670858E-01
      1110   3  1.328282E+02  2.820037E+01  1.847182E+00 -8.103430E+01  1.863436E+00  4.608364E+00
      1110   4  1.760386E+02  5.505373E+01  5.280221E+00 -9.716456E+01  1.728024E+00  4.924160E+00
      1110   5  1.113116E+02  4.490380E+01  1.166673E-01 -9.053835E+01 -2.111233E+00 -3.491266E+00
      1110   6  1.554156E+02  7.091896E+01  3.394451E+00 -1.062425E+02 -2.294849E+00 -3.335442E+00
      1110   7  1.124979E+02  4.648212E+01  9.598613E-01 -9.140432E+01  1.299368E+00  2.226330E+00
      1110   8  1.563905E+02  7.251027E+01  4.167316E+00 -1.071298E+02  1.062409E+00  2.400719E+00
      1111   1 -2.355667E+02 -1.284726E+02 -2.186517E+01  1.347996E+02  3.041321E-01 -2.601722E+00
      1111   2 -1.372276E+02 -6.251161E+01  6.483789E+00  1.007536E+02  1.305065E-01 -1.578512E+00
      1111   3 -2.310088E+02 -1.274329E+02 -2.013319E+01  1.327941E+02  5.017989E+00  3.817321E+00
      1111   4 -1.332652E+02 -6.156295E+01  7.994550E+00  9.877684E+01  4.732448E+00  4.902032E+00
      1111   5 -2.641357E+02 -9.767069E+01 -2.000105E+01  1.198148E+02  1.060047E+00 -4.217490E+00
      1111   6 -1.643573E+02 -3.344752E+01  8.039209E+00  8.657065E+01  7.594930E-01 -3.337210E+00
      1111   7 -2.594652E+02 -9.673436E+01 -1.820890E+01  1.180787E+02  5.833542E+00  2.286219E+00
      1111   8 -1.602852E+02 -3.259358E+01  9.614244E+00  8.484887E+01  5.417585E+00  3.222577E+00
      1112   1 -1.236893E+02 -8.477039E+01 -1.129819E+01  5.661271E+01  2.142059E-01 -6.624513E-01
      1112   2 -4.706656E+01 -3.469277E+01  6.222486E+00  2.961553E+01  6.593947E-02 -4.773248E-02
      1112   3 -1.196956E+02 -8.255870E+01 -9.409499E+00  5.484141E+01  4.648696E+00  5.705849E+00
      1112   4 -4.354439E+01 -3.256393E+01  7.929931E+00  2.786841E+01  4.407768E+00  6.369845E+00
      1112   5 -1.495026E+02 -5.916099E+01 -1.054070E+01  4.320955E+01  7.166950E-01 -2.568659E+00
      1112   6 -7.171651E+01 -1.043840E+01  6.707532E+00  1.686876E+01  4.510105E-01 -2.090782E+00
      1112   7 -1.454178E+02 -5.704805E+01 -8.594015E+00  4.166742E+01  5.204147E+00  3.874796E+00
      1112   8 -6.810465E+01 -8.400477E+00  8.477237E+00  1.533961E+01  4.842900E+00  4.397479E+00
      1113   1 -2.750162E+01 -4.444577E+01 -5.418964E+00 -1.698864E+00 -4.193640E-01 -3.182604E-01
      1113   2  3.428391E+01 -4.838882E+00  5.632708E+00 -2.384373E+01 -4.997470E-01  1.368057E-01
      1113   3 -2.422417E+01 -4.190011E+01 -3.669458E+00 -3.402452E+00  3.631065E+00  5.762173E+00
      1113   4  3.716695E+01 -2.372610E+00  7.225967E+00 -2.552414E+01  3.474949E+00  6.255562E+00
      1113   5 -5.110668E+01 -2.230255E+01 -5.413100E+00 -1.383706E+01 -1.473140E-01 -2.502280E+00
      1113   6  1.163875E+01  1.619892E+01  5.391627E+00 -3.543393E+01 -3.417720E-01 -2.178450E+00
      1113   7 -4.774850E+01 -1.985214E+01 -3.607077E+00 -1.533791E+01  3.948707E+00  3.642257E+00
      1113   8  1.460177E+01  1.857713E+01  7.045523E+00 -3.692076E+01  3.676119E+00  4.000761E+00
      1114   1  5.714713E+01 -6.891732E+00 -1.910878E+00 -4.658051E+01 -1.175786E+00 -5.455210E-01
      1114   2  1.082455E+02  2.538353E+01  4.787498E+00 -6.526253E+01 -1.246971E+00 -9.479225E-02
      1114   3  5.977249E+01 -4.460394E+00 -4.146309E-01 -4.825025E+01  2.532554E+00  5.253953E+00
      1114   4  1.105409E+02  2.775190E+01  6.152487E+00 -6.691519E+01  2.398764E+00  5.734131E+00
      1114   5  3.535098E+01  1.292158E+01 -2.419678E+00 -5.768478E+01 -1.119524E+00 -2.995621E+00
      1114   6  8.725291E+01  4.425818E+01  4.045655E+00 -7.590182E+01 -1.301478E+00 -2.677669E+00
      1114   7  3.805484E+01  1.527693E+01 -8.615212E-01 -5.916933E+01  2.628204E+00  2.858077E+00
      1114   8  8.962619E+01  4.655640E+01  5.476210E+00 -7.737703E+01  2.381647E+00  3.202430E+00
      1115   1  1.328909E+02  2.845555E+01 -8.656964E-02 -8.199672E+01 -1.993040E+00 -8.359032E-01
      1115   2  1.758449E+02  5.521893E+01  3.092619E+00 -9.813023E+01 -2.138156E+00 -3.475676E-01
      1115   3  1.350892E+02  3.071982E+01  1.208541E+00 -8.359637E+01  1.490653E+00  4.824350E+00
      1115   4  1.777752E+02  5.744839E+01  4.283964E+00 -9.972386E+01  1.292402E+00  5.335339E+00
      1115   5  1.125960E+02  4.670185E+01 -9.580215E-01 -9.224252E+01 -2.137977E+00 -3.552265E+00
      1115   6  1.562290E+02  7.263965E+01  1.990848E+00 -1.079761E+02 -2.388004E+00 -3.205627E+00
      1115   7  1.148747E+02  4.892457E+01  4.114312E-01 -9.366942E+01  1.380789E+00  2.154730E+00
      1115   8  1.582392E+02  7.483177E+01  3.259643E+00 -1.094037E+02  1.075933E+00  2.521366E+00
      1116   1 -2.264314E+02 -1.256584E+02 -1.713630E+01  1.309226E+02  2.881233E-01 -2.601116E+00
      1116   2 -1.304717E+02 -6.119486E+01  7.779235E+00  9.694696E+01  1.372887E-02 -1.174404E+00
      1116   3 -2.201318E+02 -1.234901E+02 -1.453675E+01  1.278100E+02  5.576769E+00  4.455043E+00
      1116   4 -1.249150E+02 -5.924313E+01  1.007382E+01  9.391980E+01  5.177706E+00  5.953177E+00
      1116   5 -2.547775E+02 -9.504353E+01 -1.512944E+01  1.164074E+02  1.628641E+00 -4.579614E+00
      1116   6 -1.574017E+02 -3.231909E+01  9.443611E+00  8.320858E+01  1.215138E+00 -3.299901E+00
      1116   7 -2.483366E+02 -9.304806E+01 -1.247597E+01  1.135726E+02  6.985769E+00  2.568835E+00
      1116   8 -1.517077E+02 -3.052748E+01  1.179733E+01  8.044429E+01  6.443671E+00  3.913988E+00
      1117   1 -1.175913E+02 -8.181161E+01 -1.074066E+01  5.313912E+01 -1.682224E-01 -4.833589E-01
      1117   2 -4.215267E+01 -3.224015E+01  5.715412E+00  2.620890E+01 -1.675352E-01  3.819857E-01
      1117   3 -1.123515E+02 -7.848966E+01 -8.139505E+00  5.025627E+01  4.471683E+00  5.979480E+00
      1117   4 -3.755109E+01 -2.915524E+01  8.038556E+00  2.341907E+01  4.375238E+00  6.899129E+00
      1117   5 -1.432495E+02 -5.642383E+01 -9.913322E+00  4.013506E+01  8.916128E-01 -2.754044E+00
      1117   6 -6.665602E+01 -8.197518E+00  6.264729E+00  1.384171E+01  7.543072E-01 -2.008696E+00
      1117   7 -1.379013E+02 -5.331425E+01 -7.281529E+00  3.748702E+01  5.587851E+00  3.784391E+00
      1117   8 -6.194824E+01 -5.311441E+00  8.624289E+00  1.127518E+01  5.350285E+00  4.579499E+00
      1118   1 -2.324344E+01 -4.151228E+01 -6.194601E+00 -5.044085E+00 -9.432906E-01 -3.863645E-01
      1118   2  3.779260E+01 -2.104658E+00  4.530984E+00 -2.712561E+01 -7.782319E-01  3.607327E-01
      1118   3 -1.920648E+01 -3.835530E+01 -4.028742E+00 -7.828477E+00  3.196964E+00  5.631300E+00
      1118   4  4.128008E+01  8.299255E-01  6.451103E+00 -2.982316E+01  3.284147E+00  6.420099E+00
      1118   5 -4.672028E+01 -1.959364E+01 -6.142227E+00 -1.682883E+01 -1.554418E-01 -2.910059E+00
      1118   6  1.527211E+01  1.872092E+01  4.339465E+00 -3.837832E+01 -1.279110E-01 -2.271444E+00
      1118   7 -4.258631E+01 -1.664686E+01 -3.949405E+00 -1.940449E+01  4.031818E+00  3.169735E+00
      1118   8  1.885504E+01  2.145761E+01  6.291976E+00 -4.087653E+01  3.978911E+00  3.846448E+00
      1119   1  6.030710E+01 -4.118357E+00 -3.081108E+00 -4.978071E+01 -1.691757E+00 -7.478861E-01
      1119   2  1.108644E+02  2.808190E+01  3.532352E+00 -6.841657E+01 -1.608190E+00 -8.988588E-02
      1119   3  6.374063E+01 -1.010725E+00 -1.134692E+00 -5.229479E+01  2.070713E+00  4.950763E+00
      1119   4  1.138568E+02  3.102492E+01  5.283727E+00 -7.086806E+01  2.090439E+00  5.640515E+00
      1119   5  3.863153E+01  1.551099E+01 -3.538368E+00 -6.056234E+01 -1.161637E+00 -3.507181E+00
      1119   6  8.999000E+01  4.678293E+01  2.846054E+00 -7.874673E+01 -1.205541E+00 -2.966492E+00
      1119   7  4.215756E+01  1.845563E+01 -1.552356E+00 -6.288630E+01  2.641404E+00  2.243614E+00
      1119   8  9.307376E+01  4.957248E+01  4.641566E+00 -8.101609E+01  2.531551E+00  2.813054E+00
      1120   1  1.354819E+02  3.103275E+01 -1.270520E+00 -8.500906E+01 -2.507478E+00 -1.005419E+00
      1120   2  1.780814E+02  5.784947E+01  2.030355E+00 -1.011223E+02 -2.635833E+00 -2.834242E-01
      1120   3  1.385537E+02  3.382528E+01  4.499751E-01 -8.727162E+01  1.003511E+00  4.522572E+00
      1120   4  1.808150E+02  6.054776E+01  3.608201E+00 -1.033518E+02  8.212588E-01  5.268513E+00
      1120   5  1.153099E+02  4.916715E+01 -2.068926E+00 -9.495352E+01 -2.206178E+00 -4.012645E+00
      1120   6  1.585860E+02  7.516505E+01  1.004335E+00 -1.106786E+02 -2.448572E+00 -3.429445E+00
      1120   7  1.184784E+02  5.186999E+01 -2.845294E-01 -9.703765E+01  1.341409E+00  1.560011E+00
      1120   8  1.614151E+02  7.777965E+01  2.649491E+00 -1.127366E+02  1.043362E+00  2.164504E+00
      1121   1 -2.149888E+02 -1.213083E+02 -1.217960E+01  1.248021E+02 -1.881936E+00 -2.796448E+00
      1121   2 -1.220529E+02 -5.895367E+01  8.370111E+00  9.102761E+01 -1.624639E+00 -9.636776E-01
      1121   3 -2.074154E+02 -1.176782E+02 -8.753724E+00  1.196922E+02  4.110804E+00  5.055919E+00
      1121   4 -1.155631E+02 -5.587313E+01  1.128655E+01  8.614918E+01  4.226474E+00  6.975299E+00
      1121   5 -2.430751E+02 -9.107001E+01 -1.007965E+01  1.107696E+02  1.929375E-01 -5.356294E+00
      1121   6 -1.487519E+02 -3.044932E+01  1.008756E+01  7.774604E+01  2.677607E-01 -3.621782E+00
      1121   7 -2.353425E+02 -8.784721E+01 -6.657559E+00  1.059413E+02  6.263223E+00  2.597075E+00
      1121   8 -1.421076E+02 -2.775040E+01  1.300941E+01  7.313410E+01  6.191795E+00  4.411715E+00
      1122   1 -1.105421E+02 -7.805934E+01 -1.098946E+01  4.740977E+01 -2.330131E+00 -1.524732E+00
      1122   2 -3.608386E+01 -2.876941E+01  5.485834E+00  2.069158E+01 -1.543349E+00 -9.047932E-02
      1122   3 -1.052484E+02 -7.459961E+01 -8.325357E+00  4.251206E+01  2.320577E+00  4.714308E+00
      1122   4 -3.175682E+01 -2.586546E+01  7.678130E+00  1.602658E+01  3.008054E+00  6.208228E+00
      1122   5 -1.360274E+02 -5.315064E+01 -1.018212E+01  3.481464E+01 -6.273645E-01 -4.302367E+00
      1122   6 -6.041736E+01 -5.176916E+00  6.028900E+00  8.713277E+00 -3.156469E-02 -2.923134E+00
      1122   7 -1.306099E+02 -5.015117E+01 -7.558287E+00  3.015728E+01  4.078975E+00  2.007081E+00
      1122   8 -5.596950E+01 -2.707638E+00  8.190013E+00  4.276861E+00  4.572055E+00  3.441670E+00
      1123   1 -1.797760E+01 -3.781323E+01 -6.449191E+00 -1.044893E+01 -2.366668E+00 -1.328779E+00
      1123   2  4.203176E+01  1.138213E+00  3.825605E+00 -3.234411E+01 -1.600765E+00 -5.092925E-02
      1123   3 -1.399406E+01 -3.481372E+01 -4.341691E+00 -1.482700E+01  1.857860E+00  4.609864E+00
      1123   4  4.523080E+01  3.690456E+00  5.549460E+00 -3.653675E+01  2.542922E+00  5.934308E+00
      1123   5 -4.129916E+01 -1.634501E+01 -6.412786E+00 -2.186986E+01 -1.030044E+00 -4.262015E+00
      1123   6  1.966216E+01  2.153634E+01  3.625041E+00 -4.324941E+01 -4.432767E-01 -3.043935E+00
      1123   7 -3.720056E+01 -1.373874E+01 -4.327884E+00 -2.603340E+01  3.241759E+00  1.735450E+00
      1123   8  2.297397E+01  2.371598E+01  5.333962E+00 -4.723723E+01  3.744866E+00  2.996624E+00
      1124   1  6.444959E+01 -5.697974E-01 -3.755775E+00 -5.463090E+01 -2.509686E+00 -1.452053E+00
      1124   2  1.141344E+02  3.124043E+01  2.388701E+00 -7.312921E+01 -1.857676E+00 -3.282462E-01
      1124   3  6.761024E+01  2.195013E+00 -1.989626E+00 -5.850170E+01  1.345550E+00  4.206376E+00
      1124   4  1.166629E+02  3.365850E+01  3.847830E+00 -7.685747E+01  1.930953E+00  5.366338E+00
      1124   5  4.291866E+01  1.869719E+01 -4.210067E+00 -6.508114E+01 -1.505176E+00 -4.544017E+00
      1124   6  9.340086E+01  4.959650E+01  1.710308E+00 -8.314190E+01 -1.018703E+00 -3.491854E+00
      1124   7  4.618843E+01  2.113946E+01 -2.447044E+00 -6.875648E+01  2.390647E+00  1.163702E+00
      1124   8  9.603650E+01  5.170818E+01  3.172639E+00 -8.668288E+01  2.808166E+00  2.249115E+00
      1125   1  1.392459E+02  3.431704E+01 -1.985511E+00 -8.926939E+01 -2.731897E+00 -1.460816E+00
      1125   2  1.816576E+02  6.137088E+01  2.076706E+00 -1.053061E+02 -2.503385E+00 -4.780705E-01
      1125   3  1.424212E+02  3.723123E+01 -1.919384E-01 -9.246666E+01  6.934843E-01  3.763007E+00
      1125   4  1.843701E+02  6.407206E+01  3.655026E+00 -1.084177E+02  8.678097E-01  4.771794E+00
      1125   5  1.192224E+02  5.223145E+01 -2.738514E+00 -9.890345E+01 -2.018440E+00 -4.731597E+00
      1125   6  1.623104E+02  7.848043E+01  1.106951E+00 -1.145641E+02 -1.929216E+00 -3.857136E+00
      1125   7  1.225049E+02  5.494167E+01 -9.149685E-01 -1.019188E+02  1.442674E+00  5.329458E-01
      1125   8  1.651282E+02  8.098802E+01  2.719695E+00 -1.175008E+02  1.475840E+00  1.430943E+00
      1126   1 -2.717508E+02 -1.097388E+02 -2.688707E+01  1.288088E+02 -1.136846E+00 -2.639851E+00
      1126   2 -1.636221E+02 -4.715771E+01  4.901954E+00  9.760390E+01 -1.079153E+00 -2.368540E+00
      1126   3 -2.700302E+02 -1.103038E+02 -2.650696E+01  1.288044E+02  2.499872E+00  3.798366E+00
      1126   4 -1.622576E+02 -4.761570E+01  5.194254E+00  9.748953E+01  2.466124E+00  4.103779E+00
      1126   5 -2.981849E+02 -8.153577E+01 -2.551969E+01  1.078546E+02 -1.360010E+00 -3.856547E+00
      1126   6 -1.887159E+02 -2.053822E+01  6.023064E+00  7.777109E+01 -1.403805E+00 -3.739708E+00
      1126   7 -2.964571E+02 -8.204746E+01 -2.506450E+01  1.081176E+02  2.313629E+00  2.653493E+00
      1126   8 -1.873413E+02 -2.094252E+01  6.393969E+00  7.790984E+01  2.176070E+00  2.799885E+00
      1127   1 -1.414844E+02 -7.954828E+01 -1.254508E+01  5.655761E+01 -9.997312E-01 -2.121599E+00
      1127   2 -5.750183E+01 -3.242169E+01  6.949364E+00  3.186175E+01 -9.652664E-01 -1.944133E+00
      1127   3 -1.403043E+02 -7.943800E+01 -1.214785E+01  5.635828E+01  2.551923E+00  4.511655E+00
      1127   4 -5.659717E+01 -3.222685E+01  7.275896E+00  3.157264E+01  2.507953E+00  4.716635E+00
      1127   5 -1.652357E+02 -5.607011E+01 -1.209159E+01  3.804339E+01 -1.434250E+00 -3.666636E+00
      1127   6 -8.017719E+01 -1.018065E+01  7.176981E+00  1.425426E+01 -1.495515E+00 -3.642561E+00
      1127   7 -1.640481E+02 -5.590722E+01 -1.161373E+01  3.807324E+01  2.151110E+00  3.032351E+00
      1127   8 -7.926210E+01 -9.932441E+00  7.587866E+00  1.418308E+01  2.009409E+00  3.080014E+00
      1128   1 -3.170647E+01 -4.845763E+01 -4.515699E+00  3.060851E+00 -9.521278E-01 -1.852835E+00
      1128   2  3.571714E+01 -1.161481E+01  7.279853E+00 -1.717850E+01 -9.240879E-01 -1.717802E+00
      1128   3 -3.097896E+01 -4.796095E+01 -4.161046E+00  2.688721E+00  2.406256E+00  4.700572E+00
      1128   4  3.622037E+01 -1.105003E+01  7.574425E+00 -1.762518E+01  2.367915E+00  4.856887E+00
      1128   5 -5.336034E+01 -2.813095E+01 -4.685368E+00 -1.359790E+01 -1.574747E+00 -3.707693E+00
      1128   6  1.494596E+01  7.699326E+00  6.896303E+00 -3.308522E+01 -1.639908E+00 -3.725527E+00
      1128   7 -5.262321E+01 -2.758255E+01 -4.246369E+00 -1.376710E+01  1.813509E+00  2.903979E+00
      1128   8  1.546158E+01  8.316680E+00  7.278872E+00 -3.333813E+01  1.680259E+00  2.904080E+00
      1129   1  6.312538E+01 -1.741855E+01 -2.255946E-01 -3.785776E+01 -9.452565E-01 -1.701997E+00
      1129   2  1.187951E+02  1.235084E+01  6.676560E+00 -5.492638E+01 -9.208526E-01 -1.575624E+00
      1129   3  6.346870E+01 -1.672063E+01  5.253429E-02 -3.837811E+01  2.172349E+00  4.623740E+00
      1129   4  1.189495E+02  1.310579E+01  6.902351E+00 -5.551015E+01  2.140940E+00  4.765823E+00
      1129   5  4.314895E+01  7.740938E-01 -8.338419E-01 -5.306813E+01 -1.741453E+00 -3.854074E+00
      1129   6  9.955612E+01  2.968272E+01  5.862820E+00 -6.949984E+01 -1.809227E+00 -3.881025E+00
      1129   7  4.350475E+01  1.524063E+00 -4.686932E-01 -5.340414E+01  1.402036E+00  2.522003E+00
      1129   8  9.972545E+01  3.049055E+01  6.179113E+00 -6.990697E+01  1.276994E+00  2.507921E+00
      1130   1  1.466380E+02  1.303183E+01  1.889155E+00 -7.008065E+01 -9.690978E-01 -1.602719E+00
      1130   2  1.937363E+02  3.781903E+01  5.724431E+00 -8.481526E+01 -9.619034E-01 -1.488481E+00
      1130   3  1.467054E+02  1.390114E+01  2.115647E+00 -7.070641E+01  1.884263E+00  4.402257E+00
      1130   4  1.936442E+02  3.874035E+01  5.906634E+00 -8.549717E+01  1.844949E+00  4.527215E+00
      1130   5  1.280300E+02  2.976461E+01  9.636994E-01 -8.413434E+01 -1.928964E+00 -4.044687E+00
      1130   6  1.757549E+02  5.379871E+01  4.602023E+00 -9.832032E+01 -2.012554E+00 -4.085727E+00
      1130   7  1.281120E+02  3.068859E+01  1.279047E+00 -8.458998E+01  9.462954E-01  2.002594E+00
      1130   8  1.756796E+02  5.477545E+01  4.876335E+00 -9.883876E+01  8.149703E-01  1.969870E+00
      1131   1 -2.679525E+02 -1.102711E+02 -2.544367E+01  1.285205E+02 -3.183054E-01 -2.471301E+00
      1131   2 -1.608001E+02 -4.784918E+01  5.435004E+00  9.713884E+01 -3.833951E-01 -1.867254E+00
      1131   3 -2.646252E+02 -1.102408E+02 -2.439518E+01  1.277444E+02  3.529722E+00  4.083645E+00
      1131   4 -1.579493E+02 -4.779146E+01  6.335290E+00  9.629062E+01  3.369000E+00  4.725120E+00
      1131   5 -2.943542E+02 -8.198074E+01 -2.392284E+01  1.080357E+02 -2.153042E-02 -3.890319E+00
      1131   6 -1.858616E+02 -2.114542E+01  6.704983E+00  7.775030E+01 -1.957347E-01 -3.446636E+00
      1131   7 -2.909936E+02 -8.193924E+01 -2.280240E+01  1.075438E+02  3.867152E+00  2.737421E+00
      1131   8 -1.829760E+02 -2.107372E+01  7.681130E+00  7.717107E+01  3.594844E+00  3.213799E+00
      1132   1 -1.391344E+02 -7.932447E+01 -1.222319E+01  5.597838E+01 -2.783398E-01 -1.203592E+00
      1132   2 -5.586239E+01 -3.227349E+01  6.667595E+00  3.113816E+01 -3.549659E-01 -8.233813E-01
      1132   3 -1.363707E+02 -7.837347E+01 -1.109108E+01  5.513594E+01  3.444462E+00  5.481303E+00
      1132   4 -5.346950E+01 -3.130218E+01  7.680904E+00  3.023658E+01  3.286544E+00  5.891521E+00
      1132   5 -1.628625E+02 -5.576697E+01 -1.162513E+01  3.786628E+01 -2.042251E-01 -2.957147E+00
      1132   6 -7.851355E+01 -9.954834E+00  7.037699E+00  1.391308E+01 -3.821028E-01 -2.735029E+00
      1132   7 -1.600708E+02 -5.480310E+01 -1.041694E+01  3.726697E+01  3.555530E+00  3.793929E+00
      1132   8 -7.609073E+01 -8.968036E+00  8.131115E+00  1.324277E+01  3.294253E+00  4.042016E+00
      1133   1 -3.046309E+01 -4.783643E+01 -4.945784E+00  2.209479E+00 -5.367853E-01 -8.503527E-01
      1133   2  3.649620E+01 -1.094213E+01  6.622272E+00 -1.814949E+01 -5.988187E-01 -5.719990E-01
      1133   3 -2.824656E+01 -4.645507E+01 -3.871536E+00  1.268920E+00  2.941224E+00  5.668664E+00
      1133   4  3.840819E+01 -9.547425E+00  7.595907E+00 -1.913847E+01  2.811167E+00  5.970007E+00
      1133   5 -5.209715E+01 -2.743733E+01 -4.978648E+00 -1.409317E+01 -6.610977E-01 -2.922557E+00
      1133   6  1.574711E+01  8.444306E+00  6.376717E+00 -3.371618E+01 -8.210735E-01 -2.800347E+00
      1133   7 -4.985377E+01 -2.604266E+01 -3.825983E+00 -1.481830E+01  2.849422E+00  3.654315E+00
      1133   8  1.768797E+01  9.854967E+00  7.432727E+00 -3.449948E+01  2.619642E+00  3.796117E+00
      1134   1  6.359161E+01 -1.655436E+01 -9.553573E-01 -3.895053E+01 -9.112810E-01 -9.135178E-01
      1134   2  1.189217E+02  1.330951E+01  5.872603E+00 -5.612105E+01 -9.626652E-01 -6.407425E-01
      1134   3  6.527897E+01 -1.510013E+01 -3.981641E-02 -3.999725E+01  2.302675E+00  5.347001E+00
      1134   4  1.203524E+02  1.477498E+01  6.701862E+00 -5.720934E+01  2.194413E+00  5.636710E+00
      1134   5  4.363596E+01  1.709235E+00 -1.430416E+00 -5.383732E+01 -1.219210E+00 -3.292288E+00
      1134   6  9.970597E+01  3.071272E+01  5.194408E+00 -7.038445E+01 -1.366902E+00 -3.175788E+00
      1134   7  4.535204E+01  3.181473E+00 -4.331580E-01 -5.468806E+01  2.022938E+00  3.017653E+00
      1134   8  1.011673E+02  3.219851E+01  6.109087E+00 -7.128498E+01  1.816862E+00  3.148212E+00
      1135   1  1.465720E+02  1.412512E+01  1.012293E+00 -7.134021E+01 -1.356060E+00 -1.128972E+00
      1135   2  1.932939E+02  3.890957E+01  4.574176E+00 -8.616603E+01 -1.431647E+00 -8.472653E-01
      1135   3  1.478679E+02  1.559830E+01  1.795208E+00 -7.244915E+01  1.615497E+00  4.869989E+00
      1135   4  1.943757E+02  4.039968E+01  5.285801E+00 -8.731450E+01  1.492142E+00  5.163472E+00
      1135   5  1.279857E+02  3.093402E+01  2.175013E-01 -8.509521E+01 -1.836816E+00 -3.808706E+00
      1135   6  1.753356E+02  5.496458E+01  3.582439E+00 -9.938406E+01 -2.005767E+00 -3.687060E+00
      1135   7  1.293133E+02  3.243780E+01  1.087774E+00 -8.602308E+01  1.159153E+00  2.231972E+00
      1135   8  1.764507E+02  5.648697E+01  4.384776E+00 -1.003585E+02  9.411587E-01  2.362927E+00
      1136   1 -2.610694E+02 -1.094791E+02 -2.217215E+01  1.268508E+02  2.195279E-01 -2.395144E+00
      1136   2 -1.555454E+02 -4.779686E+01  6.667668E+00  9.536049E+01  5.385110E-02 -1.413712E+00
      1136   3 -2.560859E+02 -1.088263E+02 -2.043232E+01  1.251806E+02  4.419956E+00  4.528287E+00
      1136   4 -1.511757E+02 -4.721131E+01  8.188765E+00  9.366272E+01  4.151010E+00  5.552461E+00
      1136   5 -2.873881E+02 -8.117280E+01 -2.049282E+01  1.068647E+02  1.066574E+00 -4.057446E+00
      1136   6 -1.805309E+02 -2.108063E+01  8.081423E+00  7.644391E+01  7.818159E-01 -3.241016E+00
      1136   7 -2.823422E+02 -8.055878E+01 -1.868353E+01  1.054960E+02  5.312942E+00  2.942384E+00
      1136   8 -1.760987E+02 -2.052825E+01  9.676490E+00  7.503154E+01  4.922204E+00  3.796484E+00
      1137   1 -1.344043E+02 -7.798043E+01 -1.148740E+01  5.424417E+01  1.233040E-01 -4.973786E-01
      1137   2 -5.218257E+01 -3.129025E+01  6.322859E+00  2.931599E+01 -1.353067E-02  8.765053E-02
      1137   3 -1.300254E+02 -7.608260E+01 -9.579496E+00  5.264627E+01  4.069948E+00  6.333778E+00
      1137   4 -4.829116E+01 -2.945623E+01  8.051258E+00  2.769874E+01  3.847515E+00  6.952329E+00
      1137   5 -1.580760E+02 -5.442099E+01 -1.076041E+01  3.655859E+01  7.309866E-01 -2.498047E+00
      1137   6 -7.478019E+01 -8.969865E+00  6.815568E+00  1.249662E+01  4.834682E-01 -2.071459E+00
      1137   7 -1.536474E+02 -5.256581E+01 -8.784603E+00  3.521845E+01  4.718366E+00  4.400722E+00
      1137   8 -7.083814E+01 -7.172982E+00  8.616545E+00  1.112450E+01  4.382985E+00  4.856643E+00
      1138   1 -2.727341E+01 -4.629012E+01 -5.555431E+00  3.277189E-01 -4.414223E-01 -2.394090E-01
      1138   2  3.905741E+01 -9.463403E+00  5.671920E+00 -2.010192E+01 -5.147992E-01  1.988201E-01
      1138   3 -2.363645E+01 -4.402170E+01 -3.781952E+00 -1.306538E+00  3.159653E+00  6.252870E+00
      1138   4  4.228521E+01 -7.258345E+00  7.290310E+00 -2.174833E+01  3.016138E+00  6.716343E+00
      1138   5 -4.886325E+01 -2.589809E+01 -5.477260E+00 -1.559673E+01 -5.075900E-02 -2.560688E+00
      1138   6  1.835305E+01  9.918807E+00  5.538186E+00 -3.530751E+01 -2.324508E-01 -2.275395E+00
      1138   7 -4.518127E+01 -2.367439E+01 -3.636971E+00 -1.700189E+01  3.585330E+00  3.988951E+00
      1138   8  2.162706E+01  1.208439E+01  7.227879E+00 -3.673517E+01  3.331616E+00  4.296052E+00
      1139   1  6.574457E+01 -1.500080E+01 -2.021530E+00 -4.098905E+01 -1.110213E+00 -5.600416E-01
      1139   2  1.206587E+02  1.491986E+01  4.779934E+00 -5.822106E+01 -1.175796E+00 -1.247484E-01
      1139   3  6.869696E+01 -1.281208E+01 -4.993055E-01 -4.265513E+01  2.182991E+00  5.606387E+00
      1139   4  1.232696E+02  1.705874E+01  6.172126E+00 -5.989986E+01  2.059315E+00  6.060120E+00
      1139   5  4.583181E+01  3.263244E+00 -2.388881E+00 -5.553178E+01 -9.228795E-01 -3.187355E+00
      1139   6  1.014873E+02  3.232674E+01  4.212427E+00 -7.215484E+01 -1.093301E+00 -2.906364E+00
      1139   7  4.882991E+01  5.421594E+00 -7.947673E-01 -5.698943E+01  2.400554E+00  3.027244E+00
      1139   8  1.041451E+02  3.443959E+01  5.680564E+00 -7.363395E+01  2.170461E+00  3.323786E+00
      1140   1  1.480692E+02  1.571104E+01 -1.896907E-01 -7.345452E+01 -1.835444E+00 -9.530808E-01
      1140   2  1.943121E+02  4.042357E+01  3.036460E+00 -8.834165E+01 -1.969331E+00 -4.911772E-01
      1140   3  1.505535E+02  1.777917E+01  1.134282E+00 -7.509544E+01  1.254003E+00  5.042700E+00
      1140   4  1.965219E+02  4.246724E+01  4.258526E+00 -9.000244E+01  1.070859E+00  5.517692E+00
      1140   5  1.295280E+02  3.254546E+01 -8.719393E-01 -8.689201E+01 -1.836104E+00 -3.884041E+00
      1140   6  1.763984E+02  5.650454E+01  2.156277E+00 -1.012546E+02 -2.067581E+00 -3.584748E+00
      1140   7  1.320610E+02  3.461307E+01  5.356466E-01 -8.834134E+01  1.280273E+00  2.152909E+00
      1140   8  1.786579E+02  5.855063E+01  3.465488E+00 -1.027312E+02  9.982041E-01  2.462760E+00
      1141   1 -2.510850E+02 -1.073675E+02 -1.735325E+01  1.235735E+02  1.520177E-01 -2.367462E+00
      1141   2 -1.480067E+02 -4.716825E+01  7.987245E+00  9.205533E+01 -1.097193E-01 -1.006246E+00
      1141   3 -2.441360E+02 -1.057578E+02 -1.472923E+01  1.208475E+02  4.893900E+00  5.250226E+00
      1141   4 -1.418314E+02 -4.574257E+01  1.030780E+01  8.935630E+01  4.516803E+00  6.662181E+00
      1141   5 -2.772678E+02 -7.913525E+01 -1.551565E+01  1.041162E+02  1.620235E+00 -4.352912E+00
      1141   6 -1.728722E+02 -2.053072E+01  9.530779E+00  7.363920E+01  1.228180E+00 -3.160365E+00
      1141   7 -2.702257E+02 -7.762893E+01 -1.282578E+01  1.017091E+02  6.415596E+00  3.348302E+00
      1141   8 -1.666049E+02 -1.919901E+01  1.192272E+01  7.124211E+01  5.905110E+00  4.585982E+00
      1142   1 -1.275639E+02 -7.565385E+01 -1.092504E+01  5.108275E+01 -2.757305E-01 -3.484426E-01
      1142   2 -4.657057E+01 -2.944298E+01  5.799629E+00  2.614550E+01 -2.795763E-01  5.016247E-01
      1142   3 -1.216938E+02 -7.284875E+01 -8.290729E+00  4.840474E+01  3.883693E+00  6.593352E+00
      1142   4 -4.137291E+01 -2.684548E+01  8.155378E+00  2.351528E+01  3.789380E+00  7.481472E+00
      1142   5 -1.511483E+02 -5.221376E+01 -1.010450E+01  3.385068E+01  9.268997E-01 -2.673419E+00
      1142   6 -6.908504E+01 -7.235929E+00  6.381664E+00  9.757417E+00  7.894839E-01 -1.966462E+00
      1142   7 -1.452063E+02 -4.955691E+01 -7.425542E+00  3.144943E+01  5.130324E+00  4.336577E+00
      1142   8 -6.381544E+01 -4.775879E+00  8.788068E+00  7.390389E+00  4.899957E+00  5.077300E+00
      1143   1 -2.233856E+01 -4.394101E+01 -6.354477E+00 -2.885069E+00 -9.622752E-01 -3.542835E-01
      1143   2  4.320771E+01 -7.285792E+00  4.539944E+00 -2.331316E+01 -8.155297E-01  4.027681E-01
      1143   3 -1.771481E+01 -4.126671E+01 -4.156691E+00 -5.567282E+00  2.746569E+00  6.078774E+00
      1143   4  4.725067E+01 -4.808307E+00  6.491102E+00 -2.594545E+01  2.820406E+00  6.864352E+00
      1143   5 -4.385780E+01 -2.368066E+01 -6.204728E+00 -1.840553E+01 -2.141995E-02 -2.977176E+00
      1143   6  2.257350E+01  1.197342E+01  4.480930E+00 -3.813300E+01 -9.504481E-03 -2.352340E+00
      1143   7 -3.916793E+01 -2.115817E+01 -3.965864E+00 -2.083929E+01  3.724097E+00  3.511534E+00
      1143   8  2.668285E+01  1.430918E+01  6.478816E+00 -4.052807E+01  3.661043E+00  4.161474E+00
      1144   1  6.950155E+01 -1.273896E+01 -3.224104E+00 -4.417287E+01 -1.619392E+00 -8.069520E-01
      1144   2  1.238484E+02  1.712987E+01  3.489178E+00 -6.141078E+01 -1.546425E+00 -1.481243E-01
      1144   3  7.343998E+01 -1.002963E+01 -1.243633E+00 -4.665650E+01  1.747686E+00  5.258973E+00
      1144   4  1.273227E+02  1.969471E+01  5.274496E+00 -6.386285E+01  1.760829E+00  5.938526E+00
      1144   5  4.965592E+01  5.424359E+00 -3.516712E+00 -5.834901E+01 -9.277290E-01 -3.707945E+00
      1144   6  1.047443E+02  3.444328E+01  3.000287E+00 -7.499333E+01 -9.783628E-01 -3.189247E+00
      1144   7  5.365751E+01  8.022077E+00 -1.483947E+00 -6.060919E+01  2.471036E+00  2.404370E+00
      1144   8  1.082821E+02  3.690411E+01  4.842695E+00 -7.723127E+01  2.358878E+00  2.940929E+00
      1145   1  1.511649E+02  1.787204E+01 -1.408993E+00 -7.652613E+01 -2.342781E+00 -1.168857E+00
      1145   2  1.970374E+02  4.265510E+01  1.936785E+00 -9.143816E+01 -2.464355E+00 -4.769866E-01
      1145   3  1.546516E+02  2.036268E+01  3.487005E-01 -7.879709E+01  7.956581E-01  4.693175E+00
      1145   4  2.001729E+02  4.506572E+01  3.552960E+00 -9.370283E+01  6.238105E-01  5.399403E+00
      1145   5  1.326934E+02  3.466818E+01 -1.998055E+00 -8.962738E+01 -1.869215E+00 -4.356600E+00
      1145   6  1.791937E+02  5.870210E+01  1.152718E+00 -1.040279E+02 -2.097908E+00 -3.824521E+00
      1145   7  1.362460E+02  3.711283E+01 -1.660994E-01 -9.169489E+01  1.297893E+00  1.544798E+00
      1145   8  1.823953E+02  6.107137E+01  2.846949E+00 -1.060971E+02  1.017524E+00  2.088693E+00
      1146   1 -2.383364E+02 -1.041131E+02 -1.231048E+01  1.181332E+02 -1.885653E+00 -2.827754E+00
      1146   2 -1.383865E+02 -4.599493E+01  8.579374E+00  8.671415E+01 -1.665496E+00 -9.963400E-01
      1146   3 -2.296607E+02 -1.014347E+02 -8.841076E+00  1.134374E+02  3.519479E+00  5.655298E+00
      1146   4 -1.308656E+02 -4.381172E+01  1.153542E+01  8.218915E+01  3.607406E+00  7.550307E+00
      1146   5 -2.643380E+02 -7.613066E+01 -1.035506E+01  9.923969E+01  3.830741E-01 -5.337199E+00
      1146   6 -1.630925E+02 -1.960577E+01  1.020675E+01  6.883175E+01  4.227406E-01 -3.630180E+00
      1146   7 -2.555388E+02 -7.377339E+01 -6.868007E+00  9.489343E+01  5.849300E+00  3.237292E+00
      1146   8 -1.554504E+02 -1.772216E+01  1.318962E+01  6.463756E+01  5.753041E+00  5.001805E+00
      1147   1 -1.193020E+02 -7.298333E+01 -1.119359E+01  4.572220E+01 -2.284798E+00 -1.641039E+00
      1147   2 -3.936070E+01 -2.699393E+01  5.551155E+00  2.091777E+01 -1.577433E+00 -1.264318E-01
      1147   3 -1.129552E+02 -7.045849E+01 -8.493335E+00  4.106586E+01  1.917570E+00  5.070417E+00
      1147   4 -3.405319E+01 -2.497502E+01  7.773647E+00  1.644665E+01  2.530853E+00  6.628603E+00
      1147   5 -1.427690E+02 -4.990185E+01 -1.035796E+01  2.898186E+01 -3.828180E-01 -4.422028E+00
      1147   6 -6.175787E+01 -5.122240E+00  6.160725E+00  4.997307E+00  1.290224E-01 -2.991439E+00
      1147   7 -1.363228E+02 -4.775647E+01 -7.675439E+00  2.463546E+01  3.863520E+00  2.352716E+00
      1147   8 -5.635231E+01 -3.460768E+00  8.374361E+00  8.209511E-01  4.278463E+00  3.822763E+00
      1148   1 -1.597219E+01 -4.122862E+01 -6.628700E+00 -8.098627E+00 -2.294282E+00 -1.450672E+00
      1148   2  4.848102E+01 -4.982505E+00  3.806117E+00 -2.840504E+01 -1.605376E+00 -9.238112E-02
      1148   3 -1.108397E+01 -3.903588E+01 -4.489727E+00 -1.233678E+01  1.518193E+00  4.905589E+00
      1148   4  5.252720E+01 -3.196816E+00  5.557064E+00 -3.249659E+01  2.130234E+00  6.297228E+00
      1148   5 -3.738437E+01 -2.131071E+01 -6.462820E+00 -2.317889E+01 -7.613923E-01 -4.440913E+00
      1148   6  2.795215E+01  1.395281E+01  3.769684E+00 -4.280457E+01 -2.554924E-01 -3.170595E+00
      1148   7 -3.240365E+01 -1.944044E+01 -4.326077E+00 -2.714209E+01  3.088384E+00  1.967806E+00
      1148   8  3.208981E+01  1.543376E+01  5.525973E+00 -4.663356E+01  3.515073E+00  3.268103E+00
      1149   1  7.457895E+01 -1.001945E+01 -3.925833E+00 -4.895786E+01 -2.399278E+00 -1.588241E+00
      1149   2  1.280030E+02  1.949577E+01  2.310855E+00 -6.611257E+01 -1.813242E+00 -3.963657E-01
      1149   3  7.850892E+01 -7.934051E+00 -2.129326E+00 -5.276533E+01  1.075392E+00  4.440893E+00
      1149   4  1.312565E+02  2.126640E+01  3.797445E+00 -6.981009E+01  1.598003E+00  5.657792E+00
      1149   5  5.483145E+01  7.876286E+00 -4.187321E+00 -6.273821E+01 -1.200244E+00 -4.786667E+00
      1149   6  1.089955E+02  3.655533E+01  1.857857E+00 -7.931586E+01 -7.820519E-01 -3.693504E+00
      1149   7  5.884827E+01  9.701460E+00 -2.375713E+00 -6.629867E+01  2.306391E+00  1.285991E+00
      1149   8  1.123352E+02  3.807964E+01  3.365930E+00 -8.277672E+01  2.659200E+00  2.401363E+00
      1150   1  1.556767E+02  2.052442E+01 -2.149998E+00 -8.079346E+01 -2.582108E+00 -1.624823E+00
      1150   2  2.013370E+02  4.557516E+01  1.965628E+00 -9.567578E+01 -2.380993E+00 -6.290737E-01
      1150   3  1.594527E+02  2.294449E+01 -3.197723E-01 -8.397927E+01  5.043788E-01  3.919866E+00
      1150   4  2.046230E+02  4.780424E+01  3.579827E+00 -9.880361E+01  6.541124E-01  4.932292E+00
      1150   5  1.373033E+02  3.718016E+01 -2.671662E+00 -9.353628E+01 -1.672777E+00 -5.047115E+00
      1150   6  1.835927E+02  6.149247E+01  1.258592E+00 -1.079211E+02 -1.608236E+00 -4.183369E+00
      1150   7  1.411606E+02  3.944734E+01 -7.976154E-01 -9.650240E+01  1.442069E+00  5.333331E-01
      1150   8  1.869595E+02  6.357737E+01  2.921281E+00 -1.108378E+02  1.453684E+00  1.411323E+00
      1151   1 -2.958188E+02 -9.120063E+01 -2.718515E+01  1.157781E+02 -9.627797E-01 -2.696284E+00
      1151   2 -1.812135E+02 -3.263268E+01  5.051763E+00  8.837408E+01 -9.117922E-01 -2.415630E+00
      1151   3 -2.940643E+02 -9.183429E+01 -2.682299E+01  1.160222E+02  2.113756E+00  4.134387E+00
      1151   4 -1.798011E+02 -3.315892E+01  5.331479E+00  8.845299E+01  2.084361E+00  4.433454E+00
      1151   5 -3.189011E+02 -6.664189E+01 -2.603876E+01  9.023169E+01 -1.126007E+00 -4.021762E+00
      1151   6 -2.031226E+02 -9.450173E+00  5.992215E+00  6.419480E+01 -1.167267E+00 -3.919048E+00
      1151   7 -3.171948E+02 -6.715854E+01 -2.559459E+01  9.074937E+01  1.976192E+00  2.870420E+00
      1151   8 -2.017522E+02 -9.862090E+00  6.357895E+00  6.453268E+01  1.852867E+00  2.987458E+00
      1152   1 -1.520566E+02 -7.235802E+01 -1.270560E+01  5.214146E+01 -8.412524E-01 -2.154441E+00
      1152   2 -6.303411E+01 -2.840053E+01  7.052147E+00  3.048036E+01 -8.091805E-01 -1.968934E+00
      1152   3 -1.508236E+02 -7.231489E+01 -1.231837E+01  5.205155E+01  2.157889E+00  4.851633E+00
      1152   4 -6.206480E+01 -2.827272E+01  7.373341E+00  3.025787E+01  2.121196E+00  5.050911E+00
      1152   5 -1.727276E+02 -5.189933E+01 -1.231763E+01  2.970175E+01 -1.196398E+00 -3.857906E+00
      1152   6 -8.276543E+01 -9.016467E+00  7.251666E+00  9.139659E+00 -1.250938E+00 -3.848324E+00
      1152   7 -1.715349E+02 -5.174987E+01 -1.184276E+01  2.984582E+01  1.825962E+00  3.203948E+00
      1152   8 -8.183089E+01 -8.783955E+00  7.664669E+00  9.139733E+00  1.701210E+00  3.223774E+00
      1153   1 -3.235456E+01 -4.925764E+01 -4.610491E+00  5.173653E+00 -7.947134E-01 -1.870702E+00
      1153   2  3.915624E+01 -1.501550E+01  7.337457E+00 -1.256759E+01 -7.678268E-01 -1.727694E+00
      1153   3 -3.155544E+01 -4.882971E+01 -4.258747E+00  4.814329E+00  2.036957E+00  5.025661E+00
      1153   4  3.974066E+01 -1.451954E+01  7.633101E+00 -1.303612E+01  2.005600E+00  5.178090E+00
      1153   5 -5.116530E+01 -3.153301E+01 -4.740584E+00 -1.495386E+01 -1.320011E+00 -3.928835E+00
      1153   6  2.111574E+01  1.829964E+00  7.028999E+00 -3.178643E+01 -1.377366E+00 -3.960852E+00
      1153   7 -5.039876E+01 -3.100600E+01 -4.297149E+00 -1.510605E+01  1.532092E+00  3.016577E+00
      1153   8  2.167260E+01  2.424101E+00  7.420499E+00 -3.205717E+01  1.415251E+00  2.990957E+00
      1154   1  7.003261E+01 -2.400498E+01 -2.941687E-01 -3.063707E+01 -7.827298E-01 -1.709084E+00
      1154   2  1.291319E+02  3.562013E+00  6.693360E+00 -4.559711E+01 -7.590471E-01 -1.574957E+00
      1154   3  7.046289E+01 -2.337796E+01 -1.296351E-02 -3.121398E+01  1.841992E+00  4.925680E+00
      1154   4  1.293813E+02  4.245899E+00  6.925697E+00 -4.626652E+01  1.816554E+00  5.065343E+00
      1154   5  5.269197E+01 -8.131581E+00 -7.900667E-01 -4.899677E+01 -1.464757E+00 -4.106243E+00
      1154   6  1.124351E+02  1.868852E+01  6.026176E+00 -6.318811E+01 -1.524314E+00 -4.147467E+00
      1154   7  5.309682E+01 -7.409330E+00 -4.140885E-01 -4.938561E+01  1.177554E+00  2.570537E+00
      1154   8  1.126637E+02  1.946710E+01  6.357276E+00 -6.367735E+01  1.067811E+00  2.532259E+00
      1155   1  1.594806E+02  2.144891E+00  1.827089E+00 -5.875132E+01 -7.973895E-01 -1.602736E+00
      1155   2  2.095382E+02  2.501990E+01  5.709479E+00 -7.166916E+01 -7.886221E-01 -1.482552E+00
      1155   3  1.596443E+02  2.945439E+00  2.062109E+00 -5.948770E+01  1.600859E+00  4.675457E+00
      1155   4  2.095498E+02  2.587209E+01  5.903319E+00 -7.248667E+01  1.568557E+00  4.797660E+00
      1155   5  1.433268E+02  1.675225E+01  1.065526E+00 -7.572685E+01 -1.626867E+00 -4.329501E+00
      1155   6  1.939316E+02  3.897354E+01  4.783083E+00 -8.798192E+01 -1.699807E+00 -4.386435E+00
      1155   7  1.434705E+02  1.764739E+01  1.397336E+00 -7.629007E+01  7.861530E-01  1.983606E+00
      1155   8  1.939271E+02  3.991985E+01  5.077435E+00 -8.863303E+01  6.712368E-01  1.926479E+00
      1156   1 -2.918913E+02 -9.187703E+01 -2.572666E+01  1.159511E+02 -3.128098E-01 -2.389036E+00
      1156   2 -1.782487E+02 -3.347319E+01  5.590542E+00  8.827340E+01 -3.715657E-01 -1.799358E+00
      1156   3 -2.883878E+02 -9.203549E+01 -2.468827E+01  1.155075E+02  2.977383E+00  4.576954E+00
      1156   4 -1.752154E+02 -3.359766E+01  6.485736E+00  8.769884E+01  2.834064E+00  5.187804E+00
      1156   5 -3.150371E+02 -6.711838E+01 -2.441282E+01  9.088697E+01  6.094932E-02 -3.884143E+00
      1156   6 -2.002154E+02 -1.009898E+01  6.695283E+00  6.455060E+01 -9.653484E-02 -3.477291E+00
      1156   7 -3.115575E+02 -6.719788E+01 -2.329471E+01  9.073982E+01  3.380280E+00  3.144490E+00
      1156   8 -1.972010E+02 -1.014501E+01  7.674537E+00  6.425659E+01  3.136425E+00  3.568236E+00
      1157   1 -1.495627E+02 -7.228096E+01 -1.238475E+01  5.177660E+01 -2.827854E-01 -1.125277E+00
      1157   2 -6.123930E+01 -2.840348E+01  6.762358E+00  2.989598E+01 -3.487204E-01 -7.571974E-01
      1157   3 -1.466177E+02 -7.149551E+01 -1.125228E+01  5.111105E+01  2.895429E+00  5.946588E+00
      1157   4 -5.866002E+01 -2.759272E+01  7.780266E+00  2.912566E+01  2.757732E+00  6.330574E+00
      1157   5 -1.702924E+02 -5.164724E+01 -1.183701E+01  2.974937E+01 -1.110767E-01 -3.003470E+00
      1157   6 -8.102362E+01 -8.850151E+00  7.120491E+00  8.947590E+00 -2.683339E-01 -2.815162E+00
      1157   7 -1.673677E+02 -5.079109E+01 -1.062033E+01  2.933735E+01  3.093484E+00  4.124947E+00
      1157   8 -7.845985E+01 -7.968374E+00  8.227134E+00  8.418349E+00  2.862921E+00  4.325507E+00
      1158   1 -3.094894E+01 -4.879191E+01 -5.052877E+00  4.366009E+00 -5.013712E-01 -8.029518E-01
      1158   2  4.010807E+01 -1.450083E+01  6.665000E+00 -1.355577E+01 -5.536524E-01 -5.327264E-01
      1158   3 -2.854294E+01 -4.756612E+01 -3.970705E+00  3.496752E+00  2.464365E+00  6.067673E+00
      1158   4  4.221345E+01 -1.325748E+01  7.650139E+00 -1.451054E+01  2.351950E+00  6.348857E+00
      1158   5 -4.981183E+01 -3.091018E+01 -5.030402E+00 -1.539625E+01 -5.085437E-01 -3.042852E+00
      1158   6  2.202131E+01  2.498201E+00  6.510544E+00 -3.242584E+01 -6.492663E-01 -2.950229E+00
      1158   7 -4.742112E+01 -2.961953E+01 -3.861312E+00 -1.604077E+01  2.480295E+00  3.876849E+00
      1158   8  2.411561E+01  3.807017E+00  7.586989E+00 -3.316601E+01  2.278128E+00  3.977339E+00
      1159   1  7.067744E+01 -2.330341E+01 -1.041172E+00 -3.180727E+01 -8.167968E-01 -9.068746E-01
      1159   2  1.294465E+02  4.356174E+00  5.871299E+00 -4.692034E+01 -8.602076E-01 -6.405187E-01
      1159   3  7.255933E+01 -2.199862E+01 -1.123473E-01 -3.285479E+01  1.920551E+00  5.668895E+00
      1159   4  1.310750E+02  5.675560E+00  6.716904E+00 -4.804058E+01  1.826725E+00  5.941909E+00
      1159   5  5.329251E+01 -7.282240E+00 -1.388526E+00 -4.983523E+01 -9.891948E-01 -3.493233E+00
      1159   6  1.127112E+02  1.962812E+01  5.355294E+00 -6.419352E+01 -1.119515E+00 -3.404558E+00
      1159   7  5.516500E+01 -5.912555E+00 -3.692962E-01 -5.067841E+01  1.768139E+00  3.124063E+00
      1159   8  1.143340E+02  2.101309E+01  6.295447E+00 -6.511798E+01  1.586286E+00  3.216758E+00
      1160   1  1.595996E+02  3.078402E+00  9.297788E-01 -6.018223E+01 -1.192949E+00 -1.171471E+00
      1160   2  2.092882E+02  2.594677E+01  4.534174E+00 -7.323518E+01 -1.258251E+00 -8.997663E-01
      1160   3  1.610872E+02  4.416734E+00  1.731393E+00 -6.134676E+01  1.334646E+00  5.109496E+00
      1160   4  2.105657E+02  2.730438E+01  5.267460E+00 -7.446596E+01  1.226901E+00  5.384139E+00
      1160   5  1.434075E+02  1.783235E+01  3.135392E-01 -7.685246E+01 -1.520201E+00 -4.096476E+00
      1160   6  1.936474E+02  4.004391E+01  3.753589E+00 -8.925456E+01 -1.669033E+00 -4.005917E+00
      1160   7  1.448914E+02  1.924403E+01  1.211060E+00 -7.782923E+01  1.024695E+00  2.219164E+00
      1160   8  1.949246E+02  4.147525E+01  4.586581E+00 -9.030492E+01  8.324694E-01  2.310378E+00
      1161   1 -2.846159E+02 -9.143669E+01 -2.240880E+01  1.148895E+02  9.590386E-02 -2.210936E+00
      1161   2 -1.726096E+02 -3.377427E+01  6.841357E+00  8.699969E+01 -5.390293E-02 -1.266080E+00
      1161   3 -2.792878E+02 -9.111146E+01 -2.066919E+01  1.136388E+02  3.721830E+00  5.157403E+00
      1161   4 -1.678983E+02 -3.350253E+01  8.366783E+00  8.565872E+01  3.480275E+00  6.127623E+00
      1161   5 -3.077783E+02 -6.654312E+01 -2.092301E+01  9.034782E+01  1.042115E+00 -3.913376E+00
      1161   6 -1.945930E+02 -1.027330E+01  8.106614E+00  6.377139E+01  7.844807E-01 -3.155266E+00
      1161   7 -3.024460E+02 -6.618377E+01 -1.910453E+01  8.941812E+01  4.701773E+00  3.520951E+00
      1161   8 -1.898737E+02 -9.965369E+00  9.715805E+00  6.273422E+01  4.350386E+00  4.299823E+00
      1162   1 -1.444607E+02 -7.126733E+01 -1.164240E+01  5.037350E+01  2.279940E-03 -3.494145E-01
      1162   2 -5.719183E+01 -2.774956E+01  6.408147E+00  2.832471E+01 -1.175460E-01  2.103405E-01
      1162   3 -1.397433E+02 -6.965675E+01 -9.722174E+00  4.901951E+01  3.405959E+00  6.888472E+00
      1162   4 -5.296586E+01 -2.619138E+01  8.152388E+00  2.690251E+01  3.209984E+00  7.467096E+00
      1162   5 -1.652164E+02 -5.052811E+01 -1.094778E+01  2.879350E+01  7.306515E-01 -2.437863E+00
      1162   6 -7.699973E+01 -8.094681E+00  6.908595E+00  7.801590E+00  5.102598E-01 -2.057946E+00
      1162   7 -1.604981E+02 -4.889684E+01 -8.949697E+00  2.771500E+01  4.164207E+00  4.858192E+00
      1162   8 -7.276902E+01 -6.513018E+00  8.735760E+00  6.641386E+00  3.865986E+00  5.253164E+00
      1163   1 -2.739173E+01 -4.757159E+01 -5.678598E+00  2.629750E+00 -4.804290E-01 -1.650755E-01
      1163   2  4.303570E+01 -1.334346E+01  5.693453E+00 -1.542798E+01 -5.435340E-01  2.596261E-01
      1163   3 -2.341766E+01 -4.557402E+01 -3.886066E+00  1.126390E+00  2.623053E+00  6.687612E+00
      1163   4  4.659580E+01 -1.139941E+01  7.333576E+00 -1.698339E+01  2.497366E+00  7.125316E+00
      1163   5 -4.628163E+01 -2.960377E+01 -5.525388E+00 -1.673546E+01  5.096345E-02 -2.616462E+00
      1163   6  2.492612E+01  3.740770E+00  5.670856E+00 -3.391891E+01 -1.113348E-01 -2.366313E+00
      1163   7 -4.230482E+01 -2.759379E+01 -3.655732E+00 -1.799293E+01  3.180106E+00  4.285196E+00
      1163   8  2.849248E+01  5.700280E+00  7.392991E+00 -3.523956E+01  2.953814E+00  4.545197E+00
      1164   1  7.319230E+01 -2.206690E+01 -2.131657E+00 -3.382665E+01 -1.048327E+00 -5.647278E-01
      1164   2  1.315459E+02  5.654185E+00  4.752946E+00 -4.905603E+01 -1.105320E+00 -1.416965E-01
      1164   3  7.646751E+01 -2.012744E+01 -5.861749E-01 -3.543791E+01  1.787488E+00  5.921316E+00
      1164   4  1.344764E+02  7.551763E+00  6.170927E+00 -5.071350E+01  1.678569E+00  6.352413E+00
      1164   5  5.578553E+01 -5.960925E+00 -2.352288E+00 -5.149377E+01 -7.017395E-01 -3.361571E+00
      1164   6  1.147931E+02  2.101089E+01  4.366593E+00 -6.598348E+01 -8.543957E-01 -3.114229E+00
      1164   7  5.906788E+01 -4.000453E+00 -7.249151E-01 -5.288198E+01  2.156236E+00  3.165145E+00
      1164   8  1.177337E+02  2.293190E+01  5.870898E+00 -6.742718E+01  1.950463E+00  3.417887E+00
      1165   1  1.614395E+02  4.375243E+00 -3.001704E-01 -6.237334E+01 -1.666768E+00 -1.044970E+00
      1165   2  2.106494E+02  2.717184E+01  2.961746E+00 -7.553451E+01 -1.784687E+00 -6.053641E-01
      1165   3  1.642195E+02  6.231056E+00  1.051848E+00 -6.401699E+01  9.904544E-01  5.241496E+00
      1165   4  2.131547E+02  2.900857E+01  4.214444E+00 -7.722644E+01  8.285732E-01  5.685145E+00
      1165   5  1.452317E+02  1.923092E+01 -7.862267E-01 -7.871282E+01 -1.489701E+00 -4.182252E+00
      1165   6  1.949958E+02  4.136903E+01  2.311539E+00 -9.123606E+01 -1.695007E+00 -3.925838E+00
      1165   7  1.480239E+02  2.113190E+01  6.587886E-01 -8.015366E+01  1.187298E+00  2.138522E+00
      1165   8  1.975161E+02  4.325245E+01  3.661208E+00 -9.273312E+01  9.370261E-01  2.396628E+00
      1166   1 -2.739290E+02 -8.992345E+01 -1.751726E+01  1.123716E+02 -2.839009E-02 -2.163744E+00
      1166   2 -1.644042E+02 -3.374360E+01  8.179367E+00  8.434378E+01 -2.652852E-01 -8.607682E-01
      1166   3 -2.664248E+02 -8.880609E+01 -1.487864E+01  1.101538E+02  4.099250E+00  5.952957E+00
      1166   4 -1.576888E+02 -3.278799E+01  1.051815E+01  8.208621E+01  3.759449E+00  7.287482E+00
      1166   5 -2.970570E+02 -6.497608E+01 -1.585782E+01  8.839561E+01  1.571365E+00 -4.145644E+00
      1166   6 -1.863608E+02 -1.019757E+01  9.595327E+00  6.165089E+01  1.216121E+00 -3.032480E+00
      1166   7 -2.895178E+02 -6.388260E+01 -1.314135E+01  8.652516E+01  5.739043E+00  4.043485E+00
      1166   8 -1.796079E+02 -9.260227E+00  1.201788E+01  5.972207E+01  5.278607E+00  5.183100E+00
      1167   1 -1.369598E+02 -6.952051E+01 -1.107897E+01  4.766326E+01 -4.099090E-01 -2.322363E-01
      1167   2 -5.094174E+01 -2.646791E+01  5.869409E+00  2.551903E+01 -4.143597E-01  6.052724E-01
      1167   3 -1.305187E+02 -6.719882E+01 -8.419909E+00  4.530675E+01  3.212584E+00  7.134199E+00
      1167   4 -4.519405E+01 -2.433202E+01  8.251443E+00  2.315677E+01  3.126754E+00  7.994533E+00
      1167   5 -1.577096E+02 -4.878472E+01 -1.026699E+01  2.657220E+01  9.465214E-01 -2.600445E+00
      1167   6 -7.074276E+01 -6.815090E+00  6.484277E+00  5.460913E+00  8.165008E-01 -1.929247E+00
      1167   7 -1.512429E+02 -4.653691E+01 -7.549138E+00  2.452309E+01  4.602028E+00  4.824897E+00
      1167   8 -6.496675E+01 -4.745549E+00  8.931331E+00  3.390986E+00  4.388737E+00  5.514990E+00
      1168   1 -2.181889E+01 -4.578833E+01 -6.499758E+00 -3.277826E-01 -9.927920E-01 -3.261399E-01
      1168   2  4.780614E+01 -1.171498E+01  4.534400E+00 -1.845470E+01 -8.643726E-01  4.412048E-01
      1168   3 -1.664205E+01 -4.358199E+01 -4.275718E+00 -2.802002E+00  2.236567E+00  6.473853E+00
      1168   4  5.238187E+01 -9.685914E+00  6.512771E+00 -2.092331E+01  2.299015E+00  7.257252E+00
      1168   5 -4.070821E+01 -2.784672E+01 -6.249853E+00 -1.925519E+01  1.189428E-01 -3.037078E+00
      1168   6  2.970044E+01  5.347523E+00  4.611767E+00 -3.652761E+01  1.188406E-01 -2.426061E+00
      1168   7 -3.550541E+01 -2.572401E+01 -3.970401E+00 -2.145125E+01  3.375809E+00  3.810469E+00
      1168   8  3.430448E+01  7.300292E+00  6.651398E+00 -3.873060E+01  3.308140E+00  4.434371E+00
      1169   1  7.753920E+01 -2.032201E+01 -3.363051E+00 -3.689309E+01 -1.545736E+00 -8.554211E-01
      1169   2  1.353133E+02  7.360871E+00  3.431129E+00 -5.218753E+01 -1.482388E+00 -1.944493E-01
      1169   3  8.196911E+01 -1.801107E+01 -1.351923E+00 -3.926132E+01  1.384169E+00  5.533460E+00
      1169   4  1.392649E+02  9.542140E+00  5.248468E+00 -5.456078E+01  1.393345E+00  6.204667E+00
      1169   5  6.013529E+01 -4.222719E+00 -3.485741E+00 -5.416470E+01 -6.684303E-01 -3.887148E+00
      1169   6  1.185665E+02  2.271443E+01  3.146424E+00 -6.873595E+01 -7.214076E-01 -3.389332E+00
      1169   7  6.459113E+01 -1.963875E+00 -1.409435E+00 -5.628499E+01  2.285310E+00  2.540973E+00
      1169   8  1.225463E+02  2.484914E+01  5.034027E+00 -7.087165E+01  2.176843E+00  3.046353E+00
      1170   1  1.650562E+02  6.096871E+00 -1.550040E+00 -6.542937E+01 -2.161928E+00 -1.306156E+00
      1170   2  2.138906E+02  2.897229E+01  1.829962E+00 -7.866540E+01 -2.271253E+00 -6.400184E-01
      1170   3  1.689591E+02  8.275028E+00  2.434221E-01 -6.764806E+01  5.665222E-01  4.848053E+00
      1170   4  2.174362E+02  3.107985E+01  3.483999E+00 -8.090822E+01  4.119496E-01  5.519430E+00
      1170   5  1.488566E+02  2.099656E+01 -1.922573E+00 -8.141107E+01 -1.486479E+00 -4.663211E+00
      1170   6  1.982483E+02  4.321511E+01  1.296532E+00 -9.402317E+01 -1.692995E+00 -4.177657E+00
      1170   7  1.527890E+02  2.317876E+01 -4.426291E-02 -8.340930E+01  1.263650E+00  1.523832E+00
      1170   8  2.018255E+02  4.532981E+01  3.039593E+00 -9.605417E+01  1.010813E+00  2.012243E+00
      1171   1 -2.600440E+02 -8.764584E+01 -1.240538E+01  1.078553E+02 -1.896403E+00 -2.867927E+00
      1171   2 -1.537202E+02 -3.353301E+01  8.769487E+00  7.980770E+01 -1.709776E+00 -1.037321E+00
      1171   3 -2.503787E+02 -8.584391E+01 -8.905084E+00  1.037858E+02  2.846126E+00  6.179728E+00
      1171   4 -1.452629E+02 -3.218195E+01  1.175542E+01  7.583311E+01  2.913298E+00  8.052440E+00
      1171   5 -2.830883E+02 -6.280185E+01 -1.060298E+01  8.450185E+01  5.630715E-01 -5.308064E+00
      1171   6 -1.756062E+02 -1.009344E+01  1.030064E+01  5.770394E+01  5.749713E-01 -3.628404E+00
      1171   7 -2.733497E+02 -6.121831E+01 -7.063014E+00  8.083596E+01  5.351981E+00  3.818973E+00
      1171   8 -1.670748E+02 -8.944295E+00  1.333533E+01  5.411144E+01  5.241585E+00  5.535155E+00
      1172   1 -1.275881E+02 -6.786285E+01 -1.136855E+01  4.290609E+01 -2.232144E+00 -1.754391E+00
      1172   2 -4.267115E+01 -2.498588E+01  5.601994E+00  2.079871E+01 -1.613203E+00 -1.665809E-01
      1172   3 -1.202635E+02 -6.622573E+01 -8.641119E+00  3.869656E+01  1.467026E+00  5.380019E+00
      1172   4 -3.644309E+01 -2.381194E+01  7.848624E+00  1.671213E+01  1.999461E+00  6.996058E+00
      1172   5 -1.482949E+02 -4.734483E+01 -1.050576E+01  2.236963E+01 -1.260677E-01 -4.520576E+00
      1172   6 -6.242542E+01 -5.534355E+00  6.278729E+00  1.268024E+00  2.972345E-01 -3.047240E+00
      1172   7 -1.409101E+02 -4.598922E+01 -7.772852E+00  1.852750E+01  3.606707E+00  2.668182E+00
      1172   8 -5.613636E+01 -4.624339E+00  8.539461E+00 -2.469135E+00  3.941252E+00  4.165901E+00
      1173   1 -1.441093E+01 -4.402823E+01 -6.793889E+00 -5.142579E+00 -2.213464E+00 -1.564113E+00
      1173   2  5.407361E+01 -1.032787E+01  3.773958E+00 -2.322688E+01 -1.610863E+00 -1.325797E-01
      1173   3 -8.664032E+00 -4.261462E+01 -4.628755E+00 -9.068924E+00  1.139316E+00  5.164504E+00
      1173   4  5.893322E+01 -9.286960E+00  5.549042E+00 -2.705716E+01  1.670945E+00  6.616652E+00
      1173   5 -3.325873E+01 -2.630219E+01 -6.495108E+00 -2.357099E+01 -4.713700E-01 -4.595174E+00
      1173   6  3.601098E+01  6.532254E+00  3.906113E+00 -4.082330E+01 -5.140680E-02 -3.281195E+00
      1173   7 -2.745469E+01 -2.512534E+01 -4.311191E+00 -2.717257E+01  2.909897E+00  2.177967E+00
      1173   8  4.092877E+01  7.350686E+00  5.707476E+00 -4.434350E+01  3.256995E+00  3.509390E+00
      1174   1  8.352757E+01 -1.842393E+01 -4.090053E+00 -4.144529E+01 -2.278501E+00 -1.709363E+00
      1174   2  1.403439E+02  8.932284E+00  2.221704E+00 -5.672181E+01 -1.766249E+00 -4.553473E-01
      1174   3  8.820326E+01 -1.700561E+01 -2.265672E+00 -4.504863E+01  7.740118E-01  4.648648E+00
      1174   4  1.443089E+02  1.006280E+01  3.735145E+00 -6.025700E+01  1.227595E+00  5.916941E+00
      1174   5  6.616070E+01 -2.481568E+00 -4.152812E+00 -5.827231E+01 -8.647136E-01 -4.999654E+00
      1174   6  1.236357E+02  2.413860E+01  2.001649E+00 -7.284427E+01 -5.185557E-01 -3.872570E+00
      1174   7  7.089038E+01 -1.248369E+00 -2.294528E+00 -6.158669E+01  2.212205E+00  1.394777E+00
      1174   8  1.276558E+02  2.509512E+01  3.555399E+00 -7.610261E+01  2.498106E+00  2.533470E+00
      1175   1  1.703176E+02  8.104096E+00 -2.314443E+00 -6.958453E+01 -2.417707E+00 -1.766228E+00
      1175   2  2.189262E+02  3.126824E+01  1.842499E+00 -8.284481E+01 -2.244190E+00 -7.575996E-01
      1175   3  1.746884E+02  1.002749E+01 -4.485802E-01 -7.265975E+01  2.943552E-01  4.061909E+00
      1175   4  2.227884E+02  3.301834E+01  3.493119E+00 -8.589592E+01  4.205960E-01  5.078190E+00
      1175   5  1.541552E+02  2.295510E+01 -2.596958E+00 -8.517388E+01 -1.285757E+00 -5.326547E+00
      1175   6  2.033247E+02  4.546931E+01  1.407183E+00 -9.782559E+01 -1.242470E+00 -4.474057E+00
      1175   7  1.585734E+02  2.478594E+01 -6.731303E-01 -8.800021E+01  1.448208E+00  5.312913E-01
      1175   8  2.072354E+02  4.713350E+01  3.120638E+00 -1.006375E+02  1.442982E+00  1.389115E+00
      1176   1 -3.168763E+02 -7.457256E+01 -2.738906E+01  9.892680E+01 -7.852155E-01 -2.733580E+00
      1176   2 -1.967669E+02 -1.953014E+01  5.199586E+00  7.627164E+01 -7.422776E-01 -2.443499E+00
      1176   3 -3.151504E+02 -7.522504E+01 -2.705038E+01  9.943622E+01  1.683398E+00  4.422003E+00
      1176   4 -1.953537E+02 -2.008556E+01  5.462962E+00  7.656014E+01  1.659438E+00  4.716564E+00
      1176   5 -3.357835E+02 -5.449258E+01 -2.647162E+01  6.945879E+01 -8.739808E-01 -4.163733E+00
      1176   6 -2.147115E+02 -5.739898E-01  5.952952E+00  4.838059E+01 -9.101982E-01 -4.074493E+00
      1176   7 -3.341639E+02 -5.496168E+01 -2.604405E+01  7.023429E+01  1.610863E+00  3.041305E+00
      1176   8 -2.133950E+02 -9.519142E-01  6.309608E+00  4.892093E+01  1.506623E+00  3.131493E+00
      1177   1 -1.615452E+02 -6.560832E+01 -1.282293E+01  4.619144E+01 -6.827177E-01 -2.168470E+00
      1177   2 -6.824101E+01 -2.442805E+01  7.139733E+00  2.829926E+01 -6.541984E-01 -1.974402E+00
      1177   3 -1.602876E+02 -6.561354E+01 -1.244960E+01  4.622539E+01  1.719362E+00  5.144047E+00
      1177   4 -6.722340E+01 -2.435666E+01  7.453293E+00  2.815751E+01  1.690941E+00  5.339645E+00
      1177   5 -1.784337E+02 -4.886954E+01 -1.250267E+01  2.040318E+01 -9.358573E-01 -4.025094E+00
      1177   6 -8.435969E+01 -8.566334E+00  7.310643E+00  3.773969E+00 -9.811350E-01 -4.028930E+00
      1177   7 -1.772662E+02 -4.871247E+01 -1.203471E+01  2.066437E+01  1.480701E+00  3.331595E+00
      1177   8 -8.342371E+01 -8.336612E+00  7.723509E+00  3.848328E+00  1.377517E+00  3.326240E+00
      1178   1 -3.336290E+01 -4.944968E+01 -4.691670E+00  7.363473E+00 -6.395484E-01 -1.868504E+00
      1178   2  4.162224E+01 -1.748282E+01  7.373407E+00 -7.284670E+00 -6.149891E-01 -1.716838E+00
      1178   3 -3.249598E+01 -4.909245E+01 -4.344828E+00  7.030392E+00  1.625228E+00  5.307875E+00
      1178   4  4.229355E+01 -1.706421E+01  7.669378E+00 -7.761920E+00  1.601503E+00  5.458339E+00
      1178   5 -4.871059E+01 -3.494039E+01 -4.780793E+00 -1.572232E+01 -1.037589E+00 -4.123474E+00
      1178   6  2.690519E+01 -3.690828E+00  7.142964E+00 -2.932826E+01 -1.084735E+00 -4.168487E+00
      1178   7 -4.791972E+01 -3.443445E+01 -4.334807E+00 -1.585424E+01  1.239804E+00  3.091260E+00
      1178   8  2.750787E+01 -3.126275E+00  7.542746E+00 -2.961345E+01  1.143537E+00  3.042413E+00
      1179   1  7.546241E+01 -2.921428E+01 -3.660486E-01 -2.216734E+01 -6.241307E-01 -1.694029E+00
      1179   2  1.374786E+02 -3.572760E+00  6.684966E+00 -3.451835E+01 -6.023173E-01 -1.551364E+00
      1179   3  7.599390E+01 -2.867448E+01 -8.203215E-02 -2.278810E+01  1.472240E+00  5.191278E+00
      1179   4  1.378455E+02 -2.981680E+00  6.924723E+00 -3.526097E+01  1.453135E+00  5.330300E+00
      1179   5  6.132142E+01 -1.621480E+01 -7.456541E-01 -4.321330E+01 -1.155437E+00 -4.328743E+00
      1179   6  1.238644E+02  8.817102E+00  6.168879E+00 -5.468308E+01 -1.204438E+00 -4.382930E+00
      1179   7  6.178835E+01 -1.553460E+01 -3.590657E-01 -4.365148E+01  9.517111E-01  2.589014E+00
      1179   8  1.241732E+02  9.546414E+00  6.515659E+00 -5.525075E+01  8.610655E-01  2.528904E+00
      1180   1  1.699547E+02 -6.785125E+00  1.751683E+00 -4.529369E+01 -6.307664E-01 -1.577897E+00
      1180   2  2.225315E+02  1.441852E+01  5.666840E+00 -5.596133E+01 -6.214288E-01 -1.450579E+00
      1180   3  1.702434E+02 -6.080805E+00  1.996451E+00 -4.612926E+01  1.281670E+00  4.919923E+00
      1180   4  2.226823E+02  1.516935E+01  5.874481E+00 -5.690312E+01  1.256592E+00  5.041359E+00
      1180   5  1.567800E+02  5.182819E+00  1.159534E+00 -6.476259E+01 -1.287215E+00 -4.580929E+00
      1180   6  2.098048E+02  2.585287E+01  4.942954E+00 -7.467017E+01 -1.347014E+00 -4.651995E+00
      1180   7  1.570125E+02  6.023127E+00  1.508974E+00 -6.543036E+01  6.342042E-01  1.943434E+00
      1180   8  2.099051E+02  2.673793E+01  5.259452E+00 -7.545071E+01  5.393648E-01  1.864507E+00
      1181   1 -3.129335E+02 -7.530057E+01 -2.592265E+01  9.959885E+01 -3.261091E-01 -2.315085E+00
      1181   2 -1.937457E+02 -2.044549E+01  5.741272E+00  7.657162E+01 -3.756054E-01 -1.736265E+00
      1181   3 -3.093351E+02 -7.558488E+01 -2.490148E+01  9.952806E+01  2.356719E+00  4.995545E+00
      1181   4 -1.905942E+02 -2.070028E+01  6.626370E+00  7.630909E+01  2.236209E+00  5.581038E+00
      1181   5 -3.320051E+02 -5.490303E+01 -2.482373E+01  7.060212E+01  1.357373E-01 -3.880725E+00
      1181   6 -2.118425E+02 -1.185413E+00  6.674313E+00  4.912664E+01  1.558381E-03 -3.506448E+00
      1181   7 -3.284915E+02 -5.503681E+01 -2.371507E+01  7.082571E+01  2.837974E+00  3.480643E+00
      1181   8 -2.087674E+02 -1.293734E+00  7.651605E+00  4.914276E+01  2.631553E+00  3.857866E+00
      1182   1 -1.589605E+02 -6.563944E+01 -1.250580E+01  4.607354E+01 -3.040688E-01 -1.052557E+00
      1182   2 -6.632273E+01 -2.455782E+01  6.842181E+00  2.788566E+01 -3.568761E-01 -6.931313E-01
      1182   3 -1.558787E+02 -6.498990E+01 -1.137836E+01  4.562004E+01  2.283740E+00  6.341785E+00
      1182   4 -6.358863E+01 -2.388643E+01  7.860952E+00  2.728027E+01  2.170874E+00  6.704490E+00
      1182   5 -1.759936E+02 -4.862578E+01 -1.201067E+01  2.068791E+01 -1.573354E-02 -3.048541E+00
      1182   6 -8.257532E+01 -8.431116E+00  7.187699E+00  3.743278E+00 -1.463428E-01 -2.889844E+00
      1182   7 -1.729843E+02 -4.784466E+01 -1.079110E+01  2.048622E+01  2.589499E+00  4.391073E+00
      1182   8 -7.990603E+01 -7.630507E+00  8.303582E+00  3.377363E+00  2.397784E+00  4.549865E+00
      1183   1 -3.180514E+01 -4.913721E+01 -5.145907E+00  6.629759E+00 -4.777043E-01 -7.528288E-01
      1183   2  4.275310E+01 -1.713595E+01  6.687739E+00 -8.260707E+00 -5.187301E-01 -4.876827E-01
      1183   3 -2.922813E+01 -4.805903E+01 -4.059308E+00  5.864217E+00  1.934913E+00  6.409085E+00
      1183   4  4.504386E+01 -1.604288E+01  7.682369E+00 -9.150059E+00  1.843478E+00  6.674352E+00
      1183   5 -4.728009E+01 -3.438217E+01 -5.066753E+00 -1.609938E+01 -3.417904E-01 -3.152269E+00
      1183   6  2.791863E+01 -3.105258E+00  6.627331E+00 -2.996376E+01 -4.582876E-01 -3.085519E+00
      1183   7 -4.476418E+01 -3.318508E+01 -3.884959E+00 -1.664136E+01  2.086064E+00  4.048497E+00
      1183   8  3.015491E+01 -1.894749E+00  7.722021E+00 -3.063963E+01  1.918261E+00  4.112653E+00
      1184   1  7.630674E+01 -2.869890E+01 -1.128472E+00 -2.338674E+01 -7.283545E-01 -8.870950E-01
      1184   2  1.380159E+02 -2.976673E+00  5.847574E+00 -3.594265E+01 -7.627568E-01 -6.242971E-01
      1184   3  7.838407E+01 -2.755024E+01 -1.877478E-01 -2.440530E+01  1.496512E+00  5.948169E+00
      1184   4  1.398516E+02 -1.815950E+00  6.709284E+00 -3.706608E+01  1.419696E+00  6.208297E+00
      1184   5  6.205354E+01 -1.547128E+01 -1.344238E+00 -4.410886E+01 -7.330101E-01 -3.671513E+00
      1184   6  1.242982E+02  9.635864E+00  5.498087E+00 -5.579708E+01 -8.416094E-01 -3.607154E+00
      1184   7  6.408021E+01 -1.420850E+01 -3.045497E-01 -4.492415E+01  1.505027E+00  3.196132E+00
      1184   8  1.260891E+02  1.090969E+01  6.463369E+00 -5.672575E+01  1.353240E+00  3.255477E+00
      1185   1  1.703040E+02 -6.055065E+00  8.368267E-01 -4.687097E+01 -1.029422E+00 -1.189066E+00
      1185   2  2.225309E+02  1.512942E+01  4.470510E+00 -5.771801E+01 -1.083048E+00 -9.240483E-01
      1185   3  1.719993E+02 -4.869814E+00  1.657395E+00 -4.806550E+01  1.022827E+00  5.322383E+00
      1185   4  2.240270E+02  1.633111E+01  5.226516E+00 -5.900613E+01  9.333630E-01  5.582257E+00
      1185   5  1.570279E+02  6.132640E+00  4.044437E-01 -6.604258E+01 -1.165321E+00 -4.348366E+00
      1185   6  2.097099E+02  2.677816E+01  3.907627E+00 -7.614116E+01 -1.289460E+00 -4.284892E+00
      1185   7  1.586814E+02  7.435994E+00  1.329426E+00 -6.705118E+01  8.983644E-01  2.189661E+00
      1185   8  2.111695E+02  2.809693E+01  4.772305E+00 -7.725062E+01  7.377254E-01  2.245934E+00
      1186   1 -3.054138E+02 -7.509797E+01 -2.257213E+01  9.922518E+01 -6.271164E-02 -2.055764E+00
      1186   2 -1.878392E+02 -2.100353E+01  7.004650E+00  7.587866E+01 -1.899748E-01 -1.141047E+00
      1186   3 -2.998415E+02 -7.502302E+01 -2.084110E+01  9.846223E+01  2.935636E+00  5.689847E+00
      1186   4 -1.828693E+02 -2.098014E+01  8.528040E+00  7.495926E+01  2.730723E+00  6.614389E+00
      1186   5 -3.246084E+02 -5.443919E+01 -2.128740E+01  7.074985E+01  9.900421E-01 -3.790775E+00
      1186   6 -2.060518E+02 -1.495488E+00  8.115300E+00  4.892719E+01  7.696136E-01 -3.083675E+00
      1186   7 -3.190947E+02 -5.425188E+01 -1.946801E+01  7.031257E+01  4.011742E+00  4.008595E+00
      1186   8 -2.011330E+02 -1.361413E+00  9.732343E+00  4.831603E+01  3.712281E+00  4.721487E+00
      1187   1 -1.535677E+02 -6.489822E+01 -1.176119E+01  4.507220E+01 -1.462802E-01 -2.238918E-01
      1187   2 -6.196543E+01 -2.418935E+01  6.478708E+00  2.663277E+01 -2.443131E-01  3.158700E-01
      1187   3 -1.485747E+02 -6.353397E+01 -9.835940E+00  4.402399E+01  2.666741E+00  7.357358E+00
      1187   4 -5.745357E+01 -2.287486E+01  8.233486E+00  2.546442E+01  2.504235E+00  7.902788E+00
      1187   5 -1.707160E+02 -4.766937E+01 -1.110114E+01  2.013329E+01  7.177360E-01 -2.391102E+00
      1187   6 -7.832547E+01 -7.855874E+00  6.985993E+00  2.915219E+00  5.327296E-01 -2.051867E+00
      1187   7 -1.657749E+02 -4.621614E+01 -9.088024E+00  1.936560E+01  3.551427E+00  5.237207E+00
      1187   8 -7.385887E+01 -6.452593E+00  8.834094E+00  2.013666E+00  3.300783E+00  5.578756E+00
      1188   1 -2.791533E+01 -4.822190E+01 -5.786805E+00  5.104450E+00 -5.357373E-01 -9.857246E-02
      1188   2  4.603030E+01 -1.629131E+01  5.697773E+00 -9.989904E+00 -5.858823E-01  3.164697E-01
      1188   3 -2.363942E+01 -4.647657E+01 -3.980284E+00  3.789905E+00  2.028720E+00  7.056829E+00
      1188   4  4.989870E+01 -1.459684E+01  7.356167E+00 -1.139917E+01  1.925383E+00  7.473752E+00
      1188   5 -4.349498E+01 -3.328244E+01 -5.557493E+00 -1.722718E+01  1.581433E-01 -2.669514E+00
      1188   6  3.109928E+01 -2.081039E+00  5.788957E+00 -3.131338E+01  2.134062E-02 -2.450113E+00
      1188   7 -3.926261E+01 -3.146281E+01 -3.663399E+00 -1.829021E+01  2.740382E+00  4.525037E+00
      1188   8  3.493002E+01 -3.116994E-01  7.540172E+00 -3.248246E+01  2.549394E+00  4.743525E+00
      1189   1  7.918214E+01 -2.778473E+01 -2.240074E+00 -2.532746E+01 -9.916504E-01 -5.607174E-01
      1189   2  1.404907E+02 -2.007183E+00  4.707462E+00 -3.805661E+01 -1.038023E+00 -1.462901E-01
      1189   3  8.276600E+01 -2.609128E+01 -6.740182E-01 -2.683231E+01  1.350744E+00  6.192182E+00
      1189   4  1.437356E+02 -3.539408E-01  6.149762E+00 -3.964320E+01  1.260099E+00  6.605204E+00
      1189   5  6.483683E+01 -1.438330E+01 -2.310293E+00 -4.568851E+01 -4.580333E-01 -3.515174E+00
      1189   6  1.266888E+02  1.077586E+01  4.506620E+00 -5.756511E+01 -5.876122E-01 -3.297253E+00
      1189   7  6.838580E+01 -1.261344E+01 -6.522692E-01 -4.696563E+01  1.899783E+00  3.269722E+00
      1189   8  1.299040E+02  1.250609E+01  6.045732E+00 -5.893354E+01  1.725088E+00  3.483843E+00
      1190   1  1.725112E+02 -5.073870E+00 -4.165577E-01 -4.908850E+01 -1.491737E+00 -1.110473E+00
      1190   2  2.242720E+02  1.603009E+01  2.869873E+00 -6.009195E+01 -1.590473E+00 -6.881269E-01
      1190   3  1.755895E+02 -3.440380E+00  9.625490E-01 -5.069269E+01  7.010698E-01  5.417073E+00
      1190   4  2.270822E+02  1.764423E+01  4.152995E+00 -6.177402E+01  5.649444E-01  5.835184E+00
      1190   5  1.591545E+02  7.295594E+00 -7.010367E-01 -6.793103E+01 -1.103729E+00 -4.440424E+00
      1190   6  2.113765E+02  2.785644E+01  2.455992E+00 -7.819887E+01 -1.276763E+00 -4.220917E+00
      1190   7  1.622062E+02  9.022676E+00  7.803180E-01 -6.933014E+01  1.102913E+00  2.113523E+00
      1190   8  2.141646E+02  2.956407E+01  3.845751E+00 -7.968385E+01  8.917804E-01  2.326668E+00
      1191   1 -2.942072E+02 -7.404543E+01 -1.762642E+01  9.759772E+01 -2.474428E-01 -1.997753E+00
      1191   2 -1.791161E+02 -2.145006E+01  8.354741E+00  7.399634E+01 -4.491638E-01 -7.437632E-01
      1191   3 -2.862695E+02 -7.332916E+01 -1.498372E+01  9.599171E+01  3.206718E+00  6.546531E+00
      1191   4 -1.719638E+02 -2.088545E+01  1.070356E+01  7.227827E+01  2.917399E+00  7.814864E+00
      1191   5 -3.134775E+02 -5.319498E+01 -1.615250E+01  6.969922E+01  1.486510E+00 -3.964747E+00
      1191   6 -1.974033E+02 -1.763569E+00  9.637425E+00  4.759082E+01  1.181648E+00 -2.920741E+00
      1191   7 -3.055687E+02 -5.241571E+01 -1.341968E+01  6.845352E+01  4.969204E+00  4.638852E+00
      1191   8 -1.902737E+02 -1.134594E+00  1.208260E+01  4.621378E+01  4.575149E+00  5.692720E+00
      1192   1 -1.455195E+02 -6.365035E+01 -1.120105E+01  4.293616E+01 -5.677387E-01 -1.397736E-01
      1192   2 -5.516493E+01 -2.340747E+01  5.924773E+00  2.430858E+01 -5.694630E-01  6.885340E-01
      1192   3 -1.385924E+02 -6.175460E+01 -8.526144E+00  4.100639E+01  2.468419E+00  7.589690E+00
      1192   4 -4.893661E+01 -2.168514E+01  8.326480E+00  2.231361E+01  2.396652E+00  8.426979E+00
      1192   5 -1.627513E+02 -4.629925E+01 -1.039939E+01  1.849926E+01  9.524137E-01 -2.538361E+00
      1192   6 -7.160221E+01 -6.955543E+00  6.571908E+00  1.068489E+00  8.367762E-01 -1.899169E+00
      1192   7 -1.558514E+02 -4.439512E+01 -7.651287E+00  1.689388E+01  4.012237E+00  5.239063E+00
      1192   8 -6.539555E+01 -5.220958E+00  9.053231E+00 -6.179842E-01  3.825194E+00  5.883743E+00
      1193   1 -2.176896E+01 -4.696136E+01 -6.629041E+00  2.517704E+00 -1.034101E+00 -3.047025E-01
      1193   2  5.137609E+01 -1.518188E+01  4.514684E+00 -1.272230E+01 -9.243544E-01  4.733162E-01
      1193   3 -1.609514E+01 -4.518662E+01 -4.384582E+00  3.510011E-01  1.673903E+00  6.807628E+00
      1193   4  5.644113E+01 -1.357272E+01  6.516295E+00 -1.493301E+01  1.726406E+00  7.590245E+00
      1193   5 -3.742579E+01 -3.193332E+01 -6.277550E+00 -1.936204E+01  2.654533E-01 -3.089707E+00
      1193   6  3.637510E+01 -8.832985E-01  4.731250E+00 -3.361427E+01  2.567640E-01 -2.491964E+00
      1193   7 -3.177247E+01 -3.016644E+01 -3.963096E+00 -2.123309E+01  2.993244E+00  4.060723E+00
      1193   8  4.142457E+01  7.223344E-01  6.808909E+00 -3.554271E+01  2.926136E+00  4.660211E+00
      1194   1  8.409182E+01 -2.654273E+01 -3.496863E+00 -2.817565E+01 -1.472471E+00 -8.941412E-01
      1194   2  1.448239E+02 -8.013344E-01  3.358845E+00 -4.103325E+01 -1.418379E+00 -2.294037E-01
      1194   3  8.898214E+01 -2.461390E+01 -1.458757E+00 -3.034534E+01  9.840730E-01  5.768161E+00
      1194   4  1.492317E+02  1.005985E+00  5.205832E+00 -4.324849E+01  9.911388E-01  6.433438E+00
      1194   5  6.967860E+01 -1.304608E+01 -3.445680E+00 -4.812977E+01 -3.860116E-01 -4.041508E+00
      1194   6  1.309609E+02  1.207684E+01  3.283279E+00 -6.015190E+01 -4.375361E-01 -3.562633E+00
      1194   7  7.455278E+01 -1.110349E+01 -1.329266E+00 -5.003779E+01  2.087786E+00  2.651712E+00
      1194   8  1.353569E+02  1.390103E+01  5.213907E+00 -6.211642E+01  1.988262E+00  3.128699E+00
      1195   1  1.766514E+02 -3.802462E+00 -1.692504E+00 -5.204848E+01 -1.969479E+00 -1.415732E+00
      1195   2  2.280438E+02  1.737860E+01  1.711182E+00 -6.317924E+01 -2.062444E+00 -7.699877E-01
      1195   3  1.809603E+02 -1.936772E+00  1.349214E-01 -5.415243E+01  3.167625E-01  4.984206E+00
      1195   4  2.319975E+02  1.917774E+01  3.402483E+00 -6.534016E+01  1.849237E-01  5.626747E+00
      1195   5  1.632369E+02  8.698823E+00 -1.842868E+00 -7.052739E+01 -1.063051E+00 -4.925714E+00
      1195   6  2.150964E+02  2.933530E+01  1.434879E+00 -8.093671E+01 -1.240134E+00 -4.480673E+00
      1195   7  1.675350E+02  1.062299E+01  8.006172E-02 -7.240339E+01  1.239004E+00  1.499436E+00
      1195   8  2.190433E+02  3.119417E+01  3.226222E+00 -8.287857E+01  1.022273E+00  1.939101E+00
      1196   1 -2.794098E+02 -7.257569E+01 -1.246354E+01  9.421639E+01 -1.911565E+00 -2.919286E+00
      1196   2 -1.675545E+02 -2.205034E+01  8.939197E+00  7.046426E+01 -1.755877E+00 -1.088099E+00
      1196   3 -2.689139E+02 -7.153073E+01 -8.945643E+00  9.096249E+01  2.101750E+00  6.617231E+00
      1196   4 -1.582979E+02 -2.142515E+01  1.194496E+01  6.721768E+01  2.154005E+00  8.471011E+00
      1196   5 -2.987065E+02 -5.166737E+01 -1.082129E+01  6.697151E+01  7.331588E-01 -5.271083E+00
      1196   6 -1.858719E+02 -2.314279E+00  1.036907E+01  4.467738E+01  7.239342E-01 -3.617283E+00
      1196   7 -2.881993E+02 -5.072505E+01 -7.241367E+00  6.415814E+01  4.780224E+00  4.330464E+00
      1196   8 -1.765993E+02 -1.780922E+00  1.344589E+01  4.184774E+01  4.665491E+00  6.001917E+00
      1197   1 -1.351920E+02 -6.288785E+01 -1.151330E+01  3.899542E+01 -2.172312E+00 -1.864818E+00
      1197   2 -4.596071E+01 -2.279270E+01  5.638150E+00  2.029629E+01 -1.650005E+00 -2.121842E-01
      1197   3 -1.270091E+02 -6.204800E+01 -8.767903E+00  3.542206E+01  9.750670E-01  5.636106E+00
      1197   4 -3.891278E+01 -2.238387E+01  7.902607E+00  1.677169E+01  1.420617E+00  7.302726E+00
      1197   5 -1.524684E+02 -4.559763E+01 -1.062417E+01  1.515158E+01  1.407474E-01 -4.596917E+00
      1197   6 -6.243451E+01 -6.392763E+00  6.382252E+00 -2.379801E+00  4.720038E-01 -3.089923E+00
      1197   7 -1.442768E+02 -4.492740E+01 -7.849607E+00  1.198731E+01  3.312967E+00  2.947887E+00
      1197   8 -5.537404E+01 -6.141033E+00  8.684256E+00 -5.515357E+00  3.565727E+00  4.465372E+00
      1198   1 -1.342216E+01 -4.607655E+01 -6.943472E+00 -1.703087E+00 -2.125234E+00 -1.669017E+00
      1198   2  5.855726E+01 -1.464839E+01  3.729273E+00 -1.699026E+01 -1.617471E+00 -1.726827E-01
      1198   3 -6.898720E+00 -4.537900E+01 -4.757712E+00 -5.155590E+00  7.258274E-01  5.380760E+00
      1198   4  6.416337E+01 -1.429774E+01  5.525323E+00 -2.040676E+01  1.170315E+00  6.885789E+00
      1198   5 -2.911531E+01 -3.112235E+01 -6.509630E+00 -2.304678E+01 -1.624774E-01 -4.722044E+00
      1198   6  4.352557E+01 -4.163643E-01  4.033605E+00 -3.737041E+01  1.675480E-01 -3.373491E+00
      1198   7 -2.258054E+01 -3.056381E+01 -4.283649E+00 -2.613856E+01  2.709671E+00  2.363006E+00
      1198   8  4.914638E+01 -1.945361E-01  5.877239E+00 -4.044245E+01  2.974941E+00  3.717342E+00
      1199   1  9.093276E+01 -2.542563E+01 -4.247568E+00 -3.233182E+01 -2.149345E+00 -1.814837E+00
      1199   2  1.506899E+02  4.080916E-03  2.121668E+00 -4.524489E+01 -1.718252E+00 -5.056088E-01
      1199   3  9.630201E+01 -2.463372E+01 -2.397972E+00 -3.559530E+01  4.445664E-01  4.825148E+00
      1199   4  1.553268E+02  5.281732E-01  3.661350E+00 -4.848942E+01  8.233424E-01  6.138492E+00
      1199   5  7.648563E+01 -1.196274E+01 -4.106938E+00 -5.181170E+01 -5.016848E-01 -5.178470E+00
      1199   6  1.367980E+02  1.285353E+01  2.140286E+00 -6.390916E+01 -2.306382E-01 -4.024908E+00
      1199   7  8.186688E+01 -1.127062E+01 -2.204258E+00 -5.475648E+01  2.110304E+00  1.489614E+00
      1199   8  1.414500E+02  1.328570E+01  3.739468E+00 -6.684830E+01  2.327786E+00  2.644822E+00
      1200   1  1.826414E+02 -2.432066E+00 -2.477922E+00 -5.597004E+01 -2.242204E+00 -1.883671E+00
      1200   2  2.338076E+02  1.904760E+01  1.708265E+00 -6.718394E+01 -2.096947E+00 -8.622232E-01
      1200   3  1.875821E+02 -9.890134E-01 -5.775669E-01 -5.883605E+01  6.463766E-02  4.186235E+00
      1200   4  2.382302E+02  2.032896E+01  3.395441E+00 -7.006415E+01  1.680590E-01  5.206806E+00
      1200   5  1.691957E+02  1.012091E+01 -2.515154E+00 -7.403947E+01 -8.618232E-01 -5.563562E+00
      1200   6  2.208350E+02  3.105868E+01  1.551675E+00 -8.454790E+01 -8.369610E-01 -4.722170E+00
      1200   7  1.741433E+02  1.153859E+01 -5.425171E-01 -7.663771E+01  1.461497E+00  5.289458E-01
      1200   8  2.252676E+02  3.231906E+01  3.316217E+00 -8.717080E+01  1.443574E+00  1.367301E+00
      1201   1 -3.341729E+02 -6.056069E+01 -2.749326E+01  7.877425E+01 -6.065344E-01 -2.751959E+00
      1201   2 -2.097298E+02 -8.387818E+00  5.343895E+00  6.166222E+01 -5.731914E-01 -2.452631E+00
      1201   3 -3.325432E+02 -6.117800E+01 -2.718387E+01  7.955257E+01  1.215347E+00  4.654725E+00
      1201   4 -2.083666E+02 -8.929129E+00  5.587363E+00  6.216644E+01  1.197542E+00  4.946707E+00
      1201   5 -3.482193E+02 -4.565079E+01 -2.681064E+01  4.621515E+01 -6.068162E-01 -4.280358E+00
      1201   6 -2.230608E+02  5.687911E+00  5.905511E+00  3.084554E+01 -6.354692E-01 -4.203492E+00
      1201   7 -3.467538E+02 -4.601930E+01 -2.640577E+01  4.723740E+01  1.223930E+00  3.162206E+00
      1201   8 -2.218488E+02  5.386333E+00  6.249288E+00  3.158065E+01  1.143465E+00  3.228837E+00
      1202   1 -1.696604E+02 -5.957497E+01 -1.289741E+01  3.885917E+01 -5.267363E-01 -2.164596E+00
      1202   2 -7.297281E+01 -2.064538E+01  7.212315E+00  2.534940E+01 -5.029052E-01 -1.961677E+00
      1202   3 -1.684093E+02 -5.960627E+01 -1.254163E+01  3.902611E+01  1.242668E+00  5.382130E+00
      1202   4 -7.192602E+01 -2.061682E+01  7.515937E+00  2.529966E+01  1.223382E+00  5.576155E+00
      1202   5 -1.821849E+02 -4.713600E+01 -1.264671E+01  1.043005E+01 -6.554635E-01 -4.165342E+00
      1202   6 -8.492498E+01 -8.856809E+00  7.354415E+00 -1.687458E+00 -6.889807E-01 -4.181035E+00
      1202   7 -1.810733E+02 -4.695000E+01 -1.218958E+01  1.080540E+01  1.121660E+00  3.412496E+00
      1202   8 -8.400643E+01 -8.617192E+00  7.764584E+00 -1.539009E+00  1.044458E+00  3.385415E+00
      1203   1 -3.474838E+01 -4.901245E+01 -4.758830E+00  9.518185E+00 -4.891964E-01 -1.847440E+00
      1203   2  4.298570E+01 -1.888806E+01  7.388356E+00 -1.537387E+00 -4.682309E-01 -1.686607E+00
      1203   3 -3.381985E+01 -4.872470E+01 -4.418764E+00  9.225021E+00  1.177065E+00  5.540849E+00
      1203   4  4.374754E+01 -1.855239E+01  7.684069E+00 -2.008172E+00  1.161333E+00  5.691362E+00
      1203   5 -4.612340E+01 -3.823490E+01 -4.809451E+00 -1.590162E+01 -7.305006E-01 -4.287811E+00
      1203   6  3.207875E+01 -8.642432E+00  7.234333E+00 -2.580957E+01 -7.652815E-01 -4.344290E+00
      1203   7 -4.531397E+01 -3.774891E+01 -4.362702E+00 -1.601008E+01  9.424066E-01  3.126950E+00
      1203   8  3.273102E+01 -8.113246E+00  7.641855E+00 -2.610396E+01  8.704309E-01  3.057968E+00
      1204   1  7.917969E+01 -3.281209E+01 -4.394721E-01 -1.275046E+01 -4.723735E-01 -1.658194E+00
      1204   2  1.435004E+02 -8.730876E+00  6.650895E+00 -2.207235E+01 -4.539432E-01 -1.506451E+00
      1204   3  7.982474E+01 -3.237296E+01 -1.526880E-01 -1.339849E+01  1.068123E+00  5.414748E+00
      1204   4  1.440057E+02 -8.251613E+00  6.899325E+00 -2.287029E+01  1.055240E+00  5.554875E+00
      1204   5  6.870368E+01 -2.315126E+01 -7.017377E-01 -3.591455E+01 -8.171324E-01 -4.517236E+00
      1204   6  1.334153E+02  4.776720E-01  6.288209E+00 -4.426650E+01 -8.534722E-01 -4.582852E+00
      1204   7  6.924512E+01 -2.252679E+01 -3.045769E-01 -3.639508E+01  7.289826E-01  2.577563E+00
      1204   8  1.338254E+02  1.138637E+00  6.651965E+00 -4.490397E+01  6.608904E-01  2.498403E+00
      1205   1  1.776584E+02 -1.336857E+01  1.663213E+00 -3.015549E+01 -4.729152E-01 -1.529778E+00
      1205   2  2.322316E+02  6.482745E+00  5.596469E+00 -3.820936E+01 -4.643067E-01 -1.394255E+00
      1205   3  1.780990E+02 -1.278587E+01  1.919172E+00 -3.107207E+01  9.303448E-01  5.130491E+00
      1205   4  2.325553E+02  7.101777E+00  5.820132E+00 -3.925595E+01  9.122479E-01  5.253209E+00
      1205   5  1.678958E+02 -4.470321E+00  1.243542E+00 -5.159325E+01 -9.142910E-01 -4.793966E+00
      1205   6  2.228012E+02  1.498451E+01  5.078504E+00 -5.881021E+01 -9.589416E-01 -4.876972E+00
      1205   7  1.682446E+02 -3.710667E+00  1.612012E+00 -5.235602E+01  4.936426E-01  1.883760E+00
      1205   8  2.230404E+02  1.577745E+01  5.419323E+00 -5.970900E+01  4.219003E-01  1.786234E+00
      1206   1 -3.303396E+02 -6.123916E+01 -2.602663E+01  7.995888E+01 -3.569384E-01 -2.253166E+00
      1206   2 -2.067466E+02 -9.295144E+00  5.885902E+00  6.238041E+01 -3.948460E-01 -1.681386E+00
      1206   3 -3.267386E+02 -6.157843E+01 -2.503075E+01  8.028460E+01  1.677629E+00  5.329285E+00
      1206   4 -2.035512E+02 -9.620612E+00  6.755357E+00  6.245501E+01  1.584573E+00  5.895338E+00
      1206   5 -3.446510E+02 -4.589508E+01 -2.514874E+01  4.783436E+01  2.032218E-01 -3.882118E+00
      1206   6 -2.203242E+02  5.195860E+00  6.642447E+00  3.197506E+01  9.861326E-02 -3.535282E+00
      1206   7 -3.411959E+02 -4.601161E+01 -2.405763E+01  4.843691E+01  2.249493E+00  3.737635E+00
      1206   8 -2.172624E+02  5.085645E+00  7.612287E+00  3.231165E+01  2.088992E+00  4.075655E+00
      1207   1 -1.670446E+02 -5.966841E+01 -1.258640E+01  3.901048E+01 -3.413134E-01 -9.891602E-01
      1207   2 -7.096942E+01 -2.087119E+01  6.907102E+00  2.513217E+01 -3.789012E-01 -6.346610E-01
      1207   3 -1.638786E+02 -5.911821E+01 -1.146970E+01  3.879595E+01  1.618792E+00  6.657243E+00
      1207   4 -6.811939E+01 -2.031137E+01  7.922989E+00  2.471963E+01  1.534842E+00  7.004185E+00
      1207   5 -1.797990E+02 -4.685564E+01 -1.214591E+01  1.095293E+01  8.219400E-02 -3.092956E+00
      1207   6 -8.313610E+01 -8.722998E+00  7.239274E+00 -1.551324E+00 -1.623539E-02 -2.958876E+00
      1207   7 -1.767572E+02 -4.611222E+01 -1.092905E+01  1.097561E+01  2.052724E+00  4.586041E+00
      1207   8 -8.040000E+01 -7.975106E+00  8.360690E+00 -1.738219E+00  1.907300E+00  4.709920E+00
      1208   1 -3.305434E+01 -4.884447E+01 -5.224458E+00  8.887973E+00 -4.659546E-01 -7.031859E-01
      1208   2  4.429655E+01 -1.871256E+01  6.691248E+00 -2.469441E+00 -4.947152E-01 -4.398012E-01
      1208   3 -3.033152E+01 -4.789955E+01 -4.136811E+00  8.256002E+00  1.360718E+00  6.684526E+00
      1208   4  4.675769E+01 -1.776278E+01  7.693232E+00 -3.262969E+00  1.292922E+00  6.938628E+00
      1208   5 -4.463105E+01 -3.773212E+01 -5.091100E+00 -1.620218E+01 -1.616336E-01 -3.249592E+00
      1208   6  3.320136E+01 -8.142845E+00  6.723233E+00 -2.642683E+01 -2.496028E-01 -3.204518E+00
      1208   7 -4.201453E+01 -3.661245E+01 -3.899470E+00 -1.662294E+01  1.674165E+00  4.165535E+00
      1208   8  3.556546E+01 -7.021838E+00  7.834526E+00 -2.701872E+01  1.546611E+00  4.199044E+00
      1209   1  8.023949E+01 -3.250060E+01 -1.215352E+00 -1.398509E+01 -6.477103E-01 -8.564468E-01
      1209   2  1.442909E+02 -8.360795E+00  5.801272E+00 -2.356177E+01 -6.726792E-01 -5.942198E-01
      1209   3  8.250664E+01 -3.150939E+01 -2.642872E-01 -1.494369E+01  1.036197E+00  6.178091E+00
      1209   4  1.463375E+02 -7.365923E+00  6.678938E+00 -2.465686E+01  9.782122E-01  6.429482E+00
      1209   5  6.958353E+01 -2.253123E+01 -1.298626E+00 -3.685010E+01 -4.532501E-01 -3.824397E+00
      1209   6  1.340379E+02  1.147906E+00  5.620597E+00 -4.546939E+01 -5.362411E-01 -3.780370E+00
      1209   7  7.175929E+01 -2.137550E+01 -2.398332E-01 -3.761681E+01  1.238587E+00  3.232364E+00
      1209   8  1.360010E+02  2.304493E+00  6.611017E+00 -4.638063E+01  1.122100E+00  3.263551E+00
      1210   1  1.782794E+02 -1.288122E+01  7.338877E-01 -3.184331E+01 -8.692642E-01 -1.182812E+00
      1210   2  2.325334E+02  6.929457E+00  4.383374E+00 -4.011883E+01 -9.108359E-01 -9.208984E-01
      1210   3  1.801936E+02 -1.186280E+01  1.573801E+00 -3.303769E+01  6.830458E-01  5.503879E+00
      1210   4  2.342663E+02  7.956033E+00  5.163268E+00 -4.143342E+01  6.132855E-01  5.753535E+00
      1210   5  1.683533E+02 -3.690476E+00  4.882662E-01 -5.300688E+01 -7.766764E-01 -4.559522E+00
      1210   6  2.229494E+02  1.571595E+01  4.041237E+00 -6.045620E+01 -8.727390E-01 -4.518415E+00
      1210   7  1.701883E+02 -2.508627E+00  1.441183E+00 -5.402624E+01  7.826362E-01  2.144951E+00
      1210   8  2.246100E+02  1.690345E+01  4.938818E+00 -6.160258E+01  6.579693E-01  2.172004E+00
      1211   1 -3.227449E+02 -6.114450E+01 -2.265820E+01  8.032320E+01 -2.521623E-01 -1.936018E+00
      1211   2 -2.007075E+02 -9.997999E+00  7.156111E+00  6.231998E+01 -3.510687E-01 -1.044179E+00
      1211   3 -3.170457E+02 -6.122978E+01 -2.094549E+01  8.009623E+01  2.074341E+00  6.112482E+00
      1211   4 -1.955753E+02 -1.014419E+01  8.671065E+00  6.187008E+01  1.914234E+00  7.000809E+00
      1211   5 -3.372864E+02 -4.541105E+01 -2.158012E+01  4.869173E+01  9.130032E-01 -3.694665E+00
      1211   6 -2.145004E+02  4.863967E+00  8.107698E+00  3.238127E+01  7.395889E-01 -3.029981E+00
      1211   7 -3.317112E+02 -4.530383E+01 -1.976975E+01  4.877852E+01  3.254566E+00  4.393861E+00
      1211   8 -2.094810E+02  4.904605E+00  9.725956E+00  3.222836E+01  3.019092E+00  5.051657E+00
      1212   1 -1.614578E+02 -5.912729E+01 -1.184381E+01  3.846588E+01 -3.189764E-01 -1.264943E-01
      1212   2 -6.637462E+01 -2.073103E+01  6.534449E+00  2.425393E+01 -3.910897E-01  3.991598E-01
      1212   3 -1.562640E+02 -5.795564E+01 -9.920741E+00  3.777329E+01  1.863931E+00  7.728697E+00
      1212   4 -6.163765E+01 -1.961649E+01  8.294195E+00  2.338909E+01  1.740951E+00  8.248621E+00
      1212   5 -1.744168E+02 -4.598800E+01 -1.122012E+01  1.083191E+01  6.948412E-01 -2.361115E+00
      1212   6 -7.873307E+01 -8.269423E+00  7.047784E+00 -2.026680E+00  5.527409E-01 -2.055341E+00
      1212   7 -1.693301E+02 -4.465763E+01 -9.199401E+00  1.041116E+01  2.891119E+00  5.528702E+00
      1212   8 -7.409322E+01 -6.999263E+00  8.911095E+00 -2.633049E+00  2.697421E+00  5.825923E+00
      1213   1 -2.888047E+01 -4.820018E+01 -5.879655E+00  7.633374E+00 -6.057514E-01 -4.391159E-02
      1213   2  4.789278E+01 -1.815990E+01  5.685243E+00 -3.995382E+00 -6.409908E-01  3.655898E-01
      1213   3 -2.434978E+01 -4.667650E+01 -4.064251E+00  6.559581E+00  1.385605E+00  7.351356E+00
      1213   4  5.203444E+01 -1.669220E+01  7.358508E+00 -5.207300E+00  1.308213E+00  7.752994E+00
      1213   5 -4.063929E+01 -3.680167E+01 -5.576039E+00 -1.707852E+01  2.713820E-01 -2.720307E+00
      1213   6  3.662794E+01 -7.312826E+00  5.889223E+00 -2.759163E+01  1.653569E-01 -2.526656E+00
      1213   7 -3.619976E+01 -3.513903E+01 -3.662269E+00 -1.790727E+01  2.274327E+00  4.703134E+00
      1213   8  4.068679E+01 -5.708166E+00  7.666446E+00 -2.856955E+01  2.125514E+00  4.886541E+00
      1214   1  8.346133E+01 -3.190322E+01 -2.345396E+00 -1.578673E+01 -9.411570E-01 -5.504791E-01
      1214   2  1.471429E+02 -7.725147E+00  4.643310E+00 -2.559310E+01 -9.754812E-01 -1.407051E-01
      1214   3  8.732955E+01 -3.044259E+01 -7.615890E-01 -1.713571E+01  8.784989E-01  6.412178E+00
      1214   4  1.506878E+02 -6.309477E+00  6.108442E+00 -2.705997E+01  8.089678E-01  6.812152E+00
      1214   5  7.264310E+01 -2.166865E+01 -2.264169E+00 -3.830853E+01 -1.937915E-01 -3.646490E+00
      1214   6  1.367386E+02  2.041846E+00  4.630066E+00 -4.717187E+01 -2.955056E-01 -3.453191E+00
      1214   7  7.643313E+01 -2.007377E+01 -5.780329E-01 -3.943604E+01  1.636034E+00  3.338478E+00
      1214   8  1.402127E+02  3.590222E+00  6.202731E+00 -4.842656E+01  1.498567E+00  3.519903E+00
      1215   1  1.808697E+02 -1.223332E+01 -5.382873E-01 -3.403002E+01 -1.314092E+00 -1.149708E+00
      1215   2  2.346827E+02  7.478766E+00  2.761020E+00 -4.250915E+01 -1.392214E+00 -7.388638E-01
      1215   3  1.842419E+02 -1.082434E+01  8.669501E-01 -3.555081E+01  3.884355E-01  5.565483E+00
      1215   4  2.378012E+02  8.862511E+00  4.074606E+00 -4.413742E+01  2.806348E-01  5.964745E+00
      1215   5  1.707980E+02 -2.779737E+00 -6.186514E-01 -5.488208E+01 -6.829603E-01 -4.653938E+00
      1215   6  2.249626E+02  1.652163E+01  2.586593E+00 -6.254715E+01 -8.192686E-01 -4.464583E+00
      1215   7  1.741037E+02 -1.227394E+00  8.981919E-01 -5.620504E+01  1.028832E+00  2.078958E+00
      1215   8  2.280212E+02  1.804710E+01  4.016604E+00 -6.398533E+01  8.623907E-01  2.254862E+00
      1216   1 -3.112328E+02 -6.038975E+01 -1.767843E+01  7.968109E+01 -4.992224E-01 -1.876443E+00
      1216   2 -1.916410E+02 -1.077537E+01  8.512360E+00  6.130503E+01 -6.570924E-01 -6.607785E-01
      1216   3 -3.030054E+02 -5.996252E+01 -1.504267E+01  7.876623E+01  2.232092E+00  7.016311E+00
      1216   4 -1.841754E+02 -1.050309E+01  1.086273E+01  6.020397E+01  2.004261E+00  8.231573E+00
      1216   5 -3.259643E+02 -4.432245E+01 -1.639467E+01  4.860868E+01  1.370049E+00 -3.816958E+00
      1216   6 -2.056142E+02  4.402143E+00  9.657712E+00  3.189549E+01  1.127538E+00 -2.829899E+00
      1216   7 -3.178334E+02 -4.374212E+01 -1.365666E+01  4.805007E+01  4.120662E+00  5.120503E+00
      1216   8 -1.982347E+02  4.824528E+00  1.211690E+01  3.113160E+01  3.807176E+00  6.103386E+00
      1217   1 -1.529998E+02 -5.827200E+01 -1.129071E+01  3.700438E+01 -7.456729E-01 -7.620168E-02
      1217   2 -5.913515E+01 -2.035975E+01  5.965671E+00  2.251032E+01 -7.418634E-01  7.467435E-01
      1217   3 -1.456937E+02 -5.672344E+01 -8.609146E+00  3.558967E+01  1.662916E+00  7.948422E+00
      1217   4 -5.251586E+01 -1.898298E+01  8.380294E+00  2.096817E+01  1.609983E+00  8.768249E+00
      1217   5 -1.661361E+02 -4.488119E+01 -1.050098E+01  9.861148E+00  9.467453E-01 -2.490719E+00
      1217   6 -7.165880E+01 -7.655568E+00  6.644520E+00 -3.303650E+00  8.520574E-01 -1.878515E+00
      1217   7 -1.589145E+02 -4.323821E+01 -7.732061E+00  8.772378E+00  3.371545E+00  5.569627E+00
      1217   8 -6.511536E+01 -6.184414E+00  9.153097E+00 -4.535787E+00  3.219206E+00  6.175729E+00
      1218   1 -2.224835E+01 -4.739539E+01 -6.741707E+00  5.520726E+00 -1.084892E+00 -2.931421E-01
      1218   2  5.374716E+01 -1.751697E+01  4.481229E+00 -6.332264E+00 -9.942867E-01  4.959254E-01
      1218   3 -1.615366E+01 -4.599578E+01 -4.482710E+00  3.750075E+00  1.067018E+00  7.071768E+00
      1218   4  5.923930E+01 -1.628028E+01  6.501997E+00 -8.199599E+00  1.110773E+00  7.855230E+00
      1218   5 -3.416515E+01 -3.578766E+01 -6.289345E+00 -1.874675E+01  4.180930E-01 -3.135297E+00
      1218   6  4.233559E+01 -6.465966E+00  4.837003E+00 -2.950414E+01  4.040695E-01 -2.549833E+00
      1218   7 -2.814134E+01 -3.431514E+01 -3.945466E+00 -2.021797E+01  2.583698E+00  4.257123E+00
      1218   8  4.776440E+01 -5.155336E+00  6.948877E+00 -3.108557E+01  2.522010E+00  4.834503E+00
      1219   1  8.888694E+01 -3.113039E+01 -3.624259E+00 -1.832073E+01 -1.400533E+00 -9.243760E-01
      1219   2  1.520125E+02 -6.998337E+00  3.272612E+00 -2.832051E+01 -1.355876E+00 -2.542222E-01
      1219   3  9.419051E+01 -2.955099E+01 -1.562929E+00 -2.021427E+01  5.529014E-01  5.957406E+00
      1219   4  1.568406E+02 -5.539678E+00  5.147032E+00 -3.030217E+01  5.590425E-01  6.619416E+00
      1219   5  7.792709E+01 -2.069402E+01 -3.397582E+00 -4.044355E+01 -8.301263E-02 -4.168852E+00
      1219   6  1.414766E+02  2.966132E+00  3.408308E+00 -4.951703E+01 -1.296908E-01 -3.706439E+00
      1219   7  8.316885E+01 -1.903147E+01 -1.244799E+00 -4.207377E+01  1.882537E+00  2.734616E+00
      1219   8  1.462496E+02  4.508504E+00  5.379772E+00 -5.124640E+01  1.796670E+00  3.186746E+00
      1220   1  1.855224E+02 -1.140780E+01 -1.835341E+00 -3.681126E+01 -1.769525E+00 -1.496634E+00
      1220   2  2.389868E+02  8.369077E+00  1.581111E+00 -4.547033E+01 -1.843837E+00 -8.652903E-01
      1220   3  1.902153E+02 -9.842868E+00  2.420985E-02 -3.873848E+01  4.823254E-02  5.098670E+00
      1220   4  2.433333E+02  9.864418E+00  3.308094E+00 -4.748783E+01 -5.745301E-02  5.719273E+00
      1220   5  1.753247E+02 -1.732226E+00 -1.761160E+00 -5.731038E+01 -6.047447E-01 -5.138335E+00
      1220   6  2.291499E+02  1.762962E+01  1.565287E+00 -6.516918E+01 -7.478331E-01 -4.726521E+00
      1220   7  1.799650E+02 -5.259305E-02  2.045803E-01 -5.901177E+01  1.224272E+00  1.473749E+00
      1220   8  2.334497E+02  1.923902E+01  3.403361E+00 -6.696964E+01  1.049293E+00  1.872897E+00
      1221   1 -2.957923E+02 -5.951630E+01 -1.248385E+01  7.760020E+01 -1.928645E+00 -2.983639E+00
      1221   2 -1.794298E+02 -1.199439E+01  9.087466E+00  5.893724E+01 -1.802115E+00 -1.149987E+00
      1221   3 -2.846651E+02 -5.906974E+01 -8.961825E+00  7.531839E+01  1.299047E+00  6.957261E+00
      1221   4 -1.695483E+02 -1.195251E+01  1.210271E+01  5.656753E+01  1.340969E+00  8.796496E+00
      1221   5 -3.106679E+02 -4.322251E+01 -1.100699E+01  4.718196E+01  8.936344E-01 -5.228703E+00
      1221   6 -1.935408E+02  3.396051E+00  1.041214E+01  3.014685E+01  8.690691E-01 -3.598018E+00
      1221   7 -2.995986E+02 -4.275411E+01 -7.400348E+00  4.535738E+01  4.144905E+00  4.761047E+00
      1221   8 -1.837084E+02  3.464335E+00  1.352091E+01  2.820992E+01  4.034310E+00  6.393122E+00
      1222   1 -1.419151E+02 -5.824329E+01 -1.162702E+01  3.406060E+01 -2.105480E+00 -1.972737E+00
      1222   2 -4.916533E+01 -2.047169E+01  5.659837E+00  1.937970E+01 -1.686943E+00 -2.647474E-01
      1222   3 -1.330334E+02 -5.807132E+01 -8.873166E+00  3.128720E+01  4.489427E-01  5.832228E+00
      1222   4 -4.143509E+01 -2.071165E+01  7.935663E+00  1.657246E+01  8.024362E-01  7.541386E+00
      1222   5 -1.551925E+02 -4.474743E+01 -1.071292E+01  7.520917E+00  4.152461E-01 -4.650578E+00
      1222   6 -6.181738E+01 -7.661760E+00  6.470810E+00 -5.860220E+00  6.522324E-01 -3.119370E+00
      1222   7 -1.463618E+02 -4.462315E+01 -7.905817E+00  5.179558E+00  2.987577E+00  3.186585E+00
      1222   8 -5.413116E+01 -7.942524E+00  8.807948E+00 -8.256577E+00  3.158232E+00  4.715884E+00
      1223   1 -1.310471E+01 -4.726910E+01 -7.076448E+00  2.067720E+00 -2.030412E+00 -1.765570E+00
      1223   2  6.172476E+01 -1.773712E+01  3.672884E+00 -9.928855E+00 -1.625013E+00 -2.140926E-01
      1223   3 -5.920118E+00 -4.719141E+01 -4.875616E+00 -7.664559E-01  2.835477E-01  5.549013E+00
      1223   4  6.797922E+01 -1.799117E+01  5.486733E+00 -1.279380E+01  6.350205E-01  7.098329E+00
      1223   5 -2.514352E+01 -3.558322E+01 -6.507449E+00 -2.165132E+01  1.623896E-01 -4.819671E+00
      1223   6  5.020105E+01 -6.607180E+00  4.150030E+00 -3.257707E+01  3.995786E-01 -3.446256E+00
      1223   7 -1.800042E+01 -3.553770E+01 -4.244448E+00 -2.410501E+01  2.491654E+00  2.519888E+00
      1223   8  5.642024E+01 -6.887621E+00  6.033277E+00 -3.507872E+01  2.673807E+00  3.888542E+00
      1224   1  9.649010E+01 -3.072119E+01 -4.396709E+00 -2.192926E+01 -2.013750E+00 -1.904612E+00
      1224   2  1.586437E+02 -6.899508E+00  2.011843E+00 -3.206247E+01 -1.670493E+00 -5.482331E-01
      1224   3  1.024729E+02 -3.048779E+01 -2.524632E+00 -2.472823E+01  9.109888E-02  4.965949E+00
      1224   4  1.638860E+02 -6.923013E+00  3.576754E+00 -3.489656E+01  3.897590E-01  6.317147E+00
      1224   5  8.541851E+01 -2.018794E+01 -4.050799E+00 -4.356992E+01 -1.151660E-01 -5.319868E+00
      1224   6  1.480051E+02  3.162005E+00  2.271599E+00 -5.279702E+01  7.831137E-02 -4.147598E+00
      1224   7  9.136577E+01 -1.996192E+01 -2.106216E+00 -4.603462E+01  2.002896E+00  1.569606E+00
      1224   8  1.532173E+02  3.135470E+00  3.915418E+00 -5.531083E+01  2.150836E+00  2.734465E+00
      1225   1  1.921970E+02 -1.064285E+01 -2.638731E+00 -4.037999E+01 -2.059232E+00 -1.976563E+00
      1225   2  2.454464E+02  9.428991E+00  1.563496E+00 -4.918281E+01 -1.943855E+00 -9.423644E-01
      1225   3  1.976623E+02 -9.645528E+00 -7.055508E-01 -4.294232E+01 -1.831946E-01  4.289599E+00
      1225   4  2.503945E+02  1.026951E+01  3.287092E+00 -5.180058E+01 -1.027460E-01  5.315003E+00
      1225   5  1.818968E+02 -8.103128E-01 -2.427255E+00 -6.046993E+01 -4.067065E-01 -5.752677E+00
      1225   6  2.355158E+02  1.884528E+01  1.691195E+00 -6.848842E+01 -3.983417E-01 -4.922030E+00
      1225   7  1.873256E+02  2.346014E-01 -4.068647E-01 -6.275740E+01  1.481533E+00  5.278761E-01
      1225   8  2.404326E+02  1.973523E+01  3.507247E+00 -7.084206E+01  1.454278E+00  1.347776E+00
      1226   1 -3.470658E+02 -4.975058E+01 -2.748770E+01  5.598336E+01 -4.293059E-01 -2.752338E+00
      1226   2 -2.196432E+02  3.336662E-01  5.478925E+00  4.502137E+01 -4.072092E-01 -2.444092E+00
      1226   3 -3.456029E+02 -5.027832E+01 -2.721412E+01  5.701947E+01  7.167261E-01  4.826532E+00
      1226   4 -2.183820E+02 -1.484509E-01  5.699169E+00  4.573598E+01  7.055773E-01  5.118025E+00
      1226   5 -3.557396E+02 -4.053493E+01 -2.704762E+01  2.129731E+01 -3.281709E-01 -4.370107E+00
      1226   6 -2.278752E+02  9.033773E+00  5.843255E+00  1.219151E+01 -3.463547E-01 -4.304151E+00
      1226   7 -3.544946E+02 -4.075216E+01 -2.667197E+01  2.253994E+01  8.216362E-01  3.229750E+00
      1226   8 -2.268156E+02  8.850214E+00  6.170865E+00  1.310158E+01  7.698982E-01  3.276784E+00
      1227   1 -1.761613E+02 -5.450572E+01 -1.293490E+01  3.034477E+01 -3.758267E-01 -2.144230E+00
      1227   2 -7.708982E+01 -1.718705E+01  7.269577E+00  2.168357E+01 -3.577114E-01 -1.932311E+00
      1227   3 -1.749486E+02 -5.453859E+01 -1.259988E+01  3.064803E+01  7.350346E-01  5.559822E+00
      1227   4 -7.603495E+01 -1.718530E+01  7.561179E+00  2.173378E+01  7.255476E-01  5.754550E+00
      1227   5 -1.838873E+02 -4.680196E+01 -1.275592E+01  8.373946E-02 -3.583801E-01 -4.276250E+00
      1227   6 -8.446275E+01 -9.885702E+00  7.381335E+00 -7.095399E+00 -3.779646E-01 -4.301818E+00
      1227   7 -1.828600E+02 -4.656586E+01 -1.231292E+01  5.647615E-01  7.556480E-01  3.444748E+00
      1227   8 -8.357942E+01 -9.623467E+00  7.786575E+00 -6.876130E+00  7.081950E-01  3.400112E+00
      1228   1 -3.650216E+01 -4.796095E+01 -4.814409E+00  1.151400E+01 -3.460789E-01 -1.809318E+00
      1228   2  4.318068E+01 -1.915132E+01  7.387503E+00  4.433876E+00 -3.299132E-01 -1.639177E+00
      1228   3 -3.552063E+01 -4.773732E+01 -4.482322E+00  1.127443E+01  6.992491E-01  5.718806E+00
      1228   4  4.403270E+01 -1.890035E+01  7.682597E+00  3.986646E+00  6.919168E-01  5.871203E+00
      1228   5 -4.353028E+01 -4.131573E+01 -4.834680E+00 -1.552903E+01 -4.026017E-01 -4.418928E+00
      1228   6  3.644280E+01 -1.283327E+01  7.304601E+00 -2.138831E+01 -4.231116E-01 -4.485314E+00
      1228   7 -4.270727E+01 -4.084602E+01 -4.387972E+00 -1.561055E+01  6.453880E-01  3.122643E+00
      1228   8  3.714816E+01 -1.234269E+01  7.719921E+00 -2.168464E+01  6.011429E-01  3.036838E+00
      1229   1  8.103367E+01 -3.463839E+01 -5.095683E-01 -2.732458E+00 -3.300870E-01 -1.603868E+00
      1229   2  1.469514E+02 -1.168929E+01  6.587791E+00 -8.696037E+00 -3.168274E-01 -1.442324E+00
      1229   3  8.180025E+01 -3.430934E+01 -2.198851E-01 -3.388056E+00  6.357662E-01  5.590483E+00
      1229   4  1.476119E+02 -1.133629E+01  6.846513E+00 -9.527066E+00  6.285066E-01  5.733815E+00
      1229   5  7.455992E+01 -2.869794E+01 -6.656674E-01 -2.735911E+01 -4.541786E-01 -4.668312E+00
      1229   6  1.407189E+02 -6.027394E+00  6.368656E+00 -3.229154E+01 -4.759889E-01 -4.743516E+00
      1229   7  7.518797E+01 -2.813891E+01 -2.569454E-01 -2.787222E+01  5.139418E-01  2.536601E+00
      1229   8  1.412511E+02 -5.449619E+00  6.751775E+00 -3.298604E+01  4.713984E-01  2.441645E+00
      1230   1  1.822872E+02 -1.731490E+01  1.561621E+00 -1.385045E+01 -3.273688E-01 -1.460431E+00
      1230   2  2.382439E+02  1.558905E+00  5.488066E+00 -1.901639E+01 -3.218041E-01 -1.316253E+00
      1230   3  1.829033E+02 -1.687593E+01  1.830234E+00 -1.482371E+01  5.512170E-01  5.302725E+00
      1230   4  2.387725E+02  2.019967E+00  5.730812E+00 -2.014061E+01  5.385587E-01  5.428355E+00
      1230   5  1.762751E+02 -1.178924E+01  1.327672E+00 -3.664577E+01 -5.130733E-01 -4.964338E+00
      1230   6  2.324342E+02  6.836514E+00  5.187899E+00 -4.092177E+01 -5.408928E-01 -5.056861E+00
      1230   7  1.767656E+02 -1.113603E+01  1.715929E+00 -3.748873E+01  3.674785E-01  1.806972E+00
      1230   8  2.328464E+02  7.507664E+00  5.555402E+00 -4.192077E+01  3.212423E-01  1.694466E+00
      1231   1 -3.434738E+02 -5.027655E+01 -2.603011E+01  5.766709E+01 -4.042526E-01 -2.207414E+00
      1231   2 -2.167957E+02 -4.780131E-01  6.019605E+00  4.615384E+01 -4.280537E-01 -1.638665E+00
      1231   3 -3.399710E+02 -5.059644E+01 -2.506924E+01  5.839412E+01  9.503471E-01  5.568701E+00
      1231   4 -2.136340E+02 -8.086991E-01  6.868412E+00  4.657489E+01  8.898673E-01  6.121676E+00
      1231   5 -3.525068E+02 -4.051639E+01 -2.538155E+01  2.335195E+01  2.628468E-01 -3.890392E+00
      1231   6 -2.253619E+02  8.743171E+00  6.594438E+00  1.367503E+01  1.951827E-01 -3.565146E+00
      1231   7 -3.492082E+02 -4.054405E+01 -2.431776E+01  2.432147E+01  1.623629E+00  3.907940E+00
      1231   8 -2.223888E+02  8.693737E+00  7.551639E+00  1.432561E+01  1.518925E+00  4.215058E+00
      1232   1 -1.735764E+02 -5.461020E+01 -1.263121E+01  3.077620E+01 -3.927785E-01 -9.389626E-01
      1232   2 -7.504438E+01 -1.747301E+01  6.956777E+00  2.168139E+01 -4.137009E-01 -5.853840E-01
      1232   3 -1.703823E+02 -5.411669E+01 -1.153025E+01  3.081803E+01  9.119344E-01  6.884404E+00
      1232   4 -7.212240E+01 -1.699169E+01  7.965952E+00  2.148321E+01  8.598562E-01  7.221734E+00
      1232   5 -1.816118E+02 -4.643944E+01 -1.224739E+01  8.348504E-01  1.837997E-01 -3.137128E+00
      1232   6 -8.270708E+01 -9.723117E+00  7.273648E+00 -6.793553E+00  1.221270E-01 -3.021514E+00
      1232   7 -1.785919E+02 -4.569476E+01 -1.103884E+01  1.086572E+00  1.494095E+00  4.705250E+00
      1232   8 -7.994582E+01 -8.998092E+00  8.396316E+00 -6.792134E+00  1.400953E+00  4.802565E+00
      1233   1 -3.469334E+01 -4.792056E+01 -5.290588E+00  1.101573E+01 -4.655210E-01 -6.573140E-01
      1233   2  4.466392E+01 -1.914353E+01  6.679787E+00  3.579788E+00 -4.810109E-01 -3.927745E-01
      1233   3 -3.185543E+01 -4.708706E+01 -4.204837E+00  1.054409E+01  7.509826E-01  6.886752E+00
      1233   4  4.727362E+01 -1.832311E+01  7.686792E+00  2.911248E+00  7.091832E-01  7.134267E+00
      1233   5 -4.199163E+01 -4.085410E+01 -5.110985E+00 -1.574252E+01  3.107623E-02 -3.333637E+00
      1233   6  3.767245E+01 -1.241890E+01  6.797875E+00 -2.197048E+01 -2.473642E-02 -3.306083E+00
      1233   7 -3.930181E+01 -3.978997E+01 -3.911613E+00 -1.602604E+01  1.252528E+00  4.225535E+00
      1233   8  4.014519E+01 -1.137370E+01  7.924149E+00 -2.245938E+01  1.170128E+00  4.234263E+00
      1234   1  8.231585E+01 -3.454075E+01 -1.297859E+00 -3.944174E+00 -5.752374E-01 -8.180475E-01
      1234   2  1.480181E+02 -1.156409E+01  5.729170E+00 -1.020852E+01 -5.909439E-01 -5.533477E-01
      1234   3  8.476044E+01 -3.370086E+01 -3.380257E-01 -4.812068E+00  5.470648E-01  6.352106E+00
      1234   4  1.502745E+02 -1.073361E+01  6.623626E+00 -1.124324E+01  5.092175E-01  6.599035E+00
      1234   5  7.560032E+01 -2.821185E+01 -1.260080E+00 -2.831406E+01 -1.524989E-01 -3.950041E+00
      1234   6  1.415591E+02 -5.524883E+00  5.707767E+00 -3.355801E+01 -2.061435E-01 -3.922861E+00
      1234   7  7.791578E+01 -2.715485E+01 -1.821560E-01 -2.901231E+01  9.741783E-01  3.231211E+00
      1234   8  1.436962E+02 -4.481946E+00  6.725707E+00 -3.443019E+01  8.981500E-01  3.239004E+00
      1235   1  1.832150E+02 -1.710299E+01  6.206985E-01 -1.560369E+01 -7.152743E-01 -1.154543E+00
      1235   2  2.388982E+02  1.701554E+00  4.264076E+00 -2.102864E+01 -7.461617E-01 -8.924212E-01
      1235   3  1.853553E+02 -1.625896E+01  1.480869E+00 -1.676535E+01  3.200663E-01  5.649407E+00
      1235   4  2.408844E+02  2.540849E+00  5.070523E+00 -2.233440E+01  2.697606E-01  5.893304E+00
      1235   5  1.769796E+02 -1.121906E+01  5.731211E-01 -3.816461E+01 -3.584587E-01 -4.726854E+00
      1235   6  2.328787E+02  7.328298E+00  4.154244E+00 -4.270877E+01 -4.239660E-01 -4.702494E+00
      1235   7  1.790035E+02 -1.017097E+01  1.553507E+00 -3.917223E+01  6.809450E-01  2.085448E+00
      1235   8  2.347573E+02  8.367920E+00  5.086077E+00 -4.386651E+01  5.958069E-01  2.090079E+00
      1236   1 -3.359896E+02 -5.015201E+01 -2.265991E+01  5.878536E+01 -4.693936E-01 -1.857645E+00
      1236   2 -2.107671E+02 -1.201981E+00  7.292314E+00  4.674922E+01 -5.333552E-01 -9.810383E-01
      1236   3 -3.302963E+02 -5.030052E+01 -2.097770E+01  5.912020E+01  1.150779E+00  6.414001E+00
      1236   4 -2.055796E+02 -1.430191E+00  8.792010E+00  4.679777E+01  1.044216E+00  7.276280E+00
      1236   5 -3.453540E+02 -3.987736E+01 -2.179446E+01  2.490530E+01  8.120022E-01 -3.629061E+00
      1236   6 -2.196438E+02  8.509399E+00  8.080074E+00  1.468222E+01  6.972477E-01 -2.997300E+00
      1236   7 -3.398469E+02 -3.975398E+01 -2.000490E+01  2.552373E+01  2.441227E+00  4.667696E+00
      1236   8 -2.146273E+02  8.543628E+00  9.693161E+00  1.499916E+01  2.283429E+00  5.282480E+00
      1237   1 -1.679001E+02 -5.418511E+01 -1.189357E+01  3.072573E+01 -5.113330E-01 -6.256156E-02
      1237   2 -7.029484E+01 -1.749364E+01  6.574735E+00  2.122169E+01 -5.545566E-01  4.555022E-01
      1237   3 -1.625895E+02 -5.314330E+01 -9.979807E+00  3.042619E+01  1.011244E+00  7.992548E+00
      1237   4 -6.540302E+01 -1.652646E+01  8.333734E+00  2.070011E+01  9.323057E-01  8.495566E+00
      1237   5 -1.762259E+02 -4.558168E+01 -1.130908E+01  1.162455E+00  6.659487E-01 -2.348354E+00
      1237   6 -7.822978E+01 -9.328395E+00  7.091389E+00 -6.893710E+00  5.725190E-01 -2.067818E+00
      1237   7 -1.710747E+02 -4.431161E+01 -9.287361E+00  1.112370E+00  2.196708E+00  5.728019E+00
      1237   8 -7.348481E+01 -8.139296E+00  8.964501E+00 -7.178018E+00  2.067175E+00  5.991271E+00
      1238   1 -3.029537E+01 -4.749913E+01 -5.958869E+00  1.008497E+01 -6.886000E-01 -5.180678E-03
      1238   2  4.853444E+01 -1.884923E+01  5.659051E+00  2.313929E+00 -7.074383E-01  4.025660E-01
      1238   3 -2.556722E+01 -4.615536E+01 -4.139421E+00  9.297322E+00  7.037014E-01  7.563173E+00
      1238   4  5.290145E+01 -1.757565E+01  7.342824E+00  1.345877E+00  6.550797E-01  7.954882E+00
      1238   5 -3.784776E+01 -4.004413E+01 -5.587741E+00 -1.633322E+01  3.906741E-01 -2.768188E+00
      1238   6  4.130441E+01 -1.174938E+01  5.970041E+00 -2.291161E+01  3.193820E-01 -2.595601E+00
      1238   7 -3.325568E+01 -3.849452E+01 -3.657786E+00 -1.689396E+01  1.790231E+00  4.816522E+00
      1238   8  4.554618E+01 -1.027459E+01  7.770201E+00 -2.366299E+01  1.688804E+00  4.971147E+00
      1239   1  8.585608E+01 -3.424080E+01 -2.444489E+00 -5.547913E+00 -8.971876E-01 -5.377723E-01
      1239   2  1.512387E+02 -1.125175E+01  4.558113E+00 -1.209655E+01 -9.184838E-01 -1.290055E-01
      1239   3  8.997212E+01 -3.298925E+01 -8.462604E-01 -6.694900E+00  3.776786E-01  6.574018E+00
      1239   4  1.550603E+02 -1.005490E+01  6.045628E+00 -1.339743E+01  3.317825E-01  6.965723E+00
      1239   5  7.891296E+01 -2.755118E+01 -2.221318E+00 -2.961165E+01  8.772946E-02 -3.754814E+00
      1239   6  1.445662E+02 -4.862384E+00  4.724950E+00 -3.515271E+01  1.889027E-02 -3.582332E+00
      1239   7  8.291066E+01 -2.610328E+01 -5.083652E-01 -3.055543E+01  1.369103E+00  3.368600E+00
      1239   8  1.482788E+02 -3.472975E+00  6.332662E+00 -3.625889E+01  1.275365E+00  3.522313E+00
      1240   1  1.861954E+02 -1.679481E+01 -6.656228E-01 -1.769930E+01 -1.136895E+00 -1.164905E+00
      1240   2  2.414800E+02  1.885558E+00  2.628756E+00 -2.337065E+01 -1.194172E+00 -7.600174E-01
      1240   3  1.898501E+02 -1.560394E+01  7.654145E-01 -1.909343E+01  5.673211E-02  5.681577E+00
      1240   4  2.449070E+02  3.041051E+00  3.974943E+00 -2.490000E+01 -2.143592E-02  6.068685E+00
      1240   5  1.797495E+02 -1.057493E+01 -5.337941E-01 -3.998415E+01 -2.320447E-01 -4.820433E+00
      1240   6  2.352627E+02  7.839538E+00  2.701606E+00 -4.478549E+01 -3.271371E-01 -4.653588E+00
      1240   7  1.832976E+02 -9.194122E+00  1.017050E+00 -4.119900E+01  9.677619E-01  2.034538E+00
      1240   8  2.385914E+02  9.181797E+00  4.172861E+00 -4.614256E+01  8.515371E-01  2.182024E+00
      1241   1 -3.244151E+02 -4.951717E+01 -1.766834E+01  5.918227E+01 -7.785625E-01 -1.807070E+00
      1241   2 -2.015512E+02 -2.145737E+00  8.649437E+00  4.666001E+01 -8.841740E-01 -6.181570E-01
      1241   3 -3.160659E+02 -4.925484E+01 -1.505397E+01  5.900899E+01  1.191036E+00  7.349321E+00
      1241   4 -1.939113E+02 -2.051672E+00  1.099288E+01  4.622750E+01  1.034842E+00  8.525880E+00
      1241   5 -3.340785E+02 -3.876630E+01 -1.657782E+01  2.581137E+01  1.223732E+00 -3.709786E+00
      1241   6 -2.107090E+02  8.018104E+00  9.654098E+00  1.507489E+01  1.056993E+00 -2.766502E+00
      1241   7 -3.258932E+02 -3.826006E+01 -1.384890E+01  2.597062E+01  3.205891E+00  5.475922E+00
      1241   8 -2.032186E+02  8.348561E+00  1.211894E+01  1.495713E+01  2.988018E+00  6.403831E+00
      1242   1 -1.591880E+02 -5.359699E+01 -1.135028E+01  3.001413E+01 -9.390987E-01 -4.699160E-02
      1242   2 -6.274718E+01 -1.742553E+01  5.991696E+00  2.013740E+01 -9.281161E-01  7.750613E-01
      1242   3 -1.516265E+02 -5.229919E+01 -8.670912E+00  2.918075E+01  8.092606E-01  8.200037E+00
      1242   4 -5.584486E+01 -1.631033E+01  8.411754E+00  1.911496E+01  7.783833E-01  9.008897E+00
      1242   5 -1.677810E+02 -4.461273E+01 -1.057449E+01  9.058064E-01  9.329233E-01 -2.461497E+00
      1242   6 -7.093237E+01 -8.894059E+00  6.699884E+00 -7.545299E+00  8.639123E-01 -1.870216E+00
      1242   7 -1.603617E+02 -4.313384E+01 -7.793629E+00  3.842282E-01  2.692121E+00  5.808096E+00
      1242   8 -6.415998E+01 -7.601507E+00  9.228283E+00 -8.271236E+00  2.580708E+00  6.383762E+00
      1243   1 -2.328604E+01 -4.706077E+01 -6.838535E+00  8.535120E+00 -1.143939E+00 -2.954233E-01
      1243   2  5.480574E+01 -1.860026E+01  4.436110E+00  4.625470E-01 -1.073087E+00  5.044156E-01
      1243   3 -1.686584E+01 -4.596116E+01 -4.571087E+00  7.233616E+00  4.244041E-01  7.258148E+00
      1243   4  6.064200E+01 -1.767140E+01  6.470926E+00 -9.890321E-01  4.601816E-01  8.043618E+00
      1243   5 -3.107315E+01 -3.927148E+01 -6.289908E+00 -1.746710E+01  5.754557E-01 -3.176265E+00
      1243   6  4.735619E+01 -1.117660E+01  4.927365E+00 -2.436579E+01  5.583199E-01 -2.602708E+00
      1243   7 -2.477310E+01 -3.801417E+01 -3.921397E+00 -1.847919E+01  2.153194E+00  4.393393E+00
      1243   8  5.308223E+01 -1.009255E+01  7.069530E+00 -2.554100E+01  2.100470E+00  4.950520E+00
      1244   1  9.172719E+01 -3.388304E+01 -3.742900E+00 -7.680323E+00 -1.331106E+00 -9.501381E-01
      1244   2  1.565968E+02 -1.095965E+01  3.171085E+00 -1.448762E+01 -1.295673E+00 -2.734312E-01
      1244   3  9.737790E+01 -3.260419E+01 -1.662856E+00 -9.230944E+00  9.595559E-02  6.093587E+00
      1244   4  1.617939E+02 -9.806746E+00  5.071435E+00 -1.617026E+01  1.028513E-01  6.754485E+00
      1244   5  8.457354E+01 -2.687706E+01 -3.346919E+00 -3.137436E+01  2.357102E-01 -4.272440E+00
      1244   6  1.497268E+02 -4.262931E+00  3.513341E+00 -3.718956E+01  1.983591E-01 -3.825584E+00
      1244   7  9.011850E+01 -2.543953E+01 -1.160099E+00 -3.267346E+01  1.671275E+00  2.782850E+00
      1244   8  1.548270E+02 -2.953593E+00  5.526204E+00 -3.863122E+01  1.604970E+00  3.212088E+00
      1245   1  1.913356E+02 -1.639491E+01 -1.978540E+00 -2.022214E+01 -1.565568E+00 -1.550615E+00
      1245   2  2.463113E+02  2.329975E+00  1.436645E+00 -2.612305E+01 -1.621463E+00 -9.272913E-01
      1245   3  1.963799E+02 -1.510651E+01 -8.809961E-02 -2.191635E+01 -2.361741E-01  5.186491E+00
      1245   4  2.510295E+02  3.540292E+00  3.200196E+00 -2.793955E+01 -3.149817E-01  5.792676E+00
      1245   5  1.846943E+02 -9.868744E+00 -1.674801E+00 -4.218451E+01 -1.172663E-01 -5.302176E+00
      1245   6  2.399108E+02  8.582923E+00  1.685559E+00 -4.722800E+01 -2.226660E-01 -4.915093E+00
      1245   7  1.896429E+02 -8.412436E+00  3.310338E-01 -4.366684E+01  1.220287E+00  1.442871E+00
      1245   8  2.445413E+02  9.958808E+00  3.569815E+00 -4.884090E+01  1.091676E+00  1.811160E+00
      1246   1 -3.086453E+02 -4.900054E+01 -1.246588E+01  5.851245E+01 -1.945510E+00 -3.063183E+00
      1246   2 -1.889492E+02 -3.758892E+00  9.212707E+00  4.556768E+01 -1.846844E+00 -1.224827E+00
      1246   3 -2.971181E+02 -4.896285E+01 -8.953338E+00  5.731703E+01  4.526314E-01  7.190574E+00
      1246   4 -1.786459E+02 -4.127752E+00  1.222758E+01  4.418645E+01  4.870409E-01  9.020578E+00
      1246   5 -3.185707E+02 -3.785136E+01 -1.115478E+01  2.576126E+01  1.043999E+00 -5.184842E+00
      1246   6 -1.983531E+02  6.783882E+00  1.043070E+01  1.456911E+01  1.009893E+00 -3.573521E+00
      1246   7 -3.071750E+02 -3.766430E+01 -7.535413E+00  2.501752E+01  3.458385E+00  5.100974E+00
      1246   8 -1.881680E+02  6.562670E+00  1.356124E+01  1.361537E+01  3.359122E+00  6.700544E+00
      1247   1 -1.475782E+02 -5.410401E+01 -1.171022E+01  2.820497E+01 -2.031872E+00 -2.078903E+00
      1247   2 -5.221507E+01 -1.809006E+01  5.666870E+00  1.802579E+01 -1.723452E+00 -3.256077E-01
      1247   3 -1.381887E+02 -5.443763E+01 -8.956966E+00  2.636059E+01 -1.033749E-01  5.962737E+00
      1247   4 -4.396943E+01 -1.883183E+01  7.948034E+00  1.606169E+01  1.533785E-01  7.706186E+00
      1247   5 -1.564107E+02 -4.484645E+01 -1.077200E+01 -3.184176E-01  6.953630E-01 -4.681669E+00
      1247   6 -6.062167E+01 -9.292471E+00  6.543830E+00 -9.100655E+00  8.368496E-01 -3.134606E+00
      1247   7 -1.471382E+02 -4.510379E+01 -7.942720E+00 -1.728757E+00  2.636846E+00  3.379684E+00
      1247   8 -5.248236E+01 -9.956757E+00  8.908852E+00 -1.065196E+01  2.725762E+00  4.914295E+00
      1248   1 -1.352335E+01 -4.753973E+01 -7.192744E+00  5.993945E+00 -1.930558E+00 -1.854431E+00
      1248   2  6.342439E+01 -1.944060E+01  3.605991E+00 -2.320671E+00 -1.633674E+00 -2.585707E-01
      1248   3 -5.819865E+00 -4.795671E+01 -4.981781E+00  3.899038E+00 -1.818595E-01  5.664567E+00
      1248   4  7.020171E+01 -2.018737E+01  5.434100E+00 -4.516046E+00  7.192452E-02  7.248745E+00
      1248   5 -2.151736E+01 -3.951269E+01 -6.489665E+00 -1.947273E+01  4.997469E-01 -4.886133E+00
      1248   6  5.578175E+01 -1.178535E+01  4.255519E+00 -2.663761E+01  6.421202E-01 -3.497428E+00
      1248   7 -1.391233E+01 -3.985138E+01 -4.194811E+00 -2.118488E+01  2.259721E+00  2.646746E+00
      1248   8  6.246979E+01 -1.245269E+01  6.174602E+00 -2.846753E+01  2.358199E+00  4.021530E+00
      1249   1  9.996769E+01 -3.407746E+01 -4.535675E+00 -1.061016E+01 -1.873821E+00 -1.979546E+00
      1249   2  1.638941E+02 -1.147494E+01  1.892303E+00 -1.763179E+01 -1.623395E+00 -5.852226E-01
      1249   3  1.064598E+02 -3.431051E+01 -2.644053E+00 -1.283557E+01 -2.819732E-01  5.066946E+00
      1249   4  1.696539E+02 -1.196294E+01  3.482040E+00 -1.994949E+01 -6.722891E-02  6.447787E+00
      1249   5  9.262649E+01 -2.683275E+01 -3.986062E+00 -3.383830E+01  2.901234E-01 -5.421397E+00
      1249   6  1.568488E+02 -4.545182E+00  2.391736E+00 -3.988736E+01  4.058103E-01 -4.239422E+00
      1249   7  9.903314E+01 -2.697451E+01 -2.001369E+00 -3.572983E+01  1.891902E+00  1.634321E+00
      1249   8  1.625310E+02 -4.941341E+00  4.080879E+00 -4.188515E+01  1.971234E+00  2.800854E+00
      1250   1  1.986301E+02 -1.618014E+01 -2.795423E+00 -2.332915E+01 -1.871743E+00 -2.044152E+00
      1250   2  2.534185E+02  2.823863E+00  1.409345E+00 -2.943247E+01 -1.790010E+00 -9.975865E-01
      1250   3  2.045569E+02 -1.557629E+01 -8.314409E-01 -2.550020E+01 -4.467772E-01  4.369725E+00
      1250   4  2.588336E+02  3.264821E+00  3.165623E+00 -3.169972E+01 -3.925041E-01  5.400667E+00
      1250   5  1.918122E+02 -9.396641E+00 -2.333274E+00 -4.490279E+01  7.405276E-02 -5.887581E+00
      1250   6  2.468534E+02  9.329140E+00  1.822203E+00 -5.016387E+01  6.354080E-02 -5.065747E+00
      1250   7  1.976571E+02 -8.673610E+00 -2.682004E-01 -4.680273E+01  1.508404E+00  5.323107E-01
      1250   8  2.521938E+02  9.888661E+00  3.685022E+00 -5.217060E+01  1.469956E+00  1.336795E+00
      1251   1 -3.550539E+02 -4.258874E+01 -2.736332E+01  3.132649E+01 -2.569828E-01 -2.738659E+00
      1251   2 -2.261688E+02  6.265601E+00  5.592062E+00  2.690365E+01 -2.462953E-01 -2.422356E+00
      1251   3 -3.538326E+02 -4.297588E+01 -2.713456E+01  3.258970E+01  1.936330E-01  4.928872E+00
      1251   4 -2.250582E+02  5.889412E+00  5.787392E+00  2.780710E+01  1.926565E-01  5.221640E+00
      1251   5 -3.580485E+02 -3.940339E+01 -2.717970E+01 -4.420047E+00 -4.410612E-02 -4.437506E+00
      1251   6 -2.290090E+02  9.274557E+00  5.751927E+00 -6.929930E+00 -4.568629E-02 -4.380911E+00
      1251   7 -3.570900E+02 -3.942509E+01 -2.684199E+01 -3.004259E+00  4.075928E-01  3.233661E+00
      1251   8 -2.281422E+02  9.249181E+00  6.061870E+00 -5.882075E+00  3.942857E-01  3.265412E+00
      1252   1 -1.808628E+02 -5.064054E+01 -1.295385E+01  2.087037E+01 -2.310383E-01 -2.111125E+00
      1252   2 -8.043431E+01 -1.419903E+01  7.313732E+00  1.738571E+01 -2.193705E-01 -1.888423E+00
      1252   3 -1.797177E+02 -5.064499E+01 -1.264006E+01  2.130456E+01  2.069163E-01  5.670051E+00
      1252   4 -7.939411E+01 -1.420340E+01  7.592215E+00  1.753570E+01  2.070045E-01  5.869544E+00
      1252   5 -1.835616E+02 -4.804073E+01 -1.288747E+01 -1.035795E+01 -4.665957E-02 -4.360830E+00
      1252   6 -8.301005E+01 -1.173568E+01  7.355530E+00 -1.231321E+01 -5.099852E-02 -4.393931E+00
      1252   7 -1.826386E+02 -4.772466E+01 -1.245666E+01 -9.786578E+00  3.923171E-01  3.423114E+00
      1252   8 -8.217619E+01 -1.143023E+01  7.757015E+00 -1.203275E+01  3.763261E-01  3.365546E+00
      1253   1 -3.855564E+01 -4.633850E+01 -4.851361E+00  1.325192E+01 -2.115396E-01 -1.756049E+00
      1253   2  4.216070E+01 -1.827062E+01  7.358404E+00  1.039291E+01 -2.031038E-01 -1.577205E+00
      1253   3 -3.753294E+01 -4.616947E+01 -4.528279E+00  1.307331E+01  1.997378E-01  5.836823E+00
      1253   4  4.310332E+01 -1.809971E+01  7.654179E+00  9.982924E+00  1.983526E-01  5.992624E+00
      1253   5 -4.099237E+01 -4.406297E+01 -4.839917E+00 -1.462218E+01 -5.730009E-02 -4.518725E+00
      1253   6  3.982347E+01 -1.610826E+01  7.345045E+00 -1.622281E+01 -6.219480E-02 -4.592652E+00
      1253   7 -4.016364E+01 -4.360868E+01 -4.395916E+00 -1.468066E+01  3.548797E-01  3.074789E+00
      1253   8  4.058585E+01 -1.566001E+01  7.767826E+00 -1.651808E+01  3.401033E-01  2.976653E+00
      1254   1  8.092173E+01 -3.463499E+01 -5.872181E-01  7.516061E+00 -2.001547E-01 -1.535019E+00
      1254   2  1.477550E+02 -1.229132E+01  6.524880E+00  5.103226E+00 -1.913047E-01 -1.365683E+00
      1254   3  8.181833E+01 -3.441786E+01 -2.925183E-01  6.872344E+00  1.801119E-01  5.711759E+00
      1254   4  1.485825E+02 -1.207344E+01  6.795694E+00  4.264653E+00  1.817431E-01  5.857882E+00
      1254   5  7.867865E+01 -3.259173E+01 -6.230980E-01 -1.788013E+01 -7.083750E-02 -4.784024E+00
      1254   6  1.455969E+02 -1.034257E+01  6.469596E+00 -1.922960E+01 -7.558259E-02 -4.867179E+00
      1254   7  7.940445E+01 -3.211025E+01 -2.031545E-01 -1.841399E+01  3.101471E-01  2.459712E+00
      1254   8  1.462654E+02 -9.866656E+00  6.871527E+00 -1.996290E+01  2.981281E-01  2.352305E+00
      1255   1  1.837083E+02 -1.843189E+01  1.470775E+00  3.062713E+00 -1.949625E-01 -1.376072E+00
      1255   2  2.402358E+02 -1.898748E-01  5.296709E+00  9.963538E-01 -1.977626E-01 -1.219895E+00
      1255   3  1.845176E+02 -1.815216E+01  1.754116E+00  2.059889E+00  1.526681E-01  5.429070E+00
      1255   4  2.409992E+02  9.618570E-02  5.564158E+00 -1.760998E-01  1.414796E-01  5.561910E+00
      1255   5  1.816017E+02 -1.660686E+01  1.376833E+00 -2.037662E+01 -8.761334E-02 -5.093486E+00
      1255   6  2.381971E+02  1.549608E+00  5.173037E+00 -2.152791E+01 -9.883634E-02 -5.192422E+00
      1255   7  1.822609E+02 -1.607096E+01  1.790963E+00 -2.128298E+01  2.608345E-01  1.709786E+00
      1255   8  2.388208E+02  2.086354E+00  5.576686E+00 -2.260767E+01  2.411812E-01  1.586390E+00
      1256   1 -3.518440E+02 -4.286450E+01 -2.592815E+01  3.346245E+01 -4.691319E-01 -2.182800E+00
      1256   2 -2.235495E+02  5.640487E+00  6.132185E+00  2.841893E+01 -4.720233E-01 -1.613308E+00
      1256   3 -3.485490E+02 -4.309294E+01 -2.501512E+01  3.457738E+01  1.843601E-01  5.704589E+00
      1256   4 -2.204984E+02  5.373177E+00  6.956733E+00  2.918107E+01  1.653078E-01  6.251066E+00
      1256   5 -3.552758E+02 -3.903412E+01 -2.551895E+01 -2.006357E+00  3.100639E-01 -3.907127E+00
      1256   6 -2.267988E+02  9.264577E+00  6.516341E+00 -5.151781E+00  2.933573E-01 -3.597091E+00
      1256   7 -3.522358E+02 -3.890624E+01 -2.449484E+01 -7.021201E-01  9.666748E-01  3.986546E+00
      1256   8 -2.239842E+02  9.339563E+00  7.457828E+00 -4.210467E+00  9.337197E-01  4.272002E+00
      1257   1 -1.783670E+02 -5.069482E+01 -1.265466E+01  2.157834E+01 -4.536809E-01 -9.052713E-01
      1257   2 -7.839522E+01 -1.450107E+01  6.993695E+00  1.760305E+01 -4.581052E-01 -5.472031E-01
      1257   3 -1.751999E+02 -5.020786E+01 -1.157182E+01  2.188706E+01  1.777756E-01  7.017205E+00
      1257   4 -7.545250E+01 -1.405916E+01  7.991925E+00  1.763220E+01  1.583955E-01  7.352329E+00
      1257   5 -1.814398E+02 -4.753357E+01 -1.236673E+01 -9.399354E+00  2.927173E-01 -3.177201E+00
      1257   6 -8.132151E+01 -1.149855E+01  7.258489E+00 -1.185751E+01  2.684279E-01 -3.076005E+00
      1257   7 -1.784855E+02 -4.672931E+01 -1.116313E+01 -8.917897E+00  9.271906E-01  4.750134E+00
      1257   8 -7.857589E+01 -1.074972E+01  8.383528E+00 -1.166409E+01  8.878456E-01  4.826958E+00
      1258   1 -3.666179E+01 -4.640116E+01 -5.338461E+00  1.290271E+01 -4.756709E-01 -6.170403E-01
      1258   2  4.380761E+01 -1.841543E+01  6.642159E+00  9.644261E+00 -4.809271E-01 -3.493223E-01
      1258   3 -3.374874E+01 -4.565048E+01 -4.258343E+00  1.261082E+01  1.152397E-01  7.011004E+00
      1258   4  4.653972E+01 -1.770114E+01  7.653457E+00  9.124797E+00  9.765381E-02  7.255842E+00
      1258   5 -3.943051E+01 -4.363159E+01 -5.114150E+00 -1.475137E+01  2.333040E-01 -3.403105E+00
      1258   6  4.115889E+01 -1.577585E+01  6.844787E+00 -1.676136E+01  2.107655E-01 -3.389164E+00
      1258   7 -3.670312E+01 -4.259867E+01 -3.910859E+00 -1.489050E+01  8.270432E-01  4.227179E+00
      1258   8  4.371874E+01 -1.478709E+01  7.985307E+00 -1.713497E+01  7.920910E-01  4.216951E+00
      1259   1  8.243106E+01 -3.474790E+01 -1.385822E+00  6.363987E+00 -5.150636E-01 -7.771904E-01
      1259   2  1.491067E+02 -1.242155E+01  5.656154E+00  3.614709E+00 -5.173347E-01 -5.104628E-01
      1259   3  8.503531E+01 -3.404253E+01 -4.170646E-01  5.614729E+00  3.301855E-02  6.462279E+00
      1259   4  1.515563E+02 -1.174797E+01  6.565508E+00  2.673646E+00  2.036885E-02  6.705953E+00
      1259   5  7.988979E+01 -3.225265E+01 -1.215769E+00 -1.883106E+01  1.619170E-01 -4.053408E+00
      1259   6  1.466659E+02 -1.003663E+01  5.805464E+00 -2.052539E+01  1.425873E-01 -4.040171E+00
      1259   7  8.233091E+01 -3.128527E+01 -1.200450E-01 -1.944082E+01  7.126497E-01  3.185497E+00
      1259   8  1.489641E+02 -9.107234E+00  6.847575E+00 -2.133279E+01  6.828642E-01  3.174485E+00
      1260   1  1.849644E+02 -1.851810E+01  5.190523E-01  1.292598E+00 -5.668398E-01 -1.111765E+00
      1260   2  2.412933E+02 -3.717617E-01  4.076949E+00 -1.067049E+00 -5.878624E-01 -8.440143E-01
      1260   3  1.873251E+02 -1.785070E+01  1.398397E+00  1.951884E-01 -5.774139E-02  5.748631E+00
      1260   4  2.435553E+02  2.834166E-01  4.919982E+00 -2.332570E+00 -8.549091E-02  5.992828E+00
      1260   5  1.825894E+02 -1.626027E+01  6.273397E-01 -2.197210E+01  8.490948E-02 -4.854593E+00
      1260   6  2.390062E+02  1.793094E+00  4.169707E+00 -2.342350E+01  5.912551E-02 -4.843721E+00
      1260   7  1.848071E+02 -1.533667E+01  1.640483E+00 -2.295243E+01  5.965211E-01  2.001482E+00
      1260   8  2.411353E+02  2.699014E+00  5.151942E+00 -2.457650E+01  5.639782E-01  1.987713E+00
      1261   1 -3.446688E+02 -4.257264E+01 -2.257385E+01  3.531739E+01 -7.116888E-01 -1.825222E+00
      1261   2 -2.176736E+02  5.026058E+00  7.405908E+00  2.966657E+01 -7.303224E-01 -9.557393E-01
      1261   3 -3.391202E+02 -4.268343E+01 -2.093516E+01  3.621712E+01  1.779237E-01  6.586299E+00
      1261   4 -2.125387E+02  4.810261E+00  8.885008E+00  3.022411E+01  1.371481E-01  7.433490E+00
      1261   5 -3.485209E+02 -3.811198E+01 -2.193034E+01  1.928934E-01  6.879181E-01 -3.593767E+00
      1261   6 -2.213170E+02  9.250590E+00  8.020987E+00 -3.578251E+00  6.483032E-01 -2.983750E+00
      1261   7 -3.432146E+02 -3.787687E+01 -2.017440E+01  1.326742E+00  1.582995E+00  4.827210E+00
      1261   8 -2.164060E+02  9.367563E+00  9.623628E+00 -2.799120E+00  1.521100E+00  5.413065E+00
      1262   1 -1.727059E+02 -5.028719E+01 -1.192103E+01  2.204657E+01 -7.155096E-01 -3.243331E-02
      1262   2 -7.358764E+01 -1.460323E+01  6.600761E+00  1.759049E+01 -7.298446E-01  4.850918E-01
      1262   3 -1.673654E+02 -4.930015E+01 -1.002108E+01  2.216797E+01  1.260162E-01  8.145711E+00
      1262   4 -6.862158E+01 -1.372051E+01  8.353204E+00  1.744202E+01  9.215936E-02  8.640889E+00
      1262   5 -1.761364E+02 -4.657358E+01 -1.140615E+01 -8.616140E+00  6.371677E-01 -2.345040E+00
      1262   6 -7.684937E+01 -1.107078E+01  7.092083E+00 -1.157051E+01  5.931983E-01 -2.083589E+00
      1262   7 -1.709981E+02 -4.528116E+01 -9.382870E+00 -8.278889E+00  1.483924E+00  5.840461E+00
      1262   8 -7.207036E+01 -9.892364E+00  8.974131E+00 -1.151370E+01  1.420281E+00  6.077939E+00
      1263   1 -3.211712E+01 -4.614170E+01 -6.020790E+00  1.233552E+01 -7.829601E-01  1.726452E-02
      1263   2  4.789898E+01 -1.832894E+01  5.609618E+00  8.685979E+00 -7.878259E-01  4.260412E-01
      1263   3 -2.726104E+01 -4.492561E+01 -4.202689E+00  1.187024E+01 -7.316770E-03  7.689109E+00
      1263   4  5.243742E+01 -1.720386E+01  7.301560E+00  8.001831E+00 -2.819773E-02  8.075496E+00
      1263   5 -3.520516E+01 -4.288861E+01 -5.584600E+00 -1.503851E+01  5.137357E-01 -2.807668E+00
      1263   6  4.495033E+01 -1.522277E+01  6.025958E+00 -1.745223E+01  4.789909E-01 -2.651307E+00
      1263   7 -3.052644E+01 -4.140320E+01 -3.643975E+00 -1.530880E+01  1.294263E+00  4.868035E+00
      1263   8  4.932449E+01 -1.383550E+01  7.846568E+00 -1.795021E+01  1.243362E+00  5.000578E+00
      1264   1  8.625105E+01 -3.470730E+01 -2.545690E+00  5.011791E+00 -8.641334E-01 -5.264797E-01
      1264   2  1.526594E+02 -1.241171E+01  4.470156E+00  1.932832E+00 -8.678513E-01 -1.180536E-01
      1264   3  9.057142E+01 -3.362802E+01 -9.346570E-01  4.109217E+00 -1.484886E-01  6.671471E+00
      1264   4  1.567167E+02 -1.140733E+01  5.976402E+00  8.455925E-01 -1.655622E-01  7.057254E+00
      1264   5  8.342256E+01 -3.176966E+01 -2.172453E+00 -1.992834E+01  3.794244E-01 -3.839733E+00
      1264   6  1.499478E+02 -9.598606E+00  4.824213E+00 -2.196302E+01  3.488007E-01 -3.683372E+00
      1264   7  8.758634E+01 -3.044076E+01 -4.365470E-01 -2.065513E+01  1.099686E+00  3.358945E+00
      1264   8  1.538597E+02 -8.350349E+00  6.461135E+00 -2.288183E+01  1.055585E+00  3.491348E+00
      1265   1  1.883184E+02 -1.854704E+01 -7.823159E-01 -6.532165E-01 -9.595751E-01 -1.162819E+00
      1265   2  2.443409E+02 -5.410258E-01  2.447273E+00 -3.302519E+00 -9.896618E-01 -7.576310E-01
      1265   3  1.922296E+02 -1.756070E+01  6.720405E-01 -1.877911E+00 -2.863303E-01  5.756308E+00
      1265   4  2.480813E+02  4.054707E-01  3.835577E+00 -4.691022E+00 -3.245423E-01  6.138101E+00
      1265   5  1.856851E+02 -1.586065E+01 -4.714234E-01 -2.370540E+01  2.442956E-01 -4.943604E+00
      1265   6  2.418105E+02  2.040528E+00  2.746096E+00 -2.545475E+01  2.071564E-01 -4.795100E+00
      1265   7  1.894598E+02 -1.462498E+01  1.117606E+00 -2.478650E+01  9.219230E-01  1.971617E+00
      1265   8  2.454243E+02  3.231228E+00  4.274540E+00 -2.670526E+01  8.766112E-01  2.095554E+00
      1266   1 -3.332866E+02 -4.187037E+01 -1.758997E+01  3.676667E+01 -1.082578E+00 -1.795166E+00
      1266   2 -2.085056E+02  4.093661E+00  8.762059E+00  3.052861E+01 -1.124158E+00 -6.211468E-01
      1266   3 -3.249989E+02 -4.164338E+01 -1.501422E+01  3.736016E+01  9.811559E-02  7.537447E+00
      1266   4 -2.008377E+02  4.132671E+00  1.109068E+01  3.079521E+01  2.589701E-02  8.690226E+00
      1266   5 -3.375339E+02 -3.679727E+01 -1.669685E+01  2.067078E+00  1.047873E+00 -3.640761E+00
      1266   6 -2.125213E+02  8.899640E+00  9.617602E+00 -2.314043E+00  9.754880E-01 -2.726835E+00
      1266   7 -3.294710E+02 -3.623768E+01 -1.399319E+01  2.947598E+00  2.236967E+00  5.706289E+00
      1266   8 -2.050602E+02  9.259400E+00  1.208117E+01 -1.775771E+00  2.133734E+00  6.596694E+00
      1267   1 -1.639024E+02 -4.981864E+01 -1.138641E+01  2.214201E+01 -1.141323E+00 -5.427855E-02
      1267   2 -6.588267E+01 -1.471229E+01  6.002926E+00  1.722525E+01 -1.124338E+00  7.712903E-01
      1267   3 -1.562178E+02 -4.866044E+01 -8.716387E+00  2.194225E+01 -7.695421E-02  8.339652E+00
      1267   4 -5.882081E+01 -1.376161E+01  8.419943E+00  1.677456E+01 -8.579050E-02  9.143851E+00
      1267   5 -1.676743E+02 -4.558107E+01 -1.064741E+01 -8.121779E+00  9.165025E-01 -2.441514E+00
      1267   6 -6.946402E+01 -1.067648E+01  6.719241E+00 -1.155637E+01  8.728872E-01 -1.868278E+00
      1267   7 -1.601795E+02 -4.414370E+01 -7.855607E+00 -8.037318E+00  1.988539E+00  5.961196E+00
      1267   8 -6.257727E+01 -9.454891E+00  9.264712E+00 -1.173675E+01  1.918825E+00  6.511235E+00
      1268   1 -2.486257E+01 -4.596140E+01 -6.917838E+00  1.141944E+01 -1.211415E+00 -3.143165E-01
      1268   2  5.448270E+01 -1.837823E+01  4.372235E+00  7.397056E+00 -1.163977E+00  4.948116E-01
      1268   3 -1.822990E+01 -4.507294E+01 -4.649470E+00  1.064596E+01 -2.465104E-01  7.361258E+00
      1268   4  6.056820E+01 -1.767690E+01  6.416903E+00  6.422251E+00 -2.208905E-01  8.148928E+00
      1268   5 -2.825691E+01 -4.225460E+01 -6.276819E+00 -1.559178E+01  7.338893E-01 -3.207747E+00
      1268   6  5.124674E+01 -1.483372E+01  4.996008E+00 -1.839474E+01  7.145294E-01 -2.645917E+00
      1268   7 -2.179154E+01 -4.112487E+01 -3.891055E+00 -1.610187E+01  1.705784E+00  4.471803E+00
      1268   8  5.717748E+01 -1.389702E+01  7.164444E+00 -1.911804E+01  1.664325E+00  5.010577E+00
      1269   1  9.248317E+01 -3.468723E+01 -3.859152E+00  3.360600E+00 -1.270077E+00 -9.780359E-01
      1269   2  1.584257E+02 -1.249651E+01  3.065627E+00 -3.370652E-02 -1.241015E+00 -2.964992E-01
      1269   3  9.840319E+01 -3.364438E+01 -1.763938E+00  2.212302E+00 -3.857291E-01  6.167939E+00
      1269   4  1.639187E+02 -1.159661E+01  4.986548E+00 -1.354042E+00 -3.744751E-01  6.827525E+00
      1269   5  8.937797E+01 -3.133352E+01 -3.290473E+00 -2.125570E+01  5.617632E-01 -4.351939E+00
      1269   6  1.554532E+02 -9.280474E+00  3.617048E+00 -2.361928E+01  5.376843E-01 -3.918818E+00
      1269   7  9.514982E+01 -3.006282E+01 -1.074835E+00 -2.217536E+01  1.452679E+00  2.795198E+00
      1269   8  1.608089E+02 -8.157559E+00  5.664315E+00 -2.472055E+01  1.410569E+00  3.204918E+00
      1270   1  1.938945E+02 -1.854090E+01 -2.112207E+00 -2.839831E+00 -1.358472E+00 -1.588075E+00
      1270   2  2.497021E+02 -5.015891E-01  1.259937E+00 -5.770336E+00 -1.384924E+00 -9.669190E-01
      1270   3  1.992417E+02 -1.749710E+01 -1.948230E-01 -4.247922E+00 -5.309426E-01  5.235838E+00
      1270   4  2.547808E+02  4.632235E-01  3.070137E+00 -7.335152E+00 -5.691008E-01  5.834013E+00
      1270   5  1.910123E+02 -1.544212E+01 -1.603442E+00 -2.563066E+01  3.937567E-01 -5.427463E+00
      1270   6  2.469347E+02  2.478569E+00  1.754265E+00 -2.767142E+01  3.493903E-01 -5.061970E+00
      1270   7  1.962296E+02 -1.416181E+01  4.456797E-01 -2.686071E+01  1.227638E+00  1.394113E+00
      1270   8  2.518933E+02  3.675184E+00  3.701625E+00 -2.906514E+01  1.171469E+00  1.735294E+00
      1271   1 -3.175373E+02 -4.145618E+01 -1.240568E+01  3.756174E+01 -1.962664E+00 -3.164634E+00
      1271   2 -1.957902E+02  2.332938E+00  9.313795E+00  3.077301E+01 -1.889005E+00 -1.319713E+00
      1271   3 -3.058878E+02 -4.162252E+01 -8.925242E+00  3.750607E+01 -4.259233E-01  7.306350E+00
      1271   4 -1.852935E+02  1.750012E+00  1.231792E+01  3.043394E+01 -3.967005E-01  9.132199E+00
      1271   5 -3.221530E+02 -3.581317E+01 -1.125892E+01  3.407387E+00  1.175634E+00 -5.156584E+00
      1271   6 -2.001510E+02  7.681966E+00  1.041793E+01 -1.553579E+00  1.143836E+00 -3.562593E+00
      1271   7 -3.107054E+02 -3.569954E+01 -7.647876E+00  3.769917E+00  2.724224E+00  5.331294E+00
      1271   8 -1.898386E+02  7.370704E+00  1.356122E+01 -1.496841E+00  2.647483E+00  6.903526E+00
      1272   1 -1.520202E+02 -5.063220E+01 -1.176534E+01  2.156598E+01 -1.951984E+00 -2.188764E+00
      1272   2 -5.502452E+01 -1.572725E+01  5.659642E+00  1.623000E+01 -1.760006E+00 -4.008055E-01
      1272   3 -1.423398E+02 -5.128056E+01 -9.021251E+00  2.072493E+01 -6.756391E-01  6.017235E+00
      1272   4 -4.646579E+01 -1.679872E+01  7.936866E+00  1.518111E+01 -5.199218E-01  7.785847E+00
      1272   5 -1.561148E+02 -4.593411E+01 -1.081704E+01 -8.156556E+00  9.771980E-01 -4.708380E+00
      1272   6 -5.890571E+01 -1.124630E+01  6.591737E+00 -1.203687E+01  1.018747E+00 -3.158162E+00
      1272   7 -1.466115E+02 -4.637133E+01 -7.969401E+00 -8.579856E+00  2.263651E+00  3.503472E+00
      1272   8 -5.051007E+01 -1.211167E+01  8.979846E+00 -1.268847E+01  2.268334E+00  5.032282E+00
      1273   1 -1.469465E+01 -4.686349E+01 -7.290785E+00  9.896419E+00 -1.829517E+00 -1.942286E+00
      1273   2  6.356075E+01 -1.967317E+01  3.525363E+00  5.536228E+00 -1.647940E+00 -3.138116E-01
      1273   3 -6.650814E+00 -4.762567E+01 -5.078301E+00  8.611775E+00 -6.674871E-01  5.715630E+00
      1273   4  7.070438E+01 -2.077454E+01  5.362729E+00  4.080759E+00 -5.166532E-01  7.324238E+00
      1273   5 -1.837653E+01 -4.275902E+01 -6.454986E+00 -1.662108E+01  8.384069E-01 -4.945916E+00
      1273   6  6.005534E+01 -1.574384E+01  4.347055E+00 -1.978413E+01  8.842409E-01 -3.553993E+00
      1273   7 -1.048662E+01 -4.332914E+01 -4.135725E+00 -1.754001E+01  2.009526E+00  2.714068E+00
      1273   8  6.705697E+01 -1.665682E+01  6.298042E+00 -2.089041E+01  2.024080E+00  4.084286E+00
      1274   1  1.012103E+02 -3.534911E+01 -4.667404E+00  1.214875E+00 -1.736737E+00 -2.049436E+00
      1274   2  1.662473E+02 -1.351192E+01  1.768399E+00 -2.468662E+00 -1.581378E+00 -6.285384E-01
      1274   3  1.080778E+02 -3.593033E+01 -2.760168E+00 -3.705192E-01 -6.755191E-01  5.113866E+00
      1274   4  1.723997E+02 -1.435983E+01  3.377985E+00 -4.201615E+00 -5.460378E-01  6.514200E+00
      1274   5  9.784465E+01 -3.162401E+01 -3.911252E+00 -2.297231E+01  6.998083E-01 -5.514806E+00
      1274   6  1.630297E+02 -9.935564E+00  2.509900E+00 -2.564308E+01  7.376193E-01 -4.332485E+00
      1274   7  1.045763E+02 -3.201936E+01 -1.891984E+00 -2.423876E+01  1.769290E+00  1.647655E+00
      1274   8  1.690567E+02 -1.060066E+01  4.237829E+00 -2.707045E+01  1.780765E+00  2.807752E+00
      1275   1  2.017129E+02 -1.880388E+01 -2.943253E+00 -5.392451E+00 -1.682471E+00 -2.098709E+00
      1275   2  2.574237E+02 -4.912933E-01  1.241170E+00 -8.588350E+00 -1.627690E+00 -1.041427E+00
      1275   3  2.080136E+02 -1.852152E+01 -9.519717E-01 -7.117164E+00 -7.231819E-01  4.410917E+00
      1275   4  2.632558E+02 -3.730975E-01  3.039493E+00 -1.045282E+01 -6.873675E-01  5.446354E+00
      1275   5  1.985938E+02 -1.532239E+01 -2.243648E+00 -2.785008E+01  5.694612E-01 -6.013873E+00
      1275   6  2.544306E+02  2.858537E+00  1.923332E+00 -3.016924E+01  5.590524E-01 -5.204972E+00
      1275   7  2.047710E+02 -1.483843E+01 -1.332134E-01 -2.932904E+01  1.536703E+00  4.939363E-01
      1275   8  2.601485E+02  3.174790E+00  3.846257E+00 -3.179755E+01  1.507055E+00  1.279468E+00
      1276   1 -3.587904E+02 -3.964988E+01 -2.749181E+01  5.497899E+00 -1.127048E-01 -2.725427E+00
      1276   2 -2.290440E+02  9.300413E+00  5.729759E+00  7.646508E+00 -9.620266E-02 -2.405603E+00
      1276   3 -3.577975E+02 -3.982998E+01 -2.728502E+01  6.957892E+00 -3.473215E-01  4.954526E+00
      1276   4 -2.281399E+02  9.056077E+00  5.889818E+00  8.730378E+00 -3.252017E-01  5.248839E+00
      1276   5 -3.562549E+02 -4.231544E+01 -2.755033E+01 -2.872868E+01  2.307818E-01 -4.348313E+00
      1276   6 -2.266383E+02  6.783491E+00  5.688403E+00 -2.474845E+01  2.463409E-01 -4.281614E+00
      1276   7 -3.555174E+02 -4.213051E+01 -2.723637E+01 -2.736660E+01 -4.729656E-03  3.330882E+00
      1276   8 -2.259714E+02  6.889308E+00  5.960825E+00 -2.375726E+01  1.643871E-02  3.373040E+00
      1277   1 -1.833369E+02 -4.798205E+01 -1.282600E+01  1.029966E+01 -9.369722E-02 -2.088496E+00
      1277   2 -8.283117E+01 -1.171971E+01  7.384831E+00  1.200087E+01 -9.516245E-02 -1.863026E+00
      1277   3 -1.823249E+02 -4.794938E+01 -1.255187E+01  1.089113E+01 -3.236141E-01  5.703470E+00
      1277   4 -8.184929E+01 -1.172071E+01  7.638824E+00  1.229629E+01 -3.198241E-01  5.903858E+00
      1277   5 -1.811140E+02 -5.026458E+01 -1.284341E+01 -1.943760E+01  2.562337E-01 -4.246966E+00
      1277   6 -8.071138E+01 -1.388467E+01  7.381779E+00 -1.628001E+01  2.658487E-01 -4.270190E+00
      1277   7 -1.803160E+02 -4.991283E+01 -1.245451E+01 -1.894183E+01  2.540920E-02  3.547147E+00
      1277   8 -7.992819E+01 -1.357740E+01  7.756145E+00 -1.607560E+01  4.024021E-02  3.499743E+00
      1278   1 -4.079517E+01 -4.405451E+01 -4.810701E+00  1.395936E+01 -9.418362E-02 -1.726235E+00
      1278   2  4.005969E+01 -1.610261E+01  7.379951E+00  1.534074E+01 -9.375794E-02 -1.542915E+00
      1278   3 -3.976671E+01 -4.394470E+01 -4.509493E+00  1.390766E+01 -3.104048E-01  5.873775E+00
      1278   4  4.105971E+01 -1.602180E+01  7.663031E+00  1.504701E+01 -3.050310E-01  6.032209E+00
      1278   5 -3.877009E+01 -4.601497E+01 -4.773673E+00 -1.260630E+01  2.770841E-01 -4.383008E+00
      1278   6  4.200020E+01 -1.796770E+01  7.431304E+00 -1.002560E+01  2.878424E-01 -4.446374E+00
      1278   7 -3.792702E+01 -4.561774E+01 -4.352849E+00 -1.274232E+01  5.988731E-02  3.220659E+00
      1278   8  4.282795E+01 -1.760771E+01  7.839636E+00 -1.039985E+01  7.555684E-02  3.133303E+00
      1279   1  7.893308E+01 -3.259351E+01 -5.868932E-01  1.675553E+01 -9.031125E-02 -1.496898E+00
      1279   2  1.458438E+02 -1.036409E+01  6.493578E+00  1.791627E+01 -9.188606E-02 -1.322798E+00
      1279   3  7.993264E+01 -3.250452E+01 -3.005408E-01  1.621843E+01 -2.885457E-01  5.751457E+00
      1279   4  1.468237E+02 -1.029764E+01  6.766420E+00  1.717544E+01 -2.858447E-01  5.900702E+00
      1279   5  8.079787E+01 -3.434515E+01 -5.177577E-01 -7.436120E+00  3.006697E-01 -4.626782E+00
      1279   6  1.476372E+02 -1.203563E+01  6.575578E+00 -5.262442E+00  3.109200E-01 -4.699006E+00
      1279   7  8.163436E+01 -3.399020E+01 -1.080207E-01 -8.051266E+00  1.013852E-01  2.627250E+00
      1279   8  1.484655E+02 -1.170980E+01  6.977264E+00 -6.078055E+00  1.158711E-01  2.531029E+00
      1280   1  1.819675E+02 -1.662680E+01  1.438486E+00  1.903241E+01 -8.400196E-02 -1.329270E+00
      1280   2  2.389699E+02  1.693275E+00  5.408504E+00  2.005229E+01 -7.524995E-02 -1.170307E+00
      1280   3  1.829559E+02 -1.651801E+01  1.729049E+00  1.811463E+01 -2.598039E-01  5.475162E+00
      1280   4  2.399231E+02  1.775244E+00  5.681938E+00  1.895788E+01 -2.404592E-01  5.609193E+00
      1280   5  1.836884E+02 -1.829880E+01  1.512437E+00 -3.429829E+00  3.257204E-01 -4.919535E+00
      1280   6  2.406440E+02  1.069136E-01  5.527029E+00 -1.533014E+00  3.397560E-01 -5.008121E+00
      1280   7  1.845296E+02 -1.793805E+01  1.928591E+00 -4.413691E+00  1.490539E-01  1.883595E+00
      1280   8  2.414599E+02  4.352708E-01  5.931125E+00 -2.690926E+00  1.736506E-01  1.771261E+00
      1281   1 -3.559298E+02 -3.954016E+01 -2.602679E+01  8.040363E+00 -5.419221E-01 -2.178012E+00
      1281   2 -2.267503E+02  8.920949E+00  6.257558E+00  9.538103E+00 -5.123224E-01 -1.604652E+00
      1281   3 -3.528273E+02 -3.957070E+01 -2.512789E+01  9.531501E+00 -5.914126E-01  5.746895E+00
      1281   4 -2.238888E+02  8.769750E+00  7.047586E+00  1.065502E+01 -5.584889E-01  6.294981E+00
      1281   5 -3.538246E+02 -4.155930E+01 -2.586563E+01 -2.634084E+01  3.588540E-01 -3.788182E+00
      1281   6 -2.247443E+02  7.023482E+00  6.441968E+00 -2.300321E+01  3.818517E-01 -3.465744E+00
      1281   7 -3.509836E+02 -4.122575E+01 -2.485947E+01 -2.490671E+01  3.067231E-01  4.136378E+00
      1281   8 -2.221253E+02  7.221779E+00  7.344855E+00 -2.194025E+01  3.330588E-01  4.434374E+00
      1282   1 -1.810457E+02 -4.795699E+01 -1.255764E+01  1.133961E+01 -5.092475E-01 -8.874464E-01
      1282   2 -8.087352E+01 -1.200690E+01  7.045762E+00  1.252785E+01 -5.036967E-01 -5.285915E-01
      1282   3 -1.779977E+02 -4.744090E+01 -1.151200E+01  1.196840E+01 -5.538147E-01  7.070054E+00
      1282   4 -7.797427E+01 -1.156854E+01  8.022611E+00  1.286031E+01 -5.457812E-01  7.403919E+00
      1282   5 -1.791832E+02 -4.967360E+01 -1.234805E+01 -1.855073E+01  3.880854E-01 -3.028309E+00
      1282   6 -7.909016E+01 -1.362741E+01  7.273127E+00 -1.589861E+01  4.013724E-01 -2.917622E+00
      1282   7 -1.763526E+02 -4.883433E+01 -1.118589E+01 -1.798299E+01  3.408989E-01  4.932924E+00
      1282   8 -7.639285E+01 -1.287680E+01  8.372249E+00 -1.562422E+01  3.566452E-01  5.019383E+00
      1283   1 -3.887630E+01 -4.421493E+01 -5.322370E+00  1.388521E+01 -4.898270E-01 -5.956314E-01
      1283   2  4.181545E+01 -1.640402E+01  6.642081E+00  1.484747E+01 -4.840907E-01 -3.252034E-01
      1283   3 -3.594264E+01 -4.352975E+01 -4.260786E+00  1.387122E+01 -5.252629E-01  7.062791E+00
      1283   4  4.462041E+01 -1.578528E+01  7.644401E+00  1.459188E+01 -5.173595E-01  7.308496E+00
      1283   5 -3.716736E+01 -4.567047E+01 -5.062370E+00 -1.281487E+01  4.224714E-01 -3.234211E+00
      1283   6  4.345930E+01 -1.778180E+01  6.918452E+00 -1.064723E+01  4.351045E-01 -3.209252E+00
      1283   7 -3.442381E+01 -4.469714E+01 -3.881822E+00 -1.288140E+01  3.843669E-01  4.429816E+00
      1283   8  4.608750E+01 -1.688314E+01  8.045490E+00 -1.095298E+01  3.991459E-01  4.430813E+00
      1284   1  8.062538E+01 -3.293337E+01 -1.410455E+00  1.584129E+01 -4.619275E-01 -7.538879E-01
      1284   2  1.474569E+02 -1.076874E+01  5.600904E+00  1.664939E+01 -4.597236E-01 -4.838690E-01
      1284   3  8.334829E+01 -3.236072E+01 -4.458531E-01  1.534393E+01 -4.875019E-01  6.511166E+00
      1284   4  1.500756E+02 -1.025016E+01  6.517518E+00  1.594911E+01 -4.824920E-01  6.756558E+00
      1284   5  8.220719E+01 -3.422328E+01 -1.124518E+00 -8.474984E+00  4.640228E-01 -3.863335E+00
      1284   6  1.489853E+02 -1.199174E+01  5.904990E+00 -6.648729E+00  4.750920E-01 -3.837956E+00
      1284   7  8.476160E+01 -3.338610E+01 -3.847060E-02 -9.021529E+00  4.357630E-01  3.408056E+00
      1284   8  1.514471E+02 -1.121516E+01  6.948607E+00 -7.396142E+00  4.496111E-01  3.409586E+00
      1285   1  1.835261E+02 -1.702328E+01  4.637234E-01  1.745792E+01 -4.256118E-01 -1.083250E+00
      1285   2  2.403403E+02  1.139070E+00  4.155903E+00  1.817136E+01 -4.008467E-01 -8.159806E-01
      1285   3  1.860779E+02 -1.652706E+01  1.354370E+00  1.657764E+01 -4.411288E-01  5.796353E+00
      1285   4  2.427873E+02  1.582169E+00  4.999150E+00  1.711316E+01 -4.129283E-01  6.038556E+00
      1285   5  1.849863E+02 -1.826142E+01  7.437750E-01 -5.109556E+00  5.148195E-01 -4.663526E+00
      1285   6  2.417587E+02 -3.554319E-02  4.460437E+00 -3.515082E+00  5.435119E-01 -4.644136E+00
      1285   7  1.873905E+02 -1.750535E+01  1.763222E+00 -6.030706E+00  4.965073E-01  2.222211E+00
      1285   8  2.440682E+02  6.616397E-01  5.437626E+00 -4.612548E+00  5.286222E-01  2.217380E+00
      1286   1 -3.490403E+02 -3.888033E+01 -2.262181E+01  1.061352E+01 -9.481607E-01 -1.829841E+00
      1286   2 -2.211660E+02  8.523039E+00  7.523102E+00  1.146372E+01 -9.126697E-01 -9.576071E-01
      1286   3 -3.436579E+02 -3.881899E+01 -2.099719E+01  1.207176E+01 -8.022916E-01  6.646303E+00
      1286   4 -2.161959E+02  8.398717E+00  8.967589E+00  1.254976E+01 -7.692636E-01  7.493279E+00
      1286   5 -3.473680E+02 -4.024671E+01 -2.222492E+01 -2.384954E+01  5.711822E-01 -3.459934E+00
      1286   6 -2.195652E+02  7.247745E+00  7.940688E+00 -2.115506E+01  5.929051E-01 -2.839530E+00
      1286   7 -3.422470E+02 -3.981623E+01 -2.048636E+01 -2.240214E+01  7.125046E-01  5.019104E+00
      1286   8 -2.148375E+02  7.477978E+00  9.505107E+00 -2.007928E+01  7.318064E-01  5.614788E+00
      1287   1 -1.755610E+02 -4.748964E+01 -1.185192E+01  1.242054E+01 -9.041471E-01 -2.271522E-02
      1287   2 -7.611988E+01 -1.211329E+01  6.634478E+00  1.309571E+01 -8.945654E-01  4.953869E-01
      1287   3 -1.703150E+02 -4.649644E+01 -9.988618E+00  1.302167E+01 -7.570176E-01  8.214377E+00
      1287   4 -7.117366E+01 -1.125571E+01  8.366482E+00  1.340133E+01 -7.486578E-01  8.707457E+00
      1287   5 -1.740640E+02 -4.863282E+01 -1.141119E+01 -1.755942E+01  5.975613E-01 -2.182044E+00
      1287   6 -7.467823E+01 -1.318257E+01  7.095398E+00 -1.541599E+01  6.053577E-01 -1.913672E+00
      1287   7 -1.690366E+02 -4.731146E+01 -9.427326E+00 -1.697529E+01  7.402638E-01  6.060735E+00
      1287   8 -6.993490E+01 -1.200784E+01  8.953930E+00 -1.512654E+01  7.468463E-01  6.304688E+00
      1288   1 -3.427996E+01 -4.407204E+01 -6.029879E+00  1.385328E+01 -8.688817E-01  2.870162E-02
      1288   2  4.604206E+01 -1.649213E+01  5.586266E+00  1.439731E+01 -8.590525E-01  4.408405E-01
      1288   3 -2.937972E+01 -4.294262E+01 -4.229077E+00  1.381354E+01 -7.195441E-01  7.752144E+00
      1288   4  5.067607E+01 -1.548260E+01  7.270626E+00  1.411683E+01 -7.110331E-01  8.139543E+00
      1288   5 -3.289519E+01 -4.502126E+01 -5.548871E+00 -1.292203E+01  6.297267E-01 -2.630778E+00
      1288   6  4.738181E+01 -1.738100E+01  6.086376E+00 -1.116923E+01  6.341540E-01 -2.465504E+00
      1288   7 -2.818754E+01 -4.360091E+01 -3.628271E+00 -1.297126E+01  7.746535E-01  5.099933E+00
      1288   8  5.183671E+01 -1.608886E+01  7.896364E+00 -1.145876E+01  7.777814E-01  5.241097E+00
      1289   1  8.465457E+01 -3.313602E+01 -2.595828E+00  1.497281E+01 -8.248793E-01 -5.145441E-01
      1289   2  1.512990E+02 -1.104687E+01  4.394522E+00  1.542957E+01 -8.181751E-01 -1.018766E-01
      1289   3  8.911434E+01 -3.220868E+01 -9.878426E-01  1.445191E+01 -6.756639E-01  6.728671E+00
      1289   4  1.555447E+02 -1.021612E+01  5.908900E+00  1.470631E+01 -6.692178E-01  7.116671E+00
      1289   5  8.594409E+01 -3.396617E+01 -2.097956E+00 -9.415054E+00  6.667599E-01 -3.648828E+00
      1289   6  1.525520E+02 -1.182479E+01  4.912364E+00 -7.937147E+00  6.725824E-01 -3.482295E+00
      1289   7  9.023284E+01 -3.277182E+01 -3.687906E-01 -9.947953E+00  8.115965E-01  3.602331E+00
      1289   8  1.566385E+02 -1.073360E+01  6.553505E+00 -8.671896E+00  8.171658E-01  3.744853E+00
      1290   1  1.872019E+02 -1.737119E+01 -8.618401E-01  1.592706E+01 -7.754780E-01 -1.150630E+00
      1290   2  2.436913E+02  5.729201E-01  2.466289E+00  1.633261E+01 -7.475311E-01 -7.465835E-01
      1290   3  1.913205E+02 -1.657007E+01  6.047200E-01  1.502596E+01 -6.292450E-01  5.806844E+00
      1290   4  2.476303E+02  1.292624E+00  3.853625E+00  1.525446E+01 -6.030068E-01  6.185829E+00
      1290   5  1.883985E+02 -1.816569E+01 -3.749223E-01 -6.701084E+00  7.161599E-01 -4.759798E+00
      1290   6  2.448549E+02 -1.769272E-01  2.965946E+00 -5.412127E+00  7.453772E-01 -4.604685E+00
      1290   7  1.923682E+02 -1.710262E+01  1.221745E+00 -7.615410E+00  8.578619E-01  2.208846E+00
      1290   8  2.486552E+02  7.989032E-01  4.488644E+00 -6.502989E+00  8.853712E-01  2.339490E+00
      1291   1 -3.378901E+02 -3.785650E+01 -1.758097E+01  1.310915E+01 -1.373928E+00 -1.822238E+00
      1291   2 -2.122419E+02  7.759347E+00  8.867921E+00  1.331614E+01 -1.342975E+00 -6.482242E-01
      1291   3 -3.297310E+02 -3.749703E+01 -1.502038E+01  1.447758E+01 -1.010505E+00  7.608663E+00
      1291   4 -2.046995E+02  7.853853E+00  1.116276E+01  1.431670E+01 -9.887106E-01  8.757506E+00
      1291   5 -3.366471E+02 -3.855913E+01 -1.693006E+01 -2.135254E+01  8.871702E-01 -3.489989E+00
      1291   6 -2.110434E+02  7.116360E+00  9.535481E+00 -1.930135E+01  8.955702E-01 -2.569764E+00
      1291   7 -3.287456E+02 -3.782489E+01 -1.424350E+01 -1.993988E+01  1.243905E+00  5.947831E+00
      1291   8 -2.037391E+02  7.571402E+00  1.196307E+01 -1.825892E+01  1.243216E+00  6.843090E+00
      1292   1 -1.668863E+02 -4.701171E+01 -1.135115E+01  1.343170E+01 -1.320898E+00 -7.185749E-02
      1292   2 -6.842334E+01 -1.227401E+01  6.013490E+00  1.359630E+01 -1.301465E+00  7.574207E-01
      1292   3 -1.592516E+02 -4.589239E+01 -8.717656E+00  1.394389E+01 -9.649089E-01  8.406352E+00
      1292   4 -6.133946E+01 -1.139121E+01  8.410113E+00  1.381693E+01 -9.528473E-01  9.210686E+00
      1292   5 -1.657563E+02 -4.757404E+01 -1.067179E+01 -1.655150E+01  8.984295E-01 -2.270579E+00
      1292   6 -6.732509E+01 -1.278513E+01  6.714829E+00 -1.491848E+01  8.852145E-01 -1.692625E+00
      1292   7 -1.583412E+02 -4.612601E+01 -7.915305E+00 -1.598472E+01  1.247934E+00  6.215042E+00
      1292   8 -6.044481E+01 -1.158445E+01  9.240672E+00 -1.464593E+01  1.227446E+00  6.768449E+00
      1293   1 -2.692853E+01 -4.405576E+01 -6.956254E+00  1.375610E+01 -1.260965E+00 -3.287425E-01
      1293   2  5.280387E+01 -1.676113E+01  4.321887E+00  1.388436E+01 -1.237143E+00  4.889403E-01
      1293   3 -2.021049E+01 -4.329886E+01 -4.705880E+00  1.363223E+01 -9.190304E-01  7.420261E+00
      1293   4  5.902299E+01 -1.621839E+01  6.357871E+00  1.352343E+01 -9.026503E-01  8.213298E+00
      1293   5 -2.587259E+01 -4.449575E+01 -6.254111E+00 -1.300941E+01  8.989875E-01 -3.030264E+00
      1293   6  5.383481E+01 -1.715859E+01  5.045218E+00 -1.167282E+01  8.803977E-01 -2.460764E+00
      1293   7 -1.934927E+01 -4.344935E+01 -3.884711E+00 -1.307111E+01  1.234618E+00  4.726815E+00
      1293   8  5.987297E+01 -1.633453E+01  7.206174E+00 -1.197438E+01  1.208714E+00  5.272101E+00
      1294   1  9.113462E+01 -3.340009E+01 -3.938103E+00  1.404568E+01 -1.193169E+00 -9.875054E-01
      1294   2  1.573910E+02 -1.145911E+01  2.966074E+00  1.415270E+01 -1.176170E+00 -2.984485E-01
      1294   3  9.722804E+01 -3.254368E+01 -1.845696E+00  1.345151E+01 -8.678384E-01  6.223443E+00
      1294   4  1.631049E+02 -1.076560E+01  4.895432E+00  1.335850E+01 -8.558680E-01  6.887835E+00
      1294   5  9.212697E+01 -3.376780E+01 -3.230954E+00 -1.034267E+01  8.994016E-01 -4.167234E+00
      1294   6  1.583636E+02 -1.178963E+01  3.694429E+00 -9.214486E+00  8.893641E-01 -3.726245E+00
      1294   7  9.804820E+01 -3.264373E+01 -1.017913E+00 -1.089340E+01  1.218624E+00  3.052829E+00
      1294   8  1.639170E+02 -1.083516E+01  5.749981E+00 -9.967064E+00  1.203640E+00  3.469651E+00
      1295   1  1.931291E+02 -1.771423E+01 -2.220420E+00  1.434678E+01 -1.135695E+00 -1.598017E+00
      1295   2  2.493801E+02  1.830741E-01  1.207536E+00  1.444641E+01 -1.111325E+00 -9.777287E-01
      1295   3  1.987103E+02 -1.687842E+01 -2.892981E-01  1.338795E+01 -8.245955E-01  5.284168E+00
      1295   4  2.546853E+02  9.000817E-01  3.019168E+00  1.331273E+01 -8.053648E-01  5.879470E+00
      1295   5  1.940599E+02 -1.806245E+01 -1.524947E+00 -8.291264E+00  9.172289E-01 -5.252173E+00
      1295   6  2.502909E+02 -1.352009E-01  1.914019E+00 -7.307842E+00  9.329570E-01 -4.882404E+00
      1295   7  1.994902E+02 -1.696599E+01  5.344120E-01 -9.227791E+00  1.222221E+00  1.643068E+00
      1295   8  2.554556E+02  8.367129E-01  3.859161E+00 -8.420096E+00  1.232841E+00  1.988285E+00
      1296   1 -3.222983E+02 -3.721786E+01 -1.236032E+01  1.540280E+01 -1.961581E+00 -3.275059E+00
      1296   2 -1.996891E+02  6.081307E+00  9.397399E+00  1.497631E+01 -1.904986E+00 -1.420504E+00
      1296   3 -3.107017E+02 -3.735341E+01 -8.903469E+00  1.655032E+01 -1.332624E+00  7.332365E+00
      1296   4 -1.892333E+02  5.464301E+00  1.236609E+01  1.576693E+01 -1.296513E+00  9.162004E+00
      1296   5 -3.214805E+02 -3.725213E+01 -1.144066E+01 -1.893277E+01  1.337101E+00 -5.015938E+00
      1296   6 -1.988861E+02  6.077843E+00  1.033542E+01 -1.752181E+01  1.299372E+00 -3.417380E+00
      1296   7 -3.101353E+02 -3.701332E+01 -7.844857E+00 -1.760577E+01  1.956494E+00  5.599814E+00
      1296   8 -1.886618E+02  5.821677E+00  1.345086E+01 -1.656132E+01  1.898551E+00  7.173317E+00
      1297   1 -1.550416E+02 -4.791755E+01 -1.177226E+01  1.424357E+01 -1.843320E+00 -2.285294E+00
      1297   2 -5.748859E+01 -1.343550E+01  5.644180E+00  1.390736E+01 -1.773383E+00 -4.760771E-01
      1297   3 -1.453233E+02 -4.870842E+01 -9.068909E+00  1.453800E+01 -1.255714E+00  6.029325E+00
      1297   4 -4.883270E+01 -1.467577E+01  7.893644E+00  1.392260E+01 -1.204920E+00  7.814050E+00
      1297   5 -1.542824E+02 -4.790432E+01 -1.085409E+01 -1.559250E+01  1.280724E+00 -4.561451E+00
      1297   6 -5.673629E+01 -1.339271E+01  6.587856E+00 -1.446748E+01  1.225284E+00 -3.002919E+00
      1297   7 -1.447881E+02 -4.838233E+01 -8.035595E+00 -1.509986E+01  1.859284E+00  3.759311E+00
      1297   8 -4.828838E+01 -1.433029E+01  8.958864E+00 -1.426374E+01  1.785064E+00  5.293411E+00
      1298   1 -1.658229E+01 -4.521157E+01 -7.358752E+00  1.347724E+01 -1.706254E+00 -2.014465E+00
      1298   2  6.213427E+01 -1.836206E+01  3.446767E+00  1.319811E+01 -1.643000E+00 -3.651486E-01
      1298   3 -8.388330E+00 -4.618681E+01 -5.169063E+00  1.316796E+01 -1.162939E+00  5.739369E+00
      1298   4  6.946928E+01 -1.970065E+01  5.269417E+00  1.266118E+01 -1.116466E+00  7.364386E+00
      1298   5 -1.585825E+01 -4.514770E+01 -6.436294E+00 -1.314021E+01  1.205212E+00 -4.792974E+00
      1298   6  6.285379E+01 -1.827300E+01  4.392992E+00 -1.221768E+01  1.155138E+00 -3.391857E+00
      1298   7 -7.860617E+00 -4.584440E+01 -4.131239E+00 -1.327704E+01  1.740097E+00  2.967871E+00
      1298   8  7.000609E+01 -1.934080E+01  6.337131E+00 -1.258995E+01  1.673570E+00  4.344827E+00
      1299   1  1.001756E+02 -3.441840E+01 -4.774576E+00  1.296081E+01 -1.581968E+00 -2.100675E+00
      1299   2  1.656001E+02 -1.287106E+01  1.645343E+00  1.272411E+01 -1.528325E+00 -6.605753E-01
      1299   3  1.072672E+02 -3.525835E+01 -2.876474E+00  1.220616E+01 -1.079004E+00  5.147509E+00
      1299   4  1.720193E+02 -1.399518E+01  3.256137E+00  1.177745E+01 -1.039250E+00  6.563302E+00
      1299   5  1.008685E+02 -3.432642E+01 -3.858792E+00 -1.131695E+01  1.140935E+00 -5.357029E+00
      1299   6  1.662897E+02 -1.275724E+01  2.582780E+00 -1.053711E+01  1.101889E+00 -4.164584E+00
      1299   7  1.077852E+02 -3.491010E+01 -1.843671E+00 -1.193156E+01  1.636006E+00  1.899491E+00
      1299   8  1.725460E+02 -1.363122E+01  4.316420E+00 -1.134960E+01  1.583341E+00  3.067853E+00
      1300   1  2.013500E+02 -1.837670E+01 -3.076438E+00  1.264337E+01 -1.479766E+00 -2.134755E+00
      1300   2  2.574883E+02 -2.795114E-01  1.127215E+00  1.244232E+01 -1.441529E+00 -1.069115E+00
      1300   3  2.079232E+02 -1.835855E+01 -1.076414E+00  1.156251E+01 -1.009294E+00  4.450962E+00
      1300   4  2.636002E+02 -4.556321E-01  2.930041E+00  1.119287E+01 -9.808517E-01  5.491941E+00
      1300   5  2.020113E+02 -1.828408E+01 -2.175331E+00 -9.931705E+00  1.098230E+00 -5.859827E+00
      1300   6  2.581463E+02 -1.679522E-01  2.045704E+00 -9.251423E+00  1.085759E+00 -5.044351E+00
      1300   7  2.084276E+02 -1.801880E+01 -5.674229E-02 -1.092381E+01  1.561192E+00  7.374473E-01
      1300   8  2.641118E+02 -1.023814E-01  3.972327E+00 -1.041558E+01  1.539074E+00  1.528569E+00
      1301   1 -3.566105E+02 -4.045125E+01 -2.721375E+01 -1.915069E+01  8.169988E-02 -2.801763E+00
      1301   2 -2.282358E+02  9.115306E+00  5.810745E+00 -1.071100E+01  7.036303E-02 -2.497710E+00
      1301   3 -3.559538E+02 -4.041929E+01 -2.705589E+01 -1.766622E+01 -8.282468E-01  4.837431E+00
      1301   4 -2.275544E+02  9.054910E+00  5.950450E+00 -9.574133E+00 -8.138325E-01  5.121067E+00
      1301   5 -3.488899E+02 -4.856637E+01 -2.749090E+01 -5.241307E+01  5.151969E-01 -4.291010E+00
      1301   6 -2.209089E+02  1.453797E+00  5.593442E+00 -4.219334E+01  5.334205E-01 -4.220601E+00
      1301   7 -3.484553E+02 -4.821878E+01 -2.723428E+01 -5.108294E+01 -3.938381E-01  3.332465E+00
      1301   8 -2.204334E+02  1.696530E+00  5.836885E+00 -4.120256E+01 -3.500655E-01  3.384154E+00
      1302   1 -1.839309E+02 -4.705252E+01 -1.281037E+01  4.600449E-01  5.098240E-02 -2.196141E+00
      1302   2 -8.425581E+01 -1.020942E+01  7.353088E+00  7.094695E+00  4.522651E-02 -1.987701E+00
      1302   3 -1.830441E+02 -4.691576E+01 -1.254908E+01  1.119232E+00 -8.329505E-01  5.564768E+00
      1302   4 -8.334792E+01 -1.014300E+01  7.601739E+00  7.482110E+00 -8.166318E-01  5.753060E+00
      1302   5 -1.770481E+02 -5.379108E+01 -1.285268E+01 -2.851925E+01  5.485888E-01 -4.180751E+00
      1302   6 -7.768828E+01 -1.659609E+01  7.363916E+00 -2.046534E+01  5.728823E-01 -4.199726E+00
      1302   7 -1.763518E+02 -5.338563E+01 -1.248886E+01 -2.799362E+01 -3.348312E-01  3.567838E+00
      1302   8 -7.695689E+01 -1.626960E+01  7.720586E+00 -2.020494E+01 -2.886491E-01  3.530244E+00
      1303   1 -4.308242E+01 -4.170934E+01 -4.830118E+00  1.484931E+01  4.299327E-02 -1.864937E+00
      1303   2  3.702941E+01 -1.331006E+01  7.300686E+00  2.027971E+01  3.603565E-02 -1.696875E+00
      1303   3 -4.207236E+01 -4.158642E+01 -4.531673E+00  1.491371E+01 -7.874757E-01  5.713457E+00
      1303   4  3.806163E+01 -1.324226E+01  7.591314E+00  2.012149E+01 -7.753634E-01  5.861199E+00
      1303   5 -3.685703E+01 -4.758513E+01 -4.738583E+00 -1.102546E+01  6.007947E-01 -4.306996E+00
      1303   6  4.299745E+01 -1.889692E+01  7.443255E+00 -4.426929E+00  6.253592E-01 -4.365274E+00
      1303   7 -3.600975E+01 -4.721710E+01 -4.331129E+00 -1.108125E+01 -2.295272E-01  3.262222E+00
      1303   8  4.387855E+01 -1.859071E+01  7.848275E+00 -4.699925E+00 -1.860673E-01  3.185013E+00
      1304   1  7.529413E+01 -2.924725E+01 -6.619878E-01  2.581621E+01  4.231933E-02 -1.662326E+00
      1304   2  1.416336E+02 -6.616021E+00  6.395346E+00  3.039842E+01  3.644954E-02 -1.502400E+00
      1304   3  7.636624E+01 -2.920627E+01 -3.643704E-01  2.543063E+01 -7.222317E-01  5.574863E+00
      1304   4  1.427231E+02 -6.621923E+00  6.686263E+00  2.982483E+01 -7.114492E-01  5.714236E+00
      1304   5  8.101946E+01 -3.453325E+01 -4.729289E-01  2.236257E+00  6.585523E-01 -4.539965E+00
      1304   6  1.471443E+02 -1.165551E+01  6.635248E+00  7.805789E+00  6.838367E-01 -4.606658E+00
      1304   7  8.194878E+01 -3.426352E+01 -6.200851E-02  1.741661E+00 -1.061801E-01  2.690678E+00
      1304   8  1.481014E+02 -1.143797E+01  7.044656E+00  7.127755E+00 -6.440539E-02  2.604714E+00
      1305   1  1.772512E+02 -1.259080E+01  1.303968E+00  3.437580E+01  4.567121E-02 -1.524027E+00
      1305   2  2.335186E+02  5.978058E+00  5.180231E+00  3.831860E+01  3.085397E-02 -1.382459E+00
      1305   3  1.783876E+02 -1.257416E+01  1.619027E+00  3.364390E+01 -6.472564E-01  5.269224E+00
      1305   4  2.346942E+02  5.964966E+00  5.498972E+00  3.742740E+01 -6.511448E-01  5.389851E+00
      1305   5  1.826026E+02 -1.740354E+01  1.587114E+00  1.256275E+01  7.196990E-01 -4.820005E+00
      1305   6  2.386790E+02  1.371200E+00  5.494435E+00  1.735711E+01  7.442939E-01 -4.903224E+00
      1305   7  1.836110E+02 -1.717828E+01  2.015224E+00  1.172228E+01  2.570481E-02  1.974529E+00
      1305   8  2.397356E+02  1.562637E+00  5.931257E+00  1.636158E+01  6.107549E-02  1.871353E+00
      1306   1 -3.543122E+02 -3.994701E+01 -2.577673E+01 -1.651666E+01 -5.587593E-01 -2.280872E+00
      1306   2 -2.263134E+02  9.076733E+00  6.351876E+00 -8.682599E+00 -5.329227E-01 -1.715037E+00
      1306   3 -3.515586E+02 -3.976000E+01 -2.493039E+01 -1.486671E+01 -1.313060E+00  5.618294E+00
      1306   4 -2.236949E+02  9.109317E+00  7.113554E+00 -7.389680E+00 -1.265124E+00  6.163080E+00
      1306   5 -3.469667E+02 -4.749676E+01 -2.585028E+01 -5.003144E+01  4.357616E-01 -3.744607E+00
      1306   6 -2.193359E+02  1.955972E+00  6.340423E+00 -4.040384E+01  4.837663E-01 -3.412562E+00
      1306   7 -3.444444E+02 -4.697937E+01 -2.490144E+01 -4.849499E+01 -3.197722E-01  4.140053E+00
      1306   8 -2.169317E+02  2.305824E+00  7.209747E+00 -3.921834E+01 -2.498196E-01  4.452575E+00
      1307   1 -1.818447E+02 -4.682638E+01 -1.252156E+01  1.654083E+00 -5.549672E-01 -1.007718E+00
      1307   2 -8.241833E+01 -1.036420E+01  7.036679E+00  7.814865E+00 -5.299746E-01 -6.602815E-01
      1307   3 -1.789414E+02 -4.620285E+01 -1.149563E+01  2.451129E+00 -1.278696E+00  6.934086E+00
      1307   4 -7.961080E+01 -9.856466E+00  8.001409E+00  8.331779E+00 -1.234158E+00  7.260764E+00
      1307   5 -1.752853E+02 -5.308487E+01 -1.236424E+01 -2.754458E+01  4.916029E-01 -2.967513E+00
      1307   6 -7.615251E+01 -1.628851E+01  7.250854E+00 -1.995379E+01  5.435348E-01 -2.848723E+00
      1307   7 -1.725781E+02 -5.217616E+01 -1.123103E+01 -2.684835E+01 -2.336623E-01  4.963169E+00
      1307   8 -7.352711E+01 -1.550503E+01  8.328308E+00 -1.953278E+01 -1.623378E-01  5.062613E+00
      1308   1 -4.119128E+01 -4.183692E+01 -5.323955E+00  1.500647E+01 -4.813147E-01 -7.363100E-01
      1308   2  3.884012E+01 -1.362990E+01  6.585625E+00  2.004840E+01 -4.639472E-01 -4.754594E-01
      1308   3 -3.829401E+01 -4.114129E+01 -4.273355E+00  1.519117E+01 -1.147082E+00  6.915582E+00
      1308   4  4.166079E+01 -1.302809E+01  7.587365E+00  2.000278E+01 -1.112957E+00  7.155503E+00
      1308   5 -3.524554E+01 -4.727784E+01 -5.032055E+00 -1.106561E+01  6.196207E-01 -3.155739E+00
      1308   6  4.454616E+01 -1.879641E+01  6.931561E+00 -4.846660E+00  6.655602E-01 -3.123317E+00
      1308   7 -3.251611E+01 -4.632053E+01 -3.868374E+00 -1.097136E+01 -4.799996E-02  4.488317E+00
      1308   8  4.721108E+01 -1.794025E+01  8.051704E+00 -4.978635E+00  1.455096E-02  4.501102E+00
      1309   1  7.710797E+01 -2.967069E+01 -1.464675E+00  2.518943E+01 -3.833649E-01 -9.081321E-01
      1309   2  1.434293E+02 -7.150579E+00  5.526515E+00  2.944346E+01 -3.691203E-01 -6.464872E-01
      1309   3  7.988741E+01 -2.915288E+01 -4.977096E-01  2.491198E+01 -9.873886E-01  6.358144E+00
      1309   4  1.461433E+02 -6.712177E+00  6.452187E+00  2.897124E+01 -9.589883E-01  6.598621E+00
      1309   5  8.258365E+01 -3.455536E+01 -1.079643E+00  1.430472E+00  7.708248E-01 -3.766734E+00
      1309   6  1.487047E+02 -1.180170E+01  5.963075E+00  6.679334E+00  8.138959E-01 -3.734238E+00
      1309   7  8.521626E+01 -3.379272E+01  4.373402E-03  1.070875E+00  1.646087E-01  3.494714E+00
      1309   8  1.512824E+02 -1.112444E+01  7.010870E+00  6.128413E+00  2.217006E-01  3.507215E+00
      1310   1  1.790537E+02 -1.315494E+01  3.494086E-01  3.314356E+01 -2.735634E-01 -1.268640E+00
      1310   2  2.352443E+02  5.234478E+00  3.947368E+00  3.680845E+01 -2.714797E-01 -1.016219E+00
      1310   3  1.817445E+02 -1.274844E+01  1.261040E+00  3.250467E+01 -8.215510E-01  5.618199E+00
      1310   4  2.378998E+02  5.582268E+00  4.832689E+00  3.600497E+01 -8.069382E-01  5.849590E+00
      1310   5  1.841769E+02 -1.760639E+01  8.192344E-01  1.115197E+01  9.331046E-01 -4.541897E+00
      1310   6  2.401956E+02  9.850217E-01  4.464813E+00  1.567539E+01  9.712551E-01 -4.516316E+00
      1310   7  1.867341E+02 -1.697940E+01  1.846828E+00  1.043051E+01  3.826078E-01  2.343183E+00
      1310   8  2.427268E+02  1.548793E+00  5.471098E+00  1.479257E+01  4.331397E-01  2.348794E+00
      1311   1 -3.479995E+02 -3.887301E+01 -2.238691E+01 -1.359997E+01 -1.127305E+00 -1.978702E+00
      1311   2 -2.211301E+02  9.026165E+00  7.626007E+00 -6.387404E+00 -1.074342E+00 -1.110882E+00
      1311   3 -3.429806E+02 -3.858405E+01 -2.081855E+01 -1.179605E+01 -1.745535E+00  6.492681E+00
      1311   4 -2.164169E+02  9.094484E+00  9.038929E+00 -4.948627E+00 -1.673216E+00  7.338976E+00
      1311   5 -3.410433E+02 -4.583074E+01 -2.224730E+01 -4.729504E+01  4.869850E-01 -3.416010E+00
      1311   6 -2.145140E+02  2.472838E+00  7.832877E+00 -3.827928E+01  5.548755E-01 -2.782132E+00
      1311   7 -3.362623E+02 -4.519555E+01 -2.056863E+01 -4.556002E+01 -1.346432E-01  5.041230E+00
      1311   8 -2.100212E+02  2.873695E+00  9.361541E+00 -3.690574E+01 -4.750232E-02  5.654966E+00
      1312   1 -1.765957E+02 -4.614882E+01 -1.180348E+01  3.085610E+00 -1.082686E+00 -1.812452E-01
      1312   2 -7.781334E+01 -1.033204E+01  6.638513E+00  8.758234E+00 -1.040118E+00  3.274811E-01
      1312   3 -1.715085E+02 -4.503930E+01 -9.963003E+00  4.016495E+00 -1.647966E+00  8.059865E+00
      1312   4 -7.297150E+01 -9.397297E+00  8.355436E+00  9.401205E+00 -1.588973E+00  8.547308E+00
      1312   5 -1.703678E+02 -5.189686E+01 -1.143283E+01 -2.627231E+01  5.696899E-01 -2.114705E+00
      1312   6 -7.185673E+01 -1.576478E+01  7.069958E+00 -1.916190E+01  6.301934E-01 -1.835702E+00
      1312   7 -1.654834E+02 -5.048673E+01 -9.479612E+00 -2.540020E+01  7.589741E-04  6.116440E+00
      1312   8 -6.720269E+01 -1.453928E+01  8.905280E+00 -1.857480E+01  7.758340E-02  6.375450E+00
      1313   1 -3.665169E+01 -4.166205E+01 -6.025792E+00  1.537350E+01 -9.327448E-01 -1.445091E-01
      1313   2  4.309561E+01 -1.373902E+01  5.541271E+00  2.001369E+01 -9.069421E-01  2.592877E-01
      1313   3 -3.180033E+01 -4.051570E+01 -4.239271E+00  1.568205E+01 -1.428837E+00  7.591877E+00
      1313   4  4.773468E+01 -1.274061E+01  7.222087E+00  2.008449E+01 -1.389594E+00  7.974205E+00
      1313   5 -3.099266E+01 -4.663765E+01 -5.521454E+00 -1.084019E+01  7.568435E-01 -2.538791E+00
      1313   6  4.853317E+01 -1.845596E+01  6.102249E+00 -5.016568E+00  7.994568E-01 -2.365393E+00
      1313   7 -2.631560E+01 -4.521444E+01 -3.618599E+00 -1.058089E+01  2.568733E-01  5.191072E+00
      1313   8  5.301032E+01 -1.718869E+01  7.904669E+00 -4.992795E+00  3.128393E-01  5.344179E+00
      1314   1  8.123346E+01 -2.996423E+01 -2.642873E+00  2.475002E+01 -7.612881E-01 -6.978914E-01
      1314   2  1.474297E+02 -7.569341E+00  4.325900E+00  2.866455E+01 -7.393486E-01 -2.928610E-01
      1314   3  8.574130E+01 -2.908620E+01 -1.034888E+00  2.458055E+01 -1.198058E+00  6.565349E+00
      1314   4  1.517632E+02 -6.813934E+00  5.847016E+00  2.829463E+01 -1.164663E+00  6.948798E+00
      1314   5  8.645383E+01 -3.441895E+01 -2.050759E+00  8.618753E-01  9.616591E-01 -3.533697E+00
      1314   6  1.524653E+02 -1.180376E+01  4.971956E+00  5.776645E+00  1.002996E+00 -3.359398E+00
      1314   7  9.080818E+01 -3.328436E+01 -3.244657E-01  6.460705E-01  5.207666E-01  3.725738E+00
      1314   8  1.566559E+02 -1.079830E+01  6.616379E+00  5.362321E+00  5.734711E-01  3.879528E+00
      1315   1  1.829572E+02 -1.366760E+01 -9.652152E-01  3.207087E+01 -5.855339E-01 -1.362651E+00
      1315   2  2.389293E+02  4.480682E+00  2.276299E+00  3.544911E+01 -5.680193E-01 -9.708797E-01
      1315   3  1.872083E+02 -1.295389E+01  5.201532E-01  3.152052E+01 -9.851871E-01  5.623878E+00
      1315   4  2.430659E+02  5.104898E+00  3.702885E+00  3.473000E+01 -9.558640E-01  5.994407E+00
      1315   5  1.878446E+02 -1.773592E+01 -2.990656E-01  9.946603E+00  1.175260E+00 -4.614648E+00
      1315   6  2.436606E+02  6.059334E-01  2.997606E+00  1.418856E+01  1.224500E+00 -4.450812E+00
      1315   7  1.919570E+02 -1.679187E+01  1.304732E+00  9.341946E+00  7.713277E-01  2.369544E+00
      1315   8  2.476680E+02  1.455631E+00  4.547647E+00  1.341726E+01  8.322489E-01  2.513162E+00
      1316   1 -3.374477E+02 -3.741665E+01 -1.736055E+01 -1.042336E+01 -1.611301E+00 -2.014389E+00
      1316   2 -2.126275E+02  8.625454E+00  8.978783E+00 -3.846126E+00 -1.538525E+00 -8.434163E-01
      1316   3 -3.296656E+02 -3.682646E+01 -1.486175E+01 -8.484789E+00 -2.105602E+00  7.435025E+00
      1316   4 -2.053528E+02  8.915840E+00  1.123818E+01 -2.280197E+00 -2.015822E+00  8.584044E+00
      1316   5 -3.308897E+02 -4.375270E+01 -1.698943E+01 -4.421840E+01  7.458858E-01 -3.429638E+00
      1316   6 -2.063800E+02  2.668993E+00  9.424549E+00 -3.583264E+01  8.254615E-01 -2.493286E+00
      1316   7 -3.233484E+02 -4.279760E+01 -1.436696E+01 -4.229574E+01  2.457709E-01  6.005609E+00
      1316   8 -1.993276E+02  3.310229E+00  1.181369E+01 -3.428175E+01  3.422881E-01  6.921269E+00
      1317   1 -1.681803E+02 -4.544566E+01 -1.129297E+01  4.756040E+00 -1.486518E+00 -2.690762E-01
      1317   2 -7.028679E+01 -1.034161E+01  6.026920E+00  9.925702E+00 -1.456394E+00  5.511451E-01
      1317   3 -1.607199E+02 -4.420646E+01 -8.687248E+00  5.838546E+00 -1.872988E+00  8.235961E+00
      1317   4 -6.331986E+01 -9.378627E+00  8.404315E+00  1.070907E+01 -1.831742E+00  9.034158E+00
      1317   5 -1.622938E+02 -5.065208E+01 -1.069438E+01 -2.467830E+01  8.857218E-01 -2.180279E+00
      1317   6 -6.464818E+01 -1.525277E+01  6.690070E+00 -1.806708E+01  9.035934E-01 -1.593960E+00
      1317   7 -1.550436E+02 -4.909008E+01 -7.969175E+00 -2.358516E+01  4.933405E-01  6.315603E+00
      1317   8 -5.787641E+01 -1.397792E+01  9.192549E+00 -1.727361E+01  5.223489E-01  6.881030E+00
      1318   1 -2.937847E+01 -4.160356E+01 -6.951876E+00  1.596472E+01 -1.285954E+00 -5.369479E-01
      1318   2  4.986734E+01 -1.402062E+01  4.282179E+00  2.018916E+01 -1.284398E+00  2.720084E-01
      1318   3 -2.272126E+01 -4.082694E+01 -4.719739E+00  1.642161E+01 -1.600550E+00  7.246540E+00
      1318   4  5.608110E+01 -1.348707E+01  6.310817E+00  2.039792E+01 -1.591342E+00  8.033296E+00
      1318   5 -2.401703E+01 -4.608420E+01 -6.225631E+00 -1.030878E+01  1.068393E+00 -2.915109E+00
      1318   6  5.502585E+01 -1.825984E+01  5.067001E+00 -4.898221E+00  1.050310E+00 -2.341485E+00
      1318   7 -1.754359E+01 -4.501061E+01 -3.873610E+00 -9.831410E+00  7.478991E-01  4.862291E+00
      1318   8  6.106856E+01 -1.743822E+01  7.220688E+00 -4.669916E+00  7.375156E-01  5.414721E+00
      1319   1  8.779516E+01 -3.031141E+01 -3.983707E+00  2.449773E+01 -1.090029E+00 -1.205012E+00
      1319   2  1.536665E+02 -8.116015E+00  2.896702E+00  2.806235E+01 -1.082537E+00 -5.246083E-01
      1319   3  9.393078E+01 -2.950178E+01 -1.893442E+00  2.443558E+01 -1.356158E+00  6.045941E+00
      1319   4  1.594632E+02 -7.495949E+00  4.830868E+00  2.779264E+01 -1.341514E+00  6.704209E+00
      1319   5  9.274926E+01 -3.431359E+01 -3.179407E+00  5.490663E-01  1.238076E+00 -4.031935E+00
      1319   6  1.584515E+02 -1.191221E+01  3.756933E+00  5.116453E+00  1.239247E+00 -3.586005E+00
      1319   7  9.872335E+01 -3.323258E+01 -9.690328E-01  4.945554E-01  9.659608E-01  3.215813E+00
      1319   8  1.640979E+02 -1.102783E+01  5.816138E+00  4.854068E+00  9.742919E-01  3.640555E+00
      1320   1  1.891030E+02 -1.417227E+01 -2.315161E+00  3.114675E+01 -9.030290E-01 -1.839460E+00
      1320   2  2.449419E+02  3.907811E+00  1.045243E+00  3.423115E+01 -8.822591E-01 -1.229859E+00
      1320   3  1.948144E+02 -1.342579E+01 -3.672840E-01  3.067140E+01 -1.138410E+00  5.091391E+00
      1320   4  2.504414E+02  4.526287E+00  2.893817E+00  3.358305E+01 -1.107786E+00  5.679433E+00
      1320   5  1.937458E+02 -1.784020E+01 -1.448053E+00  8.941120E+00  1.424070E+00 -5.089533E+00
      1320   6  2.494436E+02  4.232312E-01  1.972284E+00  1.289242E+01  1.466532E+00 -4.709847E+00
      1320   7  1.993123E+02 -1.685442E+01  6.182612E-01  8.446228E+00  1.182627E+00  1.838867E+00
      1320   8  2.548080E+02  1.275764E+00  3.944242E+00  1.222554E+01  1.234858E+00  2.197938E+00
      1321   1 -3.224809E+02 -3.634167E+01 -1.217166E+01 -6.971124E+00 -1.905431E+00 -3.518167E+00
      1321   2 -2.005151E+02  7.317111E+00  9.509226E+00 -1.048076E+00 -1.884260E+00 -1.669393E+00
      1321   3 -3.112716E+02 -3.623857E+01 -8.779527E+00 -4.786488E+00 -2.246171E+00  7.135922E+00
      1321   4 -1.903345E+02  6.902684E+00  1.244080E+01  7.409903E-01 -2.214692E+00  8.961621E+00
      1321   5 -3.163281E+02 -4.201386E+01 -1.154321E+01 -4.074533E+01  1.493420E+00 -4.892527E+00
      1321   6 -1.946393E+02  2.000519E+00  1.022539E+01 -3.301485E+01  1.450423E+00 -3.288275E+00
      1321   7 -3.053652E+02 -4.149878E+01 -8.004138E+00 -3.844425E+01  1.144101E+00  5.744666E+00
      1321   8 -1.846860E+02  1.982118E+00  1.331029E+01 -3.111559E+01  1.111592E+00  7.327003E+00
      1322   1 -1.566201E+02 -4.612092E+01 -1.171134E+01  6.727109E+00 -1.704129E+00 -2.532649E+00
      1322   2 -5.954229E+01 -1.134768E+01  5.661652E+00  1.137054E+01 -1.752267E+00 -7.328772E-01
      1322   3 -1.470871E+02 -4.679358E+01 -9.040816E+00  8.059931E+00 -1.856226E+00  5.837642E+00
      1322   4 -5.101284E+01 -1.251091E+01  7.886659E+00  1.238303E+01 -1.905280E+00  7.614061E+00
      1322   5 -1.510893E+02 -5.073992E+01 -1.086958E+01 -2.263733E+01  1.578398E+00 -4.415975E+00
      1322   6 -5.423692E+01 -1.569500E+01  6.568299E+00 -1.655578E+01  1.426241E+00 -2.861432E+00
      1322   7 -1.417814E+02 -5.105186E+01 -8.074189E+00 -2.115306E+01  1.417936E+00  3.944333E+00
      1322   8 -4.591662E+01 -1.651032E+01  8.923366E+00 -1.539925E+01  1.265193E+00  5.476342E+00
      1323   1 -1.912656E+01 -4.271339E+01 -7.358076E+00  1.682522E+01 -1.547867E+00 -2.270453E+00
      1323   2  5.919411E+01 -1.563159E+01  3.409109E+00  2.061489E+01 -1.603651E+00 -6.304379E-01
      1323   3 -1.099503E+01 -4.367266E+01 -5.189557E+00  1.746114E+01 -1.671315E+00  5.542385E+00
      1323   4  6.652273E+01 -1.698388E+01  5.221496E+00  2.098973E+01 -1.728241E+00  7.159335E+00
      1323   5 -1.408026E+01 -4.666256E+01 -6.403796E+00 -9.373127E+00  1.565142E+00 -4.637755E+00
      1323   6  6.405693E+01 -1.935802E+01  4.424149E+00 -4.400735E+00  1.419401E+00 -3.240709E+00
      1323   7 -6.144173E+00 -4.729969E+01 -4.111232E+00 -8.608178E+00  1.433783E+00  3.167536E+00
      1323   8  7.120352E+01 -2.039815E+01  6.365617E+00 -3.902685E+00  1.287187E+00  4.542284E+00
      1324   1  9.690989E+01 -3.141100E+01 -4.820823E+00  2.444818E+01 -1.393375E+00 -2.365348E+00
      1324   2  1.620139E+02 -9.662108E+00  1.571967E+00  2.764931E+01 -1.441495E+00 -9.336320E-01
      1324   3  1.040421E+02 -3.230552E+01 -2.928823E+00  2.453652E+01 -1.493353E+00  4.945303E+00
      1324   4  1.685168E+02 -1.086725E+01  3.184354E+00  2.751976E+01 -1.542642E+00  6.354112E+00
      1324   5  1.015826E+02 -3.493273E+01 -3.800747E+00  5.473030E-01  1.573246E+00 -5.192528E+00
      1324   6  1.665335E+02 -1.299388E+01  2.648410E+00  4.749210E+00  1.454368E+00 -4.002297E+00
      1324   7  1.085428E+02 -3.553445E+01 -1.784849E+00  7.377786E-01  1.465615E+00  2.113816E+00
      1324   8  1.728760E+02 -1.391417E+01  4.389545E+00  4.717513E+00  1.345797E+00  3.281855E+00
      1325   1  1.975414E+02 -1.500156E+01 -3.162908E+00  3.035982E+01 -1.255277E+00 -2.416512E+00
      1325   2  2.533762E+02  3.259914E+00  1.003138E+00  3.314224E+01 -1.267604E+00 -1.359162E+00
      1325   3  2.042467E+02 -1.508459E+01 -1.150321E+00  2.997829E+01 -1.314565E+00  4.236122E+00
      1325   4  2.596833E+02  2.972098E+00  2.837961E+00  3.258076E+01 -1.321648E+00  5.271320E+00
      1325   5  2.019269E+02 -1.825219E+01 -2.097344E+00  8.144303E+00  1.606827E+00 -5.680323E+00
      1325   6  2.576364E+02  1.821520E-01  2.134422E+00  1.179401E+01  1.574217E+00 -4.858547E+00
      1325   7  2.084781E+02 -1.808090E+01  3.168196E-02  7.808779E+00  1.540108E+00  9.683035E-01
      1325   8  2.637993E+02  1.426655E-01  4.090320E+00  1.127674E+01  1.512801E+00  1.768772E+00
      1326   1 -3.498307E+02 -4.490569E+01 -2.688875E+01 -4.307468E+01  2.645473E-01 -2.839604E+00
      1326   2 -2.240085E+02  6.169345E+00  5.903112E+00 -2.862116E+01  2.409299E-01 -2.546019E+00
      1326   3 -3.494502E+02 -4.467382E+01 -2.676364E+01 -4.163662E+01 -1.308347E+00  4.679333E+00
      1326   4 -2.235345E+02  6.272819E+00  6.022145E+00 -2.749596E+01 -1.289657E+00  4.959665E+00
      1326   5 -3.371910E+02 -5.822612E+01 -2.738766E+01 -7.449880E+01  7.817865E-01 -4.198564E+00
      1326   6 -2.120151E+02 -6.408145E+00  5.501251E+00 -5.836367E+01  8.075903E-01 -4.120455E+00
      1326   7 -3.369893E+02 -5.772610E+01 -2.716872E+01 -7.325327E+01 -7.864279E-01  3.291692E+00
      1326   8 -2.117063E+02 -6.046716E+00  5.718705E+00 -5.742066E+01 -7.187894E-01  3.358869E+00
      1327   1 -1.825136E+02 -4.727514E+01 -1.268424E+01 -9.406564E+00  2.050655E-01 -2.255676E+00
      1327   2 -8.475311E+01 -9.217437E+00  7.351918E+00  1.979479E+00  1.914681E-01 -2.053803E+00
      1327   3 -1.817631E+02 -4.705645E+01 -1.244502E+01 -8.718934E+00 -1.325736E+00  5.395556E+00
      1327   4 -8.392735E+01 -9.097002E+00  7.588982E+00  2.420854E+00 -1.301547E+00  5.583819E+00
      1327   5 -1.712387E+02 -5.836362E+01 -1.280289E+01 -3.683574E+01  8.282501E-01 -4.072806E+00
      1327   6 -7.399336E+01 -1.972588E+01  7.325334E+00 -2.410634E+01  8.638635E-01 -4.082004E+00
      1327   7 -1.706393E+02 -5.791169E+01 -1.246433E+01 -3.631438E+01 -6.984513E-01  3.552555E+00
      1327   8 -7.330718E+01 -1.937945E+01  7.666650E+00 -2.382311E+01 -6.254868E-01  3.531867E+00
      1328   1 -4.550138E+01 -3.898121E+01 -4.826892E+00  1.532092E+01  1.858119E-01 -1.938086E+00
      1328   2  3.308002E+01 -9.581321E+00  7.226411E+00  2.463182E+01  1.737854E-01 -1.777945E+00
      1328   3 -4.452099E+01 -3.884793E+01 -4.535492E+00  1.546552E+01 -1.253910E+00  5.544574E+00
      1328   4  3.412338E+01 -9.526706E+00  7.517794E+00  2.457521E+01 -1.233714E+00  5.690330E+00
      1328   5 -3.527218E+01 -4.859911E+01 -4.693303E+00 -9.192742E+00  9.064528E-01 -4.179551E+00
      1328   6  4.288719E+01 -1.872519E+01  7.446938E+00  1.224816E+00  9.437012E-01 -4.228742E+00
      1328   7 -3.442159E+01 -4.825502E+01 -4.298074E+00 -9.196036E+00 -5.300445E-01  3.281608E+00
      1328   8  4.381076E+01 -1.846517E+01  7.847074E+00  1.027008E+00 -4.609610E-01  3.219902E+00
      1329   1  7.001499E+01 -2.435650E+01 -7.277399E-01  3.410450E+01  1.828521E-01 -1.749608E+00
      1329   2  1.350301E+02 -8.981168E-01  6.259880E+00  4.195056E+01  1.699182E-01 -1.598617E+00
      1329   3  7.113503E+01 -2.435661E+01 -4.249943E-01  3.384197E+01 -1.145552E+00  5.406662E+00
      1329   4  1.362072E+02 -9.621977E-01  6.564896E+00  4.151919E+01 -1.131562E+00  5.542427E+00
      1329   5  7.943204E+01 -3.297460E+01 -4.170325E-01  1.177112E+01  9.954382E-01 -4.393463E+00
      1329   6  1.440933E+02 -9.114904E+00  6.651945E+00  2.055231E+01  1.032927E+00 -4.451172E+00
      1329   7  8.043883E+01 -3.278011E+01 -7.540283E-03  1.137315E+01 -3.307244E-01  2.746189E+00
      1329   8  1.451658E+02 -8.988592E+00  7.068467E+00  1.999116E+01 -2.666564E-01  2.674877E+00
      1330   1  1.697380E+02 -6.003812E+00  1.206244E+00  4.879892E+01  1.892045E-01 -1.620822E+00
      1330   2  2.248737E+02  1.328624E+01  5.016449E+00  5.557582E+01  1.802152E-01 -1.482633E+00
      1330   3  1.709837E+02 -6.077111E+00  1.534117E+00  4.821176E+01 -1.019251E+00  5.114152E+00
      1330   4  2.261742E+02  1.316012E+01  5.348744E+00  5.484333E+01 -1.006447E+00  5.236164E+00
      1330   5  1.785036E+02 -1.394439E+01  1.636604E+00  2.813794E+01  1.091501E+00 -4.652281E+00
      1330   6  2.333357E+02  5.694310E+00  5.520131E+00  3.572146E+01  1.134903E+00 -4.723516E+00
      1330   7  1.796498E+02 -1.383315E+01  2.073586E+00  2.742356E+01 -1.158586E-01  2.071690E+00
      1330   8  2.345445E+02  5.749287E+00  5.966031E+00  3.486672E+01 -5.096926E-02  1.985664E+00
      1331   1 -3.480141E+02 -4.402032E+01 -2.546210E+01 -4.046360E+01 -5.714293E-01 -2.408625E+00
      1331   2 -2.224475E+02  6.446386E+00  6.447488E+00 -2.655797E+01 -5.396555E-01 -1.845796E+00
      1331   3 -3.456041E+02 -4.359864E+01 -2.466023E+01 -3.870304E+01 -2.023136E+00  5.384406E+00
      1331   4 -2.200901E+02  6.679908E+00  7.181900E+00 -2.512639E+01 -1.950552E+00  5.933264E+00
      1331   5 -3.356804E+02 -5.685971E+01 -2.577572E+01 -7.220823E+01  4.999528E-01 -3.704458E+00
      1331   6 -2.107366E+02 -5.668573E+00  6.237838E+00 -5.660381E+01  5.759071E-01 -3.355399E+00
      1331   7 -3.334635E+02 -5.614943E+01 -2.487614E+01 -7.060473E+01 -9.491931E-01  4.059225E+00
      1331   8 -2.085578E+02 -5.157696E+00  7.074603E+00 -5.532090E+01 -8.328542E-01  4.396557E+00
      1332   1 -1.806651E+02 -4.687821E+01 -1.240032E+01 -8.115894E+00 -5.836245E-01 -1.149234E+00
      1332   2 -8.306325E+01 -9.254697E+00  7.039229E+00  2.838716E+00 -5.440905E-01 -8.031042E-01
      1332   3 -1.779426E+02 -4.613555E+01 -1.140019E+01 -7.160975E+00 -1.979614E+00  6.697925E+00
      1332   4 -8.038170E+01 -8.658168E+00  7.988244E+00  3.534205E+00 -1.904412E+00  7.029658E+00
      1332   5 -1.696486E+02 -5.754806E+01 -1.232720E+01 -3.582184E+01  5.849964E-01 -2.903044E+00
      1332   6 -7.254341E+01 -1.935911E+01  7.208807E+00 -2.351033E+01  6.700154E-01 -2.766627E+00
      1332   7 -1.670894E+02 -5.655363E+01 -1.122432E+01 -3.500246E+01 -8.091387E-01  4.918753E+00
      1332   8 -7.001270E+01 -1.851879E+01  8.265565E+00 -2.294372E+01 -6.888415E-01  5.042804E+00
      1333   1 -4.366942E+01 -3.906996E+01 -5.316257E+00  1.565979E+01 -4.619080E-01 -8.790146E-01
      1333   2  3.489844E+01 -9.908228E+00  6.518874E+00  2.461787E+01 -4.312540E-01 -6.229387E-01
      1333   3 -4.084370E+01 -3.832899E+01 -4.276166E+00  1.604160E+01 -1.753202E+00  6.693233E+00
      1333   4  3.769028E+01 -9.286266E+00  7.517937E+00  2.478689E+01 -1.692378E+00  6.934169E+00
      1333   5 -3.366424E+01 -4.831131E+01 -4.990805E+00 -9.099972E+00  7.973483E-01 -3.054340E+00
      1333   6  4.449695E+01 -1.868734E+01  6.934712E+00  9.759046E-01  8.741480E-01 -3.007243E+00
      1333   7 -3.097847E+01 -4.734093E+01 -3.843841E+00 -8.838480E+00 -4.929275E-01  4.497206E+00
      1333   8  4.715932E+01 -1.784217E+01  8.045509E+00  1.030033E+00 -3.863048E-01  4.530951E+00
      1334   1  7.189752E+01 -2.483891E+01 -1.523622E+00  3.373116E+01 -2.938837E-01 -1.052230E+00
      1334   2  1.369581E+02 -1.527256E+00  5.400652E+00  4.128110E+01 -2.721204E-01 -7.976724E-01
      1334   3  7.468750E+01 -2.432843E+01 -5.539536E-01  3.368688E+01 -1.473728E+00  6.149905E+00
      1334   4  1.397236E+02 -1.114732E+00  6.338168E+00  4.105812E+01 -1.426538E+00  6.388645E+00
      1334   5  8.111585E+01 -3.311279E+01 -1.024761E+00  1.117231E+01  1.051382E+00 -3.627049E+00
      1334   6  1.458360E+02 -9.409136E+00  5.984935E+00  1.966682E+01  1.120956E+00 -3.581219E+00
      1334   7  8.378316E+01 -3.239083E+01  5.400473E-02  1.101758E+01 -1.282932E-01  3.558826E+00
      1334   8  1.484879E+02 -8.790016E+00  7.036240E+00  1.933802E+01 -3.360559E-02  3.590400E+00
      1335   1  1.717119E+02 -6.719400E+00  2.581016E-01  4.785626E+01 -1.046266E-01 -1.398504E+00
      1335   2  2.268085E+02  1.235772E+01  3.803815E+00  5.437897E+01 -8.192763E-02 -1.146836E+00
      1335   3  1.744811E+02 -6.374340E+00  1.180743E+00  4.746832E+01 -1.182968E+00  5.439144E+00
      1335   4  2.295747E+02  1.262663E+01  4.706847E+00  5.383907E+01 -1.138674E+00  5.674420E+00
      1335   5  1.803005E+02 -1.433773E+01  8.743807E-01  2.698200E+01  1.326439E+00 -4.356111E+00
      1335   6  2.351065E+02  5.081463E+00  4.500155E+00  3.431966E+01  1.403262E+00 -4.312658E+00
      1335   7  1.829623E+02 -1.379648E+01  1.908038E+00  2.648621E+01  2.473306E-01  2.469876E+00
      1335   8  2.377732E+02  5.542682E+00  5.518715E+00  3.367611E+01  3.454505E-01  2.498293E+00
      1336   1 -3.422936E+02 -4.250225E+01 -2.209871E+01 -3.729084E+01 -1.295106E+00 -2.172618E+00
      1336   2 -2.177143E+02  6.778482E+00  7.720647E+00 -2.396162E+01 -1.215016E+00 -1.300540E+00
      1336   3 -3.376712E+02 -4.193905E+01 -2.058067E+01 -3.520003E+01 -2.670737E+00  6.203105E+00
      1336   4 -2.133118E+02  7.084506E+00  9.100891E+00 -2.221747E+01 -2.550418E+00  7.060585E+00
      1336   5 -3.302897E+02 -5.482317E+01 -2.221883E+01 -6.929240E+01  3.924739E-01 -3.401031E+00
      1336   6 -2.063067E+02 -4.836967E+00  7.714741E+00 -5.425067E+01  5.094000E-01 -2.742232E+00
      1336   7 -3.258716E+02 -5.394478E+01 -2.059385E+01 -6.731729E+01 -9.826872E-01  4.943619E+00
      1336   8 -2.020932E+02 -4.228097E+00  9.206798E+00 -5.261604E+01 -8.259126E-01  5.590031E+00
      1337   1 -1.757293E+02 -4.596306E+01 -1.168583E+01 -6.355697E+00 -1.236977E+00 -3.786840E-01
      1337   2 -7.867892E+01 -9.042113E+00  6.646396E+00  4.143540E+00 -1.166505E+00  1.332174E-01
      1337   3 -1.708731E+02 -4.470109E+01 -9.877675E+00 -5.116001E+00 -2.509980E+00  7.782133E+00
      1337   4 -7.400989E+01 -7.987649E+00  8.341361E+00  5.107633E+00 -2.406065E+00  8.278751E+00
      1337   5 -1.649899E+02 -5.617742E+01 -1.140922E+01 -3.428220E+01  5.339619E-01 -2.064783E+00
      1337   6 -6.841564E+01 -1.870648E+01  7.025376E+00 -2.241524E+01  6.410537E-01 -1.763632E+00
      1337   7 -1.603075E+02 -5.463716E+01 -9.490939E+00 -3.313916E+01 -7.394187E-01  6.070765E+00
      1337   8 -6.390752E+01 -1.738297E+01  8.835411E+00 -2.154309E+01 -5.992114E-01  6.358588E+00
      1338   1 -3.925930E+01 -3.879297E+01 -6.011004E+00  1.641921E+01 -9.795957E-01 -3.291441E-01
      1338   2  3.909491E+01 -9.964360E+00  5.484411E+00  2.500309E+01 -9.368304E-01  7.201225E-02
      1338   3 -3.452606E+01 -3.756996E+01 -4.241020E+00  1.706421E+01 -2.118220E+00  7.343968E+00
      1338   4  4.366160E+01 -8.916764E+00  7.156783E+00  2.542017E+01 -2.048150E+00  7.729016E+00
      1338   5 -2.949337E+01 -4.762011E+01 -5.481349E+00 -8.535115E+00  8.650692E-01 -2.437484E+00
      1338   6  4.847042E+01 -1.834256E+01  6.107804E+00  1.175347E+00  9.425997E-01 -2.247870E+00
      1338   7 -2.491092E+01 -4.614152E+01 -3.599188E+00 -7.972537E+00 -2.747237E-01  5.215624E+00
      1338   8  5.289740E+01 -1.704670E+01  7.897092E+00  1.513745E+00 -1.701655E-01  5.390831E+00
      1339   1  7.603024E+01 -2.513193E+01 -2.690611E+00  3.374052E+01 -6.821074E-01 -8.709777E-01
      1339   2  1.410331E+02 -1.982726E+00  4.216853E+00  4.097646E+01 -6.486822E-01 -4.705823E-01
      1339   3  8.050912E+01 -2.423601E+01 -1.085515E+00  3.392693E+01 -1.703698E+00  6.344170E+00
      1339   4  1.453811E+02 -1.229753E+00  5.744568E+00  4.097214E+01 -1.647103E+00  6.727975E+00
      1339   5  8.503583E+01 -3.302797E+01 -1.993136E+00  1.100239E+01  1.229088E+00 -3.381196E+00
      1339   6  1.497122E+02 -9.497523E+00  5.003232E+00  1.919041E+01  1.301276E+00 -3.191780E+00
      1339   7  8.938193E+01 -3.189871E+01 -2.756118E-01  1.111126E+01  2.056011E-01  3.818097E+00
      1339   8  1.539370E+02 -8.517023E+00  6.647921E+00  1.911180E+01  3.007031E-01  3.992409E+00
      1340   1  1.757376E+02 -7.333714E+00 -1.045374E+00  4.725618E+01 -3.745596E-01 -1.508716E+00
      1340   2  2.306729E+02  1.147151E+01  2.154550E+00  5.351275E+01 -3.271704E-01 -1.114593E+00
      1340   3  1.800381E+02 -6.661622E+00  4.471617E-01  4.706044E+01 -1.320278E+00  5.440196E+00
      1340   4  2.348959E+02  1.203693E+01  3.596513E+00  5.315718E+01 -1.251674E+00  5.817626E+00
      1340   5  1.841376E+02 -1.460608E+01 -2.337988E-01  2.620432E+01  1.608255E+00 -4.402278E+00
      1340   6  2.387962E+02  4.534365E+00  3.054140E+00  3.328276E+01  1.706641E+00 -4.216672E+00
      1340   7  1.883218E+02 -1.372321E+01  1.372509E+00  2.592594E+01  6.599491E-01  2.533931E+00
      1340   8  2.429113E+02  5.306169E+00  4.614394E+00  3.284777E+01  7.792730E-01  2.704180E+00
      1341   1 -3.324249E+02 -4.053013E+01 -1.710509E+01 -3.353731E+01 -1.831179E+00 -2.257342E+00
      1341   2 -2.097459E+02  6.828817E+00  9.070913E+00 -2.081565E+01 -1.707618E+00 -1.075536E+00
      1341   3 -3.250951E+02 -3.962246E+01 -1.466262E+01 -3.109322E+01 -3.177488E+00  7.104640E+00
      1341   4 -2.028355E+02  7.396794E+00  1.129178E+01 -1.873734E+01 -3.012697E+00  8.271461E+00
      1341   5 -3.207699E+02 -5.228476E+01 -1.701386E+01 -6.572107E+01  5.946527E-01 -3.403412E+00
      1341   6 -1.986569E+02 -4.238977E+00  9.292319E+00 -5.127717E+01  7.465263E-01 -2.434511E+00
      1341   7 -3.136541E+02 -5.103020E+01 -1.444962E+01 -6.334286E+01 -7.533460E-01  5.924227E+00
      1341   8 -1.919442E+02 -3.337648E+00  1.164023E+01 -4.926122E+01 -5.605855E-01  6.880399E+00
      1342   1 -1.677171E+02 -4.495446E+01 -1.118137E+01 -4.065221E+00 -1.623323E+00 -4.989923E-01
      1342   2 -7.145654E+01 -8.808206E+00  6.037707E+00  5.946920E+00 -1.587022E+00  3.220590E-01
      1342   3 -1.605561E+02 -4.351268E+01 -8.615049E+00 -2.441137E+00 -2.750607E+00  7.943423E+00
      1342   4 -6.472503E+01 -7.678731E+00  8.387045E+00  7.269281E+00 -2.685073E+00  8.747796E+00
      1342   5 -1.572713E+02 -5.465811E+01 -1.068024E+01 -3.213569E+01  8.625558E-01 -2.101246E+00
      1342   6 -6.146559E+01 -1.797992E+01  6.646593E+00 -2.074879E+01  9.062849E-01 -1.497989E+00
      1342   7 -1.502976E+02 -5.289399E+01 -7.992355E+00 -3.054403E+01 -2.673879E-01  6.315630E+00
      1342   8 -5.490760E+01 -1.653928E+01  9.122240E+00 -1.945726E+01 -1.946223E-01  6.904074E+00
      1343   1 -3.219911E+01 -3.856836E+01 -6.932722E+00  1.767546E+01 -1.289476E+00 -7.474871E-01
      1343   2  4.572978E+01 -1.013368E+01  4.232111E+00  2.585558E+01 -1.309142E+00  5.408876E-02
      1343   3 -2.572277E+01 -3.766628E+01 -4.722509E+00  1.869377E+01 -2.260513E+00  6.991611E+00
      1343   4  5.181390E+01 -9.505203E+00  6.247713E+00  2.662183E+01 -2.258114E+00  7.775594E+00
      1343   5 -2.269026E+01 -4.692756E+01 -6.182601E+00 -7.397994E+00  1.216576E+00 -2.781947E+00
      1343   6  5.486522E+01 -1.805974E+01  5.078354E+00  1.914107E+00  1.196444E+00 -2.200737E+00
      1343   7 -1.637945E+01 -4.572748E+01 -3.851642E+00 -6.397399E+00  2.422984E-01  4.937114E+00
      1343   8  6.079555E+01 -1.714248E+01  7.219103E+00  2.663452E+00  2.441099E-01  5.502301E+00
      1344   1  8.253073E+01 -2.542879E+01 -4.023831E+00  3.416849E+01 -9.670177E-01 -1.401847E+00
      1344   2  1.472806E+02 -2.519915E+00  2.800820E+00  4.106774E+01 -9.714676E-01 -7.285273E-01
      1344   3  8.859147E+01 -2.456615E+01 -1.940742E+00  3.463677E+01 -1.825872E+00  5.818582E+00
      1344   4  1.530496E+02 -1.869574E+00  4.737606E+00  4.132829E+01 -1.811008E+00  6.474192E+00
      1344   5  9.130723E+01 -3.290345E+01 -3.116465E+00  1.131434E+01  1.547720E+00 -3.850703E+00
      1344   6  1.557452E+02 -9.626102E+00  3.799687E+00  1.917053E+01  1.557249E+00 -3.394806E+00
      1344   7  9.722311E+01 -3.177547E+01 -9.153023E-01  1.175515E+01  6.850386E-01  3.353988E+00
      1344   8  1.613793E+02 -8.717569E+00  5.858842E+00  1.940476E+01  7.137370E-01  3.793567E+00
      1345   1  1.819568E+02 -7.903073E+00 -2.387370E+00  4.699328E+01 -6.456465E-01 -2.009770E+00
      1345   2  2.368206E+02  1.080082E+01  9.394753E-01  5.296939E+01 -5.955680E-01 -1.396920E+00
      1345   3  1.876890E+02 -7.174905E+00 -4.349247E-01  4.700104E+01 -1.430367E+00  4.898945E+00
      1345   4  2.423781E+02  1.138167E+01  2.800306E+00  5.280759E+01 -1.360619E+00  5.494546E+00
      1345   5  1.901537E+02 -1.480146E+01 -1.372985E+00  2.581032E+01  1.902616E+00 -4.851114E+00
      1345   6  2.447547E+02  4.228986E+00  2.047833E+00  3.261341E+01  1.993414E+00 -4.449285E+00
      1345   7  1.957599E+02 -1.384402E+01  6.949738E-01  2.576841E+01  1.113479E+00  2.044131E+00
      1345   8  2.501948E+02  5.033946E+00  4.028540E+00  3.240387E+01  1.223720E+00  2.429993E+00
      1346   1 -3.182603E+02 -3.884324E+01 -1.195837E+01 -2.905174E+01 -1.824946E+00 -3.746098E+00
      1346   2 -1.982779E+02  6.062835E+00  9.597144E+00 -1.698443E+01 -1.832262E+00 -1.899511E+00
      1346   3 -3.076198E+02 -3.832349E+01 -8.629547E+00 -2.593033E+01 -3.130809E+00  6.829999E+00
      1346   4 -1.885724E+02  6.015606E+00  1.248268E+01 -1.428464E+01 -3.100316E+00  8.659645E+00
      1346   5 -3.069710E+02 -4.995157E+01 -1.161740E+01 -6.130420E+01  1.633371E+00 -4.754602E+00
      1346   6 -1.875209E+02 -4.378934E+00  1.008839E+01 -4.751098E+01  1.584184E+00 -3.139591E+00
      1346   7 -2.965599E+02 -4.899105E+01 -8.133087E+00 -5.812432E+01  3.236455E-01  5.781620E+00
      1346   8 -1.780268E+02 -4.003280E+00  1.313437E+01 -4.475584E+01  3.121717E-01  7.382034E+00
      1347   1 -1.566927E+02 -4.521667E+01 -1.160902E+01 -9.978276E-01 -1.533556E+00 -2.744100E+00
      1347   2 -6.113907E+01 -9.472769E+00  5.667747E+00  8.472146E+00 -1.701747E+00 -9.624890E-01
      1347   3 -1.475755E+02 -4.559131E+01 -8.985379E+00  1.309515E+00 -2.427849E+00  5.589790E+00
      1347   4 -5.294879E+01 -1.037999E+01  7.859123E+00  1.042529E+01 -2.578061E+00  7.351777E+00
      1347   5 -1.465645E+02 -5.431385E+01 -1.085265E+01 -2.907665E+01  1.854911E+00 -4.233347E+00
      1347   6 -5.144502E+01 -1.806258E+01  6.531268E+00 -1.823150E+01  1.605492E+00 -2.692613E+00
      1347   7 -1.376586E+02 -5.427867E+01 -8.089946E+00 -2.667083E+01  9.556343E-01  4.073965E+00
      1347   8 -4.345119E+01 -1.857555E+01  8.865408E+00 -1.618470E+01  7.243530E-01  5.596689E+00
      1348   1 -2.227575E+01 -3.942090E+01 -7.343502E+00  1.963099E+01 -1.362679E+00 -2.479549E+00
      1348   2  5.481491E+01 -1.154664E+01  3.359089E+00  2.736140E+01 -1.535578E+00 -8.592504E-01
      1348   3 -1.440622E+01 -4.018871E+01 -5.202624E+00  2.116374E+01 -2.155050E+00  5.308847E+00
      1348   4  6.194079E+01 -1.274216E+01  5.153859E+00  2.860692E+01 -2.313908E+00  6.909485E+00
      1348   5 -1.305078E+01 -4.723055E+01 -6.354907E+00 -5.436126E+00  1.899068E+00 -4.435371E+00
      1348   6  6.368480E+01 -1.894246E+01  4.445864E+00  3.425990E+00  1.657584E+00 -3.052253E+00
      1348   7 -5.366114E+00 -4.763725E+01 -4.080046E+00 -3.819714E+00  1.101609E+00  3.331186E+00
      1348   8  7.063832E+01 -1.978896E+01  6.378439E+00  4.751375E+00  8.743115E-01  4.696028E+00
      1349   1  9.149708E+01 -2.641028E+01 -4.860541E+00  3.514081E+01 -1.178095E+00 -2.572165E+00
      1349   2  1.555573E+02 -3.994535E+00  1.480334E+00  4.166965E+01 -1.327891E+00 -1.158606E+00
      1349   3  9.848811E+01 -2.719848E+01 -2.980694E+00  3.604168E+01 -1.884135E+00  4.725637E+00
      1349   4  1.619709E+02 -5.120171E+00  3.090682E+00  4.233439E+01 -2.022064E+00  6.119627E+00
      1349   5  1.000218E+02 -3.339948E+01 -3.729893E+00  1.227148E+01  1.975416E+00 -4.968492E+00
      1349   6  1.637852E+02 -1.063101E+01  2.703807E+00  1.975790E+01  1.776638E+00 -3.787945E+00
      1349   7  1.068502E+02 -3.386818E+01 -1.720504E+00  1.323362E+01  1.264071E+00  2.311951E+00
      1349   8  1.700468E+02 -1.144656E+01  4.447592E+00  2.048133E+01  1.077261E+00  3.474149E+00
      1350   1  1.904111E+02 -8.753931E+00 -3.234864E+00  4.711305E+01 -9.985026E-01 -2.613648E+00
      1350   2  2.453317E+02  1.009363E+01  9.049814E-01  5.278830E+01 -1.037471E+00 -1.560809E+00
      1350   3  1.970903E+02 -8.821549E+00 -1.222655E+00  4.740589E+01 -1.591773E+00  4.033341E+00
      1350   4  2.516462E+02  9.796041E+00  2.744089E+00  5.289238E+01 -1.615867E+00  5.067573E+00
      1350   5  1.983857E+02 -1.523954E+01 -2.014360E+00  2.586726E+01  2.086114E+00 -5.428197E+00
      1350   6  2.530574E+02  3.923672E+00  2.223612E+00  3.237194E+01  2.044698E+00 -4.597814E+00
      1350   7  2.049233E+02 -1.504048E+01  1.164991E-01  2.617398E+01  1.487149E+00  1.204019E+00
      1350   8  2.592394E+02  3.886007E+00  4.185259E+00  3.248936E+01  1.460548E+00  2.016994E+00
      1351   1 -3.386290E+02 -5.280131E+01 -2.650243E+01 -6.554416E+01  4.477728E-01 -2.853924E+00
      1351   2 -2.165318E+02  5.728069E-01  5.988775E+00 -4.554608E+01  4.161672E-01 -2.570133E+00
      1351   3 -3.384897E+02 -5.239035E+01 -2.640443E+01 -6.419267E+01 -1.769464E+00  4.469657E+00
      1351   4 -2.162463E+02  8.259441E-01  6.089913E+00 -4.446590E+01 -1.742202E+00  4.749942E+00
      1351   5 -3.214902E+02 -7.091297E+01 -2.722595E+01 -9.430660E+01  1.033185E+00 -4.078623E+00
      1351   6 -2.002673E+02 -1.652685E+01  5.403587E+00 -7.276926E+01  1.066697E+00 -3.990724E+00
      1351   7 -3.214820E+02 -7.028546E+01 -2.703909E+01 -9.317359E+01 -1.173298E+00  3.202874E+00
      1351   8 -2.001021E+02 -1.606496E+01  5.597711E+00 -7.189588E+01 -1.081772E+00  3.290232E+00
      1352   1 -1.791905E+02 -4.877146E+01 -1.251862E+01 -1.897564E+01  3.672164E-01 -2.292885E+00
      1352   2 -8.430690E+01 -8.896720E+00  7.334496E+00 -3.204225E+00  3.478343E-01 -2.099184E+00
      1352   3 -1.785712E+02 -4.846618E+01 -1.229737E+01 -1.828218E+01 -1.791813E+00  5.174688E+00
      1352   4 -8.356949E+01 -8.711729E+00  7.562096E+00 -2.724594E+00 -1.759437E+00  5.363451E+00
      1352   5 -1.638784E+02 -6.385346E+01 -1.271104E+01 -4.413712E+01  1.092013E+00 -3.934358E+00
      1352   6 -6.969360E+01 -2.318890E+01  7.270957E+00 -2.713343E+01  1.137343E+00 -3.932618E+00
      1352   7 -1.633689E+02 -6.335865E+01 -1.239563E+01 -4.363245E+01 -1.057370E+00  3.494970E+00
      1352   8 -6.905666E+01 -2.281980E+01  7.597143E+00 -2.683334E+01 -9.610485E-01  3.494418E+00
      1353   1 -4.790817E+01 -3.597592E+01 -4.796861E+00  1.528260E+01  3.399799E-01 -1.990987E+00
      1353   2  2.834951E+01 -5.087041E+00  7.138810E+00  2.818277E+01  3.232296E-01 -1.838763E+00
      1353   3 -4.697544E+01 -3.581712E+01 -4.512845E+00  1.550082E+01 -1.693608E+00  5.326718E+00
      1353   4  2.938059E+01 -5.024449E+00  7.430366E+00  2.822612E+01 -1.666166E+00  5.472247E+00
      1353   5 -3.399747E+01 -4.904328E+01 -4.630336E+00 -7.232254E+00  1.192825E+00 -4.018809E+00
      1353   6  4.168778E+01 -1.750888E+01  7.427552E+00  6.684345E+00  1.240666E+00 -4.057051E+00
      1353   7 -3.315786E+01 -4.871219E+01 -4.248022E+00 -7.181858E+00 -8.326012E-01  3.265871E+00
      1353   8  4.263372E+01 -1.727799E+01  7.821828E+00  6.567456E+00 -7.412409E-01  3.223241E+00
      1354   1  6.330098E+01 -1.807057E+01 -7.784561E-01  4.132877E+01  3.364041E-01 -1.814625E+00
      1354   2  1.263660E+02  6.646662E+00  6.127155E+00  5.220194E+01  3.202861E-01 -1.670684E+00
      1354   3  6.443786E+01 -1.808884E+01 -4.731138E-01  4.119029E+01 -1.543157E+00  5.198314E+00
      1354   4  1.275880E+02  6.548877E+00  6.440708E+00  5.191635E+01 -1.522154E+00  5.333805E+00
      1354   5  7.611116E+01 -2.978008E+01 -3.638881E-01  2.080931E+01  1.309420E+00 -4.209237E+00
      1354   6  1.386970E+02 -4.515420E+00  6.657709E+00  3.254165E+01  1.358330E+00 -4.255586E+00
      1354   7  7.716799E+01 -2.963782E+01  4.264339E-02  2.051786E+01 -5.636309E-01  2.776436E+00
      1354   8  1.398458E+02 -4.455748E+00  7.076722E+00  3.210950E+01 -4.781856E-01  2.723621E+00
      1355   1  1.596713E+02  2.727982E+00  1.095943E+00  6.172901E+01  3.486479E-01 -1.694473E+00
      1355   2  2.131285E+02  2.311136E+01  4.843552E+00  7.112015E+01  3.394692E-01 -1.562814E+00
      1355   3  1.609852E+02  2.604676E+00  1.436014E+00  6.130197E+01 -1.364252E+00  4.920726E+00
      1355   4  2.145215E+02  2.292253E+01  5.193737E+00  7.056744E+01 -1.342516E+00  5.042372E+00
      1355   5  1.715996E+02 -8.055982E+00  1.684987E+00  4.274843E+01  1.437240E+00 -4.442887E+00
      1355   6  2.246479E+02  1.280513E+01  5.541891E+00  5.288058E+01  1.494960E+00 -4.501241E+00
      1355   7  1.728435E+02 -8.029769E+00  2.126941E+00  4.217834E+01 -2.708877E-01  2.151044E+00
      1355   8  2.259770E+02  1.276344E+01  5.998039E+00  5.219042E+01 -1.827678E-01  2.084375E+00
      1356   1 -3.372473E+02 -5.156806E+01 -2.509131E+01 -6.303045E+01 -5.765446E-01 -2.540120E+00
      1356   2 -2.153120E+02  1.145509E+00  6.533088E+00 -4.351067E+01 -5.311758E-01 -1.974004E+00
      1356   3 -3.351656E+02 -5.090635E+01 -2.432590E+01 -6.121260E+01 -2.706587E+00  5.065701E+00
      1356   4 -2.132220E+02  1.587687E+00  7.242166E+00 -4.198675E+01 -2.603111E+00  5.627474E+00
      1356   5 -3.203359E+02 -6.928852E+01 -2.564436E+01 -9.216010E+01  5.547124E-01 -3.664951E+00
      1356   6 -1.992555E+02 -1.557665E+01  6.126185E+00 -7.108143E+01  6.602502E-01 -3.291483E+00
      1356   7 -3.184031E+02 -6.838345E+01 -2.478554E+01 -9.052999E+01 -1.566666E+00  3.897316E+00
      1356   8 -1.973026E+02 -1.490025E+01  6.932818E+00 -6.973522E+01 -1.403827E+00  4.269365E+00
      1357   1 -1.775828E+02 -4.819206E+01 -1.223772E+01 -1.763080E+01 -5.921006E-01 -1.290872E+00
      1357   2 -8.278450E+01 -8.793335E+00  7.027544E+00 -2.236760E+00 -5.387952E-01 -9.418547E-01
      1357   3 -1.750645E+02 -4.731136E+01 -1.126347E+01 -1.654947E+01 -2.643491E+00  6.383474E+00
      1357   4 -8.025927E+01 -8.083451E+00  7.959868E+00 -1.388206E+00 -2.539697E+00  6.726625E+00
      1357   5 -1.624598E+02 -6.292986E+01 -1.225004E+01 -4.310951E+01  6.706095E-01 -2.829973E+00
      1357   6 -6.834458E+01 -2.275175E+01  7.150251E+00 -2.646766E+01  7.849329E-01 -2.670634E+00
      1357   7 -1.600660E+02 -6.183382E+01 -1.117693E+01 -4.219021E+01 -1.373357E+00  4.805615E+00
      1357   8 -6.593378E+01 -2.183310E+01  8.185838E+00 -2.577319E+01 -1.209265E+00  4.961687E+00
      1358   1 -4.617410E+01 -3.599464E+01 -5.282021E+00  1.578778E+01 -4.242142E-01 -1.011484E+00
      1358   2  3.012895E+01 -5.378778E+00  6.440403E+00  2.837906E+01 -3.816108E-01 -7.548768E-01
      1358   3 -4.346022E+01 -3.518117E+01 -4.255914E+00  1.634934E+01 -2.327011E+00  6.408679E+00
      1358   4  3.284749E+01 -4.704433E+00  7.433237E+00  2.874953E+01 -2.241873E+00  6.657643E+00
      1358   5 -3.242462E+01 -4.874968E+01 -4.931977E+00 -7.008903E+00  9.596785E-01 -2.932424E+00
      1358   6  4.331856E+01 -1.749713E+01  6.916680E+00  6.611541E+00  1.063536E+00 -2.864899E+00
      1358   7 -2.981711E+01 -4.773966E+01 -3.803765E+00 -6.590887E+00 -9.372464E-01  4.454870E+00
      1358   8  4.593938E+01 -1.663126E+01  8.015954E+00  6.844948E+00 -7.914809E-01  4.517000E+00
      1359   1  6.519387E+01 -1.856603E+01 -1.566433E+00  4.120621E+01 -1.884653E-01 -1.168461E+00
      1359   2  1.283513E+02  5.974035E+00  5.279427E+00  5.181965E+01 -1.554566E-01 -9.138493E-01
      1359   3  6.794330E+01 -1.803071E+01 -5.998478E-01  4.138427E+01 -1.932772E+00  5.902989E+00
      1359   4  1.311080E+02  6.394398E+00  6.220447E+00  5.183726E+01 -1.863970E+00  6.148407E+00
      1359   5  7.786318E+01 -2.998746E+01 -9.700032E-01  2.042974E+01  1.309159E+00 -3.451041E+00
      1359   6  1.405522E+02 -4.907067E+00  5.995797E+00  3.191311E+01  1.404792E+00 -3.385432E+00
      1359   7  8.052027E+01 -2.927064E+01  1.004681E-01  2.047660E+01 -4.308201E-01  3.593113E+00
      1359   8  1.432241E+02 -4.309134E+00  7.044890E+00  3.180502E+01 -2.999420E-01  3.651461E+00
      1360   1  1.617434E+02  1.936744E+00  1.620427E-01  6.109556E+01  8.298826E-02 -1.491070E+00
      1360   2  2.152024E+02  2.208321E+01  3.652540E+00  7.026532E+01  1.248089E-01 -1.237253E+00
      1360   3  1.645326E+02  2.266651E+00  1.091470E+00  6.095493E+01 -1.516756E+00  5.236444E+00
      1360   4  2.180121E+02  2.232130E+01  4.566894E+00  6.998898E+01 -1.444508E+00  5.479840E+00
      1360   5  1.735468E+02 -8.581932E+00  9.288347E-01  4.187370E+01  1.691830E+00 -4.120810E+00
      1360   6  2.266069E+02  1.203719E+01  4.534017E+00  5.179390E+01  1.801179E+00 -4.055052E+00
      1360   7  1.762557E+02 -8.085426E+00  1.962995E+00  4.160776E+01  9.483873E-02  2.584769E+00
      1360   8  2.293430E+02  1.243885E+01  5.557161E+00  5.139714E+01  2.341175E-01  2.641768E+00
      1361   1 -3.321144E+02 -4.959429E+01 -2.176139E+01 -5.969761E+01 -1.443368E+00 -2.396820E+00
      1361   2 -2.110562E+02  1.880067E+00  7.797991E+00 -4.069648E+01 -1.330284E+00 -1.510547E+00
      1361   3 -3.279098E+02 -4.872134E+01 -2.028759E+01 -5.738301E+01 -3.557303E+00  5.793393E+00
      1361   4 -2.070042E+02  2.461069E+00  9.146230E+00 -3.870160E+01 -3.384888E+00  6.674880E+00
      1361   5 -3.154628E+02 -6.687616E+01 -2.213883E+01 -8.913913E+01  2.950291E-01 -3.411191E+00
      1361   6 -1.952353E+02 -1.441677E+01  7.581165E+00 -6.856243E+01  4.610128E-01 -2.715885E+00
      1361   7 -3.114231E+02 -6.572484E+01 -2.056153E+01 -8.697578E+01 -1.811978E+00  4.731979E+00
      1361   8 -1.913352E+02 -1.356802E+01  9.037204E+00 -6.671068E+01 -1.587440E+00  5.425483E+00
      1362   1 -1.730146E+02 -4.699853E+01 -1.153226E+01 -1.559933E+01 -1.361763E+00 -5.979531E-01
      1362   2 -7.868456E+01 -8.347905E+00  6.638324E+00 -6.171804E-01 -1.265498E+00 -7.644765E-02
      1362   3 -1.684458E+02 -4.553772E+01 -9.758270E+00 -1.409010E+01 -3.326887E+00  7.399190E+00
      1362   4 -7.424973E+01 -7.122649E+00  8.309115E+00  6.357528E-01 -3.181332E+00  7.913811E+00
      1362   5 -1.581041E+02 -6.134170E+01 -1.134993E+01 -4.134614E+01  4.945765E-01 -2.024863E+00
      1362   6 -6.443911E+01 -2.192348E+01  6.963710E+00 -2.510304E+01  6.430417E-01 -1.693588E+00
      1362   7 -1.536740E+02 -5.962983E+01 -9.468270E+00 -3.996455E+01 -1.465260E+00  5.932466E+00
      1362   8 -6.013218E+01 -2.045536E+01  8.746463E+00 -2.397150E+01 -1.268164E+00  6.259437E+00
      1363   1 -4.197313E+01 -3.555725E+01 -5.972795E+00  1.690697E+01 -1.001930E+00 -5.176325E-01
      1363   2  3.418145E+01 -5.313965E+00  5.415509E+00  2.915921E+01 -9.439714E-01 -1.131295E-01
      1363   3 -3.742929E+01 -3.420361E+01 -4.223891E+00  1.786422E+01 -2.770566E+00  7.016925E+00
      1363   4  3.860243E+01 -4.158906E+00  7.075238E+00  2.990358E+01 -2.672361E+00  7.412547E+00
      1363   5 -2.840491E+01 -4.795050E+01 -5.423817E+00 -6.126152E+00  9.586044E-01 -2.325747E+00
      1363   6  4.720357E+01 -1.708125E+01  6.094837E+00  7.165905E+00  1.066769E+00 -2.112977E+00
      1363   7 -2.398156E+01 -4.636458E+01 -3.565727E+00 -5.279031E+00 -8.063769E-01  5.175921E+00
      1363   8  5.151319E+01 -1.570061E+01  7.867828E+00  7.805084E+00 -6.585137E-01  5.382000E+00
      1364   1  6.923935E+01 -1.879003E+01 -2.724147E+00  4.164391E+01 -5.829822E-01 -1.023703E+00
      1364   2  1.323924E+02  5.554032E+00  4.108932E+00  5.197307E+01 -5.347250E-01 -6.205457E-01
      1364   3  7.361232E+01 -1.781862E+01 -1.127697E+00  4.217093E+01 -2.179482E+00  6.074862E+00
      1364   4  1.366706E+02  6.363224E+00  5.635197E+00  5.232245E+01 -2.097421E+00  6.467809E+00
      1364   5  8.174939E+01 -2.988065E+01 -1.932612E+00  2.065075E+01  1.472070E+00 -3.195159E+00
      1364   6  1.444458E+02 -5.005065E+00  5.023974E+00  3.185893E+01  1.574332E+00 -2.983030E+00
      1364   7  8.601651E+01 -2.869842E+01 -2.276900E-01  2.107551E+01 -1.222468E-01  3.876098E+00
      1364   8  1.486262E+02 -3.990233E+00  6.662703E+00  3.211033E+01  1.333236E-02  4.079890E+00
      1365   1  1.657876E+02  1.313038E+00 -1.125456E+00  6.096082E+01 -1.424393E-01 -1.617814E+00
      1365   2  2.191274E+02  2.116018E+01  2.027587E+00  6.989138E+01 -6.487386E-02 -1.215583E+00
      1365   3  1.700574E+02  2.008154E+00  3.690623E-01  6.111358E+01 -1.626630E+00  5.230485E+00
      1365   4  2.233472E+02  2.173194E+01  3.476804E+00  6.989722E+01 -1.519077E+00  5.621878E+00
      1365   5  1.774513E+02 -8.906500E+00 -1.676826E-01  4.152993E+01  2.010041E+00 -4.135931E+00
      1365   6  2.304040E+02  1.140784E+01  3.107146E+00  5.121908E+01  2.152577E+00 -3.921019E+00
      1365   7  1.816294E+02 -8.025573E+00  1.434838E+00  4.157933E+01  5.267053E-01  2.689301E+00
      1365   8  2.345393E+02  1.216172E+01  4.668406E+00  5.112561E+01  6.987532E-01  2.895014E+00
      1366   1 -3.229932E+02 -4.704272E+01 -1.681555E+01 -5.548275E+01 -2.022016E+00 -2.535682E+00
      1366   2 -2.037101E+02  2.454398E+00  9.137268E+00 -3.704643E+01 -1.845045E+00 -1.328792E+00
      1366   3 -3.161829E+02 -4.574710E+01 -1.442612E+01 -5.261326E+01 -4.199639E+00  6.635256E+00
      1366   4 -1.972467E+02  3.370594E+00  1.131780E+01 -3.452646E+01 -3.959903E+00  7.837367E+00
      1366   5 -3.066291E+02 -6.382242E+01 -1.699847E+01 -8.516989E+01  4.428357E-01 -3.410296E+00
      1366   6 -1.881474E+02 -1.335314E+01  9.137074E+00 -6.514483E+01  6.636559E-01 -2.393192E+00
      1366   7 -2.999989E+02 -6.220431E+01 -1.448912E+01 -8.240685E+01 -1.729414E+00  5.707948E+00
      1366   8 -1.818498E+02 -1.212706E+01  1.144200E+01 -6.272562E+01 -1.446593E+00  6.723426E+00
      1367   1 -1.655220E+02 -4.558867E+01 -1.103876E+01 -1.276474E+01 -1.726731E+00 -7.456476E-01
      1367   2 -7.188828E+01 -7.765335E+00  6.032061E+00  1.758906E+00 -1.685750E+00  8.002222E-02
      1367   3 -1.587672E+02 -4.385425E+01 -8.515496E+00 -1.065965E+01 -3.580740E+00  7.545003E+00
      1367   4 -6.550089E+01 -6.377093E+00  8.349341E+00  3.568327E+00 -3.493559E+00  8.361972E+00
      1367   5 -1.508465E+02 -5.946135E+01 -1.063507E+01 -3.871202E+01  8.322983E-01 -2.030490E+00
      1367   6 -5.785865E+01 -2.088574E+01  6.586005E+00 -2.291761E+01  8.975287E-01 -1.404677E+00
      1367   7 -1.442490E+02 -5.741224E+01 -7.988393E+00 -3.667806E+01 -1.018551E+00  6.219019E+00
      1367   8 -5.161665E+01 -1.919401E+01  9.030524E+00 -2.117585E+01 -9.076422E-01  6.838683E+00
      1368   1 -3.526411E+01 -3.505436E+01 -6.891727E+00  1.877901E+01 -1.265261E+00 -9.541641E-01
      1368   2  4.053979E+01 -5.251193E+00  4.171554E+00  3.064901E+01 -1.306636E+00 -1.588895E-01
      1368   3 -2.908801E+01 -3.392958E+01 -4.709471E+00  2.031476E+01 -2.882135E+00  6.662064E+00
      1368   4  4.637531E+01 -4.428744E+00  6.168367E+00  3.193536E+01 -2.887817E+00  7.446377E+00
      1368   5 -2.190041E+01 -4.701092E+01 -6.121569E+00 -4.424107E+00  1.346315E+00 -2.633883E+00
      1368   6  5.337189E+01 -1.659613E+01  5.074785E+00  8.493345E+00  1.321527E+00 -2.042773E+00
      1368   7 -1.586440E+01 -4.559153E+01 -3.816984E+00 -2.941547E+00 -2.689258E-01  4.948868E+00
      1368   8  5.907768E+01 -1.548841E+01  7.197511E+00  9.728946E+00 -2.584035E-01  5.531124E+00
      1369   1  7.553594E+01 -1.892001E+01 -4.049153E+00  4.272007E+01 -8.205387E-01 -1.571801E+00
      1369   2  1.384970E+02  5.145213E+00  2.705188E+00  5.273200E+01 -8.332294E-01 -9.015668E-01
      1369   3  8.140601E+01 -1.791391E+01 -1.980909E+00  4.368837E+01 -2.263950E+00  5.547106E+00
      1369   4  1.441173E+02  5.915890E+00  4.634930E+00  5.349686E+01 -2.246276E+00  6.205542E+00
      1369   5  8.786517E+01 -2.961979E+01 -3.046556E+00  2.156590E+01  1.829824E+00 -3.632034E+00
      1369   6  1.503821E+02 -5.034495E+00  3.833926E+00  3.246358E+01  1.847517E+00 -3.161730E+00
      1369   7  9.361381E+01 -2.835559E+01 -8.606827E-01  2.247609E+01  3.866515E-01  3.459308E+00
      1369   8  1.558896E+02 -4.012888E+00  5.884880E+00  3.317277E+01  4.343452E-01  3.919618E+00
      1370   1  1.719381E+02  8.056238E-01 -2.453468E+00  6.134529E+01 -3.644042E-01 -2.135521E+00
      1370   2  2.252540E+02  2.052047E+01  8.327472E-01  7.001593E+01 -2.856299E-01 -1.513156E+00
      1370   3  1.775836E+02  1.601999E+00 -5.034466E-01  6.182121E+01 -1.692544E+00  4.685873E+00
      1370   4  2.307557E+02  2.115079E+01  2.696819E+00  7.033029E+01 -1.585267E+00  5.296607E+00
      1370   5  1.834437E+02 -9.076715E+00 -1.294046E+00  4.174607E+01  2.346589E+00 -4.554138E+00
      1370   6  2.363845E+02  1.109790E+01  2.119383E+00  5.118190E+01  2.480495E+00 -4.121843E+00
      1370   7  1.889844E+02 -8.068094E+00  7.671356E-01  4.214799E+01  1.017415E+00  2.243286E+00
      1370   8  2.417890E+02  1.193567E+01  4.098446E+00  5.142513E+01  1.179406E+00  2.665543E+00
      1371   1 -3.097918E+02 -4.459686E+01 -1.172116E+01 -5.011635E+01 -1.715268E+00 -3.966827E+00
      1371   2 -1.930631E+02  2.383335E+00  9.655896E+00 -3.231682E+01 -1.750043E+00 -2.120212E+00
      1371   3 -2.998935E+02 -4.350548E+01 -8.458647E+00 -4.617532E+01 -3.964997E+00  6.412374E+00
      1371   4 -1.840076E+02  2.855711E+00  1.249027E+01 -2.881007E+01 -3.937485E+00  8.252024E+00
      1371   5 -2.937404E+02 -6.076023E+01 -1.166058E+01 -7.994797E+01  1.758104E+00 -4.609818E+00
      1371   6 -1.777798E+02 -1.282424E+01  9.924999E+00 -6.055197E+01  1.700160E+00 -2.979441E+00
      1371   7 -2.840458E+02 -5.921137E+01 -8.235210E+00 -7.600398E+01 -4.874717E-01  5.708899E+00
      1371   8 -1.689117E+02 -1.191360E+01  1.292580E+01 -5.704242E+01 -4.836665E-01  7.335708E+00
      1372   1 -1.552496E+02 -4.524536E+01 -1.147543E+01 -8.719379E+00 -1.335205E+00 -2.932138E+00
      1372   2 -6.221425E+01 -7.893380E+00  5.658561E+00  5.262511E+00 -1.620424E+00 -1.182272E+00
      1372   3 -1.467483E+02 -4.513983E+01 -8.902830E+00 -5.534360E+00 -2.960677E+00  5.274057E+00
      1372   4 -5.455845E+01 -8.365361E+00  7.812339E+00  8.071837E+00 -3.210047E+00  7.010941E+00
      1372   5 -1.408411E+02 -5.850748E+01 -1.080572E+01 -3.474777E+01  2.107282E+00 -4.021461E+00
      1372   6 -4.843381E+01 -2.042835E+01  6.476687E+00 -1.949116E+01  1.761926E+00 -2.504872E+00
      1372   7 -1.325296E+02 -5.795678E+01 -8.081752E+00 -3.151846E+01  4.827901E-01  4.142391E+00
      1372   8 -4.095433E+01 -2.047279E+01  8.784138E+00 -1.663970E+01  1.731440E-01  5.648365E+00
      1373   1 -2.589822E+01 -3.545061E+01 -7.308015E+00  2.174433E+01 -1.150436E+00 -2.662744E+00
      1373   2  4.915803E+01 -6.264230E+00  3.300704E+00  3.316207E+01 -1.437586E+00 -1.074605E+00
      1373   3 -1.848187E+01 -3.585700E+01 -5.200555E+00  2.410549E+01 -2.603505E+00  5.019846E+00
      1373   4  5.589573E+01 -7.134538E+00  5.073044E+00  3.521908E+01 -2.862154E+00  6.593998E+00
      1373   5 -1.277467E+01 -4.684933E+01 -6.288847E+00 -1.518145E+00  2.204093E+00 -4.196607E+00
      1373   6  6.176655E+01 -1.707088E+01  4.454674E+00  1.094978E+01  1.868603E+00 -2.837382E+00
      1373   7 -5.524601E+00 -4.686509E+01 -4.038034E+00  8.796701E-01  7.510048E-01  3.450451E+00
      1373   8  6.834941E+01 -1.756427E+01  6.373016E+00  1.304179E+01  4.439188E-01  4.797667E+00
      1374   1  8.413711E+01 -1.959779E+01 -4.884656E+00  4.465489E+01 -9.364294E-01 -2.746364E+00
      1374   2  1.464806E+02  3.927572E+00  1.389918E+00  5.429798E+01 -1.182686E+00 -1.360128E+00
      1374   3  9.081040E+01 -2.012606E+01 -3.023831E+00  4.631995E+01 -2.242611E+00  4.464633E+00
      1374   4  1.526281E+02  3.032152E+00  2.990041E+00  5.571516E+01 -2.465164E+00  5.836344E+00
      1374   5  9.625608E+01 -2.981100E+01 -3.649940E+00  2.342887E+01  2.344730E+00 -4.699206E+00
      1374   6  1.581688E+02 -5.781220E+00  2.752096E+00  3.396072E+01  2.068613E+00 -3.536037E+00
      1374   7  1.027840E+02 -2.999809E+01 -1.653233E+00  2.511475E+01  1.037519E+00  2.482353E+00
      1374   8  1.641808E+02 -6.346067E+00  4.491001E+00  3.539785E+01  7.850040E-01  3.632689E+00
      1375   1  1.802144E+02  1.068297E-01 -3.294674E+00  6.234306E+01 -7.143182E-01 -2.774483E+00
      1375   2  2.336409E+02  1.992883E+01  8.085706E-01  7.072297E+01 -7.824742E-01 -1.728188E+00
      1375   3  1.867183E+02  1.852137E-01 -1.289146E+00  6.328789E+01 -1.838188E+00  3.802665E+00
      1375   4  2.398187E+02  1.975470E+01  2.647659E+00  7.147683E+01 -1.882666E+00  4.835294E+00
      1375   5  1.915367E+02 -9.381576E+00 -1.926544E+00  4.263612E+01  2.529015E+00 -5.122029E+00
      1375   6  2.445994E+02  1.088902E+01  2.305620E+00  5.178540E+01  2.475258E+00 -4.281891E+00
      1375   7  1.979159E+02 -9.034356E+00  1.978343E-01  4.356303E+01  1.402822E+00  1.430341E+00
      1375   8  2.506607E+02  1.097659E+01  4.266754E+00  5.252205E+01  1.372510E+00  2.258330E+00
      1376   1 -3.233467E+02 -6.378938E+01 -2.605311E+01 -8.588029E+01  6.319195E-01 -2.847283E+00
      1376   2 -2.060657E+02 -7.445556E+00  6.061385E+00 -6.098230E+01  5.938631E-01 -2.572981E+00
      1376   3 -3.234124E+02 -6.322588E+01 -2.597768E+01 -8.464479E+01 -2.200265E+00  4.207784E+00
      1376   4 -2.059454E+02 -7.060253E+00  6.147718E+00 -5.997204E+01 -2.164439E+00  4.490626E+00
      1376   5 -3.022683E+02 -8.612445E+01 -2.699662E+01 -1.112460E+02  1.268698E+00 -3.934427E+00
      1376   6 -1.860604E+02 -2.853042E+01  5.296655E+00 -8.499064E+01  1.308034E+00 -3.835313E+00
      1376   7 -3.024156E+02 -8.539822E+01 -2.683756E+01 -1.102434E+02 -1.544585E+00  3.066142E+00
      1376   8 -1.860139E+02 -2.798762E+01  5.470296E+00 -8.420078E+01 -1.432698E+00  3.177345E+00
      1377   1 -1.740693E+02 -5.146341E+01 -1.231891E+01 -2.796734E+01  5.340199E-01 -2.309210E+00
      1377   2 -8.292622E+01 -9.247251E+00  7.299597E+00 -8.310780E+00  5.105083E-01 -2.123456E+00
      1377   3 -1.735733E+02 -5.107474E+01 -1.211308E+01 -2.728657E+01 -2.225886E+00  4.904436E+00
      1377   4 -8.227980E+01 -8.994233E+00  7.518721E+00 -7.807832E+00 -2.185058E+00  5.095820E+00
      1377   5 -1.551982E+02 -7.006052E+01 -1.258343E+01 -5.022846E+01  1.336418E+00 -3.769341E+00
      1377   6 -6.491399E+01 -2.686821E+01  7.200559E+00 -2.948167E+01  1.389755E+00 -3.755337E+00
      1377   7 -1.547690E+02 -6.952791E+01 -1.228882E+01 -4.974902E+01 -1.406382E+00  3.394600E+00
      1377   8 -6.432743E+01 -2.647471E+01  7.512415E+00 -2.917017E+01 -1.289883E+00  3.417359E+00
      1378   1 -5.020998E+01 -3.281818E+01 -4.749373E+00  1.472362E+01  5.019243E-01 -2.022377E+00
      1378   2  2.302200E+01 -8.500710E-03  7.037648E+00  3.081082E+01  4.820206E-01 -1.877719E+00
      1378   3 -4.933837E+01 -3.262099E+01 -4.472409E+00  1.500491E+01 -2.101038E+00  5.064089E+00
      1378   4  2.401843E+01  8.010246E-02  7.328274E+00  3.094644E+01 -2.066111E+00  5.211293E+00
      1378   5 -3.304313E+01 -4.892578E+01 -4.553667E+00 -5.231646E+00  1.456325E+00 -3.828669E+00
      1378   6  3.948503E+01 -1.531776E+01  7.390441E+00  1.175648E+01  1.512933E+00 -3.854610E+00
      1378   7 -3.222648E+01 -4.859626E+01 -4.184050E+00 -5.129266E+00 -1.131794E+00  3.214178E+00
      1378   8  4.043243E+01 -1.509933E+01  7.777638E+00  1.172126E+01 -1.021379E+00  3.193479E+00
      1379   1  5.539368E+01 -1.066699E+01 -8.253127E-01  4.723991E+01  4.999874E-01 -1.857103E+00
      1379   2  1.159229E+02  1.567599E+01  5.981722E+00  6.080124E+01  4.814276E-01 -1.720515E+00
      1379   3  5.651850E+01 -1.067745E+01 -5.182940E-01  4.722176E+01 -1.909575E+00  4.950808E+00
      1379   4  1.171548E+02  1.557576E+01  6.302346E+00  6.066063E+01 -1.881957E+00  5.087057E+00
      1379   5  7.121321E+01 -2.509349E+01 -3.094812E-01  2.904253E+01  1.596707E+00 -3.992516E+00
      1379   6  1.311536E+02  1.927116E+00  6.647642E+00  4.336580E+01  1.654925E+00 -4.026272E+00
      1379   7  7.229213E+01 -2.498044E+01  9.239707E-02  2.886151E+01 -8.004619E-01  2.778316E+00
      1379   8  1.323449E+02  1.948582E+00  7.066930E+00  4.306916E+01 -6.969495E-01  2.746527E+00
      1380   1  1.473974E+02  1.329959E+01  9.871537E-01  7.274717E+01  5.187549E-01 -1.744895E+00
      1380   2  1.986660E+02  3.509403E+01  4.663772E+00  8.445857E+01  5.095531E-01 -1.618841E+00
      1380   3  1.487397E+02  1.315777E+01  1.336240E+00  7.248238E+01 -1.680883E+00  4.693065E+00
      1380   4  2.001063E+02  3.487815E+01  5.027903E+00  8.408959E+01 -1.651482E+00  4.816232E+00
      1380   5  1.621296E+02  1.862213E-02  1.729929E+00  5.592062E+01  1.751789E+00 -4.197750E+00
      1380   6  2.128967E+02  2.240514E+01  5.549299E+00  6.828891E+01  1.821098E+00 -4.241607E+00
      1380   7  1.634333E+02 -8.567078E-03  2.174142E+00  5.550395E+01 -4.380166E-01  2.209907E+00
      1380   8  2.143030E+02  2.230256E+01  6.012188E+00  6.777398E+01 -3.308678E-01  2.165119E+00
      1381   1 -3.223494E+02 -6.225084E+01 -2.466056E+01 -8.352124E+01 -5.647591E-01 -2.675962E+00
      1381   2 -2.051583E+02 -6.603662E+00  6.602661E+00 -5.902389E+01 -5.055633E-01 -2.101583E+00
      1381   3 -3.205802E+02 -6.135315E+01 -2.392639E+01 -8.169271E+01 -3.343855E+00  4.664641E+00
      1381   4 -2.033349E+02 -5.950253E+00  7.288803E+00 -5.744907E+01 -3.210812E+00  5.246726E+00
      1381   5 -3.014165E+02 -8.428845E+01 -2.544870E+01 -1.092809E+02  6.070528E-01 -3.627814E+00
      1381   6 -1.852833E+02 -2.739956E+01  6.002360E+00 -8.340505E+01  7.380748E-01 -3.224114E+00
      1381   7 -2.997498E+02 -8.319525E+01 -2.462557E+01 -1.076593E+02 -2.155043E+00  3.655982E+00
      1381   8 -1.835533E+02 -2.655747E+01  6.781132E+00 -8.202611E+01 -1.951463E+00  4.070942E+00
      1382   1 -1.726992E+02 -5.070263E+01 -1.204240E+01 -2.660603E+01 -5.810904E-01 -1.430835E+00
      1382   2 -8.158424E+01 -8.991166E+00  6.998663E+00 -7.266214E+00 -5.138479E-01 -1.075340E+00
      1382   3 -1.703994E+02 -4.966849E+01 -1.109259E+01 -2.543209E+01 -3.260975E+00  5.995835E+00
      1382   4 -7.923961E+01 -8.146579E+00  7.914270E+00 -6.293780E+00 -3.130009E+00  6.355988E+00
      1382   5 -1.539447E+02 -6.903354E+01 -1.213860E+01 -4.920778E+01  7.477602E-01 -2.751018E+00
      1382   6 -6.367616E+01 -2.635227E+01  7.075231E+00 -2.876102E+01  8.878515E-01 -2.563983E+00
      1382   7 -1.517285E+02 -6.782372E+01 -1.109425E+01 -4.821297E+01 -1.917109E+00  4.624616E+00
      1382   8 -6.140747E+01 -2.533702E+01  8.089194E+00 -2.795897E+01 -1.714429E+00  4.819420E+00
      1383   1 -4.860448E+01 -3.273849E+01 -5.229018E+00  1.537203E+01 -3.673519E-01 -1.134103E+00
      1383   2  2.471798E+01 -2.268287E-01  6.349804E+00  3.119944E+01 -3.129615E-01 -8.735092E-01
      1383   3 -4.603768E+01 -3.182457E+01 -4.218484E+00  1.608976E+01 -2.858280E+00  6.064379E+00
      1383   4  2.732057E+01  5.325715E-01  7.333686E+00  3.175124E+01 -2.750282E+00  6.326446E+00
      1383   5 -3.153332E+01 -4.860081E+01 -4.858791E+00 -4.885813E+00  1.106071E+00 -2.794096E+00
      1383   6  4.109493E+01 -1.529657E+01  6.881683E+00  1.185617E+01  1.233426E+00 -2.701881E+00
      1383   7 -2.903683E+01 -4.752487E+01 -3.750784E+00 -4.326936E+00 -1.372268E+00  4.360269E+00
      1383   8  4.363384E+01 -1.437899E+01  7.966813E+00  1.225626E+01 -1.192279E+00  4.456618E+00
      1384   1  5.724196E+01 -1.112362E+01 -1.602391E+00  4.735718E+01 -6.623959E-02 -1.264676E+00
      1384   2  1.179005E+02  1.502096E+01  5.148624E+00  6.070019E+01 -2.228855E-02 -1.007062E+00
      1384   3  5.990230E+01 -1.052475E+01 -6.418220E-01  4.774157E+01 -2.355041E+00  5.611853E+00
      1384   4  1.205935E+02  1.549180E+01  6.089139E+00  6.094532E+01 -2.266072E+00  5.868222E+00
      1384   5  7.298013E+01 -2.532319E+01 -9.126673E-01  2.888432E+01  1.542300E+00 -3.246961E+00
      1384   6  1.330580E+02  1.494320E+00  5.992300E+00  4.300083E+01  1.660255E+00 -3.157712E+00
      1384   7  7.558013E+01 -2.457480E+01  1.464180E-01  2.912402E+01 -7.363216E-01  3.592050E+00
      1384   8  1.356965E+02  2.111744E+00  7.035011E+00  4.310731E+01 -5.741881E-01  3.682315E+00
      1385   1  1.494954E+02  1.249512E+01  6.849519E-02  7.242316E+01  2.830611E-01 -1.554015E+00
      1385   2  2.007980E+02  3.403588E+01  3.493888E+00  8.394945E+01  3.406871E-01 -1.294855E+00
      1385   3  1.522473E+02  1.285495E+01  1.000491E+00  7.252259E+01 -1.821277E+00  5.003626E+00
      1385   4  2.035907E+02  3.429292E+01  4.415435E+00  8.393209E+01 -1.725428E+00  5.259429E+00
      1385   5  1.641579E+02 -5.781919E-01  9.813659E-01  5.533906E+01  2.022280E+00 -3.845363E+00
      1385   6  2.149668E+02  2.155178E+01  4.555078E+00  6.753231E+01  2.158313E+00 -3.753011E+00
      1385   7  1.668583E+02 -8.369416E-02  2.011517E+00  5.530175E+01 -7.422864E-02  2.680893E+00
      1385   8  2.177134E+02  2.194146E+01  5.578395E+00  6.738358E+01  9.928136E-02  2.771820E+00
      1386   1 -3.177954E+02 -5.982659E+01 -2.137334E+01 -8.011592E+01 -1.560695E+00 -2.646278E+00
      1386   2 -2.013932E+02 -5.457261E+00  7.853501E+00 -5.607009E+01 -1.416027E+00 -1.736595E+00
      1386   3 -3.140226E+02 -5.862181E+01 -1.993935E+01 -7.764278E+01 -4.382113E+00  5.272153E+00
      1386   4 -1.977196E+02 -4.573852E+00  9.171175E+00 -5.388335E+01 -4.161032E+00  6.189469E+00
      1386   5 -2.970470E+02 -8.150966E+01 -2.200222E+01 -1.062228E+02  2.048712E-01 -3.445671E+00
      1386   6 -1.816816E+02 -2.590646E+01  7.429857E+00 -8.077990E+01  4.137043E-01 -2.703783E+00
      1386   7 -2.933965E+02 -8.006709E+01 -2.046842E+01 -1.039258E+02 -2.600747E+00  4.411110E+00
      1386   8 -1.781200E+02 -2.479414E+01  8.850995E+00 -7.875987E+01 -2.316784E+00  5.164310E+00
      1387   1 -1.685364E+02 -4.919775E+01 -1.134872E+01 -2.436816E+01 -1.455413E+00 -8.304062E-01
      1387   2 -7.782045E+01 -8.267723E+00  6.613190E+00 -5.388419E+00 -1.334815E+00 -2.931083E-01
      1387   3 -1.642985E+02 -4.750001E+01 -9.609327E+00 -2.264034E+01 -4.085950E+00  6.922542E+00
      1387   4 -7.367167E+01 -6.828807E+00  8.257941E+00 -3.892044E+00 -3.901832E+00  7.463517E+00
      1387   5 -1.499256E+02 -6.720072E+01 -1.125977E+01 -4.726977E+01  4.534103E-01 -1.994753E+00
      1387   6 -6.004097E+01 -2.530882E+01  6.884906E+00 -2.716844E+01  6.380847E-01 -1.626133E+00
      1387   7 -1.457885E+02 -6.528309E+01 -9.415453E+00 -4.569252E+01 -2.163959E+00  5.705001E+00
      1387   8 -5.598429E+01 -2.365703E+01  8.638211E+00 -2.581526E+01 -1.916848E+00  6.080442E+00
      1388   1 -4.468218E+01 -3.208292E+01 -5.915363E+00  1.680404E+01 -9.976795E-01 -7.028868E-01
      1388   2  2.854596E+01  2.577228E-02  5.336013E+00  3.233383E+01 -9.255436E-01 -2.902782E-01
      1388   3 -4.039084E+01 -3.054959E+01 -4.191187E+00  1.803338E+01 -3.373956E+00  6.620015E+00
      1388   4  3.275204E+01  1.340926E+00  6.978409E+00  3.336961E+01 -3.249962E+00  7.032664E+00
      1388   5 -2.772966E+01 -4.763907E+01 -5.351333E+00 -3.718906E+00  1.038675E+00 -2.205590E+00
      1388   6  4.481543E+01 -1.474581E+01  6.066572E+00  1.273741E+01  1.173157E+00 -1.964230E+00
      1388   7 -2.352492E+01 -4.589908E+01 -3.520622E+00 -2.620822E+00 -1.327155E+00  5.072528E+00
      1388   8  4.894243E+01 -1.322975E+01  7.818968E+00  1.364787E+01 -1.141712E+00  5.316567E+00
      1389   1  6.111085E+01 -1.120132E+01 -2.747970E+00  4.819014E+01 -4.630950E-01 -1.155675E+00
      1389   2  1.218083E+02  1.472084E+01  3.994038E+00  6.128389E+01 -4.008562E-01 -7.452704E-01
      1389   3  6.530466E+01 -1.009783E+01 -1.165129E+00  4.902726E+01 -2.615820E+00  5.759698E+00
      1389   4  1.259378E+02  1.564581E+01  5.512800E+00  6.195998E+01 -2.510284E+00  6.167625E+00
      1389   5  7.674668E+01 -2.512064E+01 -1.866969E+00  2.947544E+01  1.689351E+00 -2.981911E+00
      1389   6  1.368726E+02  1.467584E+00  5.032420E+00  4.335279E+01  1.817280E+00 -2.741894E+00
      1389   7  8.086501E+01 -2.383081E+01 -1.793794E-01  3.019195E+01 -4.553533E-01  3.895532E+00
      1389   8  1.409331E+02  2.574378E+00  6.659327E+00  4.391328E+01 -2.849012E-01  4.135293E+00
      1390   1  1.534560E+02  1.194990E+01 -1.200060E+00  7.273686E+01  1.032412E-01 -1.689520E+00
      1390   2  2.046758E+02  3.317155E+01  1.896229E+00  8.405553E+01  2.072249E-01 -1.273381E+00
      1390   3  1.576174E+02  1.272716E+01  2.903141E-01  7.321908E+01 -1.903461E+00  4.996069E+00
      1390   4  2.088100E+02  3.381191E+01  3.345819E+00  8.440650E+01 -1.761622E+00  5.408338E+00
      1390   5  1.680307E+02 -8.750711E-01 -1.011042E-01  5.542277E+01  2.372344E+00 -3.823620E+00
      1390   6  2.187666E+02  2.093226E+01  3.150503E+00  6.741741E+01  2.551765E+00 -3.572928E+00
      1390   7  1.721274E+02  6.111641E-02  1.491470E+00  5.578701E+01  3.715950E-01  2.829147E+00
      1390   8  2.228417E+02  2.172857E+01  4.705835E+00  6.765501E+01  5.881523E-01  3.077884E+00
      1391   1 -3.094700E+02 -5.665425E+01 -1.648820E+01 -7.556113E+01 -2.172068E+00 -2.845885E+00
      1391   2 -1.947353E+02 -4.303471E+00  9.176123E+00 -5.202575E+01 -1.946334E+00 -1.600973E+00
      1391   3 -3.032364E+02 -5.491730E+01 -1.415071E+01 -7.235420E+01 -5.147704E+00  6.035520E+00
      1391   4 -1.887863E+02 -2.981293E+00  1.131511E+01 -4.914415E+01 -4.839995E+00  7.288822E+00
      1391   5 -2.889410E+02 -7.790584E+01 -1.693850E+01 -1.019593E+02  3.008035E-01 -3.450043E+00
      1391   6 -1.752157E+02 -2.432848E+01  8.958388E+00 -7.701124E+01  5.812790E-01 -2.370910E+00
      1391   7 -2.828490E+02 -7.587627E+01 -1.448332E+01 -9.889061E+01 -2.659645E+00  5.362001E+00
      1391   8 -1.693963E+02 -2.272503E+01  1.121878E+01 -7.426048E+01 -2.298509E+00  6.453480E+00
      1392   1 -1.616562E+02 -4.730713E+01 -1.086858E+01 -2.108801E+01 -1.795362E+00 -1.003208E+00
      1392   2 -7.155384E+01 -7.247140E+00  6.009829E+00 -2.527804E+00 -1.750694E+00 -1.691122E-01
      1392   3 -1.553976E+02 -4.520392E+01 -8.391110E+00 -1.858086E+01 -4.349942E+00  7.049584E+00
      1392   4 -6.560539E+01 -5.520986E+00  8.291345E+00 -3.026331E-01 -4.243758E+00  7.885331E+00
      1392   5 -1.432157E+02 -6.488746E+01 -1.056186E+01 -4.423346E+01  7.967482E-01 -1.969109E+00
      1392   6 -5.392799E+01 -2.387795E+01  6.508127E+00 -2.453972E+01  8.790933E-01 -1.315550E+00
      1392   7 -1.370791E+02 -6.248353E+01 -7.959600E+00 -4.183029E+01 -1.746487E+00  6.028210E+00
      1392   8 -4.809168E+01 -2.186192E+01  8.917369E+00 -2.241342E+01 -1.603576E+00  6.686596E+00
      1393   1 -3.844609E+01 -3.119936E+01 -6.830933E+00  1.921254E+01 -1.212454E+00 -1.152956E+00
      1393   2  3.449787E+01  4.298543E-01  4.102025E+00  3.438978E+01 -1.274912E+00 -3.638469E-01
      1393   3 -3.267616E+01 -2.976358E+01 -4.681222E+00  2.119908E+01 -3.454133E+00  6.264064E+00
      1393   4  3.997642E+01  1.536842E+00  6.075025E+00  3.613596E+01 -3.468595E+00  7.050697E+00
      1393   5 -2.163865E+01 -4.635508E+01 -6.044647E+00 -1.520625E+00  1.457725E+00 -2.473864E+00
      1393   6  5.063443E+01 -1.395377E+01  5.057845E+00  1.459264E+01  1.426045E+00 -1.871557E+00
      1393   7 -1.597780E+01 -4.463291E+01 -3.770963E+00  3.816928E-01 -7.754105E-01  4.897305E+00
      1393   8  5.601227E+01 -1.256982E+01  7.157518E+00  1.625835E+01 -7.598167E-01  5.499723E+00
      1394   1  6.706956E+01 -1.105029E+01 -4.062085E+00  4.985457E+01 -6.512423E-01 -1.717035E+00
      1394   2  1.276278E+02  1.456003E+01  2.605280E+00  6.265715E+01 -6.721860E-01 -1.048242E+00
      1394   3  7.264274E+01 -9.813463E+00 -2.014332E+00  5.127313E+01 -2.661980E+00  5.231455E+00
      1394   4  1.329895E+02  1.554011E+01  4.521451E+00  6.388154E+01 -2.642633E+00  5.895825E+00
      1394   5  8.257886E+01 -2.461380E+01 -2.968954E+00  3.094424E+01  2.082083E+00 -3.382767E+00
      1394   6  1.425758E+02  1.652570E+00  3.858401E+00  4.453858E+01  2.104685E+00 -2.895229E+00
      1394   7  8.805792E+01 -2.313073E+01 -8.042787E-01  3.227867E+01  7.747161E-02  3.527180E+00
      1394   8  1.478507E+02  2.871966E+00  5.894389E+00  4.568240E+01  1.397165E-01  4.012478E+00
      1395   1  1.594006E+02  1.162044E+01 -2.510819E+00  7.373141E+01 -6.788227E-02 -2.219307E+00
      1395   2  2.106367E+02  3.268434E+01  7.241963E-01  8.481583E+01  3.566409E-02 -1.580885E+00
      1395   3  1.648578E+02  1.256478E+01 -5.702969E-01  7.464486E+01 -1.924844E+00  4.451331E+00
      1395   4  2.159778E+02  3.344660E+01  2.583988E+00  8.557927E+01 -1.784847E+00  5.084888E+00
      1395   5  1.738664E+02 -9.080723E-01 -1.211900E+00  5.622197E+01  2.747046E+00 -4.206741E+00
      1395   6  2.246281E+02  2.073530E+01  2.183150E+00  6.798998E+01  2.916765E+00 -3.736516E+00
      1395   7  1.792432E+02  2.282854E-01  8.352709E-01  5.704209E+01  8.941161E-01  2.430035E+00
      1395   8  2.298952E+02  2.168528E+01  4.152886E+00  6.866374E+01  1.099629E+00  2.897272E+00
      1396   1 -2.973681E+02 -5.333492E+01 -1.145726E+01 -6.948697E+01 -1.576080E+00 -4.178444E+00
      1396   2 -1.850548E+02 -3.553343E+00  9.685348E+00 -4.655534E+01 -1.639598E+00 -2.329449E+00
      1396   3 -2.883580E+02 -5.154462E+01 -8.264384E+00 -6.487047E+01 -4.734429E+00  5.890829E+00
      1396   4 -1.767971E+02 -2.433216E+00  1.246446E+01 -4.237322E+01 -4.713358E+00  7.746411E+00
      1396   5 -2.770895E+02 -7.401157E+01 -1.167163E+01 -9.609202E+01  1.868922E+00 -4.461113E+00
      1396   6 -1.657530E+02 -2.301506E+01  9.735448E+00 -7.173665E+01  1.797579E+00 -2.811434E+00
      1396   7 -2.682488E+02 -7.175714E+01 -8.309159E+00 -9.152436E+01 -1.274107E+00  5.528783E+00
      1396   8 -1.576508E+02 -2.145084E+01  1.268634E+01 -6.760075E+01 -1.261999E+00  7.189406E+00
      1397   1 -1.523188E+02 -4.619494E+01 -1.131303E+01 -1.622138E+01 -1.113754E+00 -3.093196E+00
      1397   2 -6.271192E+01 -6.671195E+00  5.633576E+00  1.812255E+00 -1.510852E+00 -1.386775E+00
      1397   3 -1.446060E+02 -4.545430E+01 -8.795352E+00 -1.229179E+01 -3.446751E+00  4.896848E+00
      1397   4 -5.576111E+01 -6.553989E+00  7.745793E+00  5.356477E+00 -3.791685E+00  6.599518E+00
      1397   5 -1.340843E+02 -6.317327E+01 -1.073051E+01 -3.951239E+01  2.332070E+00 -3.784413E+00
      1397   6 -4.527749E+01 -2.272500E+01  6.404587E+00 -2.033808E+01  1.893938E+00 -2.301513E+00
      1397   7 -1.265308E+02 -6.196293E+01 -8.049854E+00 -3.559192E+01  8.381750E-03  4.148854E+00
      1397   8 -3.847431E+01 -2.215729E+01  8.680695E+00 -1.680254E+01 -3.781378E-01  5.631055E+00
      1398   1 -2.984040E+01 -3.096002E+01 -7.252315E+00  2.305767E+01 -9.150065E-01 -2.815912E+00
      1398   2  4.244462E+01 -2.870779E-04  3.235124E+00  3.779222E+01 -1.311404E+00 -1.271523E+00
      1398   3 -2.304596E+01 -3.085423E+01 -5.182977E+00  2.614115E+01 -3.009450E+00  4.681438E+00
      1398   4  4.862706E+01 -3.954877E-01  4.980144E+00  4.056393E+01 -3.364123E+00  6.219581E+00
      1398   5 -1.321898E+01 -4.555962E+01 -6.206839E+00  2.205750E+00  2.476833E+00 -3.925976E+00
      1398   6  5.840891E+01 -1.384747E+01  4.451237E+00  1.788163E+01  2.050418E+00 -2.600292E+00
      1398   7 -6.564305E+00 -4.504266E+01 -3.985243E+00  5.279507E+00  3.895178E-01  3.523217E+00
      1398   8  6.446153E+01 -1.384646E+01  6.349991E+00  2.064409E+01  4.392332E-03  4.845179E+00
      1399   1  7.510735E+01 -1.124811E+01 -4.893979E+00  5.265376E+01 -6.725405E-01 -2.886333E+00
      1399   2  1.351166E+02  1.377906E+01  1.298709E+00  6.509864E+01 -1.011282E+00 -1.537186E+00
      1399   3  8.130336E+01 -1.137458E+01 -3.057518E+00  5.500077E+01 -2.563115E+00  4.166010E+00
      1399   4  1.408400E+02  1.325580E+01  2.883340E+00  6.719357E+01 -2.867378E+00  5.507337E+00
      1399   5  9.045528E+01 -2.433349E+01 -3.561037E+00  3.362156E+01  2.676593E+00 -4.390800E+00
      1399   6  1.499149E+02  1.334595E+00  2.792869E+00  4.686334E+01  2.325166E+00 -3.252799E+00
      1399   7  9.652975E+01 -2.410525E+01 -1.582977E+00  3.594993E+01  7.910937E-01  2.620959E+00
      1399   8  1.555252E+02  1.154542E+00  4.521012E+00  4.894041E+01  4.737684E-01  3.753257E+00
      1400   1  1.673158E+02  1.123152E+01 -3.343606E+00  7.554586E+01 -4.102846E-01 -2.895351E+00
      1400   2  2.187108E+02  3.236926E+01  7.096776E-01  8.635635E+01 -5.079115E-01 -1.855946E+00
      1400   3  1.735057E+02  1.157259E+01 -1.352013E+00  7.708959E+01 -2.052171E+00  3.549294E+00
      1400   4  2.246127E+02  3.243647E+01  2.541466E+00  8.771188E+01 -2.117892E+00  4.581203E+00
      1400   5  1.816431E+02 -9.281143E-01 -1.833951E+00  5.789162E+01  2.927919E+00 -4.767746E+00
      1400   6  2.325728E+02  2.077834E+01  2.379614E+00  6.939135E+01  2.858803E+00 -3.917060E+00
      1400   7  1.877304E+02 -3.205886E-01  2.768052E-01  5.938828E+01  1.288765E+00  1.642440E+00
      1400   8  2.383791E+02  2.110465E+01  4.333055E+00  7.070165E+01  1.251092E+00  2.487450E+00
      1401   1 -3.044642E+02 -7.739775E+01 -2.553900E+01 -1.034828E+02  8.154977E-01 -2.820314E+00
      1401   2 -1.929559E+02 -1.755544E+01  6.119851E+00 -7.447760E+01  7.719749E-01 -2.555081E+00
      1401   3 -3.046962E+02 -7.671178E+01 -2.548189E+01 -1.023840E+02 -2.592775E+00  3.897804E+00
      1401   4 -1.929749E+02 -1.705877E+01  6.194177E+00 -7.355599E+01 -2.549492E+00  4.185573E+00
      1401   5 -2.801293E+02 -1.032657E+02 -2.669678E+01 -1.248372E+02  1.486519E+00 -3.768657E+00
      1401   6 -1.698564E+02 -4.197219E+01  5.180255E+00 -9.468933E+01  1.529366E+00 -3.657317E+00
      1401   7 -2.803942E+02 -1.024704E+02 -2.656137E+01 -1.239745E+02 -1.892888E+00  2.884048E+00
      1401   8 -1.699032E+02 -4.136876E+01  5.336141E+00 -9.399112E+01 -1.765133E+00  3.021978E+00
      1402   1 -1.672973E+02 -5.522305E+01 -1.208787E+01 -3.613169E+01  7.031325E-01 -2.304901E+00
      1402   2 -8.064155E+01 -1.024414E+01  7.247940E+00 -1.320410E+01  6.768609E-01 -2.126665E+00
      1402   3 -1.669140E+02 -5.475698E+01 -1.189505E+01 -3.547948E+01 -2.621607E+00  4.588748E+00
      1402   4 -8.008592E+01 -9.922005E+00  7.459701E+00 -1.269211E+01 -2.572673E+00  4.784826E+00
      1402   5 -1.454489E+02 -7.675413E+01 -1.242256E+01 -5.496398E+01  1.558923E+00 -3.581174E+00
      1402   6 -5.978395E+01 -3.064154E+01  7.114411E+00 -3.111406E+01  1.618269E+00 -3.553912E+00
      1402   7 -1.450900E+02 -7.618931E+01 -1.214648E+01 -5.451596E+01 -1.739533E+00  3.252597E+00
      1402   8 -5.924837E+01 -3.022233E+01  7.412854E+00 -3.079631E+01 -1.606641E+00  3.301235E+00
      1403   1 -5.230914E+01 -2.962575E+01 -4.688631E+00  1.364428E+01  6.687277E-01 -2.032160E+00
      1403   2  1.728886E+01  5.451925E+00  6.920483E+00  3.242109E+01  6.468706E-01 -1.894814E+00
      1403   3 -5.150899E+01 -2.937916E+01 -4.418047E+00  1.397649E+01 -2.471060E+00  4.760645E+00
      1403   4  1.823176E+01  5.583242E+00  7.209641E+00  3.263818E+01 -2.428962E+00  4.911129E+00
      1403   5 -3.240054E+01 -4.826574E+01 -4.464871E+00 -3.282309E+00  1.693950E+00 -3.613305E+00
      1403   6  3.638478E+01 -1.226044E+01  7.335128E+00  1.625864E+01  1.757262E+00 -3.626016E+00
      1403   7 -3.161815E+01 -4.792696E+01 -4.107631E+00 -3.131649E+00 -1.422732E+00  3.126465E+00
      1403   8  3.731393E+01 -1.203790E+01  7.714393E+00  1.630240E+01 -1.296896E+00  3.129924E+00
      1404   1  4.657289E+01 -2.425450E+00 -8.681754E-01  5.164933E+01  6.701918E-01 -1.876818E+00
      1404   2  1.040552E+02  2.583797E+01  5.823391E+00  6.748057E+01  6.502037E-01 -1.747212E+00
      1404   3  4.765943E+01 -2.405527E+00 -5.607206E-01  5.174234E+01 -2.240723E+00  4.667764E+00
      1404   4  1.052640E+02  2.576274E+01  6.148902E+00  6.747689E+01 -2.206892E+00  4.806208E+00
      1404   5  6.493317E+01 -1.911071E+01 -2.547963E-01  3.620046E+01  1.853829E+00 -3.748193E+00
      1404   6  1.217361E+02  9.940749E+00  6.619667E+00  5.267857E+01  1.919194E+00 -3.768432E+00
      1404   7  6.600729E+01 -1.900399E+01  1.410677E-01  3.612833E+01 -1.037394E+00  2.750665E+00
      1404   8  1.229360E+02  9.951641E+00  7.036914E+00  5.251663E+01 -9.194333E-01  2.741836E+00
      1405   1  1.333229E+02  2.530598E+01  8.778032E-01  8.152751E+01  6.964911E-01 -1.770912E+00
      1405   2  1.819614E+02  4.876655E+01  4.473757E+00  9.519593E+01  6.879135E-01 -1.649992E+00
      1405   3  1.346564E+02  2.517696E+01  1.233335E+00  8.141877E+01 -1.965476E+00  4.435859E+00
      1405   4  1.834057E+02  4.855912E+01  4.848311E+00  9.500541E+01 -1.929121E+00  4.561833E+00
      1405   5  1.504231E+02  9.955380E+00  1.769195E+00  6.725037E+01  2.031607E+00 -3.922383E+00
      1405   6  1.984838E+02  3.410494E+01  5.539705E+00  8.147615E+01  2.110012E+00 -3.950643E+00
      1405   7  1.517485E+02  9.906067E+00  2.212856E+00  6.698799E+01 -6.142230E-01  2.246219E+00
      1405   8  1.999232E+02  3.397698E+01  6.005597E+00  8.113801E+01 -4.919325E-01  2.225181E+00
      1406   1 -3.037963E+02 -7.560412E+01 -2.416868E+01 -1.013217E+02 -5.315719E-01 -2.814319E+00
      1406   2 -1.923264E+02 -1.647729E+01  6.655390E+00 -7.263576E+01 -4.608555E-01 -2.227447E+00
      1406   3 -3.023207E+02 -7.448239E+01 -2.346183E+01 -9.952362E+01 -3.920299E+00  4.187749E+00
      1406   4 -1.907630E+02 -1.561621E+01  7.320970E+00 -7.104812E+01 -3.762091E+00  4.796472E+00
      1406   5 -2.795259E+02 -1.012678E+02 -2.518621E+01 -1.230776E+02  6.606101E-01 -3.593507E+00
      1406   6 -1.692802E+02 -4.069297E+01  5.866417E+00 -9.322733E+01  8.111797E-01 -3.154951E+00
      1406   7 -2.781064E+02 -9.999882E+01 -2.439504E+01 -1.214949E+02 -2.700798E+00  3.340023E+00
      1406   8 -1.677665E+02 -3.968920E+01  6.619483E+00 -9.184359E+01 -2.464603E+00  3.804525E+00
      1407   1 -1.661553E+02 -5.428806E+01 -1.181680E+01 -3.478819E+01 -5.499017E-01 -1.567924E+00
      1407   2 -7.948698E+01 -9.829151E+00  6.953017E+00 -1.211363E+01 -4.697946E-01 -1.202326E+00
      1407   3 -1.640821E+02 -5.309184E+01 -1.089003E+01 -3.355596E+01 -3.822021E+00  5.540710E+00
      1407   4 -7.734123E+01 -8.835180E+00  7.851662E+00 -1.104920E+01 -3.666740E+00  5.923232E+00
      1407   5 -1.443518E+02 -7.563059E+01 -1.199503E+01 -5.396789E+01  8.174143E-01 -2.668760E+00
      1407   6 -5.866535E+01 -3.004048E+01  6.984192E+00 -3.035404E+01  9.785092E-01 -2.449937E+00
      1407   7 -1.423214E+02 -7.429914E+01 -1.097836E+01 -5.292265E+01 -2.430247E+00  4.377910E+00
      1407   8 -5.655695E+01 -2.891453E+01  7.976041E+00 -2.946739E+01 -2.195604E+00  4.617216E+00
      1408   1 -5.085660E+01 -2.942381E+01 -5.161532E+00  1.440866E+01 -2.928723E-01 -1.245636E+00
      1408   2  1.886352E+01  5.341523E+00  6.244843E+00  3.297741E+01 -2.274970E-01 -9.781771E-01
      1408   3 -4.846584E+01 -2.838621E+01 -4.167698E+00  1.525347E+01 -3.339764E+00  5.665429E+00
      1408   4  2.131337E+01  6.214295E+00  7.217493E+00  3.368360E+01 -3.211272E+00  5.944884E+00
      1408   5 -3.097928E+01 -4.788605E+01 -4.772756E+00 -2.826783E+00  1.235230E+00 -2.643215E+00
      1408   6  3.793504E+01 -1.219568E+01  6.829638E+00  1.652008E+01  1.381837E+00 -2.522915E+00
      1408   7 -2.862229E+01 -4.672163E+01 -3.686272E+00 -2.148098E+00 -1.790680E+00  4.213743E+00
      1408   8  4.035582E+01 -1.119863E+01  7.898168E+00  1.706765E+01 -1.582341E+00  4.349057E+00
      1409   1  4.832677E+01 -2.797977E+00 -1.632473E+00  5.198511E+01  6.954052E-02 -1.340775E+00
      1409   2  1.059644E+02  2.525469E+01  5.006566E+00  6.764165E+01  1.231885E-01 -1.077598E+00
      1409   3  5.085440E+01 -2.101393E+00 -6.807411E-01  5.255189E+01 -2.735739E+00  5.279936E+00
      1409   4  1.085438E+02  2.581463E+01  5.942935E+00  6.809215E+01 -2.629188E+00  5.550947E+00
      1409   5  6.666458E+01 -1.931720E+01 -8.533079E-01  3.625534E+01  1.747695E+00 -3.020127E+00
      1409   6  1.236284E+02  9.521157E+00  5.972576E+00  5.257046E+01  1.883451E+00 -2.904151E+00
      1409   7  6.916457E+01 -1.850363E+01  1.914093E-01  3.667110E+01 -1.040031E+00  3.553962E+00
      1409   8  1.261844E+02  1.019622E+01  7.005094E+00  5.287628E+01 -8.525540E-01  3.680321E+00
      1410   1  1.353796E+02  2.454910E+01 -2.356284E-02  8.149778E+01  4.906061E-01 -1.586903E+00
      1410   2  1.840748E+02  4.774715E+01  3.327185E+00  9.501914E+01  5.618580E-01 -1.319372E+00
      1410   3  1.380412E+02  2.497993E+01  9.068689E-01  8.181905E+01 -2.094112E+00  4.744152E+00
      1410   4  1.867922E+02  4.806826E+01  4.251011E+00  9.524394E+01 -1.978110E+00  5.016272E+00
      1410   5  1.524643E+02  9.348585E+00  1.030342E+00  6.695899E+01  2.312866E+00 -3.536066E+00
      1410   6  2.005874E+02  3.323508E+01  4.561636E+00  8.104795E+01  2.470069E+00 -3.413646E+00
      1410   7  1.551037E+02  9.881952E+00  2.052194E+00  6.713888E+01 -2.575857E-01  2.755260E+00
      1410   8  2.032865E+02  3.365757E+01  5.580030E+00  8.113687E+01 -5.666081E-02  2.884422E+00
      1411   1 -2.998041E+02 -7.274872E+01 -2.093290E+01 -9.792369E+01 -1.638814E+00 -2.916204E+00
      1411   2 -1.890533E+02 -1.492161E+01  7.887156E+00 -6.961650E+01 -1.467938E+00 -1.975094E+00
      1411   3 -2.964688E+02 -7.120228E+01 -1.953551E+01 -9.535641E+01 -5.126095E+00  4.649516E+00
      1411   4 -1.857761E+02 -1.371917E+01  9.175487E+00 -6.729828E+01 -4.863964E+00  5.612968E+00
      1411   5 -2.756422E+02 -9.814267E+01 -2.180721E+01 -1.200437E+02  1.298237E-01 -3.502585E+00
      1411   6 -1.660978E+02 -3.887006E+01  7.261552E+00 -9.055279E+01  3.719379E-01 -2.706009E+00
      1411   7 -2.723853E+02 -9.640031E+01 -2.031381E+01 -1.176673E+02 -3.330596E+00  3.988543E+00
      1411   8 -1.628913E+02 -3.747871E+01  8.648929E+00 -8.841526E+01 -2.999118E+00  4.811747E+00
      1412   1 -1.624224E+02 -5.245190E+01 -1.113746E+01 -3.241172E+01 -1.515425E+00 -1.072320E+00
      1412   2 -7.609923E+01 -8.795350E+00  6.571113E+00 -1.004067E+01 -1.373320E+00 -5.135014E-01
      1412   3 -1.585484E+02 -5.048977E+01 -9.432866E+00 -3.052234E+01 -4.774404E+00  6.360557E+00
      1412   4 -7.227821E+01 -7.109971E+00  8.188139E+00 -8.354032E+00 -4.556470E+00  6.935492E+00
      1412   5 -1.406934E+02 -7.353490E+01 -1.114025E+01 -5.190734E+01  4.134391E-01 -1.975638E+00
      1412   6 -5.533954E+01 -2.875097E+01  6.789653E+00 -2.858146E+01  6.277403E-01 -1.563465E+00
      1412   7 -1.368806E+02 -7.138614E+01 -9.333783E+00 -5.018308E+01 -2.822503E+00  5.392178E+00
      1412   8 -5.157330E+01 -2.688466E+01  8.511544E+00 -2.705184E+01 -2.533962E+00  5.824102E+00
      1413   1 -4.727003E+01 -2.850168E+01 -5.842199E+00  1.609512E+01 -9.670992E-01 -8.825347E-01
      1413   2  2.239803E+01  5.840105E+00  5.244359E+00  3.441190E+01 -8.824195E-01 -4.580860E-01
      1413   3 -4.328345E+01 -2.674741E+01 -4.145387E+00  1.754580E+01 -3.919322E+00  6.159516E+00
      1413   4  2.633034E+01  7.360968E+00  6.865656E+00  3.569177E+01 -3.772763E+00  6.594431E+00
      1413   5 -2.744747E+01 -4.671504E+01 -5.265060E+00 -1.420480E+00  1.105239E+00 -2.080253E+00
      1413   6  4.142322E+01 -1.145349E+01  6.022950E+00  1.768707E+01  1.260923E+00 -1.805998E+00
      1413   7 -2.351200E+01 -4.478185E+01 -3.464636E+00 -1.150615E-01 -1.827972E+00  4.906422E+00
      1413   8  4.530989E+01 -9.758596E+00  7.750666E+00  1.882822E+01 -1.611719E+00  5.194164E+00
      1414   1  5.193949E+01 -2.660931E+00 -2.763042E+00  5.316511E+01 -3.251558E-01 -1.266702E+00
      1414   2  1.096494E+02  2.515097E+01  3.870740E+00  6.861086E+01 -2.511315E-01 -8.455007E-01
      1414   3  5.588979E+01 -1.375461E+00 -1.198218E+00  5.427005E+01 -3.006968E+00  5.402168E+00
      1414   4  1.135602E+02  2.624524E+01  5.376623E+00  6.957404E+01 -2.881496E+00  5.829810E+00
      1414   5  7.023314E+01 -1.895200E+01 -1.796924E+00  3.718047E+01  1.878275E+00 -2.747119E+00
      1414   6  1.272760E+02  9.640951E+00  5.027275E+00  5.329550E+01  2.026282E+00 -2.475140E+00
      1414   7  7.413932E+01 -1.750663E+01 -1.313778E-01  3.815281E+01 -7.880836E-01  3.874324E+00
      1414   8  1.311476E+02  1.089151E+01  6.636721E+00  5.413167E+01 -5.897420E-01  4.155269E+00
      1415   1  1.391630E+02  2.416283E+01 -1.270053E+00  8.222342E+01  3.563501E-01 -1.724337E+00
      1415   2  1.878035E+02  4.702951E+01  1.760055E+00  9.557142E+01  4.824287E-01 -1.289367E+00
      1415   3  1.431452E+02  2.507618E+01  2.104848E-01  8.300340E+01 -2.149026E+00  4.739142E+00
      1415   4  1.917772E+02  4.779638E+01  3.203978E+00  9.623791E+01 -1.978356E+00  5.178172E+00
      1415   5  1.562129E+02  9.159218E+00 -3.497920E-02  6.744516E+01  2.689397E+00 -3.472634E+00
      1415   6  2.042888E+02  3.271271E+01  3.182852E+00  8.137007E+01  2.898087E+00 -3.180747E+00
      1415   7  1.601581E+02  1.020326E+01  1.541666E+00  6.809865E+01  1.965558E-01  2.949255E+00
      1415   8  2.082298E+02  3.360807E+01  4.725928E+00  8.191500E+01  4.488346E-01  3.247353E+00
      1416   1 -2.923047E+02 -6.893652E+01 -1.612120E+01 -9.315148E+01 -2.273654E+00 -3.181782E+00
      1416   2 -1.831296E+02 -1.315317E+01  9.187984E+00 -6.529268E+01 -2.007532E+00 -1.887359E+00
      1416   3 -2.866890E+02 -6.672232E+01 -1.383508E+01 -8.970128E+01 -6.001897E+00  5.317646E+00
      1416   4 -1.777464E+02 -1.138323E+01  1.128425E+01 -6.213768E+01 -5.637025E+00  6.636273E+00
      1416   5 -2.682912E+02 -9.397239E+01 -1.683263E+01 -1.155913E+02  1.766687E-01 -3.520186E+00
      1416   6 -1.602971E+02 -3.674514E+01  8.757613E+00 -8.653167E+01  5.041144E-01 -2.367415E+00
      1416   7 -2.627755E+02 -9.149855E+01 -1.443126E+01 -1.123022E+02 -3.524052E+00  4.895085E+00
      1416   8 -1.550046E+02 -3.472556E+01  1.097206E+01 -8.352912E+01 -3.099839E+00  6.076718E+00
      1417   1 -1.562257E+02 -5.002208E+01 -1.067249E+01 -2.879810E+01 -1.827399E+00 -1.267160E+00
      1417   2 -7.044568E+01 -7.267444E+00  5.971295E+00 -6.800039E+00 -1.781060E+00 -4.210428E-01
      1417   3 -1.505344E+02 -4.749196E+01 -8.243401E+00 -2.598214E+01 -5.045364E+00  6.466448E+00
      1417   4 -6.501349E+01 -5.141240E+00  8.213414E+00 -4.246040E+00 -4.924148E+00  7.326644E+00
      1417   5 -1.345987E+02 -7.073478E+01 -1.046152E+01 -4.856706E+01  7.586726E-01 -1.918304E+00
      1417   6 -4.977413E+01 -2.686197E+01  6.413895E+00 -2.560076E+01  8.526644E-01 -1.232694E+00
      1417   7 -1.289906E+02 -6.792253E+01 -7.906654E+00 -4.588137E+01 -2.437627E+00  5.747102E+00
      1417   8 -4.441745E+01 -2.446394E+01  8.783837E+00 -2.317065E+01 -2.270231E+00  6.450509E+00
      1418   1 -4.160745E+01 -2.715158E+01 -6.752454E+00  1.893955E+01 -1.132408E+00 -1.340407E+00
      1418   2  2.783347E+01  6.679514E+00  4.023030E+00  3.694024E+01 -1.215640E+00 -5.576574E-01
      1418   3 -3.633181E+01 -2.533216E+01 -4.639286E+00  2.129176E+01 -3.968027E+00  5.804937E+00
      1418   4  3.286276E+01  8.146697E+00  5.967599E+00  3.906672E+01 -3.992509E+00  6.595330E+00
      1418   5 -2.186698E+01 -4.500539E+01 -5.952557E+00  1.185146E+00  1.550336E+00 -2.305422E+00
      1418   6  4.678593E+01 -1.026509E+01  5.027617E+00  1.998736E+01  1.509018E+00 -1.691254E+00
      1418   7 -1.666552E+01 -4.291240E+01 -3.714088E+00  3.427320E+00 -1.267981E+00  4.783032E+00
      1418   8  5.174762E+01 -8.533456E+00  7.099361E+00  2.200876E+01 -1.251690E+00  5.407858E+00
      1419   1  5.744337E+01 -2.128860E+00 -4.063199E+00  5.533490E+01 -4.630242E-01 -1.835773E+00
      1419   2  1.150586E+02  2.534499E+01  2.500280E+00  7.052080E+01 -4.930697E-01 -1.167222E+00
      1419   3  6.262702E+01 -5.870544E-01 -2.041339E+00  5.713518E+01 -3.014898E+00  4.876567E+00
      1419   4  1.200655E+02  2.661167E+01  4.396928E+00  7.214051E+01 -2.996053E+00  5.549347E+00
      1419   5  7.566731E+01 -1.810308E+01 -2.884420E+00  3.913061E+01  2.301070E+00 -3.108376E+00
      1419   6  1.326233E+02  1.014351E+01  3.872010E+00  5.499504E+01  2.324622E+00 -2.601690E+00
      1419   7  8.078762E+01 -1.633026E+01 -7.465384E-01  4.082586E+01 -2.371511E-01  3.555610E+00
      1419   8  1.375726E+02  1.163451E+01  5.886852E+00  5.651408E+01 -1.656920E-01  4.069029E+00
      1420   1  1.447776E+02  2.411675E+01 -2.560137E+00  8.376698E+01  2.368382E-01 -2.259942E+00
      1420   2  1.934675E+02  4.680685E+01  6.138917E-01  9.691019E+01  3.605395E-01 -1.599716E+00
      1420   3  1.499554E+02  2.527989E+01 -6.357240E-01  8.506941E+01 -2.126067E+00  4.198985E+00
      1420   4  1.985527E+02  4.777472E+01  2.462039E+00  9.807685E+01 -1.959043E+00  4.862106E+00
      1420   5  1.617693E+02  9.366226E+00 -1.127328E+00  6.877667E+01  3.097522E+00 -3.816343E+00
      1420   6  2.099020E+02  3.273839E+01  2.238727E+00  8.250506E+01  3.294809E+00 -3.302096E+00
      1420   7  1.668927E+02  1.069916E+01  8.990204E-01  6.997199E+01  7.452715E-01  2.599730E+00
      1420   8  2.149378E+02  3.387231E+01  4.191566E+00  8.356880E+01  9.849424E-01  3.118997E+00
      1421   1 -2.814052E+02 -6.466502E+01 -1.116629E+01 -8.655917E+01 -1.407308E+00 -4.377268E+00
      1421   2 -1.745280E+02 -1.148832E+01  9.685829E+00 -5.925870E+01 -1.502357E+00 -2.524021E+00
      1421   3 -2.733968E+02 -6.208005E+01 -8.046117E+00 -8.143356E+01 -5.424596E+00  5.275513E+00
      1421   4 -1.671851E+02 -9.621582E+00  1.240601E+01 -5.455589E+01 -5.415314E+00  7.152106E+00
      1421   5 -2.575732E+02 -8.917495E+01 -1.165005E+01 -1.092542E+02  1.967301E+00 -4.310177E+00
      1421   6 -1.518458E+02 -3.456105E+01  9.520989E+00 -8.073925E+01  1.876557E+00 -2.638349E+00
      1421   7 -2.496929E+02 -8.612826E+01 -8.354213E+00 -1.042242E+02 -2.020627E+00  5.246419E+00
      1421   8 -1.446197E+02 -3.225288E+01  1.241767E+01 -7.612694E+01 -2.008928E+00  6.946802E+00
      1422   1 -1.479687E+02 -4.801408E+01 -1.112337E+01 -2.329736E+01 -8.731476E-01 -3.224895E+00
      1422   2 -6.258928E+01 -5.854282E+00  5.592991E+00 -1.797795E+00 -1.375860E+00 -1.572676E+00
      1422   3 -1.411835E+02 -4.651515E+01 -8.663958E+00 -1.878631E+01 -3.878488E+00  4.465169E+00
      1422   4 -5.648256E+01 -5.023537E+00  7.660234E+00  2.329811E+00 -4.314574E+00  6.125174E+00
      1422   5 -1.264790E+02 -6.814359E+01 -1.062799E+01 -4.326644E+01  2.526981E+00 -3.526772E+00
      1422   6 -4.204414E+01 -2.489012E+01  6.315589E+00 -2.078884E+01  2.000190E+00 -2.086596E+00
      1422   7 -1.198143E+02 -6.616078E+01 -7.994723E+00 -3.881540E+01 -4.585798E-01  4.093697E+00
      1422   8 -3.604865E+01 -2.359577E+01  8.556242E+00 -1.671834E+01 -9.198142E-01  5.545317E+00
      1423   1 -3.393003E+01 -2.612851E+01 -7.177914E+00  2.349811E+01 -6.611029E-01 -2.936516E+00
      1423   2  3.493572E+01  6.985690E+00  3.162034E+00  4.107673E+01 -1.160462E+00 -1.446749E+00
      1423   3 -2.789729E+01 -2.538581E+01 -5.150523E+00  2.716724E+01 -3.367133E+00  4.299893E+00
      1423   4  4.042306E+01  7.191330E+00  4.875811E+00  4.443579E+01 -3.813065E+00  5.793000E+00
      1423   5 -1.431380E+01 -4.343771E+01 -6.109769E+00  5.573524E+00  2.713971E+00 -3.628793E+00
      1423   6  5.377506E+01 -9.433389E+00  4.435598E+00  2.396135E+01  2.200810E+00 -2.345842E+00
      1423   7 -8.387389E+00 -4.227240E+01 -3.921905E+00  9.188786E+00  2.409610E-02  3.548209E+00
      1423   8  5.916414E+01 -8.820960E+00  6.310171E+00  2.726898E+01 -4.364894E-01  4.837502E+00
      1424   1  6.474644E+01 -1.696687E+00 -4.889366E+00  5.886385E+01 -3.917525E-01 -2.989865E+00
      1424   2  1.218771E+02  2.515609E+01  1.205855E+00  7.371174E+01 -8.179918E-01 -1.686822E+00
      1424   3  7.032949E+01 -1.301409E+00 -3.081971E+00  6.178103E+01 -2.841472E+00  3.835068E+00
      1424   4  1.270404E+02  2.512611E+01  2.770232E+00  7.637988E+01 -3.223663E+00  5.138478E+00
      1424   5  8.286463E+01 -1.720863E+01 -3.463816E+00  4.249554E+01  2.966700E+00 -4.049341E+00
      1424   6  1.393454E+02  1.040239E+01  2.825494E+00  5.802878E+01  2.542717E+00 -2.944089E+00
      1424   7  8.835570E+01 -1.645246E+01 -1.509588E+00  4.535696E+01  5.298614E-01  2.724966E+00
      1424   8  1.444236E+02  1.072122E+01  4.537654E+00  6.064348E+01  1.492075E-01  3.833079E+00
      1425   1  1.521687E+02  2.417797E+01 -3.381977E+00  8.630296E+01 -9.280790E-02 -2.973770E+00
      1425   2  2.010586E+02  4.691271E+01  6.094492E-01  9.919441E+01 -2.201731E-01 -1.942088E+00
      1425   3  1.579230E+02  2.488457E+01 -1.410508E+00  8.836694E+01 -2.231657E+00  3.277602E+00
      1425   4  2.065604E+02  4.732566E+01  2.427159E+00  1.010776E+02 -2.319949E+00  4.309018E+00
      1425   5  1.690701E+02  9.766676E+00 -1.737143E+00  7.113973E+01  3.276945E+00 -4.372315E+00
      1425   6  2.174093E+02  3.317321E+01  2.444952E+00  8.462311E+01  3.189036E+00 -3.511050E+00
      1425   7  1.747473E+02  1.073264E+01  3.534348E-01  7.313127E+01  1.147385E+00  1.835836E+00
      1425   8  2.228398E+02  3.383818E+01  4.383572E+00  8.643665E+01  1.097808E+00  2.698919E+00
      1426   1 -2.825802E+02 -9.305745E+01 -2.496246E+01 -1.178580E+02  9.963708E-01 -2.773480E+00
      1426   2 -1.776281E+02 -2.934853E+01  6.163745E+00 -8.565395E+01  9.483040E-01 -2.516788E+00
      1426   3 -2.829385E+02 -9.228034E+01 -2.491932E+01 -1.169082E+02 -2.940765E+00  3.545462E+00
      1426   4 -1.777590E+02 -2.876284E+01  6.228973E+00 -8.483381E+01 -2.891551E+00  3.840236E+00
      1426   5 -2.557659E+02 -1.216720E+02 -2.632711E+01 -1.347302E+02  1.684795E+00 -3.584057E+00
      1426   6 -1.521706E+02 -5.635360E+01  5.054714E+00 -1.016233E+02  1.728765E+00 -3.459922E+00
      1426   7 -2.561115E+02 -1.208358E+02 -2.621111E+01 -1.340092E+02 -2.212003E+00  2.660403E+00
      1426   8 -1.522866E+02 -5.570917E+01  5.195599E+00 -1.010196E+02 -2.073281E+00  2.827077E+00
      1427   1 -1.590614E+02 -5.988085E+01 -1.182697E+01 -4.325168E+01  8.721674E-01 -2.280120E+00
      1427   2 -7.750739E+01 -1.184158E+01  7.179345E+00 -1.775759E+01  8.440399E-01 -2.108799E+00
      1427   3 -1.587779E+02 -5.934566E+01 -1.164471E+01 -4.264106E+01 -2.973402E+00  4.232926E+00
      1427   4 -7.703985E+01 -1.145196E+01  7.384813E+00 -1.725003E+01 -2.917456E+00  4.435628E+00
      1427   5 -1.348993E+02 -8.368409E+01 -1.223001E+01 -5.824737E+01  1.757656E+00 -3.373557E+00
      1427   6 -5.443602E+01 -3.438646E+01  7.011943E+00 -3.201882E+01  1.820681E+00 -3.332384E+00
      1427   7 -1.346007E+02 -8.309302E+01 -1.197017E+01 -5.783491E+01 -2.050986E+00  3.071034E+00
      1427   8 -5.395113E+01 -3.394075E+01  7.297982E+00 -3.169968E+01 -1.906090E+00  3.147460E+00
      1428   1 -5.410647E+01 -2.650715E+01 -4.616012E+00  1.206445E+01  8.373097E-01 -2.020175E+00
      1428   2  1.135755E+01  1.108611E+01  6.787090E+00  3.295963E+01  8.145186E-01 -1.889592E+00
      1428   3 -5.338544E+01 -2.620354E+01 -4.351326E+00  1.243377E+01 -2.799361E+00  4.421435E+00
      1428   4  1.223129E+01  1.127328E+01  7.074157E+00  3.324414E+01 -2.750795E+00  4.576827E+00
      1428   5 -3.204269E+01 -4.710007E+01 -4.365657E+00 -1.470654E+00  1.903240E+00 -3.377017E+00
      1428   6  3.252580E+01 -8.476578E+00  7.260880E+00  2.003554E+01  1.971122E+00 -3.375885E+00
      1428   7 -3.130426E+01 -4.674223E+01 -4.020350E+00 -1.277612E+00 -1.700709E+00  3.003602E+00
      1428   8  3.341896E+01 -8.234805E+00  7.631518E+00  2.015173E+01 -1.563357E+00  3.032847E+00
      1429   1  3.714562E+01  6.347297E+00 -9.081884E-01  5.443046E+01  8.435000E-01 -1.873122E+00
      1429   2  9.116079E+01  3.674172E+01  5.651213E+00  7.205102E+01  8.229123E-01 -1.749925E+00
      1429   3  3.817110E+01  6.416806E+00 -6.014986E-01  5.462086E+01 -2.533309E+00  4.354268E+00
      1429   4  9.231694E+01  3.671519E+01  5.979382E+00  7.217021E+01 -2.493950E+00  4.496324E+00
      1429   5  5.751291E+01 -1.207290E+01 -2.013748E-01  4.206011E+01  2.078132E+00 -3.481180E+00
      1429   6  1.107799E+02  1.919742E+01  6.572429E+00  6.019866E+01  2.148343E+00 -3.487254E+00
      1429   7  5.855750E+01 -1.195149E+01  1.871864E-01  4.209021E+01 -1.270467E+00  2.693186E+00
      1429   8  1.119571E+02  1.922335E+01  6.985344E+00  6.016428E+01 -1.141912E+00  2.708760E+00
      1430   1  1.179101E+02  3.829798E+01  7.672861E-01  8.783180E+01  8.779852E-01 -1.771574E+00
      1430   2  1.635568E+02  6.360707E+01  4.272705E+00  1.030406E+02  8.706913E-01 -1.655081E+00
      1430   3  1.192006E+02  3.820932E+01  1.126578E+00  8.786588E+01 -2.215598E+00  4.154097E+00
      1430   4  1.649645E+02  6.343944E+01  4.653886E+00  1.030150E+02 -2.172983E+00  4.284219E+00
      1430   5  1.368810E+02  2.136376E+01  1.800892E+00  7.640949E+01  2.273607E+00 -3.622216E+00
      1430   6  1.818921E+02  4.743896E+01  5.511038E+00  9.206419E+01  2.358457E+00 -3.634153E+00
      1430   7  1.381921E+02  2.132185E+01  2.241226E+00  7.629495E+01 -7.964595E-01  2.258663E+00
      1430   8  1.833221E+02  4.731879E+01  5.976031E+00  9.189577E+01 -6.630564E-01  2.262685E+00
      1431   1 -2.821827E+02 -9.106244E+01 -2.361766E+01 -1.159248E+02 -4.751155E-01 -2.952078E+00
      1431   2 -1.772377E+02 -2.807117E+01  6.691263E+00 -8.395892E+01 -3.962874E-01 -2.349186E+00
      1431   3 -2.809768E+02 -8.973398E+01 -2.293434E+01 -1.141923E+02 -4.425024E+00  3.644474E+00
      1431   4 -1.759230E+02 -2.701183E+01  7.338295E+00 -8.239320E+01 -4.247519E+00  4.285060E+00
      1431   5 -2.553568E+02 -1.195609E+02 -2.485716E+01 -1.331877E+02  7.177747E-01 -3.561201E+00
      1431   6 -1.517613E+02 -5.495854E+01  5.719055E+00 -1.002981E+02  8.807607E-01 -3.084544E+00
      1431   7 -2.541621E+02 -1.181314E+02 -2.409412E+01 -1.316691E+02 -3.192832E+00  2.956968E+00
      1431   8 -1.504542E+02 -5.380057E+01  6.448452E+00 -9.893478E+01 -2.933688E+00  3.475859E+00
      1432   1 -1.581329E+02 -5.878411E+01 -1.156213E+01 -4.195633E+01 -4.982159E-01 -1.700226E+00
      1432   2 -7.654154E+01 -1.126735E+01  6.890520E+00 -1.665188E+01 -4.073709E-01 -1.321347E+00
      1432   3 -1.562890E+02 -5.742361E+01 -1.065743E+01 -4.070000E+01 -4.317789E+00  5.025672E+00
      1432   4 -7.460681E+01 -1.011533E+01  7.771934E+00 -1.552886E+01 -4.142369E+00  5.435175E+00
      1432   5 -1.339483E+02 -8.247272E+01 -1.182062E+01 -5.729090E+01  8.802860E-01 -2.584729E+00
      1432   6 -5.344173E+01 -3.369618E+01  6.876924E+00 -3.123537E+01  1.056815E+00 -2.331013E+00
      1432   7 -1.321078E+02 -8.101606E+01 -1.083076E+01 -5.622078E+01 -2.903809E+00  4.069961E+00
      1432   8 -5.150734E+01 -3.244981E+01  7.846214E+00 -3.028949E+01 -2.644883E+00  4.358219E+00
      1433   1 -5.282502E+01 -2.616608E+01 -5.081092E+00  1.291382E+01 -2.024557E-01 -1.344884E+00
      1433   2  1.278005E+01  1.111096E+01  6.125168E+00  3.365261E+01 -1.275831E-01 -1.067964E+00
      1433   3 -5.063218E+01 -2.498785E+01 -4.104950E+00  1.385273E+01 -3.765257E+00  5.218080E+00
      1433   4  1.504751E+01  1.211913E+01  7.084405E+00  3.448090E+01 -3.619504E+00  5.518671E+00
      1433   5 -3.073148E+01 -4.664548E+01 -4.675299E+00 -9.228376E-01  1.346342E+00 -2.483192E+00
      1433   6  3.398206E+01 -8.337982E+00  6.759892E+00  2.044058E+01  1.507337E+00 -2.332205E+00
      1433   7 -2.853755E+01 -4.537485E+01 -3.611590E+00 -1.498046E-01 -2.185640E+00  4.017177E+00
      1433   8  3.625344E+01 -7.238729E+00  7.809395E+00  2.111048E+01 -1.955608E+00  4.195142E+00
      1434   1  3.876266E+01  6.097246E+00 -1.657691E+00  5.495452E+01  2.155551E-01 -1.396002E+00
      1434   2  9.294812E+01  3.627701E+01  4.852573E+00  7.244383E+01  2.773692E-01 -1.124952E+00
      1434   3  4.112109E+01  6.919363E+00 -7.175633E-01  5.567260E+01 -3.070901E+00  4.912399E+00
      1434   4  9.537118E+01  3.695822E+01  5.781037E+00  7.306918E+01 -2.949819E+00  5.201265E+00
      1434   5  5.916306E+01 -1.221508E+01 -7.934995E-01  4.231005E+01  1.923042E+00 -2.775573E+00
      1434   6  1.126036E+02  1.884076E+01  5.935416E+00  6.032886E+01  2.071799E+00 -2.630550E+00
      1434   7  6.152494E+01 -1.130772E+01  2.338662E-01  4.287759E+01 -1.337182E+00  3.478470E+00
      1434   8  1.150327E+02  1.960635E+01  6.953784E+00  6.080998E+01 -1.130719E+00  3.644084E+00
      1435   1  1.198649E+02  3.764234E+01 -1.143499E-01  8.806831E+01  7.009935E-01 -1.589378E+00
      1435   2  1.655812E+02  6.268760E+01  3.152208E+00  1.031678E+02  7.834466E-01 -1.310607E+00
      1435   3  1.223892E+02  3.817898E+01  8.100833E-01  8.858428E+01 -2.333203E+00  4.462339E+00
      1435   4  1.681713E+02  6.311157E+01  4.073243E+00  1.036079E+02 -2.200799E+00  4.754328E+00
      1435   5  1.388716E+02  2.080381E+01  1.074200E+00  7.639180E+01  2.560168E+00 -3.199567E+00
      1435   6  1.839562E+02  4.661681E+01  4.551989E+00  9.194710E+01  2.732940E+00 -3.044272E+00
      1435   7  1.414016E+02  2.141198E+01  2.083240E+00  7.676800E+01 -4.521445E-01  2.805331E+00
      1435   8  1.865543E+02  4.711210E+01  5.560331E+00  9.225289E+01 -2.307638E-01  2.976171E+00
      1436   1 -2.787248E+02 -8.780629E+01 -2.044163E+01 -1.126051E+02 -1.672569E+00 -3.200574E+00
      1436   2 -1.744474E+02 -2.612024E+01  7.899206E+00 -8.094382E+01 -1.482991E+00 -2.221539E+00
      1436   3 -2.758244E+02 -8.591964E+01 -1.907850E+01 -1.100063E+02 -5.774242E+00  3.938211E+00
      1436   4 -1.715746E+02 -2.459249E+01  9.159254E+00 -7.855455E+01 -5.481059E+00  4.956246E+00
      1436   5 -2.519338E+02 -1.161168E+02 -2.155379E+01 -1.302320E+02  7.516579E-02 -3.578991E+00
      1436   6 -1.489912E+02 -5.281683E+01  7.077531E+00 -9.762752E+01  3.394653E-01 -2.721545E+00
      1436   7 -2.490690E+02 -1.140758E+02 -2.009870E+01 -1.278296E+02 -3.986667E+00  3.474215E+00
      1436   8 -1.461489E+02 -5.113971E+01  8.432052E+00 -9.542404E+01 -3.621353E+00  4.375454E+00
      1437   1 -1.548433E+02 -5.660952E+01 -1.089966E+01 -3.951010E+01 -1.539796E+00 -1.319990E+00
      1437   2 -7.355693E+01 -9.903037E+00  6.512297E+00 -1.445076E+01 -1.380515E+00 -7.346433E-01
      1437   3 -1.513542E+02 -5.436703E+01 -9.230158E+00 -3.751959E+01 -5.380946E+00  5.722960E+00
      1437   4 -7.009369E+01 -7.949552E+00  8.099984E+00 -1.263215E+01 -5.135646E+00  6.338442E+00
      1437   5 -1.306658E+02 -8.010500E+01 -1.099222E+01 -5.516189E+01  3.776839E-01 -1.967932E+00
      1437   6 -5.045478E+01 -3.213906E+01  6.678033E+00 -2.933600E+01  6.136115E-01 -1.507345E+00
      1437   7 -1.271990E+02 -7.770937E+01 -9.224169E+00 -5.334291E+01 -3.428820E+00  4.999863E+00
      1437   8 -4.700975E+01 -3.003690E+01  8.366586E+00 -2.768053E+01 -3.109040E+00  5.494621E+00
      1438   1 -4.961702E+01 -2.494175E+01 -5.754499E+00  1.478833E+01 -9.113711E-01 -1.054199E+00
      1438   2  1.596633E+01  1.190096E+01  5.140288E+00  3.532253E+01 -8.167596E-01 -6.145781E-01
      1438   3 -4.597509E+01 -2.293680E+01 -4.087463E+00  1.640209E+01 -4.399280E+00  5.642977E+00
      1438   4  1.957823E+01  1.366198E+01  6.737148E+00  3.679033E+01 -4.234521E+00  6.104740E+00
      1438   5 -2.751680E+01 -4.522879E+01 -5.166279E+00  6.692848E-01  1.158411E+00 -1.952884E+00
      1438   6  3.718085E+01 -7.358200E+00  5.963474E+00  2.184084E+01  1.329285E+00 -1.642363E+00
      1438   7 -2.389092E+01 -4.307343E+01 -3.398900E+00  2.130744E+00 -2.300371E+00  4.679871E+00
      1438   8  4.078026E+01 -5.450719E+00  7.662862E+00  2.316321E+01 -2.061128E+00  5.015870E+00
      1439   1  4.205373E+01  6.504999E+00 -2.770289E+00  5.641981E+01 -1.729355E-01 -1.355656E+00
      1439   2  9.633483E+01  3.643384E+01  3.738581E+00  7.373819E+01 -8.985466E-02 -9.205983E-01
      1439   3  4.570822E+01  8.012139E+00 -1.227240E+00  5.773996E+01 -3.348795E+00  5.007838E+00
      1439   4  9.996919E+01  3.774123E+01  5.227022E+00  7.493758E+01 -3.207601E+00  5.459230E+00
      1439   5  6.246573E+01 -1.163042E+01 -1.723922E+00  4.351906E+01  2.036443E+00 -2.496164E+00
      1439   6  1.160063E+02  1.917188E+01  5.007188E+00  6.137766E+01  2.198502E+00 -2.189118E+00
      1439   7  6.610690E+01 -9.990345E+00 -8.447719E-02  4.470096E+01 -1.115136E+00  3.811766E+00
      1439   8  1.196305E+02  2.060932E+01  6.594302E+00  6.244458E+01 -8.964589E-01  4.137913E+00
      1440   1  1.233898E+02  3.748377E+01 -1.335536E+00  8.915290E+01  6.109785E-01 -1.722177E+00
      1440   2  1.690714E+02  6.219292E+01  1.619594E+00  1.041140E+02  7.545982E-01 -1.263833E+00
      1440   3  1.271324E+02  3.857809E+01  1.298584E-01  9.018729E+01 -2.361815E+00  4.463668E+00
      1440   4  1.728189E+02  6.313459E+01  3.051659E+00  1.050535E+02 -2.168152E+00  4.934752E+00
      1440   5  1.424121E+02  2.079230E+01  2.904568E-02  7.723816E+01  2.956900E+00 -3.090725E+00
      1440   6  1.874678E+02  4.626984E+01  3.203390E+00  9.266437E+01  3.186902E+00 -2.753308E+00
      1440   7  1.461442E+02  2.198929E+01  1.584301E+00  7.814344E+01  4.531105E-03  3.045968E+00
      1440   8  1.912079E+02  4.731283E+01  4.727893E+00  9.347983E+01  2.832515E-01  3.398468E+00
      1441   1 -2.720636E+02 -8.335656E+01 -1.571654E+01 -1.077365E+02 -2.321359E+00 -3.535743E+00
      1441   2 -1.692839E+02 -2.372203E+01  9.173382E+00 -7.645727E+01 -2.025855E+00 -2.182249E+00
      1441   3 -2.670892E+02 -8.064634E+01 -1.348117E+01 -1.041402E+02 -6.745305E+00  4.496771E+00
      1441   4 -1.645003E+02 -2.147927E+01  1.122592E+01 -7.312212E+01 -6.336998E+00  5.892539E+00
      1441   5 -2.453513E+02 -1.113823E+02 -1.668166E+01 -1.256959E+02  7.699781E-02 -3.616827E+00
      1441   6 -1.438826E+02 -5.012951E+01  8.536237E+00 -9.345550E+01  4.362773E-01 -2.381481E+00
      1441   7 -2.404352E+02 -1.084466E+02 -1.433376E+01 -1.222747E+02 -4.304873E+00  4.318922E+00
      1441   8 -1.391507E+02 -4.766983E+01  1.070346E+01 -9.028614E+01 -3.835546E+00  5.601790E+00
      1442   1 -1.493774E+02 -5.360500E+01 -1.045145E+01 -3.568334E+01 -1.821643E+00 -1.533073E+00
      1442   2 -6.857640E+01 -7.820736E+00  5.916918E+00 -1.094567E+01 -1.776794E+00 -6.719123E-01
      1442   3 -1.443038E+02 -5.060993E+01 -8.073049E+00 -3.266168E+01 -5.655570E+00  5.806309E+00
      1442   4 -6.371734E+01 -5.251430E+00  8.116453E+00 -8.160923E+00 -5.524663E+00  6.695742E+00
      1442   5 -1.252340E+02 -7.678396E+01 -1.033462E+01 -5.162433E+01  7.208249E-01 -1.878900E+00
      1442   6 -4.549731E+01 -2.974645E+01  6.303592E+00 -2.610597E+01  8.199116E-01 -1.158013E+00
      1442   7 -1.202028E+02 -7.352872E+01 -7.829963E+00 -4.875233E+01 -3.079247E+00  5.381427E+00
      1442   8 -4.067546E+01 -2.692657E+01  8.630575E+00 -2.346358E+01 -2.896177E+00  6.134756E+00
      1443   1 -4.460389E+01 -2.306218E+01 -6.657121E+00  1.795280E+01 -1.027054E+00 -1.513877E+00
      1443   2  2.079929E+01  1.324751E+01  3.934841E+00  3.821195E+01 -1.131014E+00 -7.378116E-01
      1443   3 -3.988943E+01 -2.080602E+01 -4.583981E+00  2.057157E+01 -4.416522E+00  5.292560E+00
      1443   4  2.530717E+01  1.513176E+01  5.846607E+00  4.062434E+01 -4.452761E+00  6.087780E+00
      1443   5 -2.252259E+01 -4.303304E+01 -5.846373E+00  3.578006E+00  1.623906E+00 -2.132198E+00
      1443   6  4.200155E+01 -5.703918E+00  4.984106E+00  2.448607E+01  1.569920E+00 -1.506001E+00
      1443   7 -1.784533E+01 -4.051998E+01 -3.647153E+00  6.066729E+00 -1.737883E+00  4.607901E+00
      1443   8  4.647688E+01 -3.571401E+00  7.023025E+00  2.677432E+01 -1.725771E+00  5.256622E+00
      1444   1  4.700863E+01  7.497924E+00 -4.052619E+00  5.899250E+01 -2.602848E-01 -1.926459E+00
      1444   2  1.012312E+02  3.707007E+01  2.390596E+00  7.608595E+01 -3.006968E-01 -1.257158E+00
      1444   3  5.172785E+01  9.401956E+00 -2.062013E+00  6.109094E+01 -3.318748E+00  4.488491E+00
      1444   4  1.058042E+02  3.868398E+01  4.261814E+00  7.802082E+01 -3.303131E+00  5.171730E+00
      1444   5  6.740763E+01 -1.036129E+01 -2.793632E+00  4.585869E+01  2.484158E+00 -2.814567E+00
      1444   6  1.208950E+02  2.007755E+01  3.874206E+00  6.350211E+01  2.504264E+00 -2.287504E+00
      1444   7  7.209594E+01 -8.244016E+00 -6.881958E-01  4.783656E+01 -5.516838E-01  3.543595E+00
      1444   8  1.254411E+02  2.189844E+01  5.861729E+00  6.532143E+01 -4.769203E-01  4.087371E+00
      1445   1  1.285691E+02  3.780940E+01 -2.601061E+00  9.116299E+01  5.427944E-01 -2.257069E+00
      1445   2  1.743250E+02  6.232938E+01  5.026583E-01  1.059506E+02  6.812154E-01 -1.570099E+00
      1445   3  1.333898E+02  3.924950E+01 -6.992299E-01  9.279099E+01 -2.295324E+00  3.932950E+00
      1445   4  1.790723E+02  6.356437E+01  2.332141E+00  1.074590E+02 -2.107949E+00  4.631381E+00
      1445   5  1.475826E+02  2.132763E+01 -1.041265E+00  7.902959E+01  3.392902E+00 -3.390920E+00
      1445   6  1.927181E+02  4.661292E+01  2.285817E+00  9.429090E+01  3.608936E+00 -2.827821E+00
      1445   7  1.523754E+02  2.291440E+01  9.575800E-01  8.054216E+01  5.734145E-01  2.748459E+00
      1445   8  1.974411E+02  4.799141E+01  4.214531E+00  9.568834E+01  8.371439E-01  3.325344E+00
      1446   1 -2.624321E+02 -7.809064E+01 -1.085024E+01 -1.008254E+02 -1.210000E+00 -4.559049E+00
      1446   2 -1.618373E+02 -2.108416E+01  9.657768E+00 -7.004991E+01 -1.340286E+00 -2.700413E+00
      1446   3 -2.555026E+02 -7.465067E+01 -7.805543E+00 -9.537269E+01 -6.022971E+00  4.579067E+00
      1446   4 -1.554914E+02 -1.840525E+01  1.231580E+01 -6.499784E+01 -6.032193E+00  6.480570E+00
      1446   5 -2.358298E+02 -1.056438E+02 -1.159639E+01 -1.190741E+02  2.054443E+00 -4.158158E+00
      1446   6 -1.365166E+02 -4.702070E+01  9.283005E+00 -8.732199E+01  1.937475E+00 -2.462579E+00
      1446   7 -2.289813E+02 -1.017521E+02 -8.370562E+00 -1.137576E+02 -2.712632E+00  4.869487E+00
      1446   8 -1.302433E+02 -4.391029E+01  1.212167E+01 -8.239884E+01 -2.711301E+00  6.613858E+00
      1447   1 -1.423038E+02 -5.061554E+01 -1.090748E+01 -2.975722E+01 -6.173835E-01 -3.325336E+00
      1447   2 -6.181799E+01 -5.476400E+00  5.537304E+00 -5.479082E+00 -1.218538E+00 -1.737129E+00
      1447   3 -1.365464E+02 -4.827234E+01 -8.509217E+00 -2.485006E+01 -4.249104E+00  3.987082E+00
      1447   4 -5.665812E+01 -3.843014E+00  7.556523E+00 -9.424582E-01 -4.771301E+00  5.596604E+00
      1447   5 -1.182238E+02 -7.323839E+01 -1.049894E+01 -4.594196E+01  2.690531E+00 -3.253206E+00
      1447   6 -3.879545E+01 -2.686948E+01  6.210174E+00 -2.087121E+01  2.080002E+00 -1.864231E+00
      1447   7 -1.125408E+02 -7.040674E+01 -7.916682E+00 -4.114160E+01 -9.090694E-01  3.978684E+00
      1447   8 -3.370323E+01 -2.476840E+01  8.411651E+00 -1.643612E+01 -1.442324E+00  5.393151E+00
      1448   1 -3.798176E+01 -2.114614E+01 -7.085480E+00  2.303073E+01 -3.936691E-01 -3.022741E+00
      1448   2  2.692315E+01  1.440623E+01  3.081732E+00  4.289810E+01 -9.885771E-01 -1.597428E+00
      1448   3 -3.281695E+01 -1.967444E+01 -5.103517E+00  2.712527E+01 -3.671673E+00  3.882274E+00
      1448   4  3.160773E+01  1.530751E+01  4.760827E+00  4.669305E+01 -4.203193E+00  5.322084E+00
      1448   5 -1.595767E+01 -4.059216E+01 -5.998504E+00  8.443568E+00  2.912932E+00 -3.310669E+00
      1448   6  4.807632E+01 -4.038523E+00  4.407485E+00  2.896949E+01  2.318260E+00 -2.079085E+00
      1448   7 -1.085903E+01 -3.869437E+01 -3.848338E+00  1.244367E+01 -3.382620E-01  3.525333E+00
      1448   8  5.270056E+01 -2.727530E+00  6.253953E+00  3.267423E+01 -8.708851E-01  4.774819E+00
      1449   1  5.344035E+01  8.676695E+00 -4.871148E+00  6.308750E+01 -9.976411E-02 -3.055052E+00
      1449   2  1.072373E+02  3.759624E+01  1.111600E+00  7.986976E+01 -6.074875E-01 -1.806377E+00
      1449   3  5.830374E+01  9.686313E+00 -3.096903E+00  6.643954E+01 -3.074372E+00  3.478077E+00
      1449   4  1.117317E+02  3.815433E+01  2.651325E+00  8.298252E+01 -3.529966E+00  4.736542E+00
      1449   5  7.379332E+01 -8.742107E+00 -3.359245E+00  4.975615E+01  3.211626E+00 -3.681263E+00
      1449   6  1.268621E+02  2.103076E+01  2.849377E+00  6.709663E+01  2.718741E+00 -2.615986E+00
      1449   7  7.859963E+01 -7.372038E+00 -1.433423E+00  5.301886E+01  2.591556E-01  2.792638E+00
      1449   8  1.313045E+02  2.193696E+01  4.540687E+00  7.012382E+01 -1.827230E-01  3.870520E+00
      1450   1  1.352988E+02  3.843612E+01 -3.409606E+00  9.429745E+01  2.314208E-01 -3.008155E+00
      1450   2  1.812886E+02  6.297649E+01  5.085590E-01  1.088595E+02  7.385049E-02 -1.985159E+00
      1450   3  1.405167E+02  3.959093E+01 -1.464168E+00  9.678221E+01 -2.375463E+00  2.992763E+00
      1450   4  1.862866E+02  6.382025E+01  2.305775E+00  1.111748E+02 -2.488046E+00  4.023575E+00
      1450   5  1.542720E+02  2.226135E+01 -1.636984E+00  8.197206E+01  3.571589E+00 -3.943294E+00
      1450   6  1.996451E+02  4.755721E+01  2.501360E+00  9.701531E+01  3.461383E+00 -3.072031E+00
      1450   7  1.594414E+02  2.366475E+01  4.271790E-01  8.436333E+01  9.818319E-01  2.006875E+00
      1450   8  2.045989E+02  4.864233E+01  4.418416E+00  9.924078E+01  9.155591E-01  2.888257E+00
      1451   1 -2.583759E+02 -1.101237E+02 -2.432630E+01 -1.286397E+02  1.172120E+00 -2.707286E+00
      1451   2 -1.605723E+02 -4.235740E+01  6.192109E+00 -9.422472E+01  1.120199E+00 -2.458526E+00
      1451   3 -2.588213E+02 -1.092861E+02 -2.429293E+01 -1.278431E+02 -3.239689E+00  3.157458E+00
      1451   4 -1.607877E+02 -4.170561E+01  6.250874E+00 -9.351302E+01 -3.186478E+00  3.460999E+00
      1451   5 -2.299216E+02 -1.406337E+02 -2.588924E+01 -1.407166E+02  1.861986E+00 -3.383429E+00
      1451   6 -1.335515E+02 -7.114550E+01  4.920506E+00 -1.056553E+02  1.904553E+00 -3.246393E+00
      1451   7 -2.303134E+02 -1.397824E+02 -2.578839E+01 -1.401324E+02 -2.496822E+00  2.399812E+00
      1451   8 -1.337136E+02 -7.047808E+01  5.049115E+00 -1.051445E+02 -2.352336E+00  2.596385E+00
      1452   1 -1.495875E+02 -6.523313E+01 -1.153869E+01 -4.914926E+01  1.038490E+00 -2.235195E+00
      1452   2 -7.360141E+01 -1.397213E+01  7.093151E+00 -2.185604E+01  1.009304E+00 -2.070143E+00
      1452   3 -1.493902E+02 -6.463890E+01 -1.136487E+01 -4.859074E+01 -3.277046E+00  3.843127E+00
      1452   4 -7.321743E+01 -1.351893E+01  7.293151E+00 -2.136543E+01 -3.215475E+00  4.054108E+00
      1452   5 -1.238294E+02 -9.059071E+01 -1.200734E+01 -6.003351E+01  1.930875E+00 -3.150061E+00
      1452   6 -4.899971E+01 -3.798280E+01  6.892656E+00 -3.220727E+01  1.995276E+00 -3.094748E+00
      1452   7 -1.235814E+02 -8.997926E+01 -1.176160E+01 -5.965922E+01 -2.335912E+00  2.853063E+00
      1452   8 -4.856493E+01 -3.751063E+01  7.167075E+00 -3.189187E+01 -2.183541E+00  2.958420E+00
      1453   1 -5.550864E+01 -2.356447E+01 -4.533093E+00  1.002511E+01  1.004662E+00 -1.986531E+00
      1453   2  5.440818E+00  1.668161E+01  6.636756E+00  3.241594E+01  9.817499E-01 -1.862043E+00
      1453   3 -5.487146E+01 -2.319949E+01 -4.274045E+00  1.041674E+01 -3.082462E+00  4.052210E+00
      1453   4  6.233268E+00  1.693395E+01  6.920947E+00  3.275144E+01 -3.028459E+00  4.213989E+00
      1453   5 -3.192536E+01 -4.548226E+01 -4.258055E+00  1.276248E-01  2.082441E+00 -3.124166E+00
      1453   6  2.807387E+01 -4.132241E+00  7.166385E+00  2.296529E+01  2.152669E+00 -3.108941E+00
      1453   7 -3.123939E+01 -4.509736E+01 -3.924454E+00  3.551514E-01 -1.961244E+00  2.847282E+00
      1453   8  2.891538E+01 -3.858417E+00  7.527595E+00  2.314407E+01 -1.816480E+00  2.903297E+00
      1454   1  2.743550E+01  1.533037E+01 -9.467169E-01  5.552081E+01  1.016572E+00 -1.845970E+00
      1454   2  7.766491E+01  4.797405E+01  5.464658E+00  7.440691E+01  9.961948E-01 -1.728547E+00
      1454   3  2.838133E+01  1.546452E+01 -6.420556E-01  5.579082E+01 -2.784622E+00  4.015615E+00
      1454   4  7.874333E+01  4.801539E+01  5.793123E+00  7.462982E+01 -2.740531E+00  4.162532E+00
      1454   5  4.923123E+01 -4.256936E+00 -1.514260E-01  4.645307E+01  2.267666E+00 -3.196553E+00
      1454   6  9.866686E+01  2.932572E+01  6.504018E+00  6.571882E+01  2.340477E+00 -3.188233E+00
      1454   7  5.022419E+01 -4.102478E+00  2.285154E-01  4.657392E+01 -1.495807E+00  2.606213E+00
      1454   8  9.979284E+01  2.938891E+01  6.910179E+00  6.579882E+01 -1.360539E+00  2.646967E+00
      1455   1  1.016553E+02  5.179403E+01  6.543373E-01  9.151789E+01  1.059569E+00 -1.746738E+00
      1455   2  1.440368E+02  7.905413E+01  4.059788E+00  1.078134E+02  1.053880E+00 -1.633870E+00
      1455   3  1.028731E+02  5.176835E+01  1.014427E+00  9.167587E+01 -2.429341E+00  3.852557E+00
      1455   4  1.453731E+02  7.895252E+01  4.443804E+00  1.079325E+02 -2.381532E+00  3.988055E+00
      1455   5  1.219580E+02  3.380198E+01  1.822128E+00  8.315685E+01  2.475825E+00 -3.303138E+00
      1455   6  1.636665E+02  6.188404E+01  5.460861E+00  9.977882E+01  2.564492E+00 -3.298404E+00
      1455   7  1.232218E+02  3.379330E+01  2.256205E+00  8.317697E+01 -9.813172E-01  2.246111E+00
      1455   8  1.650492E+02  6.180101E+01  5.921215E+00  9.976544E+01 -8.408391E-01  2.275915E+00
      1456   1 -2.581897E+02 -1.079816E+02 -2.301026E+01 -1.269507E+02 -3.945514E-01 -3.085971E+00
      1456   2 -1.603805E+02 -4.092012E+01  6.709413E+00 -9.269730E+01 -3.119003E-01 -2.464392E+00
      1456   3 -2.572260E+02 -1.064679E+02 -2.234692E+01 -1.253130E+02 -4.849381E+00  3.045640E+00
      1456   4 -1.592978E+02 -3.967644E+01  7.340058E+00 -9.118423E+01 -4.659551E+00  3.722042E+00
      1456   5 -2.296559E+02 -1.384553E+02 -2.446284E+01 -1.393921E+02  7.799413E-01 -3.530310E+00
      1456   6 -1.332763E+02 -6.966572E+01  5.561239E+00 -1.044728E+02  9.477529E-01 -3.013630E+00
      1456   7 -2.286636E+02 -1.368829E+02 -2.372466E+01 -1.379578E+02 -3.622261E+00  2.515210E+00
      1456   8 -1.321641E+02 -6.836387E+01  6.268862E+00 -1.031522E+02 -3.350499E+00  3.091586E+00
      1457   1 -1.488542E+02 -6.399167E+01 -1.128083E+01 -4.792845E+01 -4.264657E-01 -1.825691E+00
      1457   2 -7.282030E+01 -1.324375E+01  6.810590E+00 -2.076462E+01 -3.278455E-01 -1.430733E+00
      1457   3 -1.472356E+02 -6.247077E+01 -1.039702E+01 -4.668086E+01 -4.741126E+00  4.459602E+00
      1457   4 -7.110157E+01 -1.193180E+01  7.674643E+00 -1.961693E+01 -4.550762E+00  4.899973E+00
      1457   5 -1.230129E+02 -8.930157E+01 -1.161654E+01 -5.912950E+01  9.374474E-01 -2.500749E+00
      1457   6 -4.813240E+01 -3.720190E+01  6.753253E+00 -3.141713E+01  1.123137E+00 -2.209944E+00
      1457   7 -1.213626E+02 -8.772084E+01 -1.065264E+01 -5.805973E+01 -3.329412E+00  3.705997E+00
      1457   8 -4.638083E+01 -3.583037E+01  7.699625E+00 -3.043853E+01 -3.054762E+00  4.046408E+00
      1458   1 -5.440948E+01 -2.307451E+01 -4.989288E+00  1.092624E+01 -9.808226E-02 -1.430575E+00
      1458   2  6.688133E+00  1.686096E+01  5.989951E+00  3.320987E+01 -1.583128E-02 -1.141790E+00
      1458   3 -5.242875E+01 -2.174628E+01 -4.031739E+00  1.192372E+01 -4.129616E+00  4.729682E+00
      1458   4  8.751814E+00  1.801877E+01  6.933814E+00  3.412409E+01 -3.970597E+00  5.054690E+00
      1458   5 -3.074158E+01 -4.493702E+01 -4.568145E+00  7.464177E-01  1.439179E+00 -2.317651E+00
      1458   6  2.940729E+01 -3.894810E+00  6.671588E+00  2.348961E+01  1.609264E+00 -2.134039E+00
      1458   7 -2.872818E+01 -4.354857E+01 -3.528376E+00  1.585087E+00 -2.550500E+00  3.773225E+00
      1458   8  3.150470E+01 -2.676939E+00  7.699858E+00  2.425219E+01 -2.305992E+00  3.996583E+00
      1459   1  2.888208E+01  1.523261E+01 -1.679393E+00  5.619556E+01  3.682914E-01 -1.429764E+00
      1459   2  7.928657E+01  4.766563E+01  4.686263E+00  7.499174E+01  4.363173E-01 -1.148687E+00
      1459   3  3.104342E+01  1.620020E+01 -7.533374E-01  5.702861E+01 -3.357394E+00  4.515249E+00
      1459   4  8.151935E+01  4.849213E+01  5.603451E+00  7.575504E+01 -3.225335E+00  4.824789E+00
      1459   5  5.076077E+01 -4.299547E+00 -7.349174E-01  4.687134E+01  2.066889E+00 -2.518524E+00
      1459   6  1.003726E+02  2.907471E+01  5.879227E+00  6.605792E+01  2.223516E+00 -2.342799E+00
      1459   7  5.295364E+01 -3.276327E+00  2.724422E-01  4.756043E+01 -1.622812E+00  3.365933E+00
      1459   8  1.026379E+02  2.995688E+01  6.879900E+00  6.668327E+01 -1.404125E+00  3.573061E+00
      1460   1  1.034571E+02  5.128390E+01 -2.050560E-01  9.198214E+01  9.094152E-01 -1.561682E+00
      1460   2  1.459129E+02  7.828589E+01  2.968589E+00  1.082040E+02  1.000440E+00 -1.269124E+00
      1460   3  1.058057E+02  5.195359E+01  7.093314E-01  9.265822E+01 -2.537144E+00  4.162765E+00
      1460   4  1.483314E+02  7.884307E+01  3.881624E+00  1.088239E+02 -2.392364E+00  4.477643E+00
      1460   5  1.238413E+02  3.333853E+01  1.110351E+00  8.338425E+01  2.761495E+00 -2.842884E+00
      1460   6  1.656264E+02  6.116622E+01  4.524494E+00  9.994178E+01  2.943904E+00 -2.652855E+00
      1460   7  1.262201E+02  3.405123E+01  2.102438E+00  8.392785E+01 -6.545902E-01  2.829045E+00
      1460   8  1.680763E+02  6.176704E+01  5.517499E+00  1.004344E+02 -4.201065E-01  3.043847E+00
      1461   1 -2.552296E+02 -1.043641E+02 -1.990212E+01 -1.237709E+02 -1.659630E+00 -3.492694E+00
      1461   2 -1.580528E+02 -3.859765E+01  7.889604E+00 -8.975009E+01 -1.459854E+00 -2.470711E+00
      1461   3 -2.527511E+02 -1.021482E+02 -1.857071E+01 -1.211998E+02 -6.315255E+00  3.153023E+00
      1461   4 -1.555828E+02 -3.674890E+01  9.122077E+00 -8.734921E+01 -6.002342E+00  4.232160E+00
      1461   5 -2.266648E+02 -1.347250E+02 -2.124309E+01 -1.365608E+02  4.468666E-02 -3.670887E+00
      1461   6 -1.309057E+02 -6.722285E+01  6.879098E+00 -1.018555E+02  3.189135E-01 -2.748670E+00
      1461   7 -2.241813E+02 -1.323932E+02 -1.982360E+01 -1.341826E+02 -4.556583E+00  2.880555E+00
      1461   8 -1.284282E+02 -6.526158E+01  8.201478E+00 -9.963721E+01 -4.172574E+00  3.865104E+00
      1462   1 -1.460073E+02 -6.148398E+01 -1.063699E+01 -4.547998E+01 -1.527633E+00 -1.569057E+00
      1462   2 -7.025177E+01 -1.154242E+01  6.436534E+00 -1.850410E+01 -1.356722E+00 -9.530849E-01
      1462   3 -1.429137E+02 -5.895753E+01 -9.003395E+00 -4.345015E+01 -5.896350E+00  5.021342E+00
      1462   4 -6.716485E+01 -9.311499E+00  7.993022E+00 -1.661474E+01 -5.631558E+00  5.682682E+00
      1462   5 -1.201121E+02 -8.666265E+01 -1.081643E+01 -5.698643E+01  3.485760E-01 -1.971409E+00
      1462   6 -4.550284E+01 -3.536597E+01  6.550590E+00 -2.944704E+01  5.972936E-01 -1.459029E+00
      1462   7 -1.170036E+02 -8.401487E+01 -9.087684E+00 -5.512720E+01 -3.972473E+00  4.535786E+00
      1462   8 -4.239898E+01 -3.301698E+01  8.203909E+00 -2.771995E+01 -3.632674E+00  5.097876E+00
      1463   1 -5.160765E+01 -2.152754E+01 -5.653678E+00  1.291710E+01 -8.321155E-01 -1.215465E+00
      1463   2  9.487400E+00  1.797229E+01  5.023276E+00  3.504290E+01 -7.309388E-01 -7.578038E-01
      1463   3 -4.833767E+01 -1.925547E+01 -4.019055E+00  1.463065E+01 -4.807818E+00  5.079090E+00
      1463   4  1.274479E+01  1.999443E+01  6.592009E+00  3.663614E+01 -4.630170E+00  5.571511E+00
      1463   5 -2.787632E+01 -4.325060E+01 -5.056009E+00  2.464372E+00  1.198717E+00 -1.826234E+00
      1463   6  3.227339E+01 -2.644015E+00  5.888049E+00  2.506207E+01  1.378239E+00 -1.477052E+00
      1463   7 -2.458838E+01 -4.085572E+01 -3.324472E+00  4.025156E+00 -2.736489E+00  4.396661E+00
      1463   8  3.555055E+01 -5.019907E-01  7.555275E+00  2.650949E+01 -2.482789E+00  4.784177E+00
      1464   1  3.180215E+01  1.595143E+01 -2.770735E+00  5.787453E+01 -1.040480E-02 -1.421528E+00
      1464   2  8.231613E+01  4.813103E+01  3.597454E+00  7.653904E+01  7.837372E-02 -9.698859E-01
      1464   3  3.512032E+01  1.770657E+01 -1.253713E+00  5.934982E+01 -3.638275E+00  4.583173E+00
      1464   4  8.562791E+01  4.968166E+01  5.063373E+00  7.791505E+01 -3.486332E+00  5.061757E+00
      1464   5  5.374401E+01 -3.451506E+00 -1.648690E+00  4.830314E+01  2.162396E+00 -2.234187E+00
      1464   6  1.034674E+02  2.966866E+01  4.971691E+00  6.736838E+01  2.331919E+00 -1.889901E+00
      1464   7  5.707888E+01 -1.589174E+00 -3.967335E-02  4.964053E+01 -1.431241E+00  3.708405E+00
      1464   8  1.067976E+02  3.132440E+01  6.531317E+00  6.861226E+01 -1.200465E+00  4.082581E+00
      1465   1  1.066575E+02  5.140737E+01 -1.397063E+00  9.335910E+01  8.610119E-01 -1.683627E+00
      1465   2  1.490901E+02  7.807515E+01  1.475163E+00  1.094763E+02  1.017102E+00 -1.198191E+00
      1465   3  1.101108E+02  5.271624E+01  4.777482E-02  9.459508E+01 -2.541318E+00  4.173893E+00
      1465   4  1.525567E+02  7.922857E+01  2.889130E+00  1.106359E+02 -2.331124E+00  4.681295E+00
      1465   5  1.271032E+02  3.356353E+01  8.964561E-02  8.453408E+01  3.171241E+00 -2.685533E+00
      1465   6  1.688692E+02  6.105962E+01  3.210990E+00  1.009958E+02  3.414105E+00 -2.299582E+00
      1465   7  1.305711E+02  3.494889E+01  1.617977E+00  8.564407E+01 -2.017210E-01  3.116713E+00
      1465   8  1.723522E+02  6.228876E+01  4.710534E+00  1.020343E+02  9.358101E-02  3.527109E+00
      1466   1 -2.493984E+02 -9.929839E+01 -1.527611E+01 -1.189226E+02 -2.311838E+00 -3.899255E+00
      1466   2 -1.536555E+02 -3.557500E+01  9.132371E+00 -8.521678E+01 -1.999992E+00 -2.479440E+00
      1466   3 -2.450724E+02 -9.609105E+01 -1.309113E+01 -1.152774E+02 -7.364298E+00  3.590370E+00
      1466   4 -1.494875E+02 -3.285114E+01  1.114056E+01 -8.179648E+01 -6.928598E+00  5.072351E+00
      1466   5 -2.208458E+02 -1.294432E+02 -1.648545E+01 -1.320425E+02  6.522091E-03 -3.735290E+00
      1466   6 -1.264988E+02 -6.397462E+01  8.295748E+00 -9.763452E+01  3.810727E-01 -2.411183E+00
      1466   7 -2.165378E+02 -1.260444E+02 -1.419101E+01 -1.285786E+02 -4.987476E+00  3.647476E+00
      1466   8 -1.223448E+02 -6.106640E+01  1.041484E+01 -9.438586E+01 -4.492682E+00  5.039457E+00
      1467   1 -1.412968E+02 -5.789379E+01 -1.020734E+01 -4.156412E+01 -1.777845E+00 -1.796284E+00
      1467   2 -6.598043E+01 -8.883143E+00  5.846328E+00 -1.485652E+01 -1.738595E+00 -9.177072E-01
      1467   3 -1.368683E+02 -5.441704E+01 -7.881490E+00 -3.844491E+01 -6.171202E+00  5.081405E+00
      1467   4 -6.172940E+01 -5.848694E+00  8.000413E+00 -1.194567E+01 -6.037133E+00  6.003840E+00
      1467   5 -1.153697E+02 -8.280813E+01 -1.018195E+01 -5.336311E+01  6.859143E-01 -1.851077E+00
      1467   6 -4.119129E+01 -3.244548E+01  6.178186E+00 -2.607768E+01  7.827572E-01 -1.092880E+00
      1467   7 -1.109429E+02 -7.909514E+01 -7.729871E+00 -5.040617E+01 -3.659861E+00  4.938848E+00
      1467   8 -3.693901E+01 -2.918350E+01  8.458876E+00 -2.332114E+01 -3.470943E+00  5.745427E+00
      1468   1 -4.729421E+01 -1.908187E+01 -6.546529E+00  1.627555E+01 -8.988389E-01 -1.670791E+00
      1468   2  1.365750E+01  1.987160E+01  3.836715E+00  3.816979E+01 -1.023762E+00 -9.018209E-01
      1468   3 -4.318439E+01 -1.635801E+01 -4.516491E+00  1.905274E+01 -4.793880E+00  4.735893E+00
      1468   4  1.759527E+01  2.220854E+01  5.712055E+00  4.076363E+01 -4.844065E+00  5.536617E+00
      1468   5 -2.351977E+01 -4.053172E+01 -5.726813E+00  5.561294E+00  1.678722E+00 -1.957600E+00
      1468   6  3.649065E+01 -4.778355E-01  4.927336E+00  2.793928E+01  1.608888E+00 -1.319799E+00
      1468   7 -1.940956E+01 -3.757020E+01 -3.570439E+00  8.194343E+00 -2.176939E+00  4.375141E+00
      1468   8  4.043132E+01  2.088540E+00  6.929281E+00  3.039545E+01 -2.174180E+00  5.048333E+00
      1469   1  3.613797E+01  1.745977E+01 -4.031760E+00  6.073353E+01 -4.755621E-02 -1.988068E+00
      1469   2  8.662076E+01  4.927128E+01  2.275632E+00  7.920961E+01 -9.989931E-02 -1.317316E+00
      1469   3  4.033961E+01  1.976427E+01 -2.076876E+00  6.303588E+01 -3.570592E+00  4.073733E+00
      1469   4  9.070176E+01  5.127435E+01  4.116193E+00  8.136789E+01 -3.561378E+00  4.768962E+00
      1469   5  5.812230E+01 -1.706650E+00 -2.697405E+00  5.092585E+01  2.629890E+00 -2.507338E+00
      1469   6  1.078177E+02  3.104045E+01  3.864713E+00  6.981256E+01  2.641897E+00 -1.959336E+00
      1469   7  6.232503E+01  7.912990E-01 -6.294437E-01  5.309748E+01 -8.603449E-01  3.490821E+00
      1469   8  1.119021E+02  3.323130E+01  5.819184E+00  7.184561E+01 -7.885794E-01  4.066279E+00
      1470   1  1.113171E+02  5.217199E+01 -2.634036E+00  9.573613E+01  8.432884E-01 -2.211499E+00
      1470   2  1.538409E+02  7.864422E+01  3.911789E-01  1.117114E+02  9.902803E-01 -1.493684E+00
      1470   3  1.157197E+02  5.393174E+01 -7.608960E-01  9.761474E+01 -2.432346E+00  3.657230E+00
      1470   4  1.581847E+02  8.019198E+01  2.195042E+00  1.134874E+02 -2.232130E+00  4.395665E+00
      1470   5  1.318011E+02  3.449717E+01 -9.545658E-01  8.669552E+01  3.629689E+00 -2.939206E+00
      1470   6  1.736617E+02  6.179596E+01  2.323727E+00  1.030237E+02  3.854937E+00 -2.323907E+00
      1470   7  1.362009E+02  3.638069E+01  1.010488E+00  8.845550E+01  3.818017E-01  2.872506E+00
      1470   8  1.780051E+02  6.346496E+01  4.221215E+00  1.046857E+02  6.586665E-01  3.510901E+00
      1471   1 -2.410634E+02 -9.303331E+01 -1.051094E+01 -1.118949E+02 -9.862155E-01 -4.719685E+00
      1471   2 -1.474020E+02 -3.194200E+01  9.601472E+00 -7.863192E+01 -1.156157E+00 -2.855420E+00
      1471   3 -2.352511E+02 -8.871491E+01 -7.543964E+00 -1.063046E+02 -6.519608E+00  3.815746E+00
      1471   4 -1.420986E+02 -2.842116E+01  1.219438E+01 -7.341119E+01 -6.555058E+00  5.744690E+00
      1471   5 -2.125501E+02 -1.227608E+02 -1.151073E+01 -1.253248E+02  2.131600E+00 -4.005713E+00
      1471   6 -1.202567E+02 -5.992087E+01  9.023390E+00 -9.134310E+01  1.980797E+00 -2.286297E+00
      1471   7 -2.067673E+02 -1.180068E+02 -8.357782E+00 -1.199042E+02 -3.337267E+00  4.407764E+00
      1471   8 -1.149778E+02 -5.598420E+01  1.180048E+01 -8.628301E+01 -3.357322E+00  6.198352E+00
      1472   1 -1.354631E+02 -5.388153E+01 -1.066705E+01 -3.543325E+01 -3.508388E-01 -3.393203E+00
      1472   2 -6.038783E+01 -5.556694E+00  5.466421E+00 -9.137687E+00 -1.042380E+00 -1.877884E+00
      1472   3 -1.307921E+02 -5.064899E+01 -8.332569E+00 -3.032907E+01 -4.553298E+00  3.471461E+00
      1472   4 -5.623726E+01 -3.070323E+00  7.434956E+00 -4.380943E+00 -5.155959E+00  5.023253E+00
      1472   5 -1.095234E+02 -7.827275E+01 -1.034376E+01 -4.750829E+01  2.821614E+00 -2.968336E+00
      1472   6 -3.558321E+01 -2.861807E+01  6.089544E+00 -2.062134E+01  2.133161E+00 -1.638438E+00
      1472   7 -1.048747E+02 -7.455588E+01 -7.815941E+00 -4.255215E+01 -1.334853E+00  3.807034E+00
      1472   8 -3.145105E+01 -2.566834E+01  8.248379E+00 -1.600540E+01 -1.936789E+00  5.177986E+00
      1473   1 -4.180860E+01 -1.620725E+01 -6.976133E+00  2.166076E+01 -1.178281E-01 -3.073642E+00
      1473   2  1.871413E+01  2.195710E+01  2.994112E+00  4.320150E+01 -7.999555E-01 -1.721582E+00
      1473   3 -3.757993E+01 -1.395062E+01 -5.042607E+00  2.600485E+01 -3.919440E+00  3.436054E+00
      1473   4  2.252434E+01  2.361395E+01  4.635368E+00  4.726453E+01 -4.530170E+00  4.815046E+00
      1473   5 -1.802173E+01 -3.715836E+01 -5.873414E+00  1.070178E+01  3.072084E+00 -2.977463E+00
      1473   6  4.156447E+01  2.089172E+00  4.367496E+00  3.273727E+01  2.401962E+00 -1.805159E+00
      1473   7 -1.381398E+01 -3.447970E+01 -3.764668E+00  1.491564E+01 -6.907052E-01  3.455474E+00
      1473   8  4.535725E+01  4.151561E+00  6.182052E+00  3.667595E+01 -1.291321E+00  4.658436E+00
      1474   1  4.160327E+01  1.946407E+01 -4.839833E+00  6.521023E+01  1.975351E-01 -3.081143E+00
      1474   2  9.171243E+01  5.059878E+01  1.016168E+00  8.340759E+01 -3.847224E-01 -1.894266E+00
      1474   3  4.567315E+01  2.114910E+01 -3.102509E+00  6.884518E+01 -3.259670E+00  3.101449E+00
      1474   4  9.546096E+01  5.180939E+01  2.527186E+00  8.681913E+01 -3.783335E+00  4.308544E+00
      1474   5  6.360207E+01  7.112102E-01 -3.247624E+00  5.518051E+01  3.408865E+00 -3.293395E+00
      1474   6  1.129284E+02  3.276945E+01  2.864455E+00  7.379783E+01  2.851594E+00 -2.274880E+00
      1474   7  6.765384E+01  2.750444E+00 -1.354511E+00  5.869707E+01 -1.572309E-02  2.822979E+00
      1474   8  1.166620E+02  3.432183E+01  4.530343E+00  7.709593E+01 -5.159687E-01  3.864776E+00
      1475   1  1.172801E+02  5.344967E+01 -3.426533E+00  9.932461E+01  5.556911E-01 -2.998325E+00
      1475   2  1.600635E+02  7.992261E+01  4.075592E-01  1.151030E+02  3.673455E-01 -1.985137E+00
      1475   3  1.218859E+02  5.511155E+01 -1.512767E+00  1.021152E+02 -2.483092E+00  2.699765E+00
      1475   4  1.644787E+02  8.125908E+01  2.178302E+00  1.177388E+02 -2.621814E+00  3.729537E+00
      1475   5  1.377724E+02  3.604879E+01 -1.533997E+00  9.008155E+01  3.808565E+00 -3.488913E+00
      1475   6  1.798939E+02  6.333920E+01  2.548508E+00  1.062208E+02  3.672620E+00 -2.608868E+00
      1475   7  1.423598E+02  3.794571E+01  4.978292E-01  9.276205E+01  7.958695E-01  2.152235E+00
      1475   8  1.842936E+02  6.490369E+01  4.437760E+00  1.087508E+02  7.081448E-01  3.051335E+00
      1476   1 -2.325850E+02 -1.279022E+02 -2.363350E+01 -1.356009E+02  1.340737E+00 -2.622697E+00
      1476   2 -1.423190E+02 -5.607337E+01  6.204606E+00 -1.000039E+02  1.285428E+00 -2.381289E+00
      1476   3 -2.330810E+02 -1.270327E+02 -2.360594E+01 -1.349544E+02 -3.485770E+00  2.740843E+00
      1476   4 -1.425926E+02 -5.537751E+01  6.259364E+00 -9.940223E+01 -3.430863E+00  3.054450E+00
      1476   5 -2.033616E+02 -1.594248E+02 -2.538592E+01 -1.427351E+02  2.016940E+00 -3.169831E+00
      1476   6 -1.145608E+02 -8.581044E+01  4.776267E+00 -1.067564E+02  2.055571E+00 -3.020289E+00
      1476   7 -2.037702E+02 -1.585801E+02 -2.529632E+01 -1.422771E+02 -2.743069E+00  2.107402E+00
      1476   8 -1.147494E+02 -8.513574E+01  4.895017E+00 -1.063330E+02 -2.598152E+00  2.334080E+00
      1477   1 -1.391284E+02 -7.104876E+01 -1.122506E+01 -5.369074E+01  1.199624E+00 -2.170921E+00
      1477   2 -6.902008E+01 -1.654818E+01  6.988703E+00 -2.539912E+01  1.169918E+00 -2.011375E+00
      1477   3 -1.390024E+02 -7.040683E+01 -1.105768E+01 -5.319191E+01 -3.529224E+00  3.425886E+00
      1477   4 -6.871267E+01 -1.603756E+01  7.184080E+00 -2.493658E+01 -3.463773E+00  3.646565E+00
      1477   5 -1.125222E+02 -9.721697E+01 -1.175847E+01 -6.032864E+01  2.077571E+00 -2.914701E+00
      1477   6 -4.359993E+01 -4.131790E+01  6.754281E+00 -3.171194E+01  2.141020E+00 -2.845388E+00
      1477   7 -1.123159E+02 -9.659087E+01 -1.152487E+01 -5.999376E+01 -2.589829E+00  2.602151E+00
      1477   8 -4.321402E+01 -4.082014E+01  7.017891E+00 -3.140536E+01 -2.434629E+00  2.736864E+00
      1478   1 -5.643163E+01 -2.088912E+01 -4.441730E+00  7.587282E+00  1.167884E+00 -1.931840E+00
      1478   2 -2.503618E-01  2.203152E+01  6.468955E+00  3.082357E+01  1.145430E+00 -1.812630E+00
      1478   3 -5.587948E+01 -2.046188E+01 -4.188057E+00  7.986185E+00 -3.317693E+00  3.658986E+00
      1478   4  4.528379E-01  2.235398E+01  6.749366E+00  3.119215E+01 -3.259607E+00  3.828498E+00
      1478   5 -3.199172E+01 -4.348048E+01 -4.145811E+00  1.450927E+00  2.230600E+00 -2.859514E+00
      1478   6  2.321363E+01  5.874932E-01  7.048832E+00  2.496425E+01  2.300919E+00 -2.830213E+00
      1478   7 -3.136461E+01 -4.306294E+01 -3.823724E+00  1.703546E+00 -2.199989E+00  2.659509E+00
      1478   8  2.399063E+01  9.029427E-01  7.399682E+00  2.519318E+01 -2.052028E+00  2.742731E+00
      1479   1  1.777075E+01  2.420142E+01 -9.853966E-01  5.492427E+01  1.185965E+00 -1.795748E+00
      1479   2  6.400226E+01  5.911510E+01  5.262400E+00  7.452891E+01  1.166337E+00 -1.683305E+00
      1479   3  1.862309E+01  2.441012E+01 -6.841872E-01  5.525354E+01 -2.992879E+00  3.657372E+00
      1479   4  6.498353E+01  5.923767E+01  5.588783E+00  7.483277E+01 -2.945160E+00  3.810321E+00
      1479   5  4.039142E+01  4.035468E+00 -1.088713E-01  4.927181E+01  2.421315E+00 -2.899644E+00
      1479   6  8.580813E+01  3.992587E+01  6.411064E+00  6.911312E+01  2.494439E+00 -2.876983E+00
      1479   7  4.131435E+01  4.237279E+00  2.610175E-01  4.946824E+01 -1.709551E+00  2.490488E+00
      1479   8  8.685910E+01  4.004392E+01  6.808096E+00  6.928971E+01 -1.571516E+00  2.556683E+00
      1480   1  8.506921E+01  6.530116E+01  5.368036E-01  9.254267E+01  1.237335E+00 -1.696689E+00
      1480   2  1.240053E+02  9.453036E+01  3.833006E+00  1.094515E+02  1.233516E+00 -1.586605E+00
      1480   3  8.619078E+01  6.535534E+01  8.948665E-01  9.280108E+01 -2.605762E+00  3.536233E+00
      1480   4  1.252415E+02  9.451449E+01  4.216054E+00  1.096897E+02 -2.553914E+00  3.678165E+00
      1480   5  1.061428E+02  4.679668E+01  1.828914E+00  8.734568E+01  2.636966E+00 -2.971121E+00
      1480   6  1.443891E+02  7.688123E+01  5.384881E+00  1.044574E+02  2.726815E+00 -2.949758E+00
      1480   7  1.073312E+02  4.684225E+01  2.253888E+00  8.748178E+01 -1.165477E+00  2.207981E+00
      1480   8  1.456916E+02  7.685905E+01  5.836777E+00  1.045780E+02 -1.021990E+00  2.263690E+00
      1481   1 -2.325537E+02 -1.256652E+02 -2.234936E+01 -1.341603E+02 -2.906986E-01 -3.212577E+00
      1481   2 -1.422854E+02 -5.451561E+01  6.709793E+00 -9.865604E+01 -2.090588E-01 -2.570511E+00
      1481   3 -2.318032E+02 -1.239911E+02 -2.170303E+01 -1.326408E+02 -5.187831E+00  2.403019E+00
      1481   4 -1.414161E+02 -5.310619E+01  7.325523E+00 -9.722232E+01 -4.993308E+00  3.117906E+00
      1481   5 -2.031939E+02 -1.572198E+02 -2.400571E+01 -1.416199E+02  8.476768E-01 -3.500023E+00
      1481   6 -1.143896E+02 -8.427436E+01  5.392223E+00 -1.057164E+02  1.012390E+00 -2.942851E+00
      1481   7 -2.023799E+02 -1.555234E+02 -2.328917E+01 -1.402859E+02 -3.982525E+00  2.024075E+00
      1481   8 -1.134577E+02 -8.284151E+01  6.079831E+00 -1.044583E+02 -3.708911E+00  2.659156E+00
      1482   1 -1.385683E+02 -6.968331E+01 -1.097459E+01 -5.256625E+01 -3.358646E-01 -1.942246E+00
      1482   2 -6.841416E+01 -1.567611E+01  6.713083E+00 -2.434946E+01 -2.329614E-01 -1.528995E+00
      1482   3 -1.371671E+02 -6.801246E+01 -1.011131E+01 -5.135858E+01 -5.086966E+00  3.852226E+00
      1482   4 -6.691137E+01 -1.420944E+01  7.558988E+00 -2.321064E+01 -4.887517E+00  4.326414E+00
      1482   5 -1.118277E+02 -9.586110E+01 -1.138596E+01 -5.948779E+01  9.892670E-01 -2.418196E+00
      1482   6 -4.285901E+01 -4.044774E+01  6.611699E+00 -3.093207E+01  1.177686E+00 -2.089190E+00
      1482   7 -1.103634E+02 -9.416192E+01 -1.044749E+01 -5.844303E+01 -3.700761E+00  3.292499E+00
      1482   8 -4.129387E+01 -3.895181E+01  7.534490E+00 -2.994819E+01 -3.419220E+00  3.686807E+00
      1483   1 -5.551836E+01 -2.024795E+01 -4.887487E+00  8.506166E+00  1.792632E-02 -1.501781E+00
      1483   2  8.075312E-01  2.237572E+01  5.839056E+00  3.167986E+01  1.050175E-01 -1.199089E+00
      1483   3 -5.375734E+01 -1.876867E+01 -3.950008E+00  9.525433E+00 -4.429232E+00  4.208001E+00
      1483   4  2.653572E+00  2.368852E+01  6.765145E+00  3.264139E+01 -4.261461E+00  4.560042E+00
      1483   5 -3.094722E+01 -4.283418E+01 -4.454398E+00  2.116518E+00  1.513620E+00 -2.150054E+00
      1483   6  2.440222E+01  9.420204E-01  6.562439E+00  2.557871E+01  1.687361E+00 -1.932807E+00
      1483   7 -2.912547E+01 -4.132272E+01 -3.439952E+00  2.989811E+00 -2.879762E+00  3.485453E+00
      1483   8  2.630844E+01  2.287715E+00  7.567152E+00  2.640084E+01 -2.628214E+00  3.755704E+00
      1484   1  1.902299E+01  2.427557E+01 -1.698926E+00  5.570731E+01  5.242145E-01 -1.442166E+00
      1484   2  6.542544E+01  5.898928E+01  4.506625E+00  7.525948E+01  5.960458E-01 -1.149203E+00
      1484   3  2.096733E+01  2.539918E+01 -7.898527E-01  5.661547E+01 -3.593230E+00  4.094466E+00
      1484   4  6.744242E+01  5.997495E+01  5.408617E+00  7.611918E+01 -3.454273E+00  4.426948E+00
      1484   5  4.176922E+01  4.119625E+00 -6.809335E-01  4.982500E+01  2.178448E+00 -2.254432E+00
      1484   6  8.735617E+01  3.981422E+01  5.801472E+00  6.962347E+01  2.337631E+00 -2.047161E+00
      1484   7  4.376982E+01  5.272941E+00  3.035265E-01  5.060104E+01 -1.892455E+00  3.217138E+00
      1484   8  8.942918E+01  4.083050E+01  6.780556E+00  7.035662E+01 -1.668552E+00  3.466970E+00
      1485   1  8.667832E+01  6.496978E+01 -2.972310E-01  9.318795E+01  1.110851E+00 -1.505116E+00
      1485   2  1.256858E+02  9.395256E+01  2.775014E+00  1.100552E+02  1.207218E+00 -1.196812E+00
      1485   3  8.882082E+01  6.579036E+01  6.026770E-01  9.398417E+01 -2.705780E+00  3.849534E+00
      1485   4  1.278974E+02  9.466361E+01  3.674675E+00  1.108133E+02 -2.553291E+00  4.189521E+00
      1485   5  1.078721E+02  4.647030E+01  1.135762E+00  8.777982E+01  2.914975E+00 -2.473463E+00
      1485   6  1.461908E+02  7.631396E+01  4.475640E+00  1.048582E+02  3.100735E+00 -2.247880E+00
      1485   7  1.100661E+02  4.730923E+01  2.106457E+00  8.845576E+01 -8.618781E-01  2.824515E+00
      1485   8  1.484539E+02  7.704458E+01  5.447916E+00  1.055007E+02 -6.220251E-01  3.084303E+00
      1486   1 -2.300497E+02 -1.217332E+02 -1.931713E+01 -1.311722E+02 -1.598665E+00 -3.785724E+00
      1486   2 -1.403930E+02 -5.185473E+01  7.858300E+00 -9.583374E+01 -1.398479E+00 -2.717616E+00
      1486   3 -2.279720E+02 -1.192079E+02 -1.801523E+01 -1.286831E+02 -6.740317E+00  2.310032E+00
      1486   4 -1.383140E+02 -4.969842E+01  9.064191E+00 -9.347728E+01 -6.420457E+00  3.454482E+00
      1486   5 -2.006014E+02 -1.532403E+02 -2.087643E+01 -1.389520E+02  4.107121E-02 -3.774711E+00
      1486   6 -1.123987E+02 -8.155395E+01  6.666780E+00 -1.031973E+02  3.122569E-01 -2.786047E+00
      1486   7 -1.984840E+02 -1.506339E+02 -1.949087E+01 -1.366455E+02 -5.030562E+00  2.220587E+00
      1486   8 -1.102798E+02 -7.931841E+01  7.957633E+00 -1.010136E+02 -4.643871E+00  3.291027E+00
      1487   1 -1.361534E+02 -6.686072E+01 -1.035124E+01 -5.018041E+01 -1.479047E+00 -1.815476E+00
      1487   2 -6.626260E+01 -1.364494E+01  6.343821E+00 -2.209795E+01 -1.302802E+00 -1.165827E+00
      1487   3 -1.334525E+02 -6.405818E+01 -8.753878E+00 -4.817209E+01 -6.313601E+00  4.268026E+00
      1487   4 -6.355724E+01 -1.113924E+01  7.867540E+00 -2.019952E+01 -6.038099E+00  4.979125E+00
      1487   5 -1.093044E+02 -9.296147E+01 -1.061501E+01 -5.738430E+01  3.284322E-01 -1.986247E+00
      1487   6 -4.059401E+01 -3.833300E+01  6.406778E+00 -2.894907E+01  5.804846E-01 -1.420048E+00
      1487   7 -1.065560E+02 -9.006748E+01 -8.926545E+00 -5.553924E+01 -4.444353E+00  4.008237E+00
      1487   8 -3.784112E+01 -3.573783E+01  8.022734E+00 -2.720586E+01 -4.096520E+00  4.640433E+00
      1488   1 -5.313558E+01 -1.837384E+01 -5.540873E+00  1.053914E+01 -7.311597E-01 -1.364545E+00
      1488   2  3.197116E+00  2.382153E+01  4.893508E+00  3.359918E+01 -6.272383E-01 -8.865830E-01
      1488   3 -5.025008E+01 -1.583182E+01 -3.941059E+00  1.228700E+01 -5.140192E+00  4.476894E+00
      1488   4  6.081188E+00  2.611223E+01  6.430804E+00  3.525211E+01 -4.955502E+00  5.002893E+00
      1488   5 -2.845018E+01 -4.086701E+01 -4.936430E+00  3.896065E+00  1.227114E+00 -1.703596E+00
      1488   6  2.690722E+01  2.482946E+00  5.795243E+00  2.725601E+01  1.408412E+00 -1.314338E+00
      1488   7 -2.551663E+01 -3.822834E+01 -3.243669E+00  5.496462E+00 -3.129075E+00  4.060888E+00
      1488   8  2.983940E+01  4.868174E+00  7.426489E+00  2.876815E+01 -2.869844E+00  4.501910E+00
      1489   1  2.153953E+01  2.532835E+01 -2.765372E+00  5.752185E+01  1.588626E-01 -1.464423E+00
      1489   2  6.805645E+01  5.979280E+01  3.446697E+00  7.697916E+01  2.495161E-01 -9.940898E-01
      1489   3  2.449631E+01  2.734430E+01 -1.278238E+00  5.908771E+01 -3.872873E+00  4.134439E+00
      1489   4  7.101535E+01  6.160319E+01  4.885415E+00  7.846681E+01 -3.715678E+00  4.642801E+00
      1489   5  4.439469E+01  5.259774E+00 -1.574011E+00  5.141051E+01  2.255779E+00 -1.967330E+00
      1489   6  9.009641E+01  4.070631E+01  4.918860E+00  7.112375E+01  2.425982E+00 -1.584640E+00
      1489   7  4.739430E+01  7.358741E+00  3.507344E-04  5.284384E+01 -1.730878E+00  3.564589E+00
      1489   8  9.309838E+01  4.259830E+01  6.446004E+00  7.248440E+01 -1.496485E+00  3.988370E+00
      1490   1  8.950489E+01  6.541244E+01 -1.455705E+00  9.478114E+01  1.100805E+00 -1.610832E+00
      1490   2  1.284933E+02  9.406882E+01  1.326086E+00  1.115747E+02  1.263403E+00 -1.095366E+00
      1490   3  9.263257E+01  6.695639E+01 -3.689259E-02  9.615997E+01 -2.687367E+00  3.873402E+00
      1490   4  1.316381E+02  9.545716E+01  2.715577E+00  1.128948E+02 -2.468028E+00  4.420383E+00
      1490   5  1.108002E+02  4.697541E+01  1.445049E-01  8.916531E+01  3.330616E+00 -2.266228E+00
      1490   6  1.491028E+02  7.649714E+01  3.203562E+00  1.061781E+02  3.577325E+00 -1.830115E+00
      1490   7  1.139638E+02  4.857213E+01  1.640383E+00  9.042564E+01 -4.184021E-01  3.158163E+00
      1490   8  1.522841E+02  7.793823E+01  4.671764E+00  1.073843E+02 -1.169850E-01  3.628357E+00
      1491   1 -2.250220E+02 -1.160910E+02 -1.480231E+01 -1.264528E+02 -2.244340E+00 -4.263906E+00
      1491   2 -1.367474E+02 -4.823180E+01  9.065598E+00 -9.136469E+01 -1.930339E+00 -2.772873E+00
      1491   3 -2.213338E+02 -1.124022E+02 -1.266712E+01 -1.228529E+02 -7.849119E+00  2.617312E+00
      1491   4 -1.331944E+02 -4.503675E+01  1.102833E+01 -8.795343E+01 -7.403505E+00  4.191691E+00
      1491   5 -1.955281E+02 -1.474446E+02 -1.624533E+01 -1.345480E+02 -3.137109E-02 -3.870319E+00
      1491   6 -1.086871E+02 -7.776278E+01  8.037646E+00 -9.902671E+01  3.407969E-01 -2.454384E+00
      1491   7 -1.918193E+02 -1.435955E+02 -1.400363E+01 -1.311282E+02 -5.559929E+00  2.896751E+00
      1491   8 -1.051119E+02 -7.441320E+01  1.010759E+01 -9.578581E+01 -5.060680E+00  4.402060E+00
      1492   1 -1.321966E+02 -6.269779E+01 -9.941136E+00 -4.629860E+01 -1.696880E+00 -2.052305E+00
      1492   2 -6.271033E+01 -1.041041E+01  5.760326E+00 -1.843132E+01 -1.667924E+00 -1.154808E+00
      1492   3 -1.284201E+02 -5.874558E+01 -7.670400E+00 -4.319134E+01 -6.585209E+00  4.305049E+00
      1492   4 -5.908070E+01 -6.911157E+00  7.865813E+00 -1.550157E+01 -6.455245E+00  5.262988E+00
      1492   5 -1.052558E+02 -8.858325E+01 -1.000473E+01 -5.378718E+01  6.557362E-01 -1.834733E+00
      1492   6 -3.694415E+01 -3.488330E+01  6.037798E+00 -2.555314E+01  7.427947E-01 -1.038631E+00
      1492   7 -1.014399E+02 -8.441835E+01 -7.607794E+00 -5.084816E+01 -4.170135E+00  4.428517E+00
      1492   8 -3.327468E+01 -3.117947E+01  8.268988E+00 -2.278346E+01 -3.985521E+00  5.289821E+00
      1493   1 -4.954315E+01 -1.535263E+01 -6.421167E+00  1.396120E+01 -7.507334E-01 -1.809278E+00
      1493   2  6.673418E+00  2.629203E+01  3.729501E+00  3.683369E+01 -8.971769E-01 -1.047753E+00
      1493   3 -4.605842E+01 -1.215435E+01 -4.437639E+00  1.678491E+01 -5.095874E+00  4.144407E+00
      1493   4  1.001509E+01  2.909306E+01  5.564450E+00  3.949950E+01 -5.162634E+00  4.951039E+00
      1493   5 -2.475750E+01 -3.761363E+01 -5.595315E+00  7.060830E+00  1.715316E+00 -1.785183E+00
      1493   6  3.048526E+01  5.181174E+00  4.856674E+00  3.024486E+01  1.626331E+00 -1.136692E+00
      1493   7 -2.123422E+01 -3.419771E+01 -3.485392E+00  9.732156E+00 -2.577748E+00  4.088986E+00
      1493   8  3.386597E+01  8.192248E+00  6.817514E+00  3.276517E+01 -2.589764E+00  4.786405E+00
      1494   1  2.521511E+01  2.738031E+01 -4.000930E+00  6.054223E+01  1.702124E-01 -2.020381E+00
      1494   2  7.172010E+01  6.147255E+01  2.155754E+00  7.984761E+01  1.041018E-01 -1.347689E+00
      1494   3  2.886686E+01  3.010153E+01 -2.086426E+00  6.294804E+01 -3.768696E+00  3.639100E+00
      1494   4  7.527193E+01  6.388491E+01  3.960367E+00  8.213039E+01 -3.769439E+00  4.347355E+00
      1494   5  4.816316E+01  7.510976E+00 -2.597532E+00  5.420019E+01  2.737034E+00 -2.192788E+00
      1494   6  9.385386E+01  4.258176E+01  3.842401E+00  7.377113E+01  2.736246E+00 -1.624080E+00
      1494   7  5.184803E+01  1.040590E+01 -5.718799E-01  5.647054E+01 -1.158006E+00  3.397984E+00
      1494   8  9.743946E+01  4.516258E+01  5.758326E+00  7.592410E+01 -1.095674E+00  4.005367E+00
      1495   1  9.358564E+01  6.665938E+01 -2.659593E+00  9.741456E+01  1.131368E+00 -2.125209E+00
      1495   2  1.326745E+02  9.511896E+01  2.792938E-01  1.140964E+02  1.280038E+00 -1.373625E+00
      1495   3  9.752657E+01  6.876406E+01 -8.210583E-01  9.946101E+01 -2.537753E+00  3.375724E+00
      1495   4  1.365665E+02  9.700743E+01  2.050654E+00  1.160572E+02 -2.333010E+00  4.157473E+00
      1495   5  1.149605E+02  4.835484E+01 -8.687501E-01  9.159400E+01  3.805007E+00 -2.470383E+00
      1495   6  1.533654E+02  7.767965E+01  2.351598E+00  1.085031E+02  4.029333E+00 -1.801245E+00
      1495   7  1.189221E+02  5.056196E+01  1.056428E+00  9.352344E+01  1.736345E-01  2.968728E+00
      1495   8  1.572793E+02  7.966852E+01  4.210797E+00  1.103515E+02  4.520602E-01  3.670604E+00
      1496   1 -2.179739E+02 -1.088586E+02 -1.015025E+01 -1.195066E+02 -7.384013E-01 -4.855257E+00
      1496   2 -1.316888E+02 -4.361961E+01  9.517084E+00 -8.479754E+01 -9.531509E-01 -2.986315E+00
      1496   3 -2.132780E+02 -1.036756E+02 -7.262765E+00 -1.139677E+02 -6.906419E+00  3.001185E+00
      1496   4 -1.274352E+02 -3.926306E+01  1.204251E+01 -7.958995E+01 -6.976861E+00  4.958356E+00
      1496   5 -1.884500E+02 -1.398481E+02 -1.139319E+01 -1.279195E+02  2.199983E+00 -3.853371E+00
      1496   6 -1.035721E+02 -7.277799E+01  8.743785E+00 -9.276027E+01  2.007283E+00 -2.111657E+00
      1496   7 -1.837304E+02 -1.342505E+02 -8.315710E+00 -1.225764E+02 -3.883248E+00  3.872743E+00
      1496   8 -9.929306E+01 -6.802598E+01  1.145618E+01 -8.773800E+01 -3.936446E+00  5.709588E+00
      1497   1 -1.276152E+02 -5.766829E+01 -1.040391E+01 -4.018684E+01 -7.807947E-02 -3.427862E+00
      1497   2 -5.830652E+01 -6.096517E+00  5.380733E+00 -1.267770E+01 -8.512178E-01 -1.993067E+00
      1497   3 -1.240445E+02 -5.354365E+01 -8.135187E+00 -3.508863E+01 -4.787221E+00  2.927814E+00
      1497   4 -5.518500E+01 -2.747592E+00  7.296548E+00 -7.894963E+00 -5.464142E+00  4.415468E+00
      1497   5 -1.005838E+02 -8.306598E+01 -1.016375E+01 -4.797230E+01  2.920084E+00 -2.677053E+00
      1497   6 -3.245116E+01 -3.010265E+01  5.954165E+00 -2.008194E+01  2.160187E+00 -1.413229E+00
      1497   7 -9.697905E+01 -7.846898E+01 -7.693366E+00 -4.305678E+01 -1.728004E+00  3.582918E+00
      1497   8 -2.929485E+01 -2.630206E+01  8.067392E+00 -1.547295E+01 -2.394790E+00  4.904471E+00
      1498   1 -4.522921E+01 -1.150107E+01 -6.850869E+00  1.943389E+01  1.613485E-01 -3.088892E+00
      1498   2  1.061907E+01  2.933178E+01  2.899512E+00  4.199706E+01 -5.987818E-01 -1.817666E+00
      1498   3 -4.196438E+01 -8.441967E+00 -4.968102E+00  2.384469E+01 -4.107782E+00  2.969259E+00
      1498   4  1.352233E+01  3.176708E+01  4.500360E+00  4.615240E+01 -4.790643E+00  4.280794E+00
      1498   5 -2.035936E+01 -3.329296E+01 -5.735787E+00  1.226657E+01  3.190781E+00 -2.635167E+00
      1498   6  3.451669E+01  8.674250E+00  4.315420E+00  3.515333E+01  2.452158E+00 -1.529154E+00
      1498   7 -1.706654E+01 -2.982255E+01 -3.671606E+00  1.651711E+01 -1.026487E+00  3.340542E+00
      1498   8  3.744894E+01  1.150454E+01  6.094720E+00  3.915566E+01 -1.690328E+00  4.490815E+00
      1499   1  2.966024E+01  3.024647E+01 -4.796024E+00  6.520465E+01  4.943812E-01 -3.068141E+00
      1499   2  7.583652E+01  6.364556E+01  9.196788E-01  8.426782E+01 -1.548524E-01 -1.949466E+00
      1499   3  3.289848E+01  3.263404E+01 -3.098857E+00  6.896199E+01 -3.396038E+00  2.711877E+00
      1499   4  7.879703E+01  6.554009E+01  2.398510E+00  8.782286E+01 -3.981962E+00  3.861924E+00
      1499   5  5.268443E+01  1.076214E+01 -3.130143E+00  5.862535E+01  3.557275E+00 -2.892756E+00
      1499   6  9.804853E+01  4.512893E+01  2.870254E+00  7.796398E+01  2.940830E+00 -1.927122E+00
      1499   7  5.594634E+01  1.349259E+01 -1.273575E+00  6.224034E+01 -2.891127E-01  2.815853E+00
      1499   8  1.010338E+02  4.735409E+01  4.506685E+00  8.138264E+01 -8.442968E-01  3.816100E+00
      1500   1  9.871058E+01  6.864003E+01 -3.433044E+00  1.012984E+02  8.732799E-01 -2.944974E+00
      1500   2  1.380762E+02  9.708495E+01  3.066100E-01  1.178128E+02  6.535583E-01 -1.942925E+00
      1500   3  1.026562E+02  7.084182E+01 -1.555983E+00  1.042701E+02 -2.554885E+00  2.403545E+00
      1500   4  1.418564E+02  9.894987E+01  2.045132E+00  1.206469E+02 -2.721736E+00  3.431413E+00
      1500   5  1.201403E+02  5.057793E+01 -1.429165E+00  9.527323E+01  3.985892E+00 -3.017619E+00
      1500   6  1.588208E+02  7.987953E+01  2.585790E+00  1.120229E+02  3.820661E+00 -2.130789E+00
      1500   7  1.240981E+02  5.299949E+01  5.649646E-01  9.812300E+01  5.936449E-01  2.269285E+00
      1500   8  1.626146E+02  8.195749E+01  4.441184E+00  1.147398E+02  4.795094E-01  3.184518E+00
      1501   1 -2.059656E+02 -1.456798E+02 -2.288870E+01 -1.386591E+02  1.499904E+00 -2.520982E+00
      1501   2 -1.234202E+02 -6.996997E+01  6.199220E+00 -1.029110E+02  1.441452E+00 -2.286397E+00
      1501   3 -2.064798E+02 -1.448038E+02 -2.286343E+01 -1.381537E+02 -3.677043E+00  2.302803E+00
      1501   4 -1.237282E+02 -6.925058E+01  6.252055E+00 -1.024163E+02 -3.622998E+00  2.627295E+00
      1501   5 -1.768413E+02 -1.773346E+02 -2.482207E+01 -1.408698E+02  2.148685E+00 -2.946597E+00
      1501   6 -9.574707E+01 -9.982341E+01  4.620095E+00 -1.050034E+02  2.180947E+00 -2.785459E+00
      1501   7 -1.772420E+02 -1.765138E+02 -2.474002E+01 -1.405234E+02 -2.947795E+00  1.788380E+00
      1501   8 -9.594563E+01 -9.915440E+01  4.731225E+00 -1.046593E+02 -2.807700E+00  2.044426E+00
      1502   1 -1.279570E+02 -7.708047E+01 -1.089032E+01 -5.679132E+01  1.352932E+00 -2.088550E+00
      1502   2 -6.387709E+01 -1.946596E+01  6.863960E+00 -2.830509E+01  1.323010E+00 -1.933687E+00
      1502   3 -1.278877E+02 -7.640312E+01 -1.072781E+01 -5.635700E+01 -3.728103E+00  2.987757E+00
      1502   4 -6.363842E+01 -1.890641E+01  7.055079E+00 -2.788011E+01 -3.660808E+00  3.219273E+00
      1502   5 -1.012501E+02 -1.033163E+02 -1.148814E+01 -5.918820E+01  2.197084E+00 -2.671632E+00
      1502   6 -3.835023E+01 -4.428901E+01  6.593872E+00 -3.058458E+01  2.257313E+00 -2.588778E+00
      1502   7 -1.010773E+02 -1.026814E+02 -1.126502E+01 -5.889280E+01 -2.809254E+00  2.322055E+00
      1502   8 -3.801122E+01 -4.376774E+01  6.847184E+00 -3.029169E+01 -2.655851E+00  2.485887E+00
      1503   1 -5.680681E+01 -1.855819E+01 -4.345379E+00  4.829966E+00  1.323981E+00 -1.857261E+00
      1503   2 -5.518843E+00  2.694211E+01  6.281280E+00  2.825809E+01  1.302486E+00 -1.742487E+00
      1503   3 -5.633827E+01 -1.807153E+01 -4.097200E+00  5.221191E+00 -3.503694E+00  3.247707E+00
      1503   4 -4.908819E+00  2.733514E+01  6.556814E+00  2.864112E+01 -3.442992E+00  3.426034E+00
      1503   5 -3.217427E+01 -4.117221E+01 -4.033632E+00  2.455031E+00  2.347069E+00 -2.587831E+00
      1503   6  1.814110E+01  5.488522E+00  6.904330E+00  2.599039E+01  2.415429E+00 -2.544866E+00
      1503   7 -3.161013E+01 -4.071890E+01 -3.723047E+00  2.722102E+00 -2.413533E+00  2.442726E+00
      1503   8  1.884427E+01  5.851505E+00  7.243818E+00  2.625485E+01 -2.266401E+00  2.552901E+00
      1504   1  8.468366E+00  3.264997E+01 -1.027516E+00  5.270908E+01  1.348404E+00 -1.723625E+00
      1504   2  5.059799E+01  6.975632E+01  5.041709E+00  7.248238E+01  1.329880E+00 -1.615316E+00
      1504   3  9.218430E+00  3.293764E+01 -7.313764E-01  5.307580E+01 -3.157236E+00  3.284755E+00
      1504   4  5.146871E+01  6.996715E+01  5.363478E+00  7.284224E+01 -3.107202E+00  3.444707E+00
      1504   5  3.130933E+01  1.249349E+01 -7.868693E-02  5.047286E+01  2.538733E+00 -2.595988E+00
      1504   6  7.262738E+01  5.058861E+01  6.288672E+00  7.033979E+01  2.609981E+00 -2.559404E+00
      1504   7  3.214808E+01  1.275238E+01  2.796176E-01  5.072687E+01 -1.908198E+00  2.346960E+00
      1504   8  7.358485E+01  5.077363E+01  6.674144E+00  7.059165E+01 -1.771260E+00  2.438236E+00
      1505   1  6.865526E+01  7.833585E+01  4.109812E-01  9.096227E+01  1.407522E+00 -1.622631E+00
      1505   2  1.040590E+02  1.094667E+02  3.588208E+00  1.080089E+02  1.405524E+00 -1.514509E+00
      1505   3  6.966326E+01  7.847994E+01  7.639818E-01  9.129480E+01 -2.744855E+00  3.209573E+00
      1505   4  1.051738E+02  1.095486E+02  3.966283E+00  1.083369E+02 -2.690464E+00  3.358732E+00
      1505   5  8.993774E+01  5.986339E+01  1.815288E+00  8.892812E+01  2.756694E+00 -2.632488E+00
      1505   6  1.246558E+02  9.186053E+01  5.276399E+00  1.060541E+02  2.845083E+00 -2.595046E+00
      1505   7  9.102850E+01  5.997843E+01  2.228258E+00  8.915733E+01 -1.345790E+00  2.143715E+00
      1505   8  1.258518E+02  9.191619E+01  5.715984E+00  1.062828E+02 -1.203387E+00  2.224691E+00
      1506   1 -2.060377E+02 -1.433963E+02 -2.163930E+01 -1.374612E+02 -1.647278E-01 -3.329565E+00
      1506   2 -1.235063E+02 -6.832984E+01  6.691029E+00 -1.017468E+02 -8.924035E-02 -2.666276E+00
      1506   3 -2.054705E+02 -1.415888E+02 -2.100752E+01 -1.360774E+02 -5.436378E+00  1.728135E+00
      1506   4 -1.228286E+02 -6.677661E+01  7.292942E+00 -1.004148E+02 -5.245261E+00  2.482612E+00
      1506   5 -1.767330E+02 -1.751373E+02 -2.348957E+01 -1.399486E+02  9.210947E-01 -3.470455E+00
      1506   6 -9.565359E+01 -9.825611E+01  5.211169E+00 -1.041012E+02  1.074888E+00 -2.873710E+00
      1506   7 -1.760750E+02 -1.733375E+02 -2.279244E+01 -1.387271E+02 -4.268770E+00  1.492813E+00
      1506   8 -9.488789E+01 -9.670812E+01  5.879659E+00 -1.029227E+02 -4.004101E+00  2.185924E+00
      1507   1 -1.275461E+02 -7.561467E+01 -1.064703E+01 -5.578014E+01 -2.279448E-01 -2.048861E+00
      1507   2 -6.343282E+01 -1.846582E+01  6.596323E+00 -2.732183E+01 -1.245867E-01 -1.615736E+00
      1507   3 -1.263489E+02 -7.381010E+01 -9.804184E+00 -5.464074E+01 -5.351743E+00  3.212996E+00
      1507   4 -6.213913E+01 -1.685633E+01  7.423136E+00 -2.622375E+01 -5.149465E+00  3.722956E+00
      1507   5 -1.006643E+02 -1.019062E+02 -1.113276E+01 -5.841921E+01  1.036591E+00 -2.339499E+00
      1507   6 -3.773212E+01 -4.333429E+01  6.450247E+00 -2.983162E+01  1.221210E+00 -1.972142E+00
      1507   7 -9.937939E+01 -1.000998E+02 -1.021994E+01 -5.742295E+01 -4.012237E+00  2.835562E+00
      1507   8 -3.635304E+01 -4.172107E+01  7.348241E+00 -2.886968E+01 -3.732778E+00  3.284191E+00
      1508   1 -5.607618E+01 -1.777121E+01 -4.778766E+00  5.732946E+00  1.432457E-01 -1.558680E+00
      1508   2 -4.655571E+00  2.745245E+01  5.670625E+00  2.913704E+01  2.322357E-01 -1.240421E+00
      1508   3 -5.453443E+01 -1.614805E+01 -3.863039E+00  6.737871E+00 -4.661514E+00  3.660455E+00
      1508   4 -3.032332E+00  2.891660E+01  6.576306E+00  3.010699E+01 -4.489947E+00  4.041471E+00
      1508   5 -3.127507E+01 -4.042016E+01 -4.337742E+00  3.141256E+00  1.570380E+00 -1.984804E+00
      1508   6  1.917068E+01  5.970772E+00  6.429587E+00  2.666235E+01  1.742153E+00 -1.733582E+00
      1508   7 -2.965033E+01 -3.878871E+01 -3.350588E+00  4.017440E+00 -3.168081E+00  3.157139E+00
      1508   8  2.087504E+01  7.444770E+00  7.407886E+00  2.750938E+01 -2.917150E+00  3.474827E+00
      1509   1  9.513123E+00  3.290509E+01 -1.718981E+00  5.355547E+01  6.799474E-01 -1.434516E+00
      1509   2  5.180229E+01  6.982756E+01  4.311710E+00  7.330855E+01  7.529107E-01 -1.128292E+00
      1509   3  1.123000E+01  3.418574E+01 -8.299694E-01  5.449732E+01 -3.777135E+00  3.655528E+00
      1509   4  5.358830E+01  7.097630E+01  5.194508E+00  7.422088E+01 -3.635646E+00  4.012497E+00
      1509   5  3.251333E+01  1.272252E+01 -6.355825E-01  5.112266E+01  2.257721E+00 -1.989519E+00
      1509   6  7.398877E+01  5.063934E+01  5.698159E+00  7.097760E+01  2.414106E+00 -1.750714E+00
      1509   7  3.430599E+01  1.401101E+01  3.227584E-01  5.194819E+01 -2.141728E+00  3.032740E+00
      1509   8  7.584917E+01  5.179738E+01  6.651536E+00  7.177847E+01 -1.919664E+00  3.325361E+00
      1510   1  7.004464E+01  7.820384E+01 -3.938900E-01  9.173694E+01  1.300689E+00 -1.422434E+00
      1510   2  1.055109E+02  1.091046E+02  2.568128E+00  1.087692E+02  1.398574E+00 -1.097061E+00
      1510   3  7.196046E+01  7.918299E+01  4.867956E-01  9.261042E+01 -2.839361E+00  3.525980E+00
      1510   4  1.074913E+02  1.099794E+02  3.448891E+00  1.096203E+02 -2.684421E+00  3.892443E+00
      1510   5  9.147765E+01  5.970354E+01  1.145442E+00  8.952328E+01  3.019909E+00 -2.099713E+00
      1510   6  1.262584E+02  9.147775E+01  4.400230E+00  1.066419E+02  3.202635E+00 -1.838748E+00
      1510   7  9.346116E+01  6.068037E+01  2.090008E+00  9.029206E+01 -1.070598E+00  2.789502E+00
      1510   8  1.283055E+02  9.235210E+01  5.346300E+00  1.073924E+02 -8.332059E-01  3.094092E+00
      1511   1 -2.039440E+02 -1.392021E+02 -1.869035E+01 -1.347068E+02 -1.490813E+00 -4.073528E+00
      1511   2 -1.220148E+02 -6.537122E+01  7.804883E+00 -9.909909E+01 -1.300600E+00 -2.957981E+00
      1511   3 -2.022406E+02 -1.363968E+02 -1.741696E+01 -1.323488E+02 -7.044706E+00  1.425388E+00
      1511   4 -1.203083E+02 -6.293134E+01  8.984063E+00 -9.683940E+01 -6.731345E+00  2.637047E+00
      1511   5 -1.745044E+02 -1.709497E+02 -2.045707E+01 -1.374768E+02  6.510410E-02 -3.887134E+00
      1511   6 -9.401863E+01 -9.528777E+01  6.440891E+00 -1.017209E+02  3.202452E-01 -2.832710E+00
      1511   7 -1.727307E+02 -1.680921E+02 -1.910394E+01 -1.352851E+02 -5.402376E+00  1.507774E+00
      1511   8 -9.224334E+01 -9.279622E+01  7.700544E+00 -9.961861E+01 -5.029103E+00  2.663870E+00
      1512   1 -1.255407E+02 -7.250727E+01 -1.004501E+01 -5.351693E+01 -1.395525E+00 -2.055904E+00
      1512   2 -6.168522E+01 -1.612542E+01  6.233602E+00 -2.514485E+01 -1.220769E+00 -1.370501E+00
      1512   3 -1.232210E+02 -6.944977E+01 -8.485503E+00 -5.158831E+01 -6.628501E+00  3.475425E+00
      1512   4 -5.935628E+01 -1.336133E+01  7.722059E+00 -2.329746E+01 -6.351679E+00  4.238796E+00
      1512   5 -9.850562E+01 -9.876671E+01 -1.039060E+01 -5.640666E+01  3.184139E-01 -2.012681E+00
      1512   6 -3.582807E+01 -4.095270E+01  6.245761E+00 -2.789303E+01  5.643669E-01 -1.392277E+00
      1512   7 -9.610900E+01 -9.564288E+01 -8.743711E+00 -5.462853E+01 -4.838025E+00  3.426207E+00
      1512   8 -3.342396E+01 -3.812351E+01  7.822099E+00 -2.618878E+01 -4.494176E+00  4.129218E+00
      1513   1 -5.410917E+01 -1.558155E+01 -5.418244E+00  7.735027E+00 -6.112792E-01 -1.500407E+00
      1513   2 -2.680969E+00  2.922840E+01  4.749863E+00  3.106536E+01 -5.090014E-01 -1.000350E+00
      1513   3 -5.160847E+01 -1.278191E+01 -3.856417E+00  9.452501E+00 -5.393830E+00  3.845383E+00
      1513   4 -1.757889E-01  3.177934E+01  6.251875E+00  3.271198E+01 -5.208567E+00  4.407076E+00
      1513   5 -2.915144E+01 -3.817640E+01 -4.810232E+00  4.917188E+00  1.244443E+00 -1.588534E+00
      1513   6  2.130126E+01  7.804854E+00  5.683281E+00  2.837474E+01  1.420546E+00 -1.158853E+00
      1513   7 -2.657543E+01 -3.530276E+01 -3.159332E+00  6.497400E+00 -3.472301E+00  3.677100E+00
      1513   8  2.388024E+01  1.042833E+01  7.274786E+00  2.989029E+01 -3.216610E+00  4.172209E+00
      1514   1  1.161196E+01  3.429663E+01 -2.756114E+00  5.542488E+01  3.304297E-01 -1.485340E+00
      1514   2  5.401322E+01  7.097985E+01  3.285376E+00  7.511621E+01  4.186314E-01 -9.947729E-01
      1514   3  1.419562E+01  3.657088E+01 -1.303050E+00  5.701536E+01 -4.051989E+00  3.667660E+00
      1514   4  5.660270E+01  7.305061E+01  4.691911E+00  7.664826E+01 -3.895595E+00  4.207549E+00
      1514   5  3.475923E+01  1.416678E+01 -1.502562E+00  5.278823E+01  2.316428E+00 -1.702017E+00
      1514   6  7.634542E+01  5.184698E+01  4.846119E+00  7.258994E+01  2.480273E+00 -1.280812E+00
      1514   7  3.740894E+01  1.650297E+01  3.288295E-02  5.425603E+01 -2.009511E+00  3.381065E+00
      1514   8  7.899995E+01  5.397886E+01  6.335718E+00  7.400445E+01 -1.780279E+00  3.854697E+00
      1515   1  7.246670E+01  7.898451E+01 -1.513505E+00  9.346492E+01  1.324121E+00 -1.507248E+00
      1515   2  1.079124E+02  1.095718E+02  1.170657E+00  1.104508E+02  1.486775E+00 -9.601269E-01
      1515   3  7.524567E+01  8.077028E+01 -1.261081E-01  9.492403E+01 -2.801344E+00  3.565102E+00
      1515   4  1.107075E+02  1.112037E+02  2.529074E+00  1.118668E+02 -2.580776E+00  4.153403E+00
      1515   5  9.403368E+01  6.051497E+01  1.901669E-01  9.106904E+01  3.433217E+00 -1.842312E+00
      1515   6  1.287961E+02  9.198196E+01  3.177956E+00  1.081485E+02  3.674325E+00 -1.356212E+00
      1515   7  9.686615E+01  6.233354E+01  1.648068E+00  9.242118E+01 -6.427622E-01  3.167308E+00
      1515   8  1.316443E+02  9.364704E+01  4.608070E+00  1.094617E+02 -3.461428E-01  3.697179E+00
      1516   1 -1.996799E+02 -1.330409E+02 -1.429884E+01 -1.302159E+02 -2.119061E+00 -4.621606E+00
      1516   2 -1.190906E+02 -6.119173E+01  8.972913E+00 -9.479866E+01 -1.818089E+00 -3.057368E+00
      1516   3 -1.966025E+02 -1.289016E+02 -1.221285E+01 -1.267498E+02 -8.192847E+00  1.597149E+00
      1516   4 -1.161344E+02 -5.755111E+01  1.088936E+01 -9.148610E+01 -7.755916E+00  3.266698E+00
      1516   5 -1.701437E+02 -1.646876E+02 -1.596278E+01 -1.332765E+02 -3.440554E-02 -4.017112E+00
      1516   6 -9.097826E+01 -9.098807E+01  7.763796E+00 -9.769550E+01  3.172084E-01 -2.509637E+00
      1516   7 -1.670132E+02 -1.604161E+02 -1.377378E+01 -1.299834E+02 -6.013276E+00  2.083182E+00
      1516   8 -8.796947E+01 -8.722006E+01  9.783249E+00 -9.454672E+01 -5.531187E+00  3.702164E+00
      1517   1 -1.223148E+02 -6.780979E+01 -9.655374E+00 -4.978725E+01 -1.580390E+00 -2.297563E+00
      1517   2 -5.883877E+01 -1.234352E+01  5.658581E+00 -2.157956E+01 -1.566845E+00 -1.380534E+00
      1517   3 -1.191731E+02 -6.340967E+01 -7.441751E+00 -4.679730E+01 -6.892817E+00  3.490576E+00
      1517   4 -5.582074E+01 -8.401461E+00  7.712593E+00 -1.873538E+01 -6.774792E+00  4.485200E+00
      1517   5 -9.513315E+01 -9.389614E+01 -9.804190E+00 -5.294429E+01  6.326446E-01 -1.830744E+00
      1517   6 -3.283147E+01 -3.699535E+01  5.883174E+00 -2.458196E+01  7.020645E-01 -9.972268E-01
      1517   7 -9.191501E+01 -8.930720E+01 -7.465317E+00 -5.012278E+01 -4.601674E+00  3.859487E+00
      1517   8 -2.973852E+01 -3.287151E+01  8.061242E+00 -2.189794E+01 -4.431975E+00  4.775482E+00
      1518   1 -5.123283E+01 -1.200425E+01 -6.282839E+00  1.109171E+01 -5.857241E-01 -1.928538E+00
      1518   2  9.814310E-02  3.225897E+01  3.612670E+00  3.427727E+01 -7.542355E-01 -1.175094E+00
      1518   3 -4.836865E+01 -8.348520E+00 -4.349036E+00  1.385100E+01 -5.319685E+00  3.527245E+00
      1518   4  2.842507E+00  3.551224E+01  5.403453E+00  3.690563E+01 -5.405732E+00  4.339587E+00
      1518   5 -2.612199E+01 -3.440295E+01 -5.453137E+00  8.029509E+00  1.734975E+00 -1.619267E+00
      1518   6  2.423266E+01  1.102877E+01  4.772011E+00  3.135330E+01  1.623711E+00 -9.614966E-01
      1518   7 -2.318347E+01 -3.055028E+01 -3.393572E+00  1.063365E+01 -2.933535E+00  3.753580E+00
      1518   8  2.704991E+01  1.447198E+01  6.687336E+00  3.383351E+01 -2.965635E+00  4.474158E+00
      1519   1  1.461311E+01  3.689189E+01 -3.961222E+00  5.847940E+01  3.885758E-01 -2.024789E+00
      1519   2  5.701408E+01  7.320509E+01  2.030578E+00  7.805376E+01  3.065044E-01 -1.350061E+00
      1519   3  1.770551E+01  4.002395E+01 -2.091813E+00  6.088725E+01 -3.912151E+00  3.190517E+00
      1519   4  6.002249E+01  7.602460E+01  3.793922E+00  8.036024E+01 -3.926786E+00  3.912187E+00
      1519   5  3.789921E+01  1.692879E+01 -2.495174E+00  5.562548E+01  2.805999E+00 -1.878097E+00
      1519   6  7.948425E+01  5.423696E+01  3.806490E+00  7.531932E+01  2.787611E+00 -1.289704E+00
      1519   7  4.105427E+01  2.021520E+01 -5.169282E-01  5.789773E+01 -1.439154E+00  3.265310E+00
      1519   8  8.255445E+01  5.720610E+01  5.678231E+00  7.749587E+01 -1.392823E+00  3.903818E+00
      1520   1  7.593453E+01  8.073191E+01 -2.678500E+00  9.623771E+01  1.400602E+00 -2.002052E+00
      1520   2  1.114828E+02  1.111254E+02  1.667284E-01  1.131393E+02  1.543213E+00 -1.215131E+00
      1520   3  7.938939E+01  8.318814E+01 -8.805630E-01  9.836579E+01 -2.612792E+00  3.091110E+00
      1520   4  1.148945E+02  1.133637E+02  1.898855E+00  1.151980E+02 -2.412684E+00  3.917928E+00
      1520   5  9.761669E+01  6.236476E+01 -7.852796E-01  9.365481E+01  3.917760E+00 -1.994886E+00
      1520   6  1.324822E+02  9.363905E+01  2.368043E+00  1.106572E+02  4.130661E+00 -1.272043E+00
      1520   7  1.011124E+02  6.490416E+01  1.093871E+00  9.567129E+01 -4.723175E-02  3.033327E+00
      1520   8  1.359348E+02  9.595898E+01  4.182104E+00  1.126087E+02  2.208108E-01  3.798678E+00
      1521   1 -1.938729E+02 -1.249070E+02 -9.771294E+00 -1.235380E+02 -4.703216E-01 -4.962774E+00
      1521   2 -1.151911E+02 -5.565067E+01  9.405096E+00 -8.843582E+01 -7.353578E-01 -3.091255E+00
      1521   3 -1.902554E+02 -1.189099E+02 -6.964808E+00 -1.182316E+02 -7.178149E+00  2.151835E+00
      1521   4 -1.119581E+02 -5.050034E+01  1.186095E+01 -8.341680E+01 -7.293039E+00  4.136158E+00
      1521   5 -1.642447E+02 -1.562395E+02 -1.124443E+01 -1.269135E+02  2.260106E+00 -3.702006E+00
      1521   6 -8.696183E+01 -8.511976E+01  8.446281E+00 -9.163073E+01  2.017465E+00 -1.941082E+00
      1521   7 -1.605492E+02 -1.498519E+02 -8.244583E+00 -1.218213E+02 -4.341689E+00  3.277355E+00
      1521   8 -8.365242E+01 -7.959731E+01  1.109131E+01 -8.681439E+01 -4.440103E+00  5.158213E+00
      1522   1 -1.189495E+02 -6.181310E+01 -1.011970E+01 -4.391085E+01  1.960591E-01 -3.429775E+00
      1522   2 -5.559974E+01 -7.081259E+00  5.280507E+00 -1.600349E+01 -6.493110E-01 -2.081925E+00
      1522   3 -1.164503E+02 -5.683584E+01 -7.918525E+00 -3.901642E+01 -4.948563E+00  2.365779E+00
      1522   4 -5.348555E+01 -2.901030E+00  7.141792E+00 -1.138518E+01 -5.693183E+00  3.783615E+00
      1522   5 -9.160322E+01 -8.744950E+01 -9.960160E+00 -4.737492E+01  2.985940E+00 -2.384439E+00
      1522   6 -2.943302E+01 -3.130226E+01  5.804880E+00 -1.929785E+01  2.161830E+00 -1.192820E+00
      1522   7 -8.901035E+01 -8.201782E+01 -7.549831E+00 -4.269029E+01 -2.081850E+00  3.311570E+00
      1522   8 -2.722763E+01 -2.668784E+01  7.869896E+00 -1.487908E+01 -2.809091E+00  4.578209E+00
      1523   1 -4.807681E+01 -7.203883E+00 -6.710944E+00  1.643417E+01  4.385638E-01 -3.069499E+00
      1523   2  2.937407E+00  3.623504E+01  2.798121E+00  3.935879E+01 -3.896999E-01 -1.885315E+00
      1523   3 -4.576366E+01 -3.363614E+00 -4.880913E+00  2.073068E+01 -4.235505E+00  2.489680E+00
      1523   4  4.940075E+00  3.943384E+01  4.356383E+00  4.343130E+01 -4.982894E+00  3.728114E+00
      1523   5 -2.281205E+01 -2.916570E+01 -5.586485E+00  1.309266E+01  3.269037E+00 -2.290137E+00
      1523   6  2.722422E+01  1.542731E+01  4.251335E+00  3.616811E+01  2.469586E+00 -1.256433E+00
      1523   7 -2.041923E+01 -2.493005E+01 -3.569588E+00  1.720542E+01 -1.339485E+00  3.183144E+00
      1523   8  2.930489E+01  1.900557E+01  5.992501E+00  4.006519E+01 -2.061170E+00  4.275174E+00
      1524   1  1.802901E+01  4.061351E+01 -4.740453E+00  6.312999E+01  7.848804E-01 -3.017423E+00
      1524   2  6.013882E+01  7.622512E+01  8.221540E-01  8.250103E+01  7.681872E-02 -1.972289E+00
      1524   3  2.043364E+01  4.369606E+01 -3.086180E+00  6.684830E+01 -3.483324E+00  2.315696E+00
      1524   4  6.230443E+01  7.880097E+01  2.265736E+00  8.604241E+01 -4.125199E+00  3.403791E+00
      1524   5  4.145027E+01  2.100610E+01 -3.007705E+00  6.003194E+01  3.656467E+00 -2.486757E+00
      1524   6  8.274399E+01  5.760326E+01  2.866417E+00  7.953269E+01  2.986734E+00 -1.579419E+00
      1524   7  4.392217E+01  2.441637E+01 -1.191004E+00  6.358966E+01 -5.556732E-01  2.771698E+00
      1524   8  8.497584E+01  6.049491E+01  4.469773E+00  8.292020E+01 -1.161773E+00  3.725331E+00
      1525   1  8.018652E+01  8.343234E+01 -3.429630E+00  1.002523E+02  1.177433E+00 -2.850394E+00
      1525   2  1.160214E+02  1.138001E+02  2.061125E-01  1.170157E+02  9.253937E-01 -1.861209E+00
      1525   3  8.345241E+01  8.617989E+01 -1.593873E+00  1.032773E+02 -2.592103E+00  2.108407E+00
      1525   4  1.191429E+02  1.162028E+02  1.907363E+00  1.199220E+02 -2.789475E+00  3.132885E+00
      1525   5  1.019656E+02  6.527873E+01 -1.323329E+00  9.746957E+01  4.102617E+00 -2.538272E+00
      1525   6  1.371142E+02  9.651929E+01  2.612934E+00  1.143416E+02  3.904642E+00 -1.647292E+00
      1525   7  1.052741E+02  6.822969E+01  6.281350E-01  1.003653E+02  3.794113E-01  2.355915E+00
      1525   8  1.402783E+02  9.911903E+01  4.429076E+00  1.171237E+02  2.339410E-01  3.284824E+00
      1526   1 -1.792695E+02 -1.627552E+02 -2.209900E+01 -1.378775E+02  1.647633E+00 -2.404130E+00
      1526   2 -1.044259E+02 -8.352292E+01  6.172899E+00 -1.029716E+02  1.586131E+00 -2.175972E+00
      1526   3 -1.797753E+02 -1.618942E+02 -2.207312E+01 -1.374995E+02 -3.812520E+00  1.850140E+00
      1526   4 -1.047478E+02 -8.279838E+01  6.225474E+00 -1.025774E+02 -3.762057E+00  2.185755E+00
      1526   5 -1.510777E+02 -1.936973E+02 -2.420566E+01 -1.353438E+02  2.256624E+00 -2.717647E+00
      1526   6 -7.762751E+01 -1.126938E+02  4.447878E+00 -1.005735E+02  2.280363E+00 -2.546218E+00
      1526   7 -1.514524E+02 -1.929135E+02 -2.412823E+01 -1.350923E+02 -3.109016E+00  1.447669E+00
      1526   8 -7.782368E+01 -1.120408E+02  4.553143E+00 -1.002990E+02 -2.978705E+00  1.731502E+00
      1527   1 -1.163547E+02 -8.307316E+01 -1.053989E+01 -5.841655E+01  1.496241E+00 -1.990108E+00
      1527   2 -5.829842E+01 -2.260828E+01  6.715851E+00 -3.051320E+01  1.466347E+00 -1.839123E+00
      1527   3 -1.163275E+02 -8.237328E+01 -1.038102E+01 -5.804911E+01 -3.872610E+00  2.534869E+00
      1527   4 -5.811924E+01 -2.201004E+01  6.902813E+00 -3.013348E+01 -3.805565E+00  2.778008E+00
      1527   5 -9.026847E+01 -1.086626E+02 -1.120368E+01 -5.671304E+01  2.289450E+00 -2.425493E+00
      1527   6 -3.335198E+01 -4.680667E+01  6.406108E+00 -2.889311E+01  2.344408E+00 -2.329890E+00
      1527   7 -9.012231E+01 -1.080246E+02 -1.098984E+01 -5.645650E+01 -2.991222E+00  2.016335E+00
      1527   8 -3.305797E+01 -4.626554E+01  6.649191E+00 -2.861886E+01 -2.844004E+00  2.208374E+00
      1528   1 -5.658362E+01 -1.662929E+01 -4.248704E+00  1.846327E+00  1.470403E+00 -1.764782E+00
      1528   2 -1.018860E+01  3.124325E+01  6.070092E+00  2.483293E+01  1.450041E+00 -1.653474E+00
      1528   3 -5.619435E+01 -1.608976E+01 -4.006518E+00  2.216278E+00 -3.639755E+00  2.823863E+00
      1528   4 -9.671686E+00  3.170228E+01  6.339277E+00  2.521246E+01 -3.578208E+00  3.011943E+00
      1528   5 -3.240129E+01 -3.863964E+01 -3.928628E+00  3.113920E+00  2.432336E+00 -2.314388E+00
      1528   6  1.305239E+01  1.037690E+01  6.726630E+00  2.604328E+01  2.496677E+00 -2.258346E+00
      1528   7 -3.190236E+01 -3.815110E+01 -3.630026E+00  3.384471E+00 -2.598403E+00  2.199172E+00
      1528   8  1.367561E+01  1.078889E+01  7.053365E+00  2.632791E+01 -2.456116E+00  2.335603E+00
      1529   1 -1.782148E-01  4.039173E+01 -1.077861E+00  4.900396E+01  1.500779E+00 -1.631468E+00
      1529   2  3.785062E+01  7.951811E+01  4.797808E+00  6.841294E+01  1.483514E+00 -1.526440E+00
      1529   3  4.657361E-01  4.075697E+01 -7.887026E-01  4.938608E+01 -3.277689E+00  2.902658E+00
      1529   4  3.860341E+01  7.981748E+01  5.112184E+00  6.880308E+01 -3.226839E+00  3.070344E+00
      1529   5  2.229734E+01  2.081052E+01 -6.825337E-02  5.007667E+01  2.620313E+00 -2.291345E+00
      1529   6  5.954113E+01  6.091282E+01  6.129214E+00  6.944073E+01  2.687623E+00 -2.241584E+00
      1529   7  2.304245E+01  2.113086E+01  2.767026E-01  5.036862E+01 -2.088527E+00  2.176684E+00
      1529   8  6.039232E+01  6.117062E+01  6.500507E+00  6.974447E+01 -1.956404E+00  2.292104E+00
      1530   1  5.289036E+01  9.044485E+01  2.712347E-01  8.692694E+01  1.566532E+00 -1.526576E+00
      1530   2  8.476667E+01  1.233280E+02  3.319378E+00  1.036512E+02  1.566044E+00 -1.419743E+00
      1530   3  5.377388E+01  9.068185E+01  6.159305E-01  8.730595E+01 -2.847425E+00  2.876599E+00
      1530   4  8.574585E+01  1.235120E+02  3.688349E+00  1.040382E+02 -2.792249E+00  3.033375E+00
      1530   5  7.383844E+01  7.252699E+01  1.772624E+00  8.795384E+01  2.835461E+00 -2.293688E+00
      1530   6  1.050528E+02  1.062656E+02  5.125927E+00  1.046380E+02  2.919820E+00 -2.241137E+00
      1530   7  7.481522E+01  7.271987E+01  2.170456E+00  8.825071E+01 -1.519333E+00  2.052968E+00
      1530   8  1.061230E+02  1.064085E+02  5.549192E+00  1.049460E+02 -1.382021E+00  2.157905E+00
      1531   1 -1.794008E+02 -1.604682E+02 -2.088639E+01 -1.369082E+02 -1.933086E-02 -3.435518E+00
      1531   2 -1.045967E+02 -8.183621E+01  6.651029E+00 -1.019887E+02  4.477735E-02 -2.751264E+00
      1531   3 -1.789884E+02 -1.585569E+02 -2.026791E+01 -1.356729E+02 -5.594393E+00  1.031802E+00
      1531   4 -1.040885E+02 -8.016522E+01  7.239176E+00 -1.007768E+02 -5.414816E+00  1.825551E+00
      1531   5 -1.509982E+02 -1.915359E+02 -2.292137E+01 -1.345969E+02  9.994253E-01 -3.442672E+00
      1531   6 -7.758952E+01 -1.111168E+02  5.015429E+00 -9.980113E+01  1.134842E+00 -2.808739E+00
      1531   7 -1.504742E+02 -1.896544E+02 -2.224205E+01 -1.334969E+02 -4.478831E+00  9.297776E-01
      1531   8 -7.697406E+01 -1.094724E+02  5.665162E+00 -9.871731E+01 -4.233472E+00  1.678349E+00
      1532   1 -1.160673E+02 -8.153307E+01 -1.030262E+01 -5.753102E+01 -1.050274E-01 -2.145568E+00
      1532   2 -5.799785E+01 -2.150012E+01  6.458352E+00 -2.961754E+01 -5.314297E-03 -1.691535E+00
      1532   3 -1.150581E+02 -7.961756E+01 -9.481237E+00 -5.648485E+01 -5.534170E+00  2.550576E+00
      1532   4 -5.690207E+01 -1.976738E+01  7.264220E+00 -2.858938E+01 -5.335583E+00  3.097354E+00
      1532   5 -8.977758E+01 -1.072117E+02 -1.086283E+01 -5.602295E+01  1.079825E+00 -2.267913E+00
      1532   6 -3.285023E+01 -4.577569E+01  6.264850E+00 -2.818331E+01  1.254352E+00 -1.863055E+00
      1532   7 -8.866169E+01 -1.053144E+02 -9.976471E+00 -5.509673E+01 -4.260190E+00  2.340692E+00
      1532   8 -3.165139E+01 -4.405867E+01  7.136416E+00 -2.726925E+01 -3.991532E+00  2.842700E+00
      1533   1 -5.602527E+01 -1.570952E+01 -4.666832E+00  2.702270E+00  2.751566E-01 -1.602520E+00
      1533   2 -9.516142E+00  3.191129E+01  5.481901E+00  2.569622E+01  3.629346E-01 -1.267464E+00
      1533   3 -5.469597E+01 -1.395866E+01 -3.775254E+00  3.658519E+00 -4.825617E+00  3.093651E+00
      1533   4 -8.113080E+00  3.351347E+01  6.364040E+00  2.663688E+01 -4.655380E+00  3.504858E+00
      1533   5 -3.164746E+01 -3.778416E+01 -4.224186E+00  3.794401E+00  1.610232E+00 -1.827120E+00
      1533   6  1.391687E+01  1.098900E+01  6.267979E+00  2.673905E+01  1.774707E+00 -1.542414E+00
      1533   7 -3.021826E+01 -3.604346E+01 -3.266651E+00  4.642314E+00 -3.411453E+00  2.790992E+00
      1533   8  1.541689E+01  1.258301E+01  7.216791E+00  2.757626E+01 -3.168484E+00  3.155524E+00
      1534   1  6.564094E-01  4.082570E+01 -1.743480E+00  4.986867E+01  8.319553E-01 -1.409394E+00
      1534   2  3.882790E+01  7.978807E+01  4.097594E+00  6.928361E+01  9.029415E-01 -1.088961E+00
      1534   3  2.143851E+00  4.225395E+01 -8.781061E-01  5.080356E+01 -3.909247E+00  3.202913E+00
      1534   4  4.037721E+01  8.109254E+01  4.956839E+00  7.020493E+01 -3.770025E+00  3.585220E+00
      1534   5  2.331580E+01  2.119239E+01 -6.048912E-01  5.078242E+01  2.305527E+00 -1.730923E+00
      1534   6  6.069911E+01  6.113741E+01  5.563226E+00  7.015910E+01  2.453718E+00 -1.461359E+00
      1534   7  2.489337E+01  2.261136E+01  3.237051E-01  5.161961E+01 -2.366724E+00  2.812730E+00
      1534   8  6.233627E+01  6.243452E+01  6.486515E+00  7.098682E+01 -2.153588E+00  3.147203E+00
      1535   1  5.404590E+01  9.051985E+01 -4.995795E-01  8.777711E+01  1.474108E+00 -1.317784E+00
      1535   2  8.597138E+01  1.231926E+02  2.343451E+00  1.045087E+02  1.569481E+00 -9.748301E-01
      1535   3  5.572412E+01  9.165430E+01  3.569611E-01  8.868383E+01 -2.939537E+00  3.194275E+00
      1535   4  8.770567E+01  1.242289E+02  3.199176E+00  1.054058E+02 -2.787640E+00  3.587510E+00
      1535   5  7.516607E+01  7.255107E+01  1.132443E+00  8.866005E+01  3.076166E+00 -1.730904E+00
      1535   6  1.064294E+02  1.060877E+02  4.290704E+00  1.053572E+02  3.249288E+00 -1.436143E+00
      1535   7  7.692298E+01  7.366765E+01  2.045965E+00  8.948006E+01 -1.278037E+00  2.721145E+00
      1535   8  1.082407E+02  1.071082E+02  5.204441E+00  1.061710E+02 -1.051126E+00  3.068678E+00
      1536   1 -1.776698E+02 -1.560695E+02 -1.802733E+01 -1.344205E+02 -1.338323E+00 -4.351753E+00
      1536   2 -1.034668E+02 -7.862832E+01  7.728474E+00 -9.955805E+01 -1.168403E+00 -3.189518E+00
      1536   3 -1.763075E+02 -1.530208E+02 -1.678186E+01 -1.322367E+02 -7.226295E+00  5.141282E-01
      1536   4 -1.021070E+02 -7.593816E+01  8.879891E+00 -9.744249E+01 -6.932921E+00  1.792292E+00
      1536   5 -1.490968E+02 -1.871835E+02 -1.998943E+01 -1.323477E+02  1.167340E-01 -4.006336E+00
      1536   6 -7.628158E+01 -1.079360E+02  6.201166E+00 -9.759618E+01  3.430540E-01 -2.889425E+00
      1536   7 -1.476408E+02 -1.841054E+02 -1.866837E+01 -1.303102E+02 -5.668161E+00  7.547357E-01
      1536   8 -7.483120E+01 -1.052161E+02  7.428368E+00 -9.561910E+01 -5.324252E+00  1.993125E+00
      1537   1 -1.144403E+02 -7.818315E+01 -9.721689E+00 -5.544406E+01 -1.278926E+00 -2.288811E+00
      1537   2 -5.663009E+01 -1.888519E+01  6.104934E+00 -2.757548E+01 -1.112672E+00 -1.566788E+00
      1537   3 -1.124799E+02 -7.490399E+01 -8.202521E+00 -5.364849E+01 -6.838697E+00  2.654733E+00
      1537   4 -5.466094E+01 -1.589186E+01  7.554985E+00 -2.583525E+01 -6.570151E+00  3.471293E+00
      1537   5 -8.796157E+01 -1.038635E+02 -1.014688E+01 -5.414893E+01  3.199205E-01 -2.052898E+00
      1537   6 -3.129156E+01 -4.315129E+01  6.065863E+00 -2.634379E+01  5.504729E-01 -1.379269E+00
      1537   7 -8.590088E+01 -1.005391E+02 -8.544431E+00 -5.248731E+01 -5.148248E+00  2.797243E+00
      1537   8 -2.922537E+01 -4.011327E+01  7.599149E+00 -2.473096E+01 -4.820274E+00  3.570028E+00
      1538   1 -5.445632E+01 -1.323258E+01 -5.288363E+00  4.604130E+00 -4.749224E-01 -1.624065E+00
      1538   2 -7.945301E+00  3.399533E+01  4.590958E+00  2.755889E+01 -3.788512E-01 -1.100854E+00
      1538   3 -5.232768E+01 -1.020217E+01 -3.768387E+00  6.229961E+00 -5.567164E+00  3.192073E+00
      1538   4 -5.810999E+00  3.678326E+01  6.053165E+00  2.913590E+01 -5.387993E+00  3.790530E+00
      1538   5 -2.988784E+01 -3.528263E+01 -4.681133E+00  5.503089E+00  1.252264E+00 -1.486303E+00
      1538   6  1.567632E+01  1.310301E+01  5.549460E+00  2.841726E+01  1.416293E+00 -1.016733E+00
      1538   7 -2.766179E+01 -3.219775E+01 -3.076343E+00  7.005580E+00 -3.760917E+00  3.248637E+00
      1538   8  1.790525E+01  1.594461E+01  7.096382E+00  2.987652E+01 -3.517753E+00  3.797221E+00
      1539   1  2.340976E+00  4.254185E+01 -2.745503E+00  5.171383E+01  5.007476E-01 -1.487590E+00
      1539   2  4.061632E+01  8.127959E+01  3.111095E+00  7.109536E+01  5.819053E-01 -9.761040E-01
      1539   3  4.553572E+00  4.505647E+01 -1.331472E+00  5.326448E+01 -4.175378E+00  3.187079E+00
      1539   4  4.283446E+01  8.359544E+01  4.479760E+00  7.260547E+01 -4.026098E+00  3.759127E+00
      1539   5  2.517753E+01  2.293514E+01 -1.438253E+00  5.245396E+01  2.345301E+00 -1.446287E+00
      1539   6  6.266222E+01  6.265941E+01  4.749868E+00  7.180451E+01  2.495879E+00 -9.876628E-01
      1539   7  2.747470E+01  2.549408E+01  5.314540E-02  5.389498E+01 -2.262670E+00  3.157401E+00
      1539   8  6.496287E+01  6.501915E+01  6.196101E+00  7.320956E+01 -2.047226E+00  3.679662E+00
      1540   1  5.605170E+01  9.163794E+01 -1.573117E+00  8.955680E+01  1.525633E+00 -1.378872E+00
      1540   2  8.795022E+01  1.240135E+02  1.006241E+00  1.062645E+02  1.680990E+00 -7.998743E-01
      1540   3  5.847161E+01  9.365716E+01 -2.235080E-01  9.103358E+01 -2.884860E+00  3.249844E+00
      1540   4  9.038216E+01  1.258823E+02  2.326511E+00  1.077117E+02 -2.671845E+00  3.879586E+00
      1540   5  7.733034E+01  7.367750E+01  2.224760E-01  9.028720E+01  3.479032E+00 -1.425139E+00
      1540   6  1.085686E+02  1.069248E+02  3.129573E+00  1.069663E+02  3.704936E+00 -8.909180E-01
      1540   7  7.981667E+01  7.571341E+01  1.636033E+00  9.167091E+01 -8.713578E-01  3.139705E+00
      1540   8  1.110658E+02  1.088110E+02  4.514568E+00  1.083242E+02 -5.905714E-01  3.727232E+00
      1541   1 -1.741145E+02 -1.494614E+02 -1.376954E+01 -1.302462E+02 -1.938999E+00 -4.965519E+00
      1541   2 -1.012175E+02 -7.395373E+01  8.854310E+00 -9.552120E+01 -1.666867E+00 -3.328955E+00
      1541   3 -1.716096E+02 -1.449190E+02 -1.173345E+01 -1.269946E+02 -8.392907E+00  5.492476E-01
      1541   4 -9.882624E+01 -6.991000E+01  1.072297E+01 -9.239010E+01 -7.983990E+00  2.313266E+00
      1541   5 -1.454041E+02 -1.805161E+02 -1.563989E+01 -1.284324E+02 -2.570350E-03 -4.172145E+00
      1541   6 -7.387574E+01 -1.031789E+02  7.475482E+00 -9.380447E+01  3.105311E-01 -2.576607E+00
      1541   7 -1.428173E+02 -1.758652E+02 -1.350410E+01 -1.253422E+02 -6.342510E+00  1.222988E+00
      1541   8 -7.140495E+01 -9.903041E+01  9.443158E+00 -9.082613E+01 -5.899078E+00  2.952187E+00
      1542   1 -1.119002E+02 -7.301291E+01 -9.352626E+00 -5.197509E+01 -1.431358E+00 -2.529892E+00
      1542   2 -5.445221E+01 -1.460821E+01  5.541274E+00 -2.422394E+01 -1.438423E+00 -1.593533E+00
      1542   3 -1.093576E+02 -6.821436E+01 -7.198803E+00 -4.920014E+01 -7.092019E+00  2.650791E+00
      1542   4 -5.201622E+01 -1.026719E+01  7.540489E+00 -2.156315E+01 -6.993937E+00  3.681983E+00
      1542   5 -8.522850E+01 -9.855517E+01 -9.582773E+00 -5.092276E+01  6.176497E-01 -1.840772E+00
      1542   6 -2.891896E+01 -3.873175E+01  5.713992E+00 -2.322316E+01  6.619864E-01 -9.716366E-01
      1542   7 -8.257466E+01 -9.358965E+01 -7.304847E+00 -4.831108E+01 -4.948986E+00  3.240858E+00
      1542   8 -2.637541E+01 -3.423011E+01  7.835375E+00 -2.071763E+01 -4.804450E+00  4.209705E+00
      1543   1 -5.226424E+01 -9.146318E+00 -6.133174E+00  7.773586E+00 -4.075715E-01 -2.029305E+00
      1543   2 -5.839016E+00  3.754654E+01  3.485798E+00  3.062373E+01 -5.988548E-01 -1.284513E+00
      1543   3 -4.999393E+01 -5.074076E+00 -4.252707E+00  1.036405E+01 -5.464462E+00  2.892818E+00
      1543   4 -3.670576E+00  4.121614E+01  5.228403E+00  3.311070E+01 -5.572709E+00  3.710362E+00
      1543   5 -2.749684E+01 -3.103092E+01 -5.302802E+00  8.448041E+00  1.738967E+00 -1.465144E+00
      1543   6  1.797882E+01  1.681853E+01  4.671956E+00  3.126776E+01  1.602525E+00 -7.998564E-01
      1543   7 -2.511851E+01 -2.678169E+01 -3.297581E+00  1.088562E+01 -3.238830E+00  3.372883E+00
      1543   8  2.025198E+01  2.065869E+01  6.537407E+00  3.360874E+01 -3.296129E+00  4.114824E+00
      1544   1  4.681082E+00  4.565179E+01 -3.914315E+00  5.467872E+01  6.025263E-01 -2.004086E+00
      1544   2  4.296144E+01  8.402750E+01  1.899000E+00  7.397558E+01  5.020649E-01 -1.327675E+00
      1544   3  7.226055E+00  4.916674E+01 -2.094726E+00  5.699087E+01 -4.001607E+00  2.733207E+00
      1544   4  4.543357E+01  8.722979E+01  3.615658E+00  7.620781E+01 -4.034357E+00  3.467937E+00
      1544   5  2.769582E+01  2.618523E+01 -2.392676E+00  5.522095E+01  2.837351E+00 -1.571185E+00
      1544   6  6.518315E+01  6.554666E+01  3.755051E+00  7.449511E+01  2.796567E+00 -9.648391E-01
      1544   7  3.033031E+01  2.983617E+01 -4.670225E-01  5.740173E+01 -1.699234E+00  3.092996E+00
      1544   8  6.774253E+01  6.888078E+01  5.576755E+00  7.660149E+01 -1.675502E+00  3.760818E+00
      1545   1  5.889778E+01  9.387741E+01 -2.692444E+00  9.235202E+01  1.644299E+00 -1.847650E+00
      1545   2  9.089609E+01  1.260660E+02  5.262612E-02  1.089994E+02  1.772618E+00 -1.025387E+00
      1545   3  6.186019E+01  9.667277E+01 -9.412338E-01  9.447589E+01 -2.659909E+00  2.804982E+00
      1545   4  9.381738E+01  1.286435E+02  1.738468E+00  1.110689E+02 -2.474103E+00  3.676841E+00
      1545   5  8.032044E+01  7.599646E+01 -7.064905E-01  9.291749E+01  3.967101E+00 -1.523895E+00
      1545   6  1.116583E+02  1.090590E+02  2.371434E+00  1.095428E+02  4.157851E+00 -7.496064E-01
      1545   7  8.334043E+01  7.885875E+01  1.120441E+00  9.493817E+01 -2.777107E-01  3.062424E+00
      1545   8  1.146363E+02  1.117021E+02  4.133251E+00  1.115131E+02 -3.220983E-02  3.888900E+00
      1546   1 -1.694735E+02 -1.405256E+02 -9.377301E+00 -1.240075E+02 -1.861743E-01 -5.040259E+00
      1546   2 -9.840974E+01 -6.756870E+01  9.265867E+00 -8.953496E+01 -5.070239E-01 -3.169638E+00
      1546   3 -1.668614E+02 -1.337978E+02 -6.652915E+00 -1.190991E+02 -7.332710E+00  1.284003E+00
      1546   4 -9.613409E+01 -6.169946E+01  1.165026E+01 -8.486640E+01 -7.501624E+00  3.292407E+00
      1546   5 -1.406141E+02 -1.713098E+02 -1.106481E+01 -1.224967E+02  2.312587E+00 -3.552542E+00
      1546   6 -7.089528E+01 -9.650610E+01  8.134060E+00 -8.810498E+01  2.012100E+00 -1.777276E+00
      1546   7 -1.378710E+02 -1.642180E+02 -8.144599E+00 -1.178134E+02 -4.706225E+00  2.635093E+00
      1546   8 -6.849346E+01 -9.029005E+01  1.070900E+01 -8.364943E+01 -4.861826E+00  4.555314E+00
      1547   1 -1.096739E+02 -6.614318E+01 -9.816957E+00 -4.653455E+01  4.669196E-01 -3.400669E+00
      1547   2 -5.231213E+01 -8.480178E+00  5.166392E+00 -1.902402E+01 -4.408287E-01 -2.144838E+00
      1547   3 -1.081768E+02 -6.039234E+01 -7.684911E+00 -4.202730E+01 -5.036737E+00  1.794547E+00
      1547   4 -5.114389E+01 -3.538411E+00  6.971561E+00 -1.474784E+01 -5.842078E+00  3.137764E+00
      1547   5 -8.276626E+01 -9.127199E+01 -9.733892E+00 -4.578917E+01  3.020151E+00 -2.096054E+00
      1547   6 -2.655189E+01 -3.220793E+01  5.642870E+00 -1.831514E+01  2.139547E+00 -9.817090E-01
      1547   7 -8.111481E+01 -8.508976E+01 -7.386323E+00 -4.151084E+01 -2.390602E+00  2.998442E+00
      1547   8 -2.523517E+01 -2.685420E+01  7.657058E+00 -1.425668E+01 -3.173470E+00  4.205238E+00
      1548   1 -5.020780E+01 -3.471127E+00 -6.557372E+00  1.278080E+01  7.089638E-01 -3.017619E+00
      1548   2 -4.056722E+00  4.239519E+01  2.690071E+00  3.542068E+01 -1.771108E-01 -1.925294E+00
      1548   3 -4.879577E+01  1.091978E+00 -4.781761E+00  1.679245E+01 -4.302557E+00  2.004705E+00
      1548   4 -2.910751E+00  4.630643E+01  4.203913E+00  3.924431E+01 -5.106467E+00  3.165409E+00
      1548   5 -2.521899E+01 -2.495127E+01 -5.426778E+00  1.317300E+01  3.307906E+00 -1.949010E+00
      1548   6  1.997779E+01  2.205864E+01  4.175236E+00  3.579518E+01  2.455885E+00 -9.924870E-01
      1548   7 -2.367483E+01 -2.001300E+01 -3.459752E+00  1.698434E+01 -1.624110E+00  2.986263E+00
      1548   8  2.125155E+01  2.632974E+01  5.875590E+00  3.942756E+01 -2.397707E+00  4.015261E+00
      1549   1  7.100970E+00  5.018040E+01 -4.673849E+00  5.912750E+01  1.063550E+00 -2.931633E+00
      1549   2  4.512028E+01  8.785404E+01  7.234118E-01  7.826084E+01  3.051573E-01 -1.964345E+00
      1549   3  8.705184E+00  5.391699E+01 -3.064730E+00  6.265246E+01 -3.522330E+00  1.918657E+00
      1549   4  4.651894E+01  9.107590E+01  2.129301E+00  8.163748E+01 -4.213519E+00  2.940639E+00
      1549   5  3.030666E+01  3.104085E+01 -2.881419E+00  5.942684E+01  3.707184E+00 -2.083043E+00
      1549   6  6.753065E+01  6.969228E+01  2.852211E+00  7.854767E+01  2.990588E+00 -1.238698E+00
      1549   7  3.202203E+01  3.508711E+01 -1.107469E+00  6.277872E+01 -8.102969E-01  2.691329E+00
      1549   8  6.903726E+01  7.321224E+01  4.419472E+00  8.175846E+01 -1.462750E+00  3.593713E+00
      1550   1  6.227747E+01  9.727903E+01 -3.416987E+00  9.633442E+01  1.461849E+00 -2.718225E+00
      1550   2  9.456507E+01  1.294340E+02  1.060099E-01  1.128713E+02  1.176548E+00 -1.744023E+00
      1550   3  6.487267E+01  1.005515E+02 -1.626535E+00  9.928781E+01 -2.596686E+00  1.817960E+00
      1550   4  9.703271E+01  1.323569E+02  1.765402E+00  1.157259E+02 -2.826927E+00  2.836999E+00
      1550   5  8.383420E+01  7.958710E+01 -1.217334E+00  9.671040E+01  4.158959E+00 -2.060105E+00
      1550   6  1.154559E+02  1.126084E+02  2.629746E+00  1.132326E+02  3.924997E+00 -1.168450E+00
      1550   7  8.650073E+01  8.304636E+01  6.870863E-01  9.953132E+01  1.575539E-01  2.410136E+00
      1550   8  1.179934E+02  1.157121E+02  4.401714E+00  1.159599E+02 -2.390464E-02  3.349258E+00
      1551   1 -1.532106E+02 -1.784655E+02 -2.127294E+01 -1.334562E+02  1.781732E+00 -2.274876E+00
      1551   2 -8.586149E+01 -9.623053E+01  6.121602E+00 -1.003133E+02  1.717258E+00 -2.052780E+00
      1551   3 -1.536874E+02 -1.776372E+02 -2.124436E+01 -1.331892E+02 -3.892953E+00  1.388815E+00
      1551   4 -8.618099E+01 -9.551738E+01  6.174764E+00 -1.000102E+02 -3.848699E+00  1.735359E+00
      1551   5 -1.267200E+02 -2.079159E+02 -2.354683E+01 -1.265043E+02  2.340421E+00 -2.487365E+00
      1551   6 -6.066679E+01 -1.239830E+02  4.253427E+00 -9.373342E+01  2.353830E+00 -2.307357E+00
      1551   7 -1.270561E+02 -2.071781E+02 -2.347158E+01 -1.263300E+02 -3.225983E+00  1.089533E+00
      1551   8 -6.085177E+01 -1.233542E+02  4.354000E+00 -9.351808E+01 -3.109947E+00  1.398766E+00
      1552   1 -1.046008E+02 -8.877236E+01 -1.018083E+01 -5.858157E+01  1.627279E+00 -1.878279E+00
      1552   2 -5.241741E+01 -2.584696E+01  6.539985E+00 -3.198479E+01  1.597462E+00 -1.730321E+00
      1552   3 -1.046033E+02 -8.806374E+01 -1.002524E+01 -5.828109E+01 -3.963068E+00  2.072725E+00
      1552   4 -5.228830E+01 -2.522250E+01  6.722294E+00 -3.165604E+01 -3.898474E+00  2.328014E+00
      1552   5 -7.980631E+01 -1.130559E+02 -1.091493E+01 -5.304352E+01  2.355011E+00 -2.181296E+00
      1552   6 -2.869072E+01 -4.879481E+01  6.183719E+00 -2.671799E+01  2.402921E+00 -2.073998E+00
      1552   7 -7.968098E+01 -1.124212E+02 -1.070975E+01 -5.282467E+01 -3.133751E+00  1.688147E+00
      1552   8 -2.843874E+01 -4.823926E+01  6.416342E+00 -2.646687E+01 -2.996734E+00  1.906919E+00
      1553   1 -5.573235E+01 -1.513588E+01 -4.157971E+00 -1.259699E+00  1.604719E+00 -1.657055E+00
      1553   2 -1.411282E+01  3.479681E+01  5.829823E+00  2.069411E+01  1.585659E+00 -1.548305E+00
      1553   3 -5.541551E+01 -1.455368E+01 -3.922595E+00 -9.232200E-01 -3.726216E+00  2.392354E+00
      1553   4 -1.368514E+01  3.531288E+01  6.090990E+00  2.105334E+01 -3.665571E+00  2.590791E+00
      1553   5 -3.260028E+01 -3.596356E+01 -3.840143E+00  3.420982E+00  2.487227E+00 -2.044697E+00
      1553   6  8.135134E+00  1.506964E+01  6.507023E+00  2.516350E+01  2.545816E+00 -1.976458E+00
      1553   7 -3.216627E+01 -3.544365E+01 -3.554279E+00  3.684073E+00 -2.751998E+00  1.930907E+00
      1553   8  8.675986E+00  1.552752E+01  6.819389E+00  2.545266E+01 -2.618190E+00  2.092326E+00
      1554   1 -7.911398E+00  4.718196E+01 -1.143075E+00  4.399055E+01  1.640426E+00 -1.522136E+00
      1554   2  2.611546E+01  8.806687E+01  4.523399E+00  6.253746E+01  1.624360E+00 -1.419576E+00
      1554   3 -7.372515E+00  4.761766E+01 -8.630905E-01  4.436708E+01 -3.354948E+00  2.515069E+00
      1554   4  2.674884E+01  8.844842E+01  4.827356E+00  6.293300E+01 -3.304970E+00  2.690914E+00
      1554   5  1.365193E+01  2.869938E+01 -8.740405E-02  4.816466E+01  2.667372E+00 -1.991819E+00
      1554   6  4.694172E+01  7.052405E+01  5.921827E+00  6.653680E+01  2.728806E+00 -1.929905E+00
      1554   7  1.429840E+01  2.907975E+01  2.421192E-01  4.847457E+01 -2.247578E+00  1.980423E+00
      1554   8  4.767939E+01  7.085378E+01  6.276051E+00  6.686850E+01 -2.123823E+00  2.118510E+00
      1555   1  3.820606E+01  1.012236E+02  1.091577E-01  8.067158E+01  1.711197E+00 -1.411590E+00
      1555   2  6.664440E+01  1.356330E+02  3.016469E+00  9.664473E+01  1.711725E+00 -1.305533E+00
      1555   3  3.896068E+01  1.015492E+02  4.420430E-01  8.106972E+01 -2.915041E+00  2.540325E+00
      1555   4  6.748141E+01  1.359152E+02  3.372022E+00  9.705984E+01 -2.860988E+00  2.704683E+00
      1555   5  5.831381E+01  8.434318E+01  1.689112E+00  8.456480E+01  2.874646E+00 -1.961502E+00
      1555   6  8.613197E+01  1.195764E+02  4.919333E+00  1.003860E+02  2.952608E+00 -1.895250E+00
      1555   7  5.916658E+01  8.461507E+01  2.068471E+00  8.490278E+01 -1.683464E+00  1.935063E+00
      1555   8  8.706442E+01  1.198081E+02  5.322160E+00  1.007432E+02 -1.555003E+00  2.061947E+00
      1556   1 -1.533649E+02 -1.762127E+02 -2.009826E+01 -1.326960E+02  1.425622E-01 -3.531193E+00
      1556   2 -8.608648E+01 -9.453096E+01  6.586752E+00 -9.950438E+01  1.902577E-01 -2.827367E+00
      1556   3 -1.530804E+02 -1.742295E+02 -1.949333E+01 -1.316174E+02 -5.662868E+00  3.227978E-01
      1556   4 -8.572550E+01 -9.277249E+01  7.159737E+00 -9.842698E+01 -5.502692E+00  1.153943E+00
      1556   5 -1.266460E+02 -2.058123E+02 -2.230953E+01 -1.259099E+02  1.081780E+00 -3.419877E+00
      1556   6 -6.066597E+01 -1.224150E+02  4.800590E+00 -9.308145E+01  1.192003E+00 -2.752625E+00
      1556   7 -1.262372E+02 -2.038734E+02 -2.164813E+01 -1.249383E+02 -4.612040E+00  3.412693E-01
      1556   8 -6.018585E+01 -1.206971E+02  5.430352E+00 -9.210534E+01 -4.395615E+00  1.140827E+00
      1557   1 -1.044119E+02 -8.718662E+01 -9.947526E+00 -5.782947E+01  3.072148E-02 -2.234472E+00
      1557   2 -5.223995E+01 -2.465566E+01  6.295833E+00 -3.119386E+01  1.227599E-01 -1.759107E+00
      1557   3 -1.035716E+02 -8.518968E+01 -9.150015E+00 -5.689746E+01 -5.634128E+00  1.871787E+00
      1557   4 -5.132682E+01 -2.282685E+01  7.077653E+00 -3.026120E+01 -5.445636E+00  2.455473E+00
      1557   5 -7.939613E+01 -1.115797E+02 -1.058431E+01 -5.243773E+01  1.119939E+00 -2.208644E+00
      1557   6 -2.829509E+01 -4.769994E+01  6.050207E+00 -2.606620E+01  1.278530E+00 -1.767852E+00
      1557   7 -7.843711E+01 -1.096152E+02 -9.726895E+00 -5.160072E+01 -4.441707E+00  1.811604E+00
      1557   8 -2.726765E+01 -4.590049E+01  6.892220E+00 -2.522388E+01 -4.192059E+00  2.364989E+00
      1558   1 -5.532966E+01 -1.410379E+01 -4.556701E+00 -4.787259E-01  4.113559E-01 -1.636602E+00
      1558   2 -1.361888E+01  3.560530E+01  5.268675E+00  2.150618E+01  4.946276E-01 -1.283921E+00
      1558   3 -5.420068E+01 -1.225072E+01 -3.693030E+00  3.980255E-01 -4.921500E+00  2.512413E+00
      1558   4 -1.242680E+01  3.732201E+01  6.122956E+00  2.238303E+01 -4.757853E+00  2.954335E+00
      1558   5 -3.198549E+01 -3.501376E+01 -4.121188E+00  4.070144E+00  1.634790E+00 -1.683699E+00
      1558   6  8.836948E+00  1.580490E+01  6.070738E+00  2.584971E+01  1.786860E+00 -1.366619E+00
      1558   7 -3.074538E+01 -3.318401E+01 -3.196998E+00  4.860726E+00 -3.606235E+00  2.388447E+00
      1558   8  1.013644E+01  1.750061E+01  6.985812E+00  2.664427E+01 -3.378293E+00  2.798325E+00
      1559   1 -7.279195E+00  4.778182E+01 -1.777745E+00  4.483089E+01  9.772756E-01 -1.371338E+00
      1559   2  2.686984E+01  8.852493E+01  3.858540E+00  6.340344E+01  1.043080E+00 -1.036373E+00
      1559   3 -6.015543E+00  4.933743E+01 -9.406373E-01  4.572044E+01 -3.990264E+00  2.739393E+00
      1559   4  2.818556E+01  8.996630E+01  4.688967E+00  6.429217E+01 -3.858157E+00  3.147012E+00
      1559   5  1.448305E+01  2.923149E+01 -5.969419E-01  4.888556E+01  2.323392E+00 -1.487073E+00
      1559   6  4.789135E+01  7.092182E+01  5.387722E+00  6.728833E+01  2.458358E+00 -1.188499E+00
      1559   7  1.584598E+01  3.076587E+01  2.974157E-01  4.969748E+01 -2.563965E+00  2.556007E+00
      1559   8  4.930338E+01  7.234401E+01  6.275801E+00  6.810266E+01 -2.366417E+00  2.930161E+00
      1560   1  3.912649E+01  1.015001E+02 -6.210611E-01  8.154432E+01  1.626922E+00 -1.197588E+00
      1560   2  6.759826E+01  1.357210E+02  2.093129E+00  9.754065E+01  1.715077E+00 -8.377200E-01
      1560   3  4.056431E+01  1.027752E+02  2.053022E-01  8.244168E+01 -3.008431E+00  2.854585E+00
      1560   4  6.908121E+01  1.369043E+02  2.916854E+00  9.843804E+01 -2.865704E+00  3.273451E+00
      1560   5  5.941907E+01  8.455572E+01  1.087114E+00  8.533052E+01  3.084918E+00 -1.377925E+00
      1560   6  8.727058E+01  1.196100E+02  4.135876E+00  1.011790E+02  3.241850E+00 -1.052380E+00
      1560   7  6.094132E+01  8.580233E+01  1.963696E+00  8.616008E+01 -1.481297E+00  2.615187E+00
      1560   8  8.883581E+01  1.207672E+02  5.010486E+00  1.020113E+02 -1.272864E+00  3.002120E+00
      1561   1 -1.519490E+02 -1.716719E+02 -1.733414E+01 -1.304999E+02 -1.145328E+00 -4.618307E+00
      1561   2 -8.527556E+01 -9.113006E+01  7.627706E+00 -9.732563E+01 -1.005947E+00 -3.412199E+00
      1561   3 -1.508933E+02 -1.684267E+02 -1.611872E+01 -1.285271E+02 -7.286645E+00 -4.106979E-01
      1561   4 -8.423213E+01 -8.823351E+01  8.748551E+00 -9.539568E+01 -7.026610E+00  9.307067E-01
      1561   5 -1.250356E+02 -2.013434E+02 -1.947942E+01 -1.239055E+02  1.942765E-01 -4.133750E+00
      1561   6 -5.965296E+01 -1.190641E+02  5.945962E+00 -9.108411E+01  3.800081E-01 -2.959831E+00
      1561   7 -1.238686E+02 -1.980848E+02 -1.819222E+01 -1.220569E+02 -5.827499E+00 -2.897886E-02
      1561   8 -5.850272E+01 -1.161535E+02  7.138248E+00 -8.927169E+01 -5.527812E+00  1.285638E+00
      1562   1 -1.031238E+02 -8.364866E+01 -9.385764E+00 -5.596447E+01 -1.132173E+00 -2.515002E+00
      1562   2 -5.121741E+01 -2.181461E+01  5.956218E+00 -2.933998E+01 -9.813278E-01 -1.756426E+00
      1562   3 -1.014933E+02 -8.019425E+01 -7.911016E+00 -5.434870E+01 -6.944428E+00  1.815084E+00
      1562   4 -4.958267E+01 -1.863495E+01  7.363303E+00 -2.775695E+01 -6.693627E+00  2.684398E+00
      1562   5 -7.789313E+01 -1.080660E+02 -9.889587E+00 -5.074452E+01  3.338773E-01 -2.111427E+00
      1562   6 -2.705651E+01 -4.487023E+01  5.864158E+00 -2.437568E+01  5.403789E-01 -1.386747E+00
      1562   7 -7.614431E+01 -1.045827E+02 -8.335691E+00 -4.924345E+01 -5.371839E+00  2.126785E+00
      1562   8 -2.530787E+01 -4.166157E+01  7.349825E+00 -2.290172E+01 -5.070942E+00  2.966688E+00
      1563   1 -5.412822E+01 -1.138451E+01 -5.154791E+00  1.260625E+00 -3.249542E-01 -1.738625E+00
      1563   2 -1.242559E+01  3.795733E+01  4.414209E+00  2.323494E+01 -2.396715E-01 -1.191761E+00
      1563   3 -5.234812E+01 -8.165512E+00 -3.681806E+00  2.739618E+00 -5.660397E+00  2.522634E+00
      1563   4 -1.064193E+01  4.094354E+01  5.831207E+00  2.468473E+01 -5.493962E+00  3.158045E+00
      1563   5 -3.056766E+01 -3.228946E+01 -4.554282E+00  5.652693E+00  1.252423E+00 -1.404123E+00
      1563   6  1.024348E+01  1.816829E+01  5.389295E+00  2.742873E+01  1.397984E+00 -8.960608E-01
      1563   7 -2.867292E+01 -2.903143E+01 -3.000870E+00  7.024961E+00 -3.990779E+00  2.777074E+00
      1563   8  1.213786E+01  2.119296E+01  6.886100E+00  2.877658E+01 -3.768581E+00  3.377336E+00
      1564   1 -5.989072E+00  4.978946E+01 -2.737127E+00  4.657762E+01  6.660935E-01 -1.476529E+00
      1564   2  2.825178E+01  9.032607E+01  2.920242E+00  6.513985E+01  7.352580E-01 -9.442209E-01
      1564   3 -4.133145E+00  5.251091E+01 -1.367961E+00  4.802899E+01 -4.244149E+00  2.695154E+00
      1564   4  3.010977E+01  9.285547E+01  4.244554E+00  6.656618E+01 -4.108606E+00  3.298957E+00
      1564   5  1.597268E+01  3.124910E+01 -1.386472E+00  5.049166E+01  2.344320E+00 -1.210050E+00
      1564   6  4.946963E+01  7.273767E+01  4.624274E+00  6.888999E+01  2.474785E+00 -7.161462E-01
      1564   7  1.792688E+01  3.400084E+01  5.487058E-02  5.184861E+01 -2.486135E+00  2.891513E+00
      1564   8  5.142299E+01  7.529734E+01  6.020528E+00  7.022587E+01 -2.292994E+00  3.459889E+00
      1565   1  4.072172E+01  1.029354E+02 -1.639117E+00  8.329545E+01  1.699950E+00 -1.233840E+00
      1565   2  6.915748E+01  1.368778E+02  8.282053E-01  9.928500E+01  1.840539E+00 -6.243412E-01
      1565   3  4.278481E+01  1.051643E+02 -3.343542E-01  8.472955E+01 -2.940677E+00  2.926624E+00
      1565   4  7.122550E+01  1.389601E+02  2.102178E+00  1.007005E+02 -2.744105E+00  3.596095E+00
      1565   5  6.118956E+01  8.598669E+01  2.350307E-01  8.696054E+01  3.468642E+00 -1.027915E+00
      1565   6  8.900737E+01  1.207719E+02  3.051746E+00  1.028070E+02  3.669818E+00 -4.495837E-01
      1565   7  6.332702E+01  8.822053E+01  1.597165E+00  8.831682E+01 -1.101309E+00  3.069324E+00
      1565   8  9.114797E+01  1.228600E+02  4.383473E+00  1.041477E+02 -8.472820E-01  3.710100E+00
      1566   1 -1.490395E+02 -1.647062E+02 -1.321943E+01 -1.267187E+02 -1.708601E+00 -5.291770E+00
      1566   2 -8.364192E+01 -8.604024E+01  8.710201E+00 -9.363610E+01 -1.480567E+00 -3.586629E+00
      1566   3 -1.470573E+02 -1.598228E+02 -1.123512E+01 -1.237524E+02 -8.450416E+00 -5.094774E-01
      1566   4 -8.177179E+01 -8.165210E+01  1.052798E+01 -9.076044E+01 -8.088340E+00  1.344806E+00
      1566   5 -1.219561E+02 -1.943472E+02 -1.527945E+01 -1.203477E+02  6.290482E-02 -4.334212E+00
      1566   6 -5.783041E+01 -1.139175E+02  7.174686E+00 -8.760604E+01  3.204805E-01 -2.657425E+00
      1566   7 -1.198686E+02 -1.893740E+02 -1.319876E+01 -1.175283E+02 -6.546102E+00  3.304722E-01
      1566   8 -5.585885E+01 -1.094426E+02  9.087529E+00 -8.486937E+01 -6.161889E+00  2.162462E+00
      1567   1 -1.012064E+02 -7.809122E+01 -9.035768E+00 -5.285156E+01 -1.253039E+00 -2.749755E+00
      1567   2 -4.965077E+01 -1.711973E+01  5.408265E+00 -2.630237E+01 -1.285776E+00 -1.795104E+00
      1567   3 -9.921006E+01 -7.296473E+01 -6.945972E+00 -5.037771E+01 -7.183045E+00  1.796288E+00
      1567   4 -4.774913E+01 -1.244457E+01  7.348330E+00 -2.391197E+01 -7.112735E+00  2.862633E+00
      1567   5 -7.574359E+01 -1.023966E+02 -9.343041E+00 -4.784467E+01  6.119485E-01 -1.868831E+00
      1567   6 -2.525745E+01 -4.005713E+01  5.530332E+00 -2.154069E+01  6.243943E-01 -9.668990E-01
      1567   7 -7.360530E+01 -9.712274E+01 -7.130635E+00 -4.552472E+01 -5.208302E+00  2.579700E+00
      1567   8 -2.321937E+01 -3.524045E+01  7.590379E+00 -1.929666E+01 -5.098485E+00  3.598076E+00
      1568   1 -5.256504E+01 -6.864138E+00 -5.974240E+00  4.133229E+00 -2.195365E-01 -2.114819E+00
      1568   2 -1.094219E+01  4.196182E+01  3.348265E+00  2.603963E+01 -4.342009E-01 -1.379359E+00
      1568   3 -5.084188E+01 -2.439057E+00 -4.151645E+00  6.461271E+00 -5.530490E+00  2.247404E+00
      1568   4 -9.307950E+00  4.598911E+01  5.037839E+00  2.829121E+01 -5.663727E+00  3.069186E+00
      1568   5 -2.876644E+01 -2.762713E+01 -5.146605E+00  8.325933E+00  1.729426E+00 -1.330032E+00
      1568   6  1.196053E+01  2.231461E+01  4.555131E+00  3.004302E+01  1.565294E+00 -6.592751E-01
      1568   7 -2.690515E+01 -2.304399E+01 -3.200838E+00  1.050774E+01 -3.488884E+00  2.949202E+00
      1568   8  1.372800E+01  2.649419E+01  6.365357E+00  3.215499E+01 -3.576066E+00  3.710080E+00
      1569   1 -4.271200E+00  5.335769E+01 -3.861777E+00  4.933886E+01  8.079765E-01 -1.963732E+00
      1569   2  2.997495E+01  9.354514E+01  1.759627E+00  6.784517E+01  6.866533E-01 -1.286529E+00
      1569   3 -2.242364E+00  5.720580E+01 -2.097555E+00  5.146558E+01 -4.038217E+00  2.270098E+00
      1569   4  3.193817E+01  9.708408E+01  3.423646E+00  6.991265E+01 -4.093286E+00  3.016749E+00
      1569   5  1.790128E+01  3.493762E+01 -2.292499E+00  5.307860E+01  2.832920E+00 -1.281932E+00
      1569   6  5.140004E+01  7.607739E+01  3.685545E+00  7.142833E+01  2.765321E+00 -6.602412E-01
      1569   7  2.004276E+01  3.890522E+01 -4.253732E-01  5.508162E+01 -1.933775E+00  2.879551E+00
      1569   8  5.347238E+01  7.973195E+01  5.450911E+00  7.337729E+01 -1.938771E+00  3.573756E+00
      1570   1  4.296222E+01  1.056322E+02 -2.703361E+00  8.600089E+01  1.856814E+00 -1.670455E+00
      1570   2  7.149091E+01  1.393965E+02 -6.484608E-02  1.019500E+02  1.962021E+00 -8.147771E-01
      1570   3  4.544276E+01  1.087353E+02 -1.005659E+00  8.803920E+01 -2.681664E+00  2.516530E+00
      1570   4  7.392917E+01  1.422826E+02  1.567048E+00  1.039472E+02 -2.520327E+00  3.431323E+00
      1570   5  6.359589E+01  8.874848E+01 -6.350105E-01  8.952563E+01  3.953990E+00 -1.070805E+00
      1570   6  9.150620E+01  1.233590E+02  2.359439E+00  1.053371E+02  4.111809E+00 -2.495886E-01
      1570   7  6.614650E+01  9.190545E+01  1.132847E+00  9.147096E+01 -5.139497E-01  3.050245E+00
      1570   8  9.401288E+01  1.262981E+02  4.061310E+00  1.072449E+02 -3.031196E-01  3.933094E+00
      1571   1 -1.454617E+02 -1.550976E+02 -8.972030E+00 -1.210684E+02  1.089954E-01 -5.087174E+00
      1571   2 -8.183034E+01 -7.892813E+01  9.099955E+00 -8.817934E+01 -2.731311E-01 -3.222306E+00
      1571   3 -1.437525E+02 -1.477526E+02 -6.331048E+00 -1.167019E+02 -7.370594E+00  4.138060E-01
      1571   4 -8.041897E+01 -7.244445E+01  1.141104E+01 -8.400306E+01 -7.603175E+00  2.441017E+00
      1571   5 -1.181793E+02 -1.845041E+02 -1.085447E+01 -1.149819E+02  2.357409E+00 -3.407121E+00
      1571   6 -5.579714E+01 -1.065501E+02  7.810298E+00 -8.241855E+01  1.991686E+00 -1.624069E+00
      1571   7 -1.162888E+02 -1.768222E+02 -8.016044E+00 -1.108443E+02 -4.973067E+00  1.959537E+00
      1571   8 -5.421224E+01 -9.974572E+01  1.031252E+01 -7.845898E+01 -5.197404E+00  3.911954E+00
      1572   1 -1.000052E+02 -7.048344E+01 -9.498629E+00 -4.802330E+01  7.298332E-01 -3.343803E+00
      1572   2 -4.850545E+01 -1.024913E+01  5.038686E+00 -2.165485E+01 -2.301791E-01 -2.183642E+00
      1572   3 -9.940466E+01 -6.407377E+01 -7.437221E+00 -4.406410E+01 -5.052700E+00  1.222638E+00
      1572   4 -4.818677E+01 -4.650569E+00  6.786165E+00 -1.787786E+01 -5.911622E+00  2.487270E+00
      1572   5 -7.423990E+01 -9.440931E+01 -9.486735E+00 -4.331447E+01  3.024103E+00 -1.818408E+00
      1572   6 -2.382220E+01 -3.282347E+01  5.469498E+00 -1.717663E+01  2.095132E+00 -7.851708E-01
      1572   7 -7.342536E+01 -8.759504E+01 -7.204700E+00 -3.959497E+01 -2.649719E+00  2.648897E+00
      1572   8 -2.329859E+01 -2.683865E+01  7.430122E+00 -1.362759E+01 -3.483052E+00  3.791562E+00
      1573   1 -5.150909E+01 -4.308060E-01 -6.391723E+00  8.621651E+00  9.678520E-01 -2.937009E+00
      1573   2 -1.012649E+01  4.757687E+01  2.575369E+00  3.036905E+01  3.461065E-02 -1.939821E+00
      1573   3 -5.091328E+01  4.762872E+00 -4.672058E+00  1.219611E+01 -4.310139E+00  1.520782E+00
      1573   4 -9.759259E+00  5.211631E+01  4.043273E+00  3.379460E+01 -5.162245E+00  2.600271E+00
      1573   5 -2.742594E+01 -2.082070E+01 -5.257765E+00  1.253775E+01  3.309233E+00 -1.619206E+00
      1573   6  1.305326E+01  2.829128E+01  4.087047E+00  3.410836E+01  2.413379E+00 -7.434563E-01
      1573   7 -2.664604E+01 -1.527504E+01 -3.343060E+00  1.590248E+01 -1.875435E+00  2.752715E+00
      1573   8  1.359754E+01  3.316808E+01  5.744209E+00  3.733363E+01 -2.694518E+00  3.714773E+00
      1574   1 -2.775271E+00  5.860449E+01 -4.597202E+00  5.341213E+01  1.325130E+00 -2.814913E+00
      1574   2  3.123352E+01  9.809747E+01  6.230038E-01  7.179443E+01  5.250801E-01 -1.928601E+00
      1574   3 -1.906409E+00  6.292331E+01 -3.035122E+00  5.660383E+01 -3.514864E+00  1.525648E+00
      1574   4  3.192459E+01  1.018993E+02  1.989075E+00  7.486850E+01 -4.248544E+00  2.478234E+00
      1574   5  1.963933E+01  4.048527E+01 -2.752160E+00  5.691707E+01  3.711134E+00 -1.689861E+00
      1574   6  5.289656E+01  8.092388E+01  2.827032E+00  7.515262E+01  2.954482E+00 -9.122777E-01
      1574   7  2.066258E+01  4.509371E+01 -1.023497E+00  5.992910E+01 -1.048160E+00  2.575546E+00
      1574   8  5.373673E+01  8.500442E+01  4.355480E+00  7.805454E+01 -1.742017E+00  3.422678E+00
      1575   1  4.550368E+01  1.096820E+02 -3.396189E+00  8.979749E+01  1.720238E+00 -2.553565E+00
      1575   2  7.431822E+01  1.434069E+02  5.689963E-03  1.056615E+02  1.400638E+00 -1.597028E+00
      1575   3  4.746314E+01  1.134336E+02 -1.654662E+00  9.256296E+01 -2.571506E+00  1.534885E+00
      1575   4  7.616262E+01  1.468070E+02  1.618908E+00  1.083481E+02 -2.837028E+00  2.545680E+00
      1575   5  6.630277E+01  9.296822E+01 -1.111964E+00  9.314691E+01  4.155832E+00 -1.592732E+00
      1575   6  9.449190E+01  1.275322E+02  2.636095E+00  1.088802E+02  3.882823E+00 -7.048822E-01
      1575   7  6.836023E+01  9.689061E+01  7.414828E-01  9.578052E+01 -6.787158E-02  2.430138E+00
      1575   8  9.643150E+01  1.310975E+02  4.359287E+00  1.114400E+02 -2.897493E-01  3.374811E+00
      1576   1 -1.284395E+02 -1.922123E+02 -2.042156E+01 -1.257197E+02  1.900710E+00 -2.136879E+00
      1576   2 -6.820777E+01 -1.076323E+02  6.039711E+00 -9.515576E+01  1.833364E+00 -1.920681E+00
      1576   3 -1.288726E+02 -1.914309E+02 -2.038912E+01 -1.255455E+02 -3.919588E+00  9.237025E-01
      1576   4 -6.851250E+01 -1.069451E+02  6.093594E+00 -9.493303E+01 -3.883969E+00  1.280446E+00
      1576   5 -1.043283E+02 -2.194844E+02 -2.285865E+01 -1.148042E+02  2.400397E+00 -2.260989E+00
      1576   6 -4.526007E+01 -1.333181E+02  4.029020E+00 -8.482440E+01  2.402146E+00 -2.074471E+00
      1576   7 -1.046194E+02 -2.187985E+02 -2.278427E+01 -1.146898E+02 -3.298437E+00  7.171484E-01
      1576   8 -4.542928E+01 -1.327202E+02  4.125228E+00 -8.465824E+01 -3.200493E+00  1.048709E+00
      1577   1 -9.296376E+01 -9.393202E+01 -9.822040E+00 -5.734928E+01  1.744544E+00 -1.756857E+00
      1577   2 -4.637101E+01 -2.904535E+01  6.330646E+00 -3.270469E+01  1.714783E+00 -1.611075E+00
      1577   3 -9.298439E+01 -9.322912E+01 -9.670054E+00 -5.711363E+01 -4.000117E+00  1.605715E+00
      1577   4 -4.628233E+01 -2.840912E+01  6.507188E+00 -3.243037E+01 -3.940150E+00  1.873382E+00
      1577   5 -7.005861E+01 -1.163271E+02 -1.063344E+01 -4.835241E+01  2.395130E+00 -1.944775E+00
      1577   6 -2.443356E+01 -5.018953E+01  5.918473E+00 -2.414844E+01  2.434530E+00 -1.826983E+00
      1577   7 -6.994987E+01 -1.157033E+02 -1.043713E+01 -4.816963E+01 -3.234915E+00  1.339886E+00
      1577   8 -2.422077E+01 -4.962740E+01  6.139679E+00 -2.392440E+01 -3.111693E+00  1.583476E+00
      1578   1 -5.424591E+01 -1.408341E+01 -4.080818E+00 -4.379789E+00  1.725084E+00 -1.537850E+00
      1578   2 -1.717920E+01  3.750540E+01  5.553379E+00  1.601170E+01  1.707236E+00 -1.430674E+00
      1578   3 -5.399323E+01 -1.347253E+01 -3.853828E+00 -4.086480E+00 -3.763916E+00  1.957021E+00
      1578   4 -1.683384E+01  3.806460E+01  5.804312E+00  1.633641E+01 -3.706093E+00  2.166210E+00
      1578   5 -3.270160E+01 -3.321524E+01 -3.778549E+00  3.386826E+00  2.513620E+00 -1.784838E+00
      1578   6  3.560925E+00  1.940572E+01  6.235073E+00  2.342768E+01  2.564943E+00 -1.705463E+00
      1578   7 -3.233036E+01 -3.267174E+01 -3.506774E+00  3.632366E+00 -2.871738E+00  1.639426E+00
      1578   8  4.020500E+00  1.990156E+01  6.531114E+00  2.370678E+01 -2.749729E+00  1.824108E+00
      1579   1 -1.451883E+01  5.282712E+01 -1.231747E+00  3.789338E+01  1.765073E+00 -1.399389E+00
      1579   2  1.569199E+01  9.512897E+01  4.208131E+00  5.513203E+01  1.750021E+00 -1.298604E+00
      1579   3 -1.407959E+01  5.332055E+01 -9.634428E-01  3.824553E+01 -3.390373E+00  2.125110E+00
      1579   4  1.620997E+01  9.557989E+01  4.498427E+00  5.551027E+01 -3.343024E+00  2.309144E+00
      1579   5  5.641615E+00  3.590725E+01 -1.479463E-01  4.487186E+01  2.682101E+00 -1.703948E+00
      1579   6  3.518223E+01  7.909145E+01  5.652397E+00  6.181830E+01  2.735986E+00 -1.631214E+00
      1579   7  6.189114E+00  3.634049E+01  1.637866E-01  4.518062E+01 -2.382585E+00  1.758507E+00
      1579   8  3.580487E+01  7.948565E+01  5.986487E+00  6.215497E+01 -2.270415E+00  1.917200E+00
      1580   1  2.497318E+01  1.103326E+02 -8.711534E-02  7.250313E+01  1.838813E+00 -1.281843E+00
      1580   2  5.013756E+01  1.459730E+02  2.664314E+00  8.734168E+01  1.839658E+00 -1.176330E+00
      1580   3  2.560037E+01  1.107355E+02  2.301579E-01  7.289491E+01 -2.949881E+00  2.202637E+00
      1580   4  5.083249E+01  1.463414E+02  3.001760E+00  8.775594E+01 -2.899019E+00  2.373934E+00
      1580   5  4.378776E+01  9.491654E+01  1.548977E+00  7.898544E+01  2.876648E+00 -1.643234E+00
      1580   6  6.838918E+01  1.313304E+02  4.636845E+00  9.357092E+01  2.945989E+00 -1.565285E+00
      1580   7  4.451256E+01  9.526143E+01  1.906292E+00  7.933849E+01 -1.835675E+00  1.788751E+00
      1580   8  6.917878E+01  1.316439E+02  5.014803E+00  9.394797E+01 -1.719623E+00  1.934647E+00
      1581   1 -1.285888E+02 -1.900268E+02 -1.928497E+01 -1.251458E+02  3.175201E-01 -3.619849E+00
      1581   2 -6.846099E+01 -1.059514E+02  6.494207E+00 -9.450997E+01  3.442649E-01 -2.898868E+00
      1581   3 -1.284098E+02 -1.880083E+02 -1.869660E+01 -1.242290E+02 -5.644756E+00 -3.928135E-01
      1581   4 -6.822644E+01 -1.041411E+02  7.048533E+00 -9.357791E+01 -5.511182E+00  4.724494E-01
      1581   5 -1.042446E+02 -2.174570E+02 -2.166603E+01 -1.143408E+02  1.166938E+00 -3.408172E+00
      1581   6 -4.528236E+01 -1.317766E+02  4.560607E+00 -8.428322E+01  1.246407E+00 -2.712521E+00
      1581   7 -1.039346E+02 -2.154898E+02 -2.102504E+01 -1.135029E+02 -4.669498E+00 -2.695814E-01
      1581   8 -4.492264E+01 -1.300136E+02  5.167414E+00 -8.342581E+01 -4.490197E+00  5.750637E-01
      1582   1 -9.284783E+01 -9.233155E+01 -9.588969E+00 -5.673370E+01  1.772775E-01 -2.319946E+00
      1582   2 -4.629330E+01 -2.780015E+01  6.104758E+00 -3.203092E+01  2.579291E-01 -1.823315E+00
      1582   3 -9.215659E+01 -9.029034E+01 -8.819724E+00 -5.593230E+01 -5.652682E+00  1.181092E+00
      1582   4 -4.554458E+01 -2.591061E+01  6.857844E+00 -3.121478E+01 -5.480253E+00  1.800986E+00
      1582   5 -6.971495E+01 -1.148441E+02 -1.030715E+01 -4.783457E+01  1.158301E+00 -2.169028E+00
      1582   6 -2.413138E+01 -4.904816E+01  5.799656E+00 -2.356762E+01  1.295962E+00 -1.694537E+00
      1582   7 -6.889895E+01 -1.128434E+02 -9.482943E+00 -4.710283E+01 -4.554784E+00  1.249731E+00
      1582   8 -2.326293E+01 -4.719605E+01  6.607556E+00 -2.281773E+01 -4.331366E+00  1.851524E+00
      1583   1 -5.397723E+01 -1.296679E+01 -4.454563E+00 -3.696501E+00  5.501936E-01 -1.666332E+00
      1583   2 -1.684396E+01  3.842785E+01  5.025467E+00  1.674224E+01  6.257632E-01 -1.295649E+00
      1583   3 -5.303164E+01 -1.104639E+01 -3.623951E+00 -2.925141E+00 -4.949673E+00  1.919454E+00
      1583   4 -1.584771E+01  4.022556E+01  5.846308E+00  1.752555E+01 -4.797703E+00  2.391882E+00
      1583   5 -3.221399E+01 -3.218783E+01 -4.037467E+00  3.981584E+00  1.646783E+00 -1.563169E+00
      1583   6  4.110631E+00  2.024839E+01  5.829444E+00  2.407369E+01  1.781862E+00 -1.215420E+00
      1583   7 -3.115190E+01 -3.029879E+01 -3.151782E+00  4.689398E+00 -3.748876E+00  1.948957E+00
      1583   8  5.219151E+00  2.201722E+01  6.705231E+00  2.479632E+01 -3.542415E+00  2.401810E+00
      1584   1 -1.407186E+01  5.356942E+01 -1.828522E+00  3.867132E+01  1.113741E+00 -1.327162E+00
      1584   2  1.623897E+01  9.575258E+01  3.586297E+00  5.594873E+01  1.170955E+00 -9.780043E-01
      1584   3 -1.302002E+01  5.522121E+01 -1.025716E+00  3.948171E+01 -4.021254E+00  2.265484E+00
      1584   4  1.733144E+01  9.730020E+01  4.381285E+00  5.676771E+01 -3.901253E+00  2.697456E+00
      1584   5  6.293608E+00  3.657631E+01 -6.213562E-01  4.556953E+01  2.314315E+00 -1.268244E+00
      1584   6  3.593057E+01  7.964983E+01  5.160246E+00  6.255810E+01  2.431239E+00 -9.432569E-01
      1584   7  7.448669E+00  3.819978E+01  2.328327E-01  4.632260E+01 -2.729683E+00  2.259604E+00
      1584   8  3.712286E+01  8.117127E+01  6.006636E+00  6.332217E+01 -2.554100E+00  2.670158E+00
      1585   1  2.566945E+01  1.107925E+02 -7.678822E-01  7.334912E+01  1.755754E+00 -1.070714E+00
      1585   2  5.085076E+01  1.462668E+02  1.804877E+00  8.822078E+01  1.831918E+00 -6.959757E-01
      1585   3  2.687165E+01  1.121816E+02  2.104303E-02  7.419750E+01 -3.048554E+00  2.504625E+00
      1585   4  5.208568E+01  1.475702E+02  2.588484E+00  8.907576E+01 -2.921135E+00  2.946329E+00
      1585   5  4.467333E+01  9.530950E+01  9.967412E-01  7.976055E+01  3.048376E+00 -1.053454E+00
      1585   6  6.929233E+01  1.315679E+02  3.919655E+00  9.438191E+01  3.182917E+00 -7.017380E-01
      1585   7  4.596076E+01  9.666443E+01  1.829258E+00  8.055982E+01 -1.677683E+00  2.465517E+00
      1585   8  7.061001E+01  1.328394E+02  4.747174E+00  9.518970E+01 -1.495261E+00  2.886431E+00
      1586   1 -1.274433E+02 -1.854144E+02 -1.661951E+01 -1.232595E+02 -9.168935E-01 -4.875377E+00
      1586   2 -6.792470E+01 -1.024229E+02  7.500729E+00 -9.261083E+01 -8.171448E-01 -3.629965E+00
      1586   3 -1.266588E+02 -1.820306E+02 -1.543950E+01 -1.215287E+02 -7.230095E+00 -1.340463E+00
      1586   4 -6.716462E+01 -9.937571E+01  8.585273E+00 -9.090182E+01 -7.015426E+00  5.875461E-02
      1586   5 -1.028890E+02 -2.129273E+02 -1.893633E+01 -1.125995E+02  2.953408E-01 -4.274930E+00
      1586   6 -4.452800E+01 -1.283071E+02  5.672743E+00 -8.252129E+01  4.305153E-01 -3.051406E+00
      1586   7 -1.019810E+02 -2.095400E+02 -1.768792E+01 -1.109703E+02 -5.882445E+00 -8.382283E-01
      1586   8 -4.364996E+01 -1.252554E+02  6.824829E+00 -8.090844E+01 -5.639848E+00  5.442216E-01
      1587   1 -9.185347E+01 -8.867312E+01 -9.042407E+00 -5.512725E+01 -9.578390E-01 -2.738756E+00
      1587   2 -4.557250E+01 -2.479545E+01  5.785762E+00 -3.040929E+01 -8.287971E-01 -1.944516E+00
      1587   3 -9.051835E+01 -8.510393E+01 -7.619004E+00 -5.372996E+01 -6.947202E+00  9.621546E-01
      1587   4 -4.423982E+01 -2.148646E+01  7.143049E+00 -2.902546E+01 -6.722982E+00  1.882597E+00
      1587   5 -6.848827E+01 -1.112207E+02 -9.625486E+00 -4.635774E+01  3.617023E-01 -2.196169E+00
      1587   6 -2.317769E+01 -4.606486E+01  5.637035E+00 -2.206926E+01  5.366156E-01 -1.423517E+00
      1587   7 -6.702210E+01 -1.076341E+02 -8.127044E+00 -4.505456E+01 -5.506704E+00  1.416813E+00
      1587   8 -2.171926E+01 -4.273818E+01  7.068295E+00 -2.077492E+01 -5.242829E+00  2.319912E+00
      1588   1 -5.310101E+01 -1.006636E+01 -5.021393E+00 -2.172001E+00 -1.634468E-01 -1.850305E+00
      1588   2 -1.598845E+01  4.099036E+01  4.216429E+00  1.827852E+01 -9.350357E-02 -1.279834E+00
      1588   3 -5.163770E+01 -6.716227E+00 -3.602743E+00 -8.862676E-01 -5.674341E+00  1.839710E+00
      1588   4 -1.452595E+01  4.412028E+01  5.580821E+00  1.955189E+01 -5.527159E+00  2.511417E+00
      1588   5 -3.110399E+01 -2.929212E+01 -4.435597E+00  5.386857E+00  1.248006E+00 -1.351970E+00
      1588   6  5.196243E+00  2.281332E+01  5.197513E+00  2.549613E+01  1.369251E+00 -8.074784E-01
      1588   7 -2.951360E+01 -2.591457E+01 -2.940996E+00  6.584074E+00 -4.157882E+00  2.261250E+00
      1588   8  6.781093E+00  2.597046E+01  6.636791E+00  2.668498E+01 -3.964448E+00  2.910431E+00
      1589   1 -1.314191E+01  5.581667E+01 -2.735524E+00  4.025427E+01  8.238093E-01 -1.460583E+00
      1589   2  1.724664E+01  9.781381E+01  2.707263E+00  5.753899E+01  8.761489E-01 -9.085981E-01
      1589   3 -1.161813E+01  5.869537E+01 -1.418819E+00  4.155402E+01 -4.259586E+00  2.191341E+00
      1589   4  1.876680E+01  1.005090E+02  3.979204E+00  5.882667E+01 -4.144224E+00  2.825192E+00
      1589   5  7.438140E+00  3.882650E+01 -1.353619E+00  4.704564E+01  2.316568E+00 -1.005734E+00
      1589   6  3.714947E+01  8.171954E+01  4.461777E+00  6.404600E+01  2.420671E+00 -4.799374E-01
      1589   7  9.069278E+00  4.172535E+01  2.998181E-02  4.826743E+01 -2.675783E+00  2.578836E+00
      1589   8  3.877342E+01  8.443494E+01  5.799957E+00  6.525898E+01 -2.512780E+00  3.189308E+00
      1590   1  2.687610E+01  1.125053E+02 -1.717765E+00  7.499740E+01  1.842884E+00 -1.083950E+00
      1590   2  5.201190E+01  1.477214E+02  6.288022E-01  8.987425E+01  1.960780E+00 -4.474769E-01
      1590   3  2.859431E+01  1.149042E+02 -4.667634E-01  7.633366E+01 -2.971574E+00  2.590900E+00
      1590   4  5.372584E+01  1.499769E+02  1.846527E+00  9.120012E+01 -2.800704E+00  3.296019E+00
      1590   5  4.606537E+01  9.701535E+01  2.197204E-01  8.131884E+01  3.404293E+00 -6.668051E-01
      1590   6  7.064223E+01  1.330264E+02  2.934458E+00  9.594890E+01  3.571371E+00 -5.093498E-02
      1590   7  4.786125E+01  9.941194E+01  1.521675E+00  8.259254E+01 -1.329259E+00  2.947232E+00
      1590   8  7.243165E+01  1.352805E+02  4.203150E+00  9.721464E+01 -1.112680E+00  3.634078E+00
      1591   1 -1.251098E+02 -1.781984E+02 -1.265498E+01 -1.199357E+02 -1.433991E+00 -5.600045E+00
      1591   2 -6.683775E+01 -9.701719E+01  8.540853E+00 -8.934010E+01 -1.264222E+00 -3.832831E+00
      1591   3 -1.235945E+02 -1.730534E+02 -1.072782E+01 -1.173153E+02 -8.370218E+00 -1.565333E+00
      1591   4 -6.543624E+01 -9.236050E+01  1.030206E+01 -8.678341E+01 -8.072648E+00  3.715979E-01
      1591   5 -1.003593E+02 -2.056966E+02 -1.488590E+01 -1.094624E+02  1.591730E-01 -4.506821E+00
      1591   6 -4.322584E+01 -1.228580E+02  6.863104E+00 -7.942726E+01  3.462780E-01 -2.758329E+00
      1591   7 -9.871951E+01 -2.004753E+02 -1.286533E+01 -1.069728E+02 -6.626240E+00 -5.844981E-01
      1591   8 -4.170517E+01 -1.181278E+02  8.715779E+00 -7.699433E+01 -6.319639E+00  1.339468E+00
      1592   1 -9.048120E+01 -8.283798E+01 -8.708227E+00 -5.244929E+01 -1.049002E+00 -2.960853E+00
      1592   2 -4.454265E+01 -1.978413E+01  5.259830E+00 -2.776959E+01 -1.111973E+00 -1.989507E+00
      1592   3 -8.896561E+01 -7.747468E+01 -6.689059E+00 -5.034785E+01 -7.168170E+00  9.346717E-01
      1592   4 -4.311388E+01 -1.486031E+01  7.134325E+00 -2.572241E+01 -7.132909E+00  2.033670E+00
      1592   5 -6.685112E+01 -1.052900E+02 -9.088326E+00 -4.385997E+01  6.168902E-01 -1.922271E+00
      1592   6 -2.188402E+01 -4.095078E+01  5.331921E+00 -1.960093E+01  5.916731E-01 -9.910097E-01
      1592   7 -6.516666E+01 -9.979626E+01 -6.948239E+00 -4.189953E+01 -5.377501E+00  1.879961E+00
      1592   8 -2.029353E+01 -3.590171E+01  7.324074E+00 -1.768785E+01 -5.310862E+00  2.943374E+00
      1593   1 -5.209202E+01 -5.213392E+00 -5.808164E+00  3.115259E-01 -2.453512E-02 -2.191126E+00
      1593   2 -1.505691E+01  4.535332E+01  3.198864E+00  2.072671E+01 -2.629697E-01 -1.465619E+00
      1593   3 -5.085362E+01 -5.214777E-01 -4.049993E+00  2.298311E+00 -5.519206E+00  1.594615E+00
      1593   4 -1.389825E+01  4.965776E+01  4.829058E+00  2.266314E+01 -5.679924E+00  2.419383E+00
      1593   5 -2.982393E+01 -2.431298E+01 -4.987416E+00  7.699722E+00  1.709175E+00 -1.223742E+00
      1593   6  6.393205E+00  2.730338E+01  4.419685E+00  2.778136E+01  1.515598E+00 -5.496432E-01
      1593   7 -2.842073E+01 -1.947998E+01 -3.107987E+00  9.550690E+00 -3.679794E+00  2.482354E+00
      1593   8  7.710223E+00  3.174349E+01  6.168008E+00  2.958809E+01 -3.800686E+00  3.259313E+00
      1594   1 -1.198571E+01  5.975948E+01 -3.805909E+00  4.271210E+01  1.001372E+00 -1.911880E+00
      1594   2  1.840519E+01  1.014249E+02  1.609673E+00  5.996573E+01  8.564815E-01 -1.235294E+00
      1594   3 -1.042608E+01  6.387015E+01 -2.104147E+00  4.457616E+01 -4.023897E+00  1.801579E+00
      1594   4  1.990331E+01  1.052331E+02  3.213761E+00  6.178994E+01 -4.105622E+00  2.558249E+00
      1594   5  8.831718E+00  4.287757E+01 -2.197349E+00  4.935544E+01  2.795856E+00 -1.022463E+00
      1594   6  3.854122E+01  8.544009E+01  3.594785E+00  6.633091E+01  2.697331E+00 -3.887940E-01
      1594   7  1.052357E+01  4.709334E+01 -3.960705E-01  5.110611E+01 -2.138291E+00  2.621342E+00
      1594   8  4.016692E+01  8.934991E+01  5.296336E+00  6.804647E+01 -2.177749E+00  3.337998E+00
      1595   1  2.854839E+01  1.155985E+02 -2.714543E+00  7.751074E+01  2.032840E+00 -1.481719E+00
      1595   2  5.376809E+01  1.506464E+02 -1.890713E-01  9.236241E+01  2.106041E+00 -5.968951E-01
      1595   3  3.057242E+01  1.189592E+02 -1.078188E+00  7.938971E+01 -2.681363E+00  2.222265E+00
      1595   4  5.574583E+01  1.537915E+02  1.379995E+00  9.421144E+01 -2.554699E+00  3.175361E+00
      1595   5  4.791941E+01  1.001685E+02 -5.741457E-01  8.371676E+01  3.880319E+00 -6.512761E-01
      1595   6  7.258029E+01  1.360162E+02  2.328449E+00  9.832614E+01  3.994769E+00  2.096934E-01
      1595   7  5.002173E+01  1.035731E+02  1.126620E+00  8.551393E+01 -7.523434E-01  2.988888E+00
      1595   8  7.463411E+01  1.392044E+02  3.961346E+00  1.000966E+02 -5.879168E-01  3.920521E+00
      1596   1 -1.224731E+02 -1.680764E+02 -8.560893E+00 -1.149995E+02  4.097695E-01 -5.105330E+00
      1596   2 -6.590445E+01 -8.932569E+01  8.908403E+00 -8.454226E+01 -3.858038E-02 -3.252296E+00
      1596   3 -1.215419E+02 -1.602531E+02 -6.005570E+00 -1.112919E+02 -7.295432E+00 -4.442547E-01
      1596   4 -6.524116E+01 -8.235776E+01  1.114348E+01 -8.097503E+01 -7.600935E+00  1.594201E+00
      1596   5 -9.747846E+01 -1.953667E+02 -1.061374E+01 -1.047877E+02  2.394260E+00 -3.269590E+00
      1596   6 -4.202698E+01 -1.149352E+02  7.479592E+00 -7.487697E+01  1.956894E+00 -1.486743E+00
      1596   7 -9.631876E+01 -1.872334E+02 -7.860163E+00 -1.013065E+02 -5.141686E+00  1.263266E+00
      1596   8 -4.114600E+01 -1.076724E+02  9.905671E+00 -7.152405E+01 -5.445407E+00  3.238209E+00
      1597   1 -9.016152E+01 -7.466495E+01 -9.167754E+00 -4.837885E+01  9.807865E-01 -3.264405E+00
      1597   2 -4.425716E+01 -1.233195E+01  4.898256E+00 -2.382138E+01 -2.122535E-02 -2.202040E+00
      1597   3 -9.032389E+01 -6.774227E+01 -7.179422E+00 -4.509948E+01 -4.998949E+00  6.569016E-01
      1597   4 -4.466343E+01 -6.211800E+00  6.585732E+00 -2.067338E+01 -5.904115E+00  1.839921E+00
      1597   5 -6.616708E+01 -9.676707E+01 -9.220093E+00 -4.007086E+01  2.999791E+00 -1.559135E+00
      1597   6 -2.125007E+01 -3.316381E+01  5.286632E+00 -1.592027E+01  2.030929E+00 -6.095556E-01
      1597   7 -6.605816E+01 -8.946875E+01 -7.007258E+00 -3.703370E+01 -2.856250E+00  2.267337E+00
      1597   8 -2.139721E+01 -2.668532E+01  7.190220E+00 -1.300262E+01 -3.734447E+00  3.342290E+00
      1598   1 -5.190432E+01  1.821548E+00 -6.215547E+00  4.126882E+00  1.211434E+00 -2.833203E+00
      1598   2 -1.508270E+01  5.158938E+01  2.453860E+00  2.443367E+01  2.417403E-01 -1.932894E+00
      1598   3 -5.201157E+01  7.523857E+00 -4.553841E+00  7.136678E+00 -4.260327E+00  1.042821E+00
      1598   4 -1.538825E+01  5.664341E+01  3.873890E+00  2.733529E+01 -5.152189E+00  2.038720E+00
      1598   5 -2.929267E+01 -1.693304E+01 -5.080229E+00  1.125188E+01  3.275881E+00 -1.309025E+00
      1598   6  6.700640E+00  3.387398E+01  3.987173E+00  3.123698E+01  2.345217E+00 -5.162776E-01
      1598   7 -2.916583E+01 -1.090380E+01 -3.220833E+00  1.404961E+01 -2.089318E+00  2.484615E+00
      1598   8  6.619618E+00  3.924119E+01  5.598317E+00  3.393612E+01 -2.947110E+00  3.376769E+00
      1599   1 -1.130893E+01  6.559854E+01 -4.511706E+00  4.626061E+01  1.565322E+00 -2.673250E+00
      1599   2  1.886300E+01  1.065848E+02  5.196932E-01  6.342834E+01  7.325682E-01 -1.870055E+00
      1599   3 -1.108299E+01  7.040042E+01 -2.998566E+00  4.899936E+01 -3.463278E+00  1.139878E+00
      1599   4  1.893321E+01  1.108737E+02  1.843904E+00  6.608118E+01 -4.232277E+00  2.020518E+00
      1599   5  9.797303E+00  4.899498E+01 -2.620395E+00  5.268293E+01  3.671023E+00 -1.316279E+00
      1599   6  3.928205E+01  9.087303E+01  2.790464E+00  6.958176E+01  2.881657E+00 -6.083938E-01
      1599   7  1.021892E+01  5.406549E+01 -9.396215E-01  5.524115E+01 -1.264905E+00  2.424421E+00
      1599   8  3.954066E+01  9.542018E+01  4.277408E+00  7.206162E+01 -1.994580E+00  3.212875E+00
      1600   1  3.031556E+01  1.202114E+02 -3.368393E+00  8.098328E+01  1.947413E+00 -2.363712E+00
      1600   2  5.581241E+01  1.552156E+02 -9.584428E-02  9.577237E+01  1.592289E+00 -1.428462E+00
      1600   3  3.169676E+01  1.243736E+02 -1.679454E+00  8.345838E+01 -2.519572E+00  1.259914E+00
      1600   4  5.708738E+01  1.590274E+02  1.467110E+00  9.818829E+01 -2.822874E+00  2.258602E+00
      1600   5  4.987777E+01  1.049380E+02 -1.007413E+00  8.703059E+01  4.095467E+00 -1.146735E+00
      1600   6  7.480769E+01  1.407353E+02  2.632090E+00  1.015836E+02  3.780718E+00 -2.682401E-01
      1600   7  5.138094E+01  1.092561E+02  7.911024E-01  8.937748E+01 -2.926212E-01  2.413314E+00
      1600   8  7.620063E+01  1.446976E+02  4.302158E+00  1.038763E+02 -5.588804E-01  3.357692E+00
      1601   1 -1.055237E+02 -2.034846E+02 -1.955956E+01 -1.151004E+02  2.003195E+00 -1.994788E+00
      1601   2 -5.188565E+01 -1.173227E+02  5.920867E+00 -8.780014E+01  1.933189E+00 -1.784391E+00
      1601   3 -1.059051E+02 -2.027617E+02 -1.952326E+01 -1.150010E+02 -3.894403E+00  4.587026E-01
      1601   4 -5.216750E+01 -1.166748E+02  5.974715E+00 -8.764608E+01 -3.869496E+00  8.245693E-01
      1601   5 -8.435608E+01 -2.280061E+02 -2.215638E+01 -1.007803E+02  2.437352E+00 -2.044513E+00
      1601   6 -3.172008E+01 -1.404011E+02  3.768066E+00 -7.424630E+01  2.426758E+00 -1.853722E+00
      1601   7 -8.460065E+01 -2.273761E+02 -2.208239E+01 -1.007101E+02 -3.326451E+00  3.329054E-01
      1601   8 -3.187156E+01 -1.398402E+02  3.859623E+00 -7.411992E+01 -3.249525E+00  6.832852E-01
      1602   1 -8.169112E+01 -9.831986E+01 -9.472666E+00 -5.482851E+01  1.846891E+00 -1.630454E+00
      1602   2 -4.029397E+01 -3.206053E+01  6.082174E+00 -3.268329E+01  1.817180E+00 -1.486012E+00
      1602   3 -8.172069E+01 -9.763809E+01 -9.325489E+00 -5.465371E+01 -3.984879E+00  1.137623E+00
      1602   4 -4.023666E+01 -3.142886E+01  6.251152E+00 -3.246462E+01 -3.931577E+00  1.417586E+00
      1602   5 -6.117844E+01 -1.183360E+02 -1.036808E+01 -4.284023E+01  2.411716E+00 -1.722056E+00
      1602   6 -2.062570E+01 -5.093622E+01  5.604388E+00 -2.128214E+01  2.441575E+00 -1.595079E+00
      1602   7 -6.108306E+01 -1.177321E+02 -1.018157E+01 -4.269131E+01 -3.293097E+00  9.737393E-01
      1602   8 -2.044876E+01 -5.037776E+01  5.812652E+00 -2.108808E+01 -3.186695E+00  1.239829E+00
      1603   1 -5.213957E+01 -1.344693E+01 -4.025194E+00 -7.407839E+00  1.830287E+00 -1.411844E+00
      1603   2 -1.931187E+01  3.931666E+01  5.233016E+00  1.097075E+01  1.813515E+00 -1.305336E+00
      1603   3 -5.194178E+01 -1.282455E+01 -3.808772E+00 -7.164646E+00 -3.753947E+00  1.521024E+00
      1603   4 -1.903987E+01  3.990091E+01  5.470920E+00  1.124970E+01 -3.700851E+00  1.740950E+00
      1603   5 -3.263773E+01 -3.044958E+01 -3.751826E+00  3.034611E+00  2.514091E+00 -1.541140E+00
      1603   6 -5.153136E-01  2.325669E+01  5.902697E+00  2.094177E+01  2.556964E+00 -1.451871E+00
      1603   7 -3.232543E+01 -2.989396E+01 -3.496053E+00  3.254109E+00 -2.955308E+00  1.326209E+00
      1603   8 -1.332258E-01  2.377792E+01  6.179904E+00  2.119810E+01 -2.848015E+00  1.531915E+00
      1604   1 -1.983923E+01  5.719288E+01 -1.353724E+00  3.096753E+01  1.873228E+00 -1.268148E+00
      1604   2  6.815266E+00  1.005015E+02  3.839131E+00  4.651734E+01  1.858851E+00 -1.168600E+00
      1604   3 -1.949134E+01  5.772599E+01 -1.100280E+00  3.127963E+01 -3.385542E+00  1.734867E+00
      1604   4  7.225740E+00  1.010027E+02  4.111891E+00  4.685895E+01 -3.342674E+00  1.926608E+00
      1604   5 -1.499291E+00  4.222668E+01 -2.613004E-01  4.037798E+01  2.667480E+00 -1.434514E+00
      1604   6  2.456727E+01  8.634199E+01  5.305771E+00  5.553376E+01  2.712431E+00 -1.352650E+00
      1604   7 -1.047366E+00  4.270004E+01  2.978351E-02  4.066842E+01 -2.491087E+00  1.511140E+00
      1604   8  2.507811E+01  8.678665E+01  5.616189E+00  5.585462E+01 -2.393359E+00  1.687664E+00
      1605   1  1.349126E+01  1.175108E+02 -3.324850E-01  6.278398E+01  1.947379E+00 -1.142775E+00
      1605   2  3.560600E+01  1.540250E+02  2.241665E+00  7.616088E+01  1.947632E+00 -1.038069E+00
      1605   3  1.399693E+01  1.179727E+02 -3.520357E-02  6.314691E+01 -2.954530E+00  1.864102E+00
      1605   4  3.616456E+01  1.544602E+02  2.555956E+00  7.654869E+01 -2.909042E+00  2.040851E+00
      1605   5  3.062626E+01  1.039178E+02  1.334240E+00  7.150872E+01  2.844698E+00 -1.346519E+00
      1605   6  5.224759E+01  1.411382E+02  4.252934E+00  8.454501E+01  2.903520E+00 -1.259465E+00
      1605   7  3.122458E+01  1.043225E+02  1.665515E+00  7.185273E+01 -1.973784E+00  1.612343E+00
      1605   8  5.289583E+01  1.415191E+02  4.601380E+00  8.491463E+01 -1.873262E+00  1.773382E+00
      1606   1 -1.056488E+02 -2.013968E+02 -1.846062E+01 -1.146888E+02  5.026353E-01 -3.707705E+00
      1606   2 -5.214601E+01 -1.156913E+02  6.368158E+00 -8.730410E+01  5.050775E-01 -2.972674E+00
      1606   3 -1.055558E+02 -1.993855E+02 -1.789458E+01 -1.139357E+02 -5.543722E+00 -1.112273E+00
      1606   4 -5.201829E+01 -1.138713E+02  6.897949E+00 -8.652444E+01 -5.442493E+00 -2.170837E-01
      1606   5 -8.425373E+01 -2.260718E+02 -2.100611E+01 -1.004278E+02  1.254663E+00 -3.416491E+00
      1606   6 -3.175417E+01 -1.389041E+02  4.289550E+00 -7.380630E+01  1.299607E+00 -2.698086E+00
      1606   7 -8.402850E+01 -2.241118E+02 -2.039073E+01 -9.972732E+01 -4.652425E+00 -9.029347E-01
      1606   8 -3.150041E+01 -1.371317E+02  4.868109E+00 -7.307640E+01 -4.516368E+00 -2.003933E-02
      1607   1 -8.162447E+01 -9.673843E+01 -9.235074E+00 -5.434793E+01  3.337680E-01 -2.408669E+00
      1607   2 -4.029163E+01 -3.079507E+01  5.880691E+00 -3.213380E+01  3.996709E-01 -1.891204E+00
      1607   3 -8.106235E+01 -9.469795E+01 -8.500936E+00 -5.368785E+01 -5.590846E+00  4.806010E-01
      1607   4 -3.968744E+01 -2.888862E+01  6.598330E+00 -3.144915E+01 -5.439929E+00  1.135364E+00
      1607   5 -6.088724E+01 -1.168687E+02 -1.003969E+01 -4.241159E+01  1.197916E+00 -2.158387E+00
      1607   6 -2.040172E+01 -4.977117E+01  5.508177E+00 -2.078204E+01  1.310552E+00 -1.652827E+00
      1607   7 -6.019980E+01 -1.148712E+02 -9.255287E+00 -4.179677E+01 -4.596846E+00  6.544266E-01
      1607   8 -1.967752E+01 -4.790482E+01  6.275528E+00 -2.014044E+01 -4.405805E+00  1.300999E+00
      1608   1 -5.197965E+01 -1.228014E+01 -4.367045E+00 -6.838857E+00  6.911605E-01 -1.699146E+00
      1608   2 -1.910997E+01  4.031853E+01  4.746034E+00  1.159593E+01  7.560087E-01 -1.310624E+00
      1608   3 -5.119760E+01 -1.033663E+01 -3.576532E+00 -6.192414E+00 -4.910587E+00  1.315479E+00
      1608   4 -1.829025E+01  4.215390E+01  5.526211E+00  1.226249E+01 -4.775107E+00  1.817365E+00
      1608   5 -3.226081E+01 -2.936875E+01 -3.979965E+00  3.555996E+00  1.650313E+00 -1.475675E+00
      1608   6 -1.006409E-01  2.418202E+01  5.537273E+00  2.152151E+01  1.764461E+00 -1.099617E+00
      1608   7 -3.136212E+01 -2.745974E+01 -3.139717E+00  4.160865E+00 -3.835571E+00  1.470461E+00
      1608   8  8.311870E-01  2.598523E+01  6.366679E+00  2.214836E+01 -3.656288E+00  1.962962E+00
      1609   1 -1.955311E+01  5.804436E+01 -1.904031E+00  3.165148E+01  1.240564E+00 -1.285932E+00
      1609   2  7.179486E+00  1.012571E+02  3.270188E+00  4.724703E+01  1.285965E+00 -9.239331E-01
      1609   3 -1.869572E+01  5.975058E+01 -1.143046E+00  3.235489E+01 -4.002992E+00  1.779422E+00
      1609   4  8.065425E+00  1.028692E+02  4.021756E+00  4.796530E+01 -3.899830E+00  2.233470E+00
      1609   5 -1.009834E+00  4.300900E+01 -6.879600E-01  4.101844E+01  2.282780E+00 -1.086470E+00
      1609   6  2.513167E+01  8.703665E+01  4.867806E+00  5.622179E+01  2.377539E+00 -7.388395E-01
      1609   7 -5.012988E-02  4.468441E+01  1.187308E-01  4.168391E+01 -2.859766E+00  1.918747E+00
      1609   8  2.611631E+01  8.861992E+01  5.664744E+00  5.690369E+01 -2.711742E+00  2.360942E+00
      1610   1  1.398425E+01  1.181239E+02 -9.523709E-01  6.355994E+01  1.858771E+00 -9.489871E-01
      1610   2  3.610095E+01  1.544945E+02  1.461086E+00  7.697456E+01  1.918130E+00 -5.630314E-01
      1610   3  1.496157E+01  1.195883E+02 -2.099304E-01  6.432498E+01 -3.062047E+00  2.139024E+00
      1610   4  3.709787E+01  1.558779E+02  2.194646E+00  7.774985E+01 -2.956043E+00  2.598818E+00
      1610   5  3.130627E+01  1.044704E+02  8.459698E-01  7.224709E+01  2.970842E+00 -7.727026E-01
      1610   6  5.293149E+01  1.415588E+02  3.620337E+00  8.532257E+01  3.077329E+00 -4.013853E-01
      1610   7  3.236510E+01  1.058996E+02  1.625727E+00  7.298008E+01 -1.863654E+00  2.263344E+00
      1610   8  5.400736E+01  1.429090E+02  4.391224E+00  8.606705E+01 -1.714157E+00  2.710522E+00
      1611   1 -1.047306E+02 -1.967933E+02 -1.589588E+01 -1.131240E+02 -6.582339E-01 -5.129858E+00
      1611   2 -5.183810E+01 -1.121115E+02  7.344728E+00 -8.570458E+01 -6.052968E-01 -3.850913E+00
      1611   3 -1.041833E+02 -1.933440E+02 -1.476179E+01 -1.116600E+02 -7.062764E+00 -2.271873E+00
      1611   4 -5.132705E+01 -1.089840E+02  8.383183E+00 -8.424486E+01 -6.903297E+00 -8.217562E-01
      1611   5 -8.311688E+01 -2.215488E+02 -1.837375E+01 -9.896407E+01  4.176961E-01 -4.441060E+00
      1611   6 -3.121885E+01 -1.353800E+02  5.377904E+00 -7.230241E+01  4.951946E-01 -3.176303E+00
      1611   7 -8.243774E+01 -2.180999E+02 -1.717380E+01 -9.757987E+01 -5.836422E+00 -1.674207E+00
      1611   8 -3.058207E+01 -1.322520E+02  6.480834E+00 -7.091820E+01 -5.660644E+00 -2.335563E-01
      1612   1 -8.087471E+01 -9.304046E+01 -8.697662E+00 -5.302523E+01 -7.575681E-01 -2.967929E+00
      1612   2 -3.982261E+01 -2.770363E+01  5.591223E+00 -3.077656E+01 -6.558345E-01 -2.139487E+00
      1612   3 -7.979791E+01 -8.943216E+01 -7.336351E+00 -5.187535E+01 -6.849128E+00  9.768944E-02
      1612   4 -3.875525E+01 -2.433730E+01  6.888700E+00 -2.962398E+01 -6.659240E+00  1.066763E+00
      1612   5 -5.989524E+01 -1.132057E+02 -9.360905E+00 -4.117746E+01  4.061508E-01 -2.318673E+00
      1612   6 -1.969002E+01 -4.670074E+01  5.381816E+00 -1.950904E+01  5.434673E-01 -1.501614E+00
      1612   7 -5.867891E+01 -1.095870E+02 -7.928416E+00 -4.010061E+01 -5.550870E+00  6.652376E-01
      1612   8 -1.848913E+01 -4.332360E+01  6.748940E+00 -1.842590E+01 -5.332234E+00  1.626833E+00
      1613   1 -5.137774E+01 -9.275744E+00 -4.892662E+00 -5.568971E+00  9.134278E-03 -1.968487E+00
      1613   2 -1.854168E+01  4.301739E+01  3.994104E+00  1.289391E+01  5.974224E-02 -1.375142E+00
      1613   3 -5.019353E+01 -5.867562E+00 -3.538617E+00 -4.512323E+00 -5.609543E+00  1.142551E+00
      1613   4 -1.736373E+01  4.622090E+01  5.295885E+00  1.395226E+01 -5.487450E+00  1.848936E+00
      1613   5 -3.141510E+01 -2.636926E+01 -4.329682E+00  4.743611E+00  1.243660E+00 -1.342707E+00
      1613   6  7.076080E-01  2.688344E+01  4.970039E+00  2.274092E+01  1.335811E+00 -7.645829E-01
      1613   7 -3.009582E+01 -2.294132E+01 -2.904116E+00  5.730683E+00 -4.257982E+00  1.696835E+00
      1613   8  2.015278E+00  3.010657E+01  6.341843E+00  2.373285E+01 -4.099889E+00  2.391169E+00
      1614   1 -1.893653E+01  6.046164E+01 -2.745794E+00  3.301718E+01  9.731571E-01 -1.451654E+00
      1614   2  7.859675E+00  1.035105E+02  2.465398E+00  4.863244E+01  1.003918E+00 -8.823722E-01
      1614   3 -1.771335E+01  6.343180E+01 -1.491974E+00  3.412292E+01 -4.222327E+00  1.671487E+00
      1614   4  9.072628E+00  1.063069E+02  3.674407E+00  4.973662E+01 -4.133376E+00  2.332212E+00
      1614   5 -1.701733E-01  4.543143E+01 -1.346244E+00  4.230977E+01  2.267318E+00 -8.488578E-01
      1614   6  2.603199E+01  8.930135E+01  4.253736E+00  5.753594E+01  2.339584E+00 -2.960611E-01
      1614   7  1.165473E+00  4.841560E+01 -3.054267E-02  4.335399E+01 -2.826539E+00  2.211520E+00
      1614   8  2.735338E+01  9.211177E+01  5.523578E+00  5.858117E+01 -2.700595E+00  2.858336E+00
      1615   1  1.483854E+01  1.200551E+02 -1.817249E+00  6.504096E+01  1.952010E+00 -9.450315E-01
      1615   2  3.690187E+01  1.561885E+02  3.962030E-01  7.846784E+01  2.039328E+00 -2.878816E-01
      1615   3  1.623167E+01  1.225680E+02 -6.314416E-01  6.623160E+01 -2.979765E+00  2.233957E+00
      1615   4  3.828035E+01  1.585601E+02  1.545311E+00  7.965379E+01 -2.843765E+00  2.967598E+00
      1615   5  3.235043E+01  1.064018E+02  1.661047E-01  7.366661E+01  3.290422E+00 -3.617455E-01
      1615   6  5.392762E+01  1.432658E+02  2.763036E+00  8.675675E+01  3.414757E+00  2.821999E-01
      1615   7  3.382036E+01  1.089090E+02  1.396625E+00  7.480888E+01 -1.550960E+00  2.760594E+00
      1615   8  5.538052E+01  1.456325E+02  3.956530E+00  8.789621E+01 -1.381726E+00  3.483166E+00
      1616   1 -1.028995E+02 -1.894574E+02 -1.208582E+01 -1.103096E+02 -1.122407E+00 -5.895893E+00
      1616   2 -5.122090E+01 -1.065119E+02  8.346344E+00 -8.291034E+01 -1.022653E+00 -4.074835E+00
      1616   3 -1.017928E+02 -1.841504E+02 -1.022680E+01 -1.080848E+02 -8.160765E+00 -2.610974E+00
      1616   4 -5.023046E+01 -1.016818E+02  1.004082E+01 -8.072451E+01 -7.942712E+00 -6.013142E-01
      1616   5 -8.106559E+01 -2.142004E+02 -1.446717E+01 -9.630050E+01  2.824111E-01 -4.699969E+00
      1616   6 -3.036272E+01 -1.297380E+02  6.542131E+00 -6.965090E+01  3.874964E-01 -2.890794E+00
      1616   7 -7.981806E+01 -2.088262E+02 -1.251697E+01 -9.418981E+01 -6.588511E+00 -1.519209E+00
      1616   8 -2.923797E+01 -1.248434E+02  8.325212E+00 -6.757312E+01 -6.374262E+00  4.838695E-01
      1617   1 -7.995955E+01 -8.706171E+01 -8.373762E+00 -5.084157E+01 -8.221353E-01 -3.170770E+00
      1617   2 -3.924217E+01 -2.250184E+01  5.095900E+00 -2.859903E+01 -9.187262E-01 -2.184659E+00
      1617   3 -7.885098E+01 -8.157372E+01 -6.435833E+00 -4.916684E+01 -7.051027E+00  6.929187E-02
      1617   4 -3.821494E+01 -1.743500E+01  6.895128E+00 -2.695110E+01 -7.056735E+00  1.197669E+00
      1617   5 -5.868705E+01 -1.071381E+02 -8.821217E+00 -3.913951E+01  6.344131E-01 -2.012606E+00
      1617   6 -1.881899E+01 -4.140245E+01  5.119502E+00 -1.747007E+01  5.676141E-01 -1.055738E+00
      1617   7 -5.738622E+01 -1.015336E+02 -6.764032E+00 -3.759024E+01 -5.455849E+00  1.140900E+00
      1617   8 -1.760808E+01 -3.622401E+01  7.034123E+00 -1.594146E+01 -5.438775E+00  2.244168E+00
      1618   1 -5.083295E+01 -4.217684E+00 -5.637265E+00 -3.545586E+00  1.760162E-01 -2.267698E+00
      1618   2 -1.807377E+01  4.761816E+01  3.036651E+00  1.491024E+01 -8.621374E-02 -1.552750E+00
      1618   3 -5.000581E+01  6.338304E-01 -3.953227E+00 -1.960607E+00 -5.432168E+00  9.344058E-01
      1618   4 -1.731984E+01  5.209816E+01  4.598427E+00  1.646958E+01 -5.622326E+00  1.760632E+00
      1618   5 -3.057152E+01 -2.119258E+01 -4.826771E+00  6.627124E+00  1.682762E+00 -1.159408E+00
      1618   6  1.467732E+00  3.160439E+01  4.265027E+00  2.462370E+01  1.458916E+00 -4.841555E-01
      1618   7 -2.955642E+01 -1.621478E+01 -3.023544E+00  8.089682E+00 -3.807475E+00  1.968501E+00
      1618   8  2.401881E+00  3.620570E+01  5.942328E+00  2.606615E+01 -3.964799E+00  2.758345E+00
      1619   1 -1.826427E+01  6.466887E+01 -3.749336E+00  3.509104E+01  1.181066E+00 -1.860214E+00
      1619   2  8.530327E+00  1.074074E+02  1.445919E+00  5.069609E+01  1.010245E+00 -1.186586E+00
      1619   3 -1.711474E+01  6.895118E+01 -2.119564E+00  3.663046E+01 -3.959970E+00  1.324336E+00
      1619   4  9.619985E+00  1.113973E+02  2.980564E+00  5.221344E+01 -4.072230E+00  2.087993E+00
      1619   5  7.613989E-01  4.974331E+01 -2.109932E+00  4.426259E+01  2.731128E+00 -8.082131E-01
      1619   6  2.695764E+01  9.330505E+01  3.479318E+00  5.948362E+01  2.598374E+00 -1.669124E-01
      1619   7  2.058931E+00  5.411870E+01 -3.842753E-01  4.570096E+01 -2.307753E+00  2.311206E+00
      1619   8  2.818975E+01  9.738481E+01  5.107340E+00  6.090415E+01 -2.386462E+00  3.045210E+00
      1620   1  1.599837E+01  1.234583E+02 -2.729844E+00  6.727382E+01  2.169251E+00 -1.297126E+00
      1620   2  3.813682E+01  1.594342E+02 -3.254568E-01  8.068668E+01  2.201566E+00 -3.903133E-01
      1620   3  1.760196E+01  1.270071E+02 -1.165296E+00  6.893029E+01 -2.661337E+00  1.914267E+00
      1620   4  3.968832E+01  1.627684E+02  1.169416E+00  8.232240E+01 -2.579412E+00  2.898034E+00
      1620   5  3.370355E+01  1.098690E+02 -5.283415E-01  7.580741E+01  3.750073E+00 -2.848993E-01
      1620   6  5.535758E+01  1.465823E+02  2.272587E+00  8.888712E+01  3.811501E+00  6.053756E-01
      1620   7  3.538997E+01  1.134553E+02  1.095026E+00  7.739295E+01 -9.883126E-01  2.866462E+00
      1620   8  5.698923E+01  1.499529E+02  3.825319E+00  9.045467E+01 -8.811105E-01  3.835902E+00
      1621   1 -1.010686E+02 -1.790126E+02 -8.150941E+00 -1.061872E+02  7.103710E-01 -5.099824E+00
      1621   2 -5.103200E+01 -9.841978E+01  8.692367E+00 -7.887462E+01  1.921648E-01 -3.265370E+00
      1621   3 -1.007755E+02 -1.708722E+02 -5.685899E+00 -1.032263E+02 -7.114403E+00 -1.278677E+00
      1621   4 -5.098487E+01 -9.111991E+01  1.084665E+01 -7.600494E+01 -7.500687E+00  7.616432E-01
      1621   5 -7.894661E+01 -2.035635E+02 -1.034356E+01 -9.241403E+01  2.422391E+00 -3.147269E+00
      1621   6 -2.986657E+01 -1.214296E+02  7.147441E+00 -6.583848E+01  1.908862E+00 -1.373395E+00
      1621   7 -7.838211E+01 -1.951387E+02 -7.680107E+00 -8.967152E+01 -5.215260E+00  5.555105E-01
      1621   8 -2.956149E+01 -1.138594E+02  9.492045E+00 -6.317554E+01 -5.606987E+00  2.541386E+00
      1622   1 -8.035676E+01 -7.853161E+01 -8.827767E+00 -4.763884E+01  1.216654E+00 -3.169901E+00
      1622   2 -3.965841E+01 -1.466360E+01  4.745846E+00 -2.546233E+01  1.829442E-01 -2.205813E+00
      1622   3 -8.112902E+01 -7.126766E+01 -6.917032E+00 -4.513711E+01 -4.879211E+00  1.019711E-01
      1622   4 -4.064542E+01 -8.183314E+00  6.368942E+00 -2.304101E+01 -5.823094E+00  1.201395E+00
      1622   5 -5.866202E+01 -9.828158E+01 -8.933998E+00 -3.619496E+01  2.950177E+00 -1.327864E+00
      1622   6 -1.883208E+01 -3.325224E+01  5.097667E+00 -1.457891E+01  1.950221E+00 -4.631888E-01
      1622   7 -5.910943E+01 -9.067136E+01 -6.795948E+00 -3.393026E+01 -3.008393E+00  1.856098E+00
      1622   8 -1.950934E+01 -2.644179E+01  6.938884E+00 -1.238302E+01 -3.925371E+00  2.860455E+00
      1623   1 -5.135612E+01  3.226214E+00 -6.030478E+00 -5.217538E-01  1.437062E+00 -2.713590E+00
      1623   2 -1.878938E+01  5.429391E+01  2.325547E+00  1.787451E+01  4.417020E-01 -1.910392E+00
      1623   3 -5.203280E+01  9.289094E+00 -4.430485E+00  1.825529E+00 -4.155784E+00  5.738395E-01
      1623   4 -1.964063E+01  5.972342E+01  3.694383E+00  2.015476E+01 -5.078762E+00  1.484891E+00
      1623   5 -3.069610E+01 -1.342711E+01 -4.893309E+00  9.407696E+00  3.211715E+00 -1.028416E+00
      1623   6  1.137832E+00  3.859229E+01  3.877753E+00  2.735571E+01  2.255745E+00 -3.194995E-01
      1623   7 -3.109152E+01 -7.062834E+00 -3.093769E+00  1.154734E+01 -2.262317E+00  2.182317E+00
      1623   8  5.558674E-01  4.431032E+01  5.438834E+00  2.943769E+01 -3.151413E+00  3.002613E+00
      1624   1 -1.827559E+01  7.093984E+01 -4.418712E+00  3.799570E+01  1.780974E+00 -2.514535E+00
      1624   2  8.314406E+00  1.130228E+02  4.121888E-01  5.355085E+01  9.244337E-01 -1.795558E+00
      1624   3 -1.857961E+01  7.610145E+01 -2.957524E+00  4.018730E+01 -3.370143E+00  7.626618E-01
      1624   4  7.871807E+00  1.176822E+02  1.691858E+00  5.568846E+01 -4.167175E+00  1.569643E+00
      1624   5  1.081188E+00  5.627500E+01 -2.486116E+00  4.696478E+01  3.590920E+00 -9.728386E-01
      1624   6  2.706585E+01  9.917715E+01  2.742564E+00  6.214438E+01  2.776611E+00 -3.365918E-01
      1624   7  1.011655E+00  6.168412E+01 -8.568079E-01  4.898039E+01 -1.456127E+00  2.236507E+00
      1624   8  2.684856E+01  1.040743E+02  4.184814E+00  6.411337E+01 -2.215458E+00  2.963652E+00
      1625   1  1.707908E+01  1.285175E+02 -3.335529E+00  7.030506E+01  2.138912E+00 -2.157895E+00
      1625   2  3.948265E+01  1.644463E+02 -2.007969E-01  8.367480E+01  1.747246E+00 -1.248715E+00
      1625   3  1.795804E+01  1.330018E+02 -1.703227E+00  7.240512E+01 -2.444095E+00  9.919566E-01
      1625   4  4.026072E+01  1.685837E+02  1.307338E+00  8.573449E+01 -2.787309E+00  1.973533E+00
      1625   5  3.499706E+01  1.150788E+02 -9.039169E-01  7.869704E+01  3.981021E+00 -7.341203E-01
      1625   6  5.690772E+01  1.517388E+02  2.617967E+00  9.173915E+01  3.622433E+00  1.280702E-01
      1625   7  3.601885E+01  1.197054E+02  8.352975E-01  8.067500E+01 -5.123144E-01  2.355642E+00
      1625   8  5.782356E+01  1.560135E+02  4.230076E+00  9.368151E+01 -8.261588E-01  3.292505E+00
      1626   1 -8.492730E+01 -2.118711E+02 -1.870043E+01 -1.021211E+02  2.088802E+00 -1.853999E+00
      1626   2 -3.724218E+01 -1.249621E+02  5.761321E+00 -7.861844E+01  2.016625E+00 -1.649361E+00
      1626   3 -8.525363E+01 -2.112158E+02 -1.866094E+01 -1.020787E+02 -3.818848E+00 -2.384918E-03
      1626   4 -3.749616E+01 -1.243653E+02  5.813979E+00 -7.852086E+01 -3.806183E+00  3.712904E-01
      1626   5 -6.713467E+01 -2.331956E+02 -2.144960E+01 -8.503241E+01  2.453137E+00 -1.844252E+00
      1626   6 -2.026821E+01 -1.450120E+02  3.470780E+00 -6.244426E+01  2.430253E+00 -1.651446E+00
      1626   7 -6.733508E+01 -2.326243E+02 -2.137634E+01 -8.499270E+01 -3.309432E+00 -6.052696E-02
      1626   8 -2.040236E+01 -1.444940E+02  3.556884E+00 -6.234921E+01 -3.255430E+00  3.049671E-01
      1627   1 -7.099972E+01 -1.017202E+02 -9.137392E+00 -5.117611E+01  1.934197E+00 -1.504365E+00
      1627   2 -3.431332E+01 -3.475016E+01  5.790862E+00 -3.196234E+01  1.904566E+00 -1.360494E+00
      1627   3 -7.103062E+01 -1.010750E+02 -8.996686E+00 -5.105594E+01 -3.918071E+00  6.724457E-01
      1627   4 -3.427871E+01 -3.414017E+01  5.950220E+00 -3.179771E+01 -3.873316E+00  9.641918E-01
      1627   5 -5.326328E+01 -1.189642E+02 -1.011474E+01 -3.673705E+01  2.407846E+00 -1.519310E+00
      1627   6 -1.728061E+01 -5.098474E+01  5.246177E+00 -1.823044E+01  2.427527E+00 -1.384492E+00
      1627   7 -5.317930E+01 -1.183906E+02 -9.939632E+00 -3.661883E+01 -3.306186E+00  5.927318E-01
      1627   8 -1.713619E+01 -5.044220E+01  5.439565E+00 -1.806766E+01 -3.219098E+00  8.786161E-01
      1628   1 -4.944476E+01 -1.317653E+01 -3.996999E+00 -1.025147E+01  1.920097E+00 -1.284446E+00
      1628   2 -2.046537E+01  4.022283E+01  4.864011E+00  5.758806E+00  1.904270E+00 -1.177865E+00
      1628   3 -4.929183E+01 -1.256179E+01 -3.793567E+00 -1.006189E+01 -3.697215E+00  1.087612E+00
      1628   4 -2.025620E+01  4.081115E+01  5.085810E+00  5.984577E+00 -3.650674E+00  1.317651E+00
      1628   5 -3.233114E+01 -2.770229E+01 -3.757117E+00  2.391334E+00  2.492296E+00 -1.319910E+00
      1628   6 -3.944461E+00  2.653276E+01  5.512817E+00  1.783084E+01  2.525844E+00 -1.222230E+00
      1628   7 -3.207288E+01 -2.714903E+01 -3.519642E+00  2.578553E+00 -3.000211E+00  9.935498E-01
      1628   8 -3.634209E+00  2.706289E+01  5.768287E+00  1.805437E+01 -2.910150E+00  1.217358E+00
      1629   1 -2.376102E+01  6.020417E+01 -1.517843E+00  2.348509E+01  1.964475E+00 -1.134252E+00
      1629   2 -3.414270E-01  1.040596E+02  3.405433E+00  3.704436E+01  1.950464E+00 -1.035737E+00
      1629   3 -2.349357E+01  6.075506E+01 -1.282668E+00  2.374537E+01 -3.341843E+00  1.346108E+00
      1629   4 -2.712985E-02  1.045873E+02  3.656563E+00  3.733431E+01 -3.305201E+00  1.544285E+00
      1629   5 -7.568123E+00  4.750007E+01 -4.331111E-01  3.489649E+01  2.627556E+00 -1.190458E+00
      1629   6  1.535693E+01  9.207092E+01  4.872851E+00  4.797794E+01  2.662596E+00 -1.101616E+00
      1629   7 -7.205247E+00  4.799614E+01 -1.657676E-01  3.515416E+01 -2.570545E+00  1.238924E+00
      1629   8  1.576311E+01  9.254655E+01  5.155854E+00  4.826540E+01 -2.489608E+00  1.429591E+00
      1630   1  3.982921E+00  1.225841E+02 -6.425659E-01  5.191686E+01  2.036273E+00 -1.001044E+00
      1630   2  2.331676E+01  1.595615E+02  1.722879E+00  6.357033E+01  2.035034E+00 -8.979202E-01
      1630   3  4.376960E+00  1.230813E+02 -3.699669E-01  5.223265E+01 -2.931079E+00  1.524383E+00
      1630   4  2.374943E+01  1.600380E+02  2.008765E+00  6.391071E+01 -2.892995E+00  1.704197E+00
      1630   5  1.912857E+01  1.110952E+02  1.028155E+00  6.248218E+01  2.783368E+00 -1.079354E+00
      1630   6  3.804752E+01  1.486976E+02  3.739969E+00  7.372318E+01  2.830261E+00 -9.863447E-01
      1630   7  1.960659E+01  1.115401E+02  1.329155E+00  6.279620E+01 -2.095189E+00  1.404015E+00
      1630   8  3.856131E+01  1.491243E+02  4.054141E+00  7.406185E+01 -2.012667E+00  1.575388E+00
      1631   1 -8.501621E+01 -2.099099E+02 -1.763993E+01 -1.018468E+02  6.965292E-01 -3.802715E+00
      1631   2 -3.749267E+01 -1.234107E+02  6.204618E+00 -7.825635E+01  6.728255E-01 -3.057044E+00
      1631   3 -8.499277E+01 -2.079547E+02 -1.710490E+01 -1.012559E+02 -5.362514E+00 -1.834489E+00
      1631   4 -3.745298E+01 -1.216291E+02  6.701945E+00 -7.763149E+01 -5.297557E+00 -9.139702E-01
      1631   5 -6.701158E+01 -2.313735E+02 -2.034350E+01 -8.477240E+01  1.346698E+00 -3.455354E+00
      1631   6 -2.030625E+01 -1.435805E+02  3.984737E+00 -6.209567E+01  1.355570E+00 -2.719860E+00
      1631   7 -6.685809E+01 -2.294639E+02 -1.976149E+01 -8.421046E+01 -4.560581E+00 -1.560502E+00
      1631   8 -2.014285E+01 -1.418414E+02  4.528006E+00 -6.149820E+01 -4.471347E+00 -6.463028E-01
      1632   1 -7.096045E+01 -1.001936E+02 -8.890670E+00 -5.082348E+01  5.011954E-01 -2.508214E+00
      1632   2 -3.436156E+01 -3.350114E+01  5.620361E+00 -3.153780E+01  5.496948E-01 -1.970801E+00
      1632   3 -7.050795E+01 -9.820578E+01 -8.200618E+00 -5.030877E+01 -5.448518E+00 -2.281018E-01
      1632   4 -3.388119E+01 -3.162871E+01  6.294000E+00 -3.099251E+01 -5.323676E+00  4.594954E-01
      1632   5 -5.301250E+01 -1.175401E+02 -9.780585E+00 -3.639538E+01  1.243733E+00 -2.186271E+00
      1632   6 -1.711921E+01 -4.982468E+01  5.178647E+00 -1.781631E+01  1.328416E+00 -1.652642E+00
      1632   7 -5.243853E+01 -1.155930E+02 -9.044633E+00 -3.590330E+01 -4.564115E+00  2.514710E-02
      1632   8 -1.652275E+01 -4.799032E+01  5.897257E+00 -1.729255E+01 -4.410240E+00  7.122642E-01
      1633   1 -4.936606E+01 -1.199879E+01 -4.299439E+00 -9.805865E+00  8.356818E-01 -1.743560E+00
      1633   2 -2.036758E+01  4.126326E+01  4.426498E+00  6.262955E+00  8.871387E-01 -1.338158E+00
      1633   3 -4.872628E+01 -1.008431E+01 -3.557929E+00 -9.296124E+00 -4.803663E+00  7.005748E-01
      1633   4 -1.970261E+01  4.308429E+01  5.157085E+00  6.797589E+00 -4.689027E+00  1.229695E+00
      1633   5 -3.204619E+01 -2.659944E+01 -3.947210E+00  2.825907E+00  1.651354E+00 -1.431580E+00
      1633   6 -3.643850E+00  2.750756E+01  5.196284E+00  1.832447E+01  1.741479E+00 -1.030519E+00
      1633   7 -3.129392E+01 -2.471797E+01 -3.160980E+00  3.314343E+00 -3.861613E+00  9.511113E-01
      1633   8 -2.870991E+00  2.929756E+01  5.970725E+00  1.883875E+01 -3.714231E+00  1.478621E+00
      1634   1 -2.360577E+01  6.112372E+01 -2.011960E+00  2.405165E+01  1.358842E+00 -1.258333E+00
      1634   2 -1.281106E-01  1.049043E+02  2.900932E+00  3.765814E+01  1.389424E+00 -8.861020E-01
      1634   3 -2.292251E+01  6.283310E+01 -1.302123E+00  2.462800E+01 -3.935366E+00  1.278155E+00
      1634   4  5.717612E-01  1.065286E+02  3.599242E+00  3.825276E+01 -3.853482E+00  1.750314E+00
      1634   5 -7.218490E+00  4.836234E+01 -8.026050E-01  3.545195E+01  2.235204E+00 -9.545599E-01
      1634   6  1.576251E+01  9.286673E+01  4.501795E+00  4.858109E+01  2.304478E+00 -5.895773E-01
      1634   7 -6.437360E+00  5.004284E+01 -5.221783E-02  3.600773E+01 -2.949305E+00  1.528213E+00
      1634   8  1.655660E+01  9.446381E+01  5.239988E+00  4.915601E+01 -2.833538E+00  1.995339E+00
      1635   1  4.301939E+00  1.233098E+02 -1.188071E+00  5.258762E+01  1.936239E+00 -8.466137E-01
      1635   2  2.362604E+01  1.601654E+02  1.039203E+00  6.427889E+01  1.974489E+00 -4.552076E-01
      1635   3  5.069633E+00  1.247997E+02 -5.029563E-01  5.324148E+01 -3.050071E+00  1.750102E+00
      1635   4  2.440040E+01  1.615769E+02  1.711099E+00  6.494426E+01 -2.970985E+00  2.220688E+00
      1635   5  1.962645E+01  1.117744E+02  6.189041E-01  6.314411E+01  2.858863E+00 -5.525838E-01
      1635   6  3.853921E+01  1.492673E+02  3.211807E+00  7.442324E+01  2.932828E+00 -1.704545E-01
      1635   7  2.046885E+01  1.132321E+02  1.335628E+00  6.378045E+01 -2.034680E+00  1.998202E+00
      1635   8  3.938577E+01  1.506483E+02  3.915031E+00  7.507178E+01 -1.923708E+00  2.461272E+00
      1636   1 -8.428448E+01 -2.054090E+02 -1.517852E+01 -1.006077E+02 -3.729416E-01 -5.392986E+00
      1636   2 -3.736537E+01 -1.198679E+02  7.156725E+00 -7.696691E+01 -3.711607E-01 -4.086407E+00
      1636   3 -8.394234E+01 -2.019853E+02 -1.410694E+01 -9.942790E+01 -6.790480E+00 -3.207115E+00
      1636   4 -3.706839E+01 -1.167469E+02  8.134443E+00 -7.577620E+01 -6.692771E+00 -1.713041E+00
      1636   5 -6.605770E+01 -2.269409E+02 -1.780902E+01 -8.359456E+01  5.614425E-01 -4.647997E+00
      1636   6 -1.994673E+01 -1.400804E+02  5.057274E+00 -6.086418E+01  5.778330E-01 -3.350067E+00
      1636   7 -6.557665E+01 -2.235162E+02 -1.667280E+01 -8.247394E+01 -5.691526E+00 -2.544074E+00
      1636   8 -1.951762E+01 -1.369577E+02  6.097691E+00 -5.972953E+01 -5.588169E+00 -1.054427E+00
      1637   1 -7.040422E+01 -9.654999E+01 -8.355566E+00 -4.979640E+01 -5.306602E-01 -3.212654E+00
      1637   2 -3.409021E+01 -3.041287E+01  5.370508E+00 -3.046302E+01 -4.602923E-01 -2.351799E+00
      1637   3 -6.954801E+01 -9.299419E+01 -7.071798E+00 -4.891126E+01 -6.651171E+00 -7.793396E-01
      1637   4 -3.324901E+01 -2.707609E+01  6.594350E+00 -2.956170E+01 -6.501623E+00  2.354336E-01
      1637   5 -5.221088E+01 -1.139228E+02 -9.096206E+00 -3.541829E+01  4.724498E-01 -2.492754E+00
      1637   6 -1.660180E+01 -4.674870E+01  5.100339E+00 -1.678909E+01  5.682671E-01 -1.634918E+00
      1637   7 -5.120982E+01 -1.103592E+02 -7.744565E+00 -3.458527E+01 -5.500929E+00 -1.329003E-01
      1637   8 -1.562228E+01 -4.340398E+01  6.390050E+00 -1.593733E+01 -5.333333E+00  8.823260E-01
      1638   1 -4.898243E+01 -8.981762E+00 -4.772780E+00 -8.815006E+00  1.946957E-01 -2.104373E+00
      1638   2 -2.002886E+01  4.400922E+01  3.744933E+00  7.292649E+00  2.226455E-01 -1.489781E+00
      1638   3 -4.803683E+01 -5.603542E+00 -3.497264E+00 -8.010209E+00 -5.465312E+00  4.284442E-01
      1638   4 -1.909473E+01  4.720110E+01  4.970855E+00  8.110640E+00 -5.373302E+00  1.166719E+00
      1638   5 -3.141533E+01 -2.357919E+01 -4.235680E+00  3.769052E+00  1.246515E+00 -1.390702E+00
      1638   6 -3.061380E+00  3.026429E+01  4.709189E+00  1.930859E+01  1.306141E+00 -7.827180E-01
      1638   7 -3.033005E+01 -2.018481E+01 -2.892626E+00  4.523021E+00 -4.285494E+00  1.077817E+00
      1638   8 -1.993383E+00  3.347210E+01  6.000741E+00  2.007805E+01 -4.167796E+00  1.812297E+00
      1639   1 -2.324760E+01  6.362513E+01 -2.773712E+00  2.516152E+01  1.115898E+00 -1.464006E+00
      1639   2  2.813084E-01  1.072644E+02  2.188317E+00  3.879540E+01  1.120916E+00 -8.817169E-01
      1639   3 -2.228875E+01  6.660548E+01 -1.596335E+00  2.604280E+01 -4.131618E+00  1.128917E+00
      1639   4  1.223029E+00  1.100813E+02  3.320711E+00  3.968332E+01 -4.074642E+00  1.811092E+00
      1639   5 -6.633837E+00  5.087944E+01 -1.369206E+00  3.651691E+01  2.204299E+00 -7.569880E-01
      1639   6  1.639658E+01  9.524954E+01  3.994013E+00  4.967532E+01  2.240452E+00 -1.841503E-01
      1639   7 -5.560502E+00  5.387151E+01 -1.344861E-01  3.735227E+01 -2.932111E+00  1.779523E+00
      1639   8  1.744840E+01  9.807809E+01  5.182331E+00  5.051923E+01 -2.848859E+00  2.454527E+00
      1640   1  4.851507E+00  1.253821E+02 -1.947037E+00  5.384929E+01  2.027923E+00 -8.367227E-01
      1640   2  2.411843E+01  1.620219E+02  1.142234E-01  6.555588E+01  2.077573E+00 -1.684605E-01
      1640   3  5.944504E+00  1.279355E+02 -8.414186E-01  5.485587E+01 -2.965812E+00  1.842991E+00
      1640   4  2.518604E+01  1.644342E+02  1.178752E+00  6.656139E+01 -2.873009E+00  2.594342E+00
      1640   5  2.036678E+01  1.138626E+02  6.188014E-02  6.436850E+01  3.134481E+00 -1.362719E-01
      1640   6  3.923037E+01  1.511546E+02  2.516966E+00  7.566442E+01  3.209070E+00  5.226395E-01
      1640   7  2.153304E+01  1.164109E+02  1.206615E+00  6.533862E+01 -1.760692E+00  2.492693E+00
      1640   8  4.036876E+01  1.535624E+02  3.619962E+00  7.663490E+01 -1.646987E+00  3.236581E+00
      1641   1 -8.287887E+01 -1.981120E+02 -1.152408E+01 -9.834054E+01 -7.807037E-01 -6.191712E+00
      1641   2 -3.713435E+01 -1.142225E+02  8.126499E+00 -7.469037E+01 -7.587955E-01 -4.324947E+00
      1641   3 -8.212463E+01 -1.927708E+02 -9.753437E+00 -9.654958E+01 -7.832559E+00 -3.647705E+00
      1641   4 -3.649572E+01 -1.093387E+02  9.737121E+00 -7.291445E+01 -7.704581E+00 -1.575267E+00
      1641   5 -6.440607E+01 -2.196212E+02 -1.403643E+01 -8.144388E+01  4.294237E-01 -4.932523E+00
      1641   6 -1.945190E+01 -1.343825E+02  6.211121E+00 -5.869794E+01  4.461443E-01 -3.072778E+00
      1641   7 -6.349421E+01 -2.142175E+02 -1.217522E+01 -7.975023E+01 -6.439914E+00 -2.481853E+00
      1641   8 -1.866338E+01 -1.294387E+02  7.909074E+00 -5.701410E+01 -6.327012E+00 -4.117112E-01
      1642   1 -6.985198E+01 -9.058751E+01 -8.034801E+00 -4.814361E+01 -5.735561E-01 -3.390778E+00
      1642   2 -3.386313E+01 -2.517117E+01  4.915891E+00 -2.878841E+01 -7.053831E-01 -2.391510E+00
      1642   3 -6.907413E+01 -8.510993E+01 -6.194959E+00 -4.693084E+01 -6.835358E+00 -8.012089E-01
      1642   4 -3.316141E+01 -2.008862E+01  6.625029E+00 -2.757646E+01 -6.885813E+00  3.533795E-01
      1642   5 -5.133993E+01 -1.078683E+02 -8.540146E+00 -3.387614E+01  6.683520E-01 -2.155864E+00
      1642   6 -1.606007E+01 -4.140803E+01  4.896472E+00 -1.521969E+01  5.587278E-01 -1.176554E+00
      1642   7 -5.034812E+01 -1.022846E+02 -6.581901E+00 -3.277110E+01 -5.442373E+00  3.561079E-01
      1642   8 -1.515428E+01 -3.622393E+01  6.719554E+00 -1.411019E+01 -5.478204E+00  1.494406E+00
      1643   1 -4.880248E+01 -3.871017E+00 -5.464526E+00 -7.297456E+00  3.830456E-01 -2.356481E+00
      1643   2 -1.992466E+01  4.870227E+01  2.861293E+00  8.827355E+00  9.792780E-02 -1.652924E+00
      1643   3 -4.830727E+01  1.011184E+00 -3.869114E+00 -6.154261E+00 -5.270033E+00  2.636410E-01
      1643   4 -1.949739E+01  5.323538E+01  4.341486E+00  9.968144E+00 -5.490464E+00  1.089313E+00
      1643   5 -3.091258E+01 -1.834897E+01 -4.662486E+00  5.178167E+00  1.656652E+00 -1.153042E+00
      1643   6 -2.641630E+00  3.507874E+01  4.095593E+00  2.073976E+01  1.403435E+00 -4.789740E-01
      1643   7 -3.020849E+01 -1.335221E+01 -2.949498E+00  6.214835E+00 -3.867353E+00  1.400278E+00
      1643   8 -2.014442E+00  3.972169E+01  5.689164E+00  2.177882E+01 -4.061901E+00  2.199405E+00
      1644   1 -2.296901E+01  6.796142E+01 -3.695336E+00  2.679386E+01  1.348091E+00 -1.823397E+00
      1644   2  5.551864E-01  1.113156E+02  1.265878E+00  4.043470E+01  1.149470E+00 -1.156459E+00
      1644   3 -2.216360E+01  7.230365E+01 -2.151319E+00  2.796494E+01 -3.846379E+00  8.315686E-01
      1644   4  1.301377E+00  1.153791E+02  2.717872E+00  4.159999E+01 -3.992411E+00  1.597587E+00
      1644   5 -6.077203E+00  5.532502E+01 -2.032494E+00  3.805447E+01  2.646230E+00 -6.577488E-01
      1644   6  1.694473E+01  9.941336E+01  3.337492E+00  5.122380E+01  2.477398E+00 -1.465945E-02
      1644   7 -5.110409E+00  5.975123E+01 -3.958008E-01  3.913800E+01 -2.435922E+00  1.938330E+00
      1644   8  1.784595E+01  1.035577E+02  4.879219E+00  5.230522E+01 -2.557060E+00  2.682882E+00
      1645   1  5.568988E+00  1.289822E+02 -2.754022E+00  5.573084E+01  2.265425E+00 -1.136505E+00
      1645   2  2.490517E+01  1.654760E+02 -4.824248E-01  6.743107E+01  2.248493E+00 -2.188005E-01
      1645   3  6.795302E+00  1.326291E+02 -1.275772E+00  5.711474E+01 -2.622630E+00  1.580011E+00
      1645   4  2.607219E+01  1.689073E+02  9.226492E-01  6.880159E+01 -2.594932E+00  2.582668E+00
      1645   5  2.128741E+01  1.175404E+02 -5.037714E-01  6.617773E+01  3.570270E+00  4.156064E-03
      1645   6  4.022486E+01  1.546958E+02  2.181464E+00  7.747012E+01  3.570343E+00  9.088944E-01
      1645   7  2.259836E+01  1.212216E+02  1.028170E+00  6.750013E+01 -1.215575E+00  2.666068E+00
      1645   8  4.147355E+01  1.581605E+02  3.638907E+00  7.878153E+01 -1.175032E+00  3.657748E+00
      1646   1 -8.171207E+01 -1.875729E+02 -7.750899E+00 -9.510556E+01  1.004745E+00 -5.080436E+00
      1646   2 -3.754629E+01 -1.059442E+02  8.452635E+00 -7.149184E+01  4.154927E-01 -3.270217E+00
      1646   3 -8.191341E+01 -1.792970E+02 -5.386030E+00 -9.294941E+01 -6.838792E+00 -2.083968E+00
      1646   4 -3.797771E+01 -9.848524E+01  1.051667E+01 -6.937929E+01 -7.310835E+00 -5.106434E-02
      1646   5 -6.290152E+01 -2.088929E+02 -1.004737E+01 -7.841718E+01  2.440476E+00 -3.052929E+00
      1646   6 -1.951116E+01 -1.258920E+02  6.818551E+00 -5.569654E+01  1.849555E+00 -1.295783E+00
      1646   7 -6.279095E+01 -2.003554E+02 -7.483625E+00 -7.646690E+01 -5.201215E+00 -1.616206E-01
      1646   8 -1.964661E+01 -1.181847E+02  9.072577E+00 -5.377882E+01 -5.685801E+00  1.823630E+00
      1647   1 -7.079080E+01 -8.194396E+01 -8.481530E+00 -4.587965E+01  1.435461E+00 -3.069290E+00
      1647   2 -3.480953E+01 -1.717696E+01  4.580935E+00 -2.653680E+01  3.809422E-01 -2.202338E+00
      1647   3 -7.201170E+01 -7.453321E+01 -6.657457E+00 -4.421838E+01 -4.698398E+00 -4.401054E-01
      1647   4 -3.622408E+01 -1.052194E+01  6.130660E+00 -2.490630E+01 -5.672513E+00  5.749784E-01
      1647   5 -5.179881E+01 -9.891287E+01 -8.623754E+00 -3.184185E+01  2.878594E+00 -1.136472E+00
      1647   6 -1.654894E+01 -3.311612E+01  4.909371E+00 -1.318649E+01  1.857620E+00 -3.569942E-01
      1647   7 -5.264405E+01 -9.118288E+01 -6.569481E+00 -3.040593E+01 -3.106100E+00  1.413996E+00
      1647   8 -1.760566E+01 -2.615695E+01  6.679325E+00 -1.177030E+01 -4.054095E+00  2.345475E+00
      1648   1 -4.986372E+01  3.754044E+00 -5.839413E+00 -5.143696E+00  1.643632E+00 -2.586790E+00
      1648   2 -2.116070E+01  5.560246E+01  2.190714E+00  1.096824E+01  6.336950E-01 -1.879725E+00
      1648   3 -5.096521E+01  1.000470E+01 -4.309111E+00 -3.524486E+00 -3.999448E+00  1.150248E-01
      1648   4 -2.241802E+01  6.124452E+01  3.501619E+00  1.256120E+01 -4.944371E+00  9.408320E-01
      1648   5 -3.152132E+01 -1.041848E+01 -4.691883E+00  7.114296E+00  3.121324E+00 -7.892184E-01
      1648   6 -3.440724E+00  4.227543E+01  3.766323E+00  2.267283E+01  2.150735E+00 -1.637877E-01
      1648   7 -3.229615E+01 -3.890621E+00 -2.960088E+00  8.536536E+00 -2.392046E+00  1.843594E+00
      1648   8 -4.385653E+00  4.818265E+01  5.270728E+00  2.407772E+01 -3.303618E+00  2.590912E+00
      1649   1 -2.351993E+01  7.447034E+01 -4.320941E+00  2.897115E+01  1.970821E+00 -2.348299E+00
      1649   2 -1.872652E-01  1.172018E+02  3.000507E-01  4.259592E+01  1.099629E+00 -1.714012E+00
      1649   3 -2.422761E+01  7.984550E+01 -2.917601E+00  3.055035E+01 -3.237565E+00  3.931754E-01
      1649   4 -1.019819E+00  1.220941E+02  1.530605E+00  4.415275E+01 -4.055006E+00  1.125179E+00
      1649   5 -6.256553E+00  6.208354E+01 -2.348664E+00  4.005137E+01  3.476183E+00 -6.720066E-01
      1649   6  1.656595E+01  1.055464E+02  2.685996E+00  5.321220E+01  2.645650E+00 -1.083318E-01
      1649   7 -6.693243E+00  6.768562E+01 -7.770150E-01  4.146449E+01 -1.617606E+00  2.007935E+00
      1649   8  1.599344E+01  1.106564E+02  4.078726E+00  5.460990E+01 -2.399347E+00  2.671920E+00
      1650   1  6.069114E+00  1.343400E+02 -3.299709E+00  5.822922E+01  2.292046E+00 -1.947931E+00
      1650   2  2.565701E+01  1.707831E+02 -3.125751E-01  6.990291E+01  1.862938E+00 -1.071549E+00
      1650   3  6.534444E+00  1.390389E+02 -1.730006E+00  5.989084E+01 -2.347487E+00  7.268208E-01
      1650   4  2.602411E+01  1.751411E+02  1.134553E+00  7.154191E+01 -2.732482E+00  1.684425E+00
      1650   5  2.202000E+01  1.230507E+02 -8.026719E-01  6.855029E+01  3.817290E+00 -3.691604E-01
      1650   6  4.120167E+01  1.601511E+02  2.592146E+00  7.982105E+01  3.413589E+00  4.677562E-01
      1650   7  2.264612E+01  1.278799E+02  8.711406E-01  7.009774E+01 -7.218289E-01  2.250351E+00
      1650   8  4.172358E+01  1.646346E+02  4.139998E+00  8.135034E+01 -1.085500E+00  3.170552E+00
      1651   1 -6.699198E+01 -2.170520E+02 -1.784279E+01 -8.737886E+01  2.158046E+00 -1.719748E+00
      1651   2 -2.454297E+01 -1.302838E+02  5.566085E+00 -6.804849E+01  2.084497E+00 -1.520835E+00
      1651   3 -6.726372E+01 -2.164710E+02 -1.780105E+01 -8.737661E+01 -3.693465E+00 -4.532488E-01
      1651   4 -2.476608E+01 -1.297471E+02  5.616788E+00 -6.799469E+01 -3.694024E+00 -7.331877E-02
      1651   5 -5.285922E+01 -2.348598E+02 -2.072288E+01 -6.820944E+01  2.450679E+00 -1.665867E+00
      1651   6 -1.103071E+01 -1.470028E+02  3.156998E+00 -4.990493E+01  2.416409E+00 -1.472993E+00
      1651   7 -5.301973E+01 -2.343491E+02 -2.065079E+01 -6.818793E+01 -3.245741E+00 -4.574533E-01
      1651   8 -1.114814E+01 -1.465322E+02  3.237381E+00 -4.983290E+01 -3.215475E+00 -8.045584E-02
      1652   1 -6.105545E+01 -1.039414E+02 -8.806670E+00 -4.661093E+01  2.007258E+00 -1.383715E+00
      1652   2 -2.853587E+01 -3.699463E+01  5.458130E+00 -3.063068E+01  1.977803E+00 -1.239812E+00
      1652   3 -6.108185E+01 -1.033468E+02 -8.673891E+00 -4.653683E+01 -3.799961E+00  2.167210E-01
      1652   4 -2.851596E+01 -3.642238E+01  5.606213E+00 -3.051540E+01 -3.765445E+00  5.190659E-01
      1652   5 -4.632091E+01 -1.181059E+02 -9.833422E+00 -3.031960E+01  2.387548E+00 -1.341567E+00
      1652   6 -1.435464E+01 -5.029715E+01  4.874365E+00 -1.513720E+01  2.396830E+00 -1.200345E+00
      1652   7 -4.624689E+01 -1.175721E+02 -9.671002E+00 -3.022741E+01 -3.271726E+00  2.033901E-01
      1652   8 -1.423889E+01 -4.978247E+01  5.051405E+00 -1.500471E+01 -3.205885E+00  5.057665E-01
      1653   1 -4.619063E+01 -1.322406E+01 -3.996601E+00 -1.284493E+01  1.995210E+00 -1.161104E+00
      1653   2 -2.060285E+01  4.024294E+01  4.451350E+00  5.553788E-01  1.980254E+00 -1.053992E+00
      1653   3 -4.607244E+01 -1.263587E+01 -3.808182E+00 -1.270878E+01 -3.594427E+00  6.621093E-01
      1653   4 -2.044523E+01  4.081364E+01  4.654310E+00  7.247463E-01 -3.556120E+00  9.007339E-01
      1653   5 -3.165926E+01 -2.500434E+01 -3.764958E+00  1.477413E+00  2.452711E+00 -1.126418E+00
      1653   6 -6.545063E+00  2.917691E+01  5.098208E+00  1.423113E+01  2.476402E+00 -1.022180E+00
      1653   7 -3.144914E+01 -2.446843E+01 -3.547686E+00  1.628903E+00 -3.004046E+00  6.468572E-01
      1653   8 -6.299405E+00  2.969798E+01  5.329355E+00  1.441514E+01 -2.933264E+00  8.848608E-01
      1654   1 -2.621204E+01  6.182887E+01 -1.728588E+00  1.572878E+01  2.039380E+00 -1.003826E+00
      1654   2 -5.649758E+00  1.057581E+02  2.908326E+00  2.708874E+01  2.025487E+00 -9.065292E-01
      1654   3 -2.601239E+01  6.237401E+01 -1.514713E+00  1.592987E+01 -3.260489E+00  9.620687E-01
      1654   4 -5.418082E+00  1.062858E+02  3.133965E+00  2.731697E+01 -3.231628E+00  1.164422E+00
      1654   5 -1.237679E+01  5.160798E+01 -6.527067E-01  2.867489E+01  2.567248E+00 -9.779249E-01
      1654   6  7.790231E+00  9.614925E+01  4.368617E+00  3.949277E+01  2.591881E+00 -8.848202E-01
      1654   7 -1.209355E+01  5.210705E+01 -4.116999E-01  2.888885E+01 -2.618517E+00  9.449400E-01
      1654   8  8.102233E+00  9.663300E+01  4.620810E+00  3.973333E+01 -2.556085E+00  1.144907E+00
      1655   1 -3.402307E+00  1.254734E+02 -1.025591E+00  4.033375E+01  2.106069E+00 -8.637663E-01
      1655   2  1.344791E+01  1.624636E+02  1.087916E+00  5.007343E+01  2.102722E+00 -7.634952E-01
      1655   3 -3.106498E+00  1.259785E+02 -7.819524E-01  4.058906E+01 -2.880999E+00  1.184026E+00
      1655   4  1.376934E+01  1.629519E+02  1.340698E+00  5.035098E+01 -2.851820E+00  1.363667E+00
      1655   5  9.526392E+00  1.162841E+02  6.265736E-01  5.229981E+01  2.698399E+00 -8.491608E-01
      1655   6  2.604582E+01  1.538069E+02  3.081433E+00  6.157234E+01  2.732738E+00 -7.538185E-01
      1655   7  9.895079E+00  1.167452E+02  8.936076E-01  5.256717E+01 -2.196659E+00  1.163736E+00
      1655   8  2.643752E+01  1.542533E+02  3.357245E+00  6.186147E+01 -2.133565E+00  1.339818E+00
      1656   1 -6.704010E+01 -2.152464E+02 -1.682744E+01 -8.721636E+01  9.009146E-01 -3.910859E+00
      1656   2 -2.477073E+01 -1.288420E+02  6.004616E+00 -6.780152E+01  8.510763E-01 -3.157909E+00
      1656   3 -6.706964E+01 -2.133991E+02 -1.633286E+01 -8.678071E+01 -5.100929E+00 -2.555284E+00
      1656   4 -2.479893E+01 -1.271494E+02  6.461313E+00 -6.732746E+01 -5.074006E+00 -1.613923E+00
      1656   5 -5.271993E+01 -2.331737E+02 -1.967421E+01 -6.802369E+01  1.448185E+00 -3.531815E+00
      1656   6 -1.106826E+01 -1.456613E+02  3.657011E+00 -4.963594E+01  1.421810E+00 -2.784485E+00
      1656   7 -5.262342E+01 -2.313615E+02 -1.913396E+01 -6.759640E+01 -4.390317E+00 -2.239444E+00
      1656   8 -1.097676E+01 -1.440015E+02  4.157862E+00 -4.916978E+01 -4.348809E+00 -1.300397E+00
      1657   1 -6.102578E+01 -1.025059E+02 -8.549962E+00 -4.637301E+01  6.831850E-01 -2.623560E+00
      1657   2 -2.861180E+01 -3.579951E+01  5.322696E+00 -3.032439E+01  7.124372E-01 -2.067772E+00
      1657   3 -6.066350E+01 -1.006249E+02 -7.913601E+00 -4.599948E+01 -5.223431E+00 -9.394093E-01
      1657   4 -2.823383E+01 -3.401461E+01  5.943368E+00 -2.991772E+01 -5.128221E+00 -2.219247E-01
      1657   5 -4.610269E+01 -1.167564E+02 -9.498275E+00 -3.005786E+01  1.303193E+00 -2.258020E+00
      1657   6 -1.424201E+01 -4.917459E+01  4.835078E+00 -1.480825E+01  1.358111E+00 -1.699893E+00
      1657   7 -4.562653E+01 -1.149097E+02 -8.820065E+00 -2.968676E+01 -4.450758E+00 -6.330420E-01
      1657   8 -1.375544E+01 -4.742191E+01  5.496307E+00 -1.440391E+01 -4.337515E+00  8.960049E-02
      1658   1 -4.616623E+01 -1.207648E+01 -4.254109E+00 -1.252353E+01  9.874539E-01 -1.805963E+00
      1658   2 -2.057923E+01  4.127768E+01  4.070306E+00  9.318898E-01  1.023410E+00 -1.385968E+00
      1658   3 -4.564668E+01 -1.024643E+01 -3.571090E+00 -1.215347E+01 -4.626856E+00  7.839862E-02
      1658   4 -2.004605E+01  4.302785E+01  4.741563E+00  1.328530E+00 -4.536753E+00  6.306802E-01
      1658   5 -3.144823E+01 -2.391561E+01 -3.915494E+00  1.818427E+00  1.657609E+00 -1.437544E+00
      1658   6 -6.336922E+00  3.016182E+01  4.834099E+00  1.462637E+01  1.721556E+00 -1.016285E+00
      1658   7 -3.082381E+01 -2.211307E+01 -3.192349E+00  2.184815E+00 -3.821535E+00  3.941916E-01
      1658   8 -5.703308E+00  3.188596E+01  5.544289E+00  1.501952E+01 -3.709709E+00  9.500486E-01
      1659   1 -2.615498E+01  6.277054E+01 -2.157820E+00  1.616363E+01  1.472169E+00 -1.253927E+00
      1659   2 -5.551734E+00  1.066425E+02  2.479055E+00  2.756771E+01  1.485743E+00 -8.759665E-01
      1659   3 -2.562308E+01  6.442610E+01 -1.509218E+00  1.660127E+01 -3.816814E+00  7.609013E-01
      1659   4 -5.014681E+00  1.082197E+02  3.113261E+00  2.802463E+01 -3.759758E+00  1.244649E+00
      1659   5 -1.214117E+01  5.250935E+01 -9.591662E-01  2.912507E+01  2.179694E+00 -8.827737E-01
      1659   6  8.065945E+00  9.700163E+01  4.072396E+00  3.998643E+01  2.221523E+00 -5.078583E-01
      1659   7 -1.151823E+01  5.414194E+01 -2.744281E-01  2.955656E+01 -2.993006E+00  1.086441E+00
      1659   8  8.690450E+00  9.855709E+01  4.741752E+00  4.043746E+01 -2.912729E+00  1.569003E+00
      1660   1 -3.222022E+00  1.262630E+02 -1.483624E+00  4.087387E+01  1.992103E+00 -7.780082E-01
      1660   2  1.361133E+01  1.631518E+02  5.190395E-01  5.064809E+01  2.006132E+00 -3.890392E-01
      1660   3 -2.645046E+00  1.277200E+02 -8.678903E-01  4.139673E+01 -3.011233E+00  1.330627E+00
      1660   4  1.418341E+01  1.645311E+02  1.116848E+00  5.118235E+01 -2.963213E+00  1.802030E+00
      1660   5  9.871990E+00  1.170454E+02  3.065264E-01  5.285409E+01  2.722379E+00 -4.087876E-01
      1660   6  2.637953E+01  1.544794E+02  2.671827E+00  6.216061E+01  2.761550E+00 -2.665572E-02
      1660   7  1.051612E+01  1.184768E+02  9.493330E-01  5.337068E+01 -2.184095E+00  1.661410E+00
      1660   8  2.701635E+01  1.558344E+02  3.296145E+00  6.268884E+01 -2.114869E+00  2.127434E+00
      1661   1 -6.645515E+01 -2.109533E+02 -1.447800E+01 -8.629596E+01 -6.049673E-02 -5.676065E+00
      1661   2 -2.477446E+01 -1.254340E+02  6.934280E+00 -6.681958E+01 -1.107054E-01 -4.346810E+00
      1661   3 -6.628586E+01 -2.076634E+02 -1.349079E+01 -8.540697E+01 -6.415281E+00 -4.149688E+00
      1661   4 -2.465459E+01 -1.224206E+02  7.832743E+00 -6.590581E+01 -6.381838E+00 -2.616953E+00
      1661   5 -5.191570E+01 -2.289326E+02 -1.725381E+01 -6.712931E+01  7.317411E-01 -4.911264E+00
      1661   6 -1.084033E+01 -1.422784E+02  4.710110E+00 -4.867862E+01  6.878448E-01 -3.586596E+00
      1661   7 -5.159979E+01 -2.256358E+02 -1.620136E+01 -6.628022E+01 -5.444589E+00 -3.455988E+00
      1661   8 -1.058130E+01 -1.392581E+02  5.671224E+00 -4.780263E+01 -5.414496E+00 -1.924197E+00
      1662   1 -6.061268E+01 -9.901883E+01 -8.013666E+00 -4.563682E+01 -2.727469E-01 -3.481262E+00
      1662   2 -2.848288E+01 -3.281245E+01  5.120277E+00 -2.953294E+01 -2.359910E-01 -2.589884E+00
      1662   3 -5.993947E+01 -9.562001E+01 -6.826817E+00 -4.501925E+01 -6.351194E+00 -1.668361E+00
      1662   4 -2.782763E+01 -2.960401E+01  6.253448E+00 -2.888809E+01 -6.245811E+00 -6.107140E-01
      1662   5 -4.544976E+01 -1.132827E+02 -8.810592E+00 -2.933657E+01  5.699579E-01 -2.729586E+00
      1662   6 -1.387151E+01 -4.618671E+01  4.808167E+00 -1.403100E+01  6.226601E-01 -1.834344E+00
      1662   7 -4.462860E+01 -1.098749E+02 -7.558416E+00 -2.875065E+01 -5.349596E+00 -9.802050E-01
      1662   8 -1.307523E+01 -4.296936E+01  6.004209E+00 -1.341624E+01 -5.236198E+00  8.427314E-02
      1663   1 -4.594350E+01 -9.146862E+00 -4.666089E+00 -1.181862E+01  3.983258E-01 -2.267116E+00
      1663   2 -2.040992E+01  4.397120E+01  3.470887E+00  1.681257E+00  4.015028E-01 -1.634505E+00
      1663   3 -4.519500E+01 -5.898190E+00 -3.486120E+00 -1.127352E+01 -5.238701E+00 -3.029181E-01
      1663   4 -1.967731E+01  4.705416E+01  4.604671E+00  2.248587E+00 -5.180418E+00  4.624824E-01
      1663   5 -3.098232E+01 -2.096957E+01 -4.137229E+00  2.506259E+00  1.266373E+00 -1.507352E+00
      1663   6 -5.926912E+00  3.287946E+01  4.436103E+00  1.535945E+01  1.291793E+00 -8.749975E-01
      1663   7 -3.009184E+01 -1.770424E+01 -2.892907E+00  3.018402E+00 -4.233187E+00  4.015091E-01
      1663   8 -5.058480E+00  3.597858E+01  5.631924E+00  1.589531E+01 -4.159028E+00  1.169040E+00
      1664   1 -2.599535E+01  6.525818E+01 -2.825379E+00  1.699560E+01  1.257180E+00 -1.511278E+00
      1664   2 -5.350133E+00  1.090105E+02  1.877121E+00  2.843076E+01  1.233557E+00 -9.231709E-01
      1664   3 -2.526209E+01  6.815412E+01 -1.741156E+00  1.763554E+01 -3.984562E+00  5.577782E-01
      1664   4 -4.640707E+00  1.117529E+02  2.915888E+00  2.908365E+01 -3.963836E+00  1.252426E+00
      1664   5 -1.175677E+01  5.502878E+01 -1.421721E+00  2.993685E+01  2.137770E+00 -7.463560E-01
      1664   6  8.492041E+00  9.940925E+01  3.688209E+00  4.083013E+01  2.135688E+00 -1.636915E-01
      1664   7 -1.090828E+01  5.793830E+01 -2.835291E-01  3.054458E+01 -2.985274E+00  1.274381E+00
      1664   8  9.312078E+00  1.021648E+02  4.779158E+00  4.145216E+01 -2.948131E+00  1.965516E+00
      1665   1 -2.921657E+00  1.283830E+02 -2.114641E+00  4.187922E+01  2.075739E+00 -7.803213E-01
      1665   2  1.385728E+01  1.650784E+02 -2.342642E-01  5.166952E+01  2.082259E+00 -1.145395E-01
      1665   3 -2.100854E+00  1.308871E+02 -1.108163E+00  4.267465E+01 -2.927443E+00  1.403211E+00
      1665   4  1.464241E+01  1.674388E+02  7.258265E-01  5.246636E+01 -2.884533E+00  2.156634E+00
      1665   5  1.036188E+01  1.192025E+02 -1.059849E-01  5.384070E+01  2.948641E+00 -1.521673E-02
      1665   6  2.682569E+01  1.564597E+02  2.170696E+00  6.316403E+01  2.969317E+00  6.412876E-01
      1665   7  1.125235E+01  1.217057E+02  9.354726E-01  5.460835E+01 -1.950154E+00  2.125222E+00
      1665   8  2.767793E+01  1.588195E+02  3.164791E+00  6.393418E+01 -1.897294E+00  2.870956E+00
      1666   1 -6.539442E+01 -2.038859E+02 -1.098006E+01 -8.459424E+01 -4.131697E-01 -6.506164E+00
      1666   2 -2.483936E+01 -1.199179E+02  7.879623E+00 -6.508023E+01 -4.712665E-01 -4.598506E+00
      1666   3 -6.494094E+01 -1.986755E+02 -9.330967E+00 -8.326226E+01 -7.395158E+00 -4.687148E+00
      1666   4 -2.449361E+01 -1.151304E+02  9.379743E+00 -6.373792E+01 -7.361151E+00 -2.557289E+00
      1666   5 -5.057990E+01 -2.218239E+02 -1.361131E+01 -6.551108E+01  6.005704E-01 -5.231917E+00
      1666   6 -1.061358E+01 -1.366920E+02  5.865312E+00 -4.701830E+01  5.296221E-01 -3.326894E+00
      1666   7 -4.994712E+01 -2.165512E+02 -1.186918E+01 -6.425827E+01 -6.184304E+00 -3.493626E+00
      1666   8 -1.009771E+01 -1.318450E+02  7.454421E+00 -4.575092E+01 -6.173772E+00 -1.362350E+00
      1667   1 -6.032652E+01 -9.325606E+01 -7.689389E+00 -4.452400E+01 -3.010799E-01 -3.632997E+00
      1667   2 -2.850875E+01 -2.770345E+01  4.715826E+00 -2.837398E+01 -4.667471E-01 -2.621019E+00
      1667   3 -5.980470E+01 -8.794970E+01 -5.972872E+00 -4.378762E+01 -6.522790E+00 -1.680790E+00
      1667   4 -2.805588E+01 -2.275570E+01  6.313158E+00 -2.761339E+01 -6.618165E+00 -5.015501E-01
      1667   5 -4.482164E+01 -1.074177E+02 -8.229104E+00 -2.829916E+01  7.261483E-01 -2.370285E+00
      1667   6 -1.356103E+01 -4.096931E+01  4.674309E+00 -1.294375E+01  5.764811E-01 -1.370037E+00
      1667   7 -4.406317E+01 -1.020109E+02 -6.393124E+00 -2.765069E+01 -5.333047E+00 -4.850205E-01
      1667   8 -1.288280E+01 -3.592574E+01  6.385988E+00 -1.226678E+01 -5.420527E+00  6.856130E-01
      1668   1 -4.602484E+01 -4.157414E+00 -5.295162E+00 -1.082388E+01  6.006217E-01 -2.468886E+00
      1668   2 -2.056391E+01  4.858914E+01  2.674442E+00  2.713537E+00  2.952525E-01 -1.778402E+00
      1668   3 -4.578120E+01  6.041174E-01 -3.809367E+00 -1.013963E+01 -5.031506E+00 -4.208560E-01
      1668   4 -2.038267E+01  5.303139E+01  4.054165E+00  3.417297E+00 -5.281096E+00  4.011483E-01
      1668   5 -3.071982E+01 -1.585249E+01 -4.481886E+00  3.423551E+00  1.639880E+00 -1.220972E+00
      1668   6 -5.744641E+00  3.762723E+01  3.929806E+00  1.631777E+01  1.360977E+00 -5.511895E-01
      1668   7 -3.024641E+01 -1.098400E+01 -2.878624E+00  4.019191E+00 -3.853457E+00  7.693943E-01
      1668   8 -5.343759E+00  4.217189E+01  5.422251E+00  1.693691E+01 -4.083007E+00  1.573202E+00
      1669   1 -2.601300E+01  6.956478E+01 -3.649761E+00  1.815493E+01  1.506928E+00 -1.816811E+00
      1669   2 -5.372749E+00  1.130605E+02  1.072759E+00  2.961126E+01  1.279992E+00 -1.162973E+00
      1669   3 -2.548312E+01  7.383325E+01 -2.211057E+00  1.893454E+01 -3.680919E+00  3.152238E-01
      1669   4 -4.901135E+00  1.170678E+02  2.423591E+00  3.040037E+01 -3.862583E+00  1.075758E+00
      1669   5 -1.147860E+01  5.945709E+01 -1.965600E+00  3.102528E+01  2.551196E+00 -5.910759E-01
      1669   6  8.762738E+00  1.035857E+02  3.175619E+00  4.194271E+01  2.347061E+00  4.517368E-02
      1669   7 -1.077361E+01  6.380445E+01 -4.358620E-01  3.173144E+01 -2.515701E+00  1.490041E+00
      1669   8  9.402310E+00  1.076687E+02  4.614079E+00  4.266144E+01 -2.679779E+00  2.235017E+00
      1670   1 -2.566485E+00  1.320406E+02 -2.791251E+00  4.335969E+01  2.325177E+00 -1.023313E+00
      1670   2  1.428202E+01  1.686024E+02 -6.692066E-01  5.314931E+01  2.252191E+00 -1.115354E-01
      1670   3 -1.671184E+00  1.356721E+02 -1.419875E+00  4.443607E+01 -2.563540E+00  1.202323E+00
      1670   4  1.510998E+01  1.720147E+02  6.241152E-01  5.421856E+01 -2.598115E+00  2.205658E+00
      1670   5  1.093176E+01  1.229596E+02 -5.112879E-01  5.526321E+01  3.352153E+00  1.871480E-01
      1670   6  2.747381E+01  1.600965E+02  2.036291E+00  6.458812E+01  3.285426E+00  1.085266E+00
      1670   7  1.191337E+01  1.266260E+02  9.099996E-01  5.628493E+01 -1.425944E+00  2.365408E+00
      1670   8  2.838482E+01  1.635423E+02  3.377831E+00  6.560483E+01 -1.458690E+00  3.356793E+00
      1671   1 -6.474803E+01 -1.935302E+02 -7.367024E+00 -8.229323E+01  1.287341E+00 -5.063254E+00
      1671   2 -2.570371E+01 -1.117114E+02  8.187717E+00 -6.276384E+01  6.305081E-01 -3.278196E+00
      1671   3 -6.530750E+01 -1.853250E+02 -5.122327E+00 -8.097553E+01 -6.483169E+00 -2.865946E+00
      1671   4 -2.648092E+01 -1.042914E+02  1.014270E+01 -6.144285E+01 -7.040010E+00 -8.444015E-01
      1671   5 -4.953136E+01 -2.112663E+02 -9.733534E+00 -6.338789E+01  2.446862E+00 -3.008249E+00
      1671   6 -1.106809E+01 -1.282652E+02  6.492109E+00 -4.487020E+01  1.783400E+00 -1.271214E+00
      1671   7 -4.973570E+01 -2.028161E+02 -7.286564E+00 -6.226051E+01 -5.109668E+00 -9.005795E-01
      1671   8 -1.150875E+01 -1.206129E+02  8.639566E+00 -4.372934E+01 -5.684634E+00  1.077532E+00
      1672   1 -6.162951E+01 -8.478136E+01 -8.128778E+00 -4.322985E+01  1.637035E+00 -2.972023E+00
      1672   2 -2.980855E+01 -1.982032E+01  4.398500E+00 -2.704027E+01  5.746602E-01 -2.199282E+00
      1672   3 -6.314098E+01 -7.744311E+01 -6.409076E+00 -4.244010E+01 -4.461362E+00 -9.699404E-01
      1672   4 -3.149915E+01 -1.320408E+01  5.856755E+00 -2.623295E+01 -5.454419E+00 -3.773298E-02
      1672   5 -4.558121E+01 -9.863329E+01 -8.271709E+00 -2.720182E+01  2.789012E+00 -1.000030E+00
      1672   6 -1.434349E+01 -3.279113E+01  4.735619E+00 -1.179723E+01  1.760964E+00 -3.055657E-01
      1672   7 -4.666339E+01 -9.099563E+01 -6.315682E+00 -2.662166E+01 -3.149639E+00  9.341969E-01
      1672   8 -1.562553E+01 -2.588981E+01  6.419341E+00 -1.118924E+01 -4.116313E+00  1.791441E+00
      1673   1 -4.744467E+01  3.384002E+00 -5.648778E+00 -9.575612E+00  1.831838E+00 -2.460909E+00
      1673   2 -2.214158E+01  5.546315E+01  2.050325E+00  3.993915E+00  8.200502E-01 -1.848506E+00
      1673   3 -4.882467E+01  9.619600E+00 -4.204746E+00 -8.717299E+00 -3.794051E+00 -3.327651E-01
      1673   4 -2.366027E+01  6.112732E+01  3.289742E+00  4.867017E+00 -4.749872E+00  4.074620E-01
      1673   5 -3.162908E+01 -8.011479E+00 -4.461255E+00  4.484663E+00  3.009386E+00 -6.058689E-01
      1673   6 -6.830370E+00  4.479178E+01  3.673346E+00  1.741943E+01  2.038595E+00 -6.286003E-02
      1673   7 -3.263362E+01 -1.518214E+00 -2.811129E+00  5.162350E+00 -2.477718E+00  1.462793E+00
      1673   8 -7.990307E+00  5.070221E+01  5.110098E+00  1.812007E+01 -3.398949E+00  2.136308E+00
      1674   1 -2.694559E+01  7.608179E+01 -4.225263E+00  1.956135E+01  2.136084E+00 -2.184439E+00
      1674   2 -6.481925E+00  1.189994E+02  1.873803E-01  3.103411E+01  1.260062E+00 -1.635443E+00
      1674   3 -2.792544E+01  8.149723E+01 -2.892306E+00  2.049551E+01 -3.066763E+00  2.937500E-02
      1674   4 -7.572959E+00  1.239645E+02  1.360056E+00  3.197762E+01 -3.896274E+00  6.843990E-01
      1674   5 -1.199626E+01  6.622102E+01 -2.207443E+00  3.227638E+01  3.333520E+00 -4.287430E-01
      1674   6  8.059735E+00  1.097697E+02  2.630030E+00  4.321675E+01  2.497711E+00  6.247195E-02
      1674   7 -1.266852E+01  7.184435E+01 -7.052233E-01  3.306036E+01 -1.745754E+00  1.731620E+00
      1674   8  7.263568E+00  1.149342E+02  3.965254E+00  4.401637E+01 -2.540377E+00  2.331079E+00
      1675   1 -2.529243E+00  1.375146E+02 -3.263176E+00  4.526337E+01  2.406812E+00 -1.747896E+00
      1675   2  1.455966E+01  1.740234E+02 -4.332576E-01  5.504112E+01  1.939733E+00 -9.147773E-01
      1675   3 -2.382010E+00  1.423000E+02 -1.766228E+00  4.644796E+01 -2.230588E+00  4.567718E-01
      1675   4  1.460972E+01  1.784771E+02  9.430130E-01  5.621986E+01 -2.658877E+00  1.379682E+00
      1675   5  1.122339E+01  1.285970E+02 -7.102675E-01  5.705387E+01  3.611627E+00 -6.944716E-02
      1675   6  2.800154E+01  1.656800E+02  2.547673E+00  6.637132E+01  3.162896E+00  7.296377E-01
      1675   7  1.154726E+01  1.335023E+02  8.881128E-01  5.813370E+01 -9.148812E-01  2.086246E+00
      1675   8  2.822141E+01  1.702490E+02  4.021567E+00  6.744938E+01 -1.329274E+00  2.976926E+00
      1676   1 -5.189953E+01 -2.187442E+02 -1.693039E+01 -7.154324E+01  2.212607E+00 -1.595438E+00
      1676   2 -1.396459E+01 -1.331007E+02  5.361792E+00 -5.660559E+01  2.138865E+00 -1.402187E+00
      1676   3 -5.211850E+01 -2.182392E+02 -1.688607E+01 -7.156496E+01 -3.517945E+00 -8.811671E-01
      1676   4 -1.415420E+01 -1.326280E+02  5.411489E+00 -5.658239E+01 -3.532135E+00 -4.968935E-01
      1676   5 -4.156006E+01 -2.328278E+02 -1.988948E+01 -5.102094E+01  2.433811E+00 -1.511924E+00
      1676   6 -4.039946E+00 -1.462921E+02  2.884169E+00 -3.718152E+01  2.389776E+00 -1.320538E+00
      1676   7 -4.168489E+01 -2.323758E+02 -1.981782E+01 -5.100643E+01 -3.133281E+00 -8.444863E-01
      1676   8 -4.140256E+00 -1.458693E+02  2.960208E+00 -3.712401E+01 -3.126628E+00 -4.595877E-01
      1677   1 -5.192645E+01 -1.048401E+02 -8.436948E+00 -4.144163E+01  2.067829E+00 -1.271786E+00
      1677   2 -2.301918E+01 -3.875845E+01  5.093509E+00 -2.884848E+01  2.038710E+00 -1.127623E+00
      1677   3 -5.194380E+01 -1.043047E+02 -8.312187E+00 -4.140301E+01 -3.630810E+00 -2.168536E-01
      1677   4 -2.300650E+01 -3.823519E+01  5.230196E+00 -2.877513E+01 -3.607996E+00  9.382236E-02
      1677   5 -4.019704E+01 -1.156730E+02 -9.411132E+00 -2.394842E+01  2.355315E+00 -1.190660E+00
      1677   6 -1.169347E+01 -4.889010E+01  4.565485E+00 -1.221201E+01  2.354243E+00 -1.044654E+00
      1677   7 -4.013183E+01 -1.151849E+02 -9.261478E+00 -2.387612E+01 -3.187944E+00 -1.803071E-01
      1677   8 -1.160216E+01 -4.841170E+01  4.726112E+00 -1.210664E+01 -3.144815E+00  1.343719E-01
      1678   1 -4.236490E+01 -1.361278E+01 -4.015432E+00 -1.515305E+01  2.057122E+00 -1.045758E+00
      1678   2 -1.965336E+01  3.937292E+01  4.019974E+00 -4.466922E+00  2.043056E+00 -9.380543E-01
      1678   3 -4.227139E+01 -1.306605E+01 -3.842592E+00 -1.506695E+01 -3.446634E+00  2.552761E-01
      1678   4 -1.953552E+01  3.990744E+01  4.202806E+00 -4.353324E+00 -3.417906E+00  4.998839E-01
      1678   5 -3.038945E+01 -2.243609E+01 -3.698964E+00  3.114189E-01  2.400004E+00 -9.630082E-01
      1678   6 -8.035519E+00  3.113097E+01  4.749259E+00  1.029939E+01  2.413685E+00 -8.544882E-01
      1678   7 -3.022054E+01 -2.192977E+01 -3.502393E+00  4.262034E-01 -2.965413E+00  2.982382E-01
      1678   8 -7.845617E+00  3.162697E+01  4.954901E+00  1.044037E+01 -2.915311E+00  5.454417E-01
      1679   1 -2.713976E+01  6.203338E+01 -1.981061E+00  8.005352E+00  2.099432E+00 -8.816697E-01
      1679   2 -8.990389E+00  1.056346E+02  2.385567E+00  1.706541E+01  2.085701E+00 -7.861653E-01
      1679   3 -2.699334E+01  6.255167E+01 -1.789812E+00  8.144042E+00 -3.142702E+00  5.910320E-01
      1679   4 -8.825522E+00  1.061372E+02  2.583468E+00  1.722669E+01 -3.122587E+00  7.943930E-01
      1679   5 -1.572333E+01  5.443173E+01 -8.776157E-01  2.202499E+01  2.491828E+00 -8.002225E-01
      1679   6  2.130071E+00  9.853329E+01  3.867570E+00  3.049803E+01  2.506237E+00 -7.059905E-01
      1679   7 -1.550722E+01  5.491530E+01 -6.638742E-01  2.218783E+01 -2.633056E+00  6.386310E-01
      1679   8  2.361769E+00  9.900270E+01  4.087136E+00  3.068246E+01 -2.589840E+00  8.421272E-01
      1680   1 -8.583250E+00  1.262085E+02 -1.463921E+00  2.849850E+01  2.158818E+00 -7.367038E-01
      1680   2  6.103572E+00  1.627588E+02  3.520328E-01  3.620979E+01  2.153304E+00 -6.406967E-01
      1680   3 -8.368494E+00  1.266950E+02 -1.251608E+00  2.868547E+01 -2.804415E+00  8.485933E-01
      1680   4  6.332810E+00  1.632303E+02  5.691864E-01  3.641544E+01 -2.784673E+00  1.024634E+00
      1680   5  1.983192E+00  1.194195E+02  1.617571E-01  4.141309E+01  2.596575E+00 -6.602401E-01
      1680   6  1.642665E+01  1.564039E+02  2.308911E+00  4.862020E+01  2.618876E+00 -5.661754E-01
      1680   7  2.258921E+00  1.198729E+02  3.932426E-01  4.162219E+01 -2.273698E+00  8.980577E-01
      1680   8  1.671454E+01  1.568437E+02  2.544635E+00  4.884711E+01 -2.229903E+00  1.073203E+00
      1681   1 -5.190955E+01 -2.171209E+02 -1.597984E+01 -7.146504E+01  1.121106E+00 -4.028850E+00
      1681   2 -1.416168E+01 -1.317943E+02  5.784409E+00 -5.645111E+01  1.046851E+00 -3.272039E+00
      1681   3 -5.197171E+01 -2.154272E+02 -1.553200E+01 -7.116996E+01 -4.754743E+00 -3.257249E+00
      1681   4 -1.423318E+01 -1.302343E+02  6.195951E+00 -5.611532E+01 -4.765745E+00 -2.299682E+00
      1681   5 -4.141721E+01 -2.313046E+02 -1.893176E+01 -5.088994E+01  1.567862E+00 -3.641161E+00
      1681   6 -4.078170E+00 -1.450662E+02  3.346633E+00 -3.697706E+01  1.509082E+00 -2.886730E+00
      1681   7 -4.135823E+01 -2.296316E+02 -1.843853E+01 -5.058587E+01 -4.134109E+00 -2.921071E+00
      1681   8 -4.034837E+00 -1.435257E+02  3.801553E+00 -3.663277E+01 -4.139043E+00 -1.963207E+00
      1682   1 -5.189536E+01 -1.035275E+02 -8.179165E+00 -4.129904E+01  8.855865E-01 -2.750718E+00
      1682   2 -2.310466E+01 -3.765037E+01  4.989741E+00 -2.864657E+01  8.945173E-01 -2.179387E+00
      1682   3 -5.160282E+01 -1.018007E+02 -7.603440E+00 -4.105332E+01 -4.911404E+00 -1.635041E+00
      1682   4 -2.280640E+01 -3.600049E+01  5.550946E+00 -2.836844E+01 -4.848453E+00 -8.922632E-01
      1682   5 -4.001153E+01 -1.144300E+02 -9.096066E+00 -2.375454E+01  1.385381E+00 -2.367470E+00
      1682   6 -1.162158E+01 -4.783759E+01  4.540738E+00 -1.196133E+01  1.409603E+00 -1.789622E+00
      1682   7 -3.961620E+01 -1.127274E+02 -8.482351E+00 -2.349435E+01 -4.249767E+00 -1.299841E+00
      1682   8 -1.122545E+01 -4.621073E+01  5.138297E+00 -1.166944E+01 -4.179562E+00 -5.482828E-01
      1683   1 -4.237167E+01 -1.253320E+01 -4.229218E+00 -1.494901E+01  1.151711E+00 -1.884870E+00
      1683   2 -1.967678E+01  4.035954E+01  3.696065E+00 -4.215974E+00  1.170817E+00 -1.454309E+00
      1683   3 -4.194935E+01 -1.083786E+01 -3.612057E+00 -1.471261E+01 -4.377590E+00 -5.361409E-01
      1683   4 -1.925143E+01  4.198594E+01  4.299937E+00 -3.954067E+00 -4.314797E+00  3.270774E-02
      1683   5 -3.023881E+01 -2.139869E+01 -3.820821E+00  5.584744E-01  1.677551E+00 -1.490007E+00
      1683   6 -7.902079E+00  3.208386E+01  4.528414E+00  1.059141E+01  1.714148E+00 -1.055207E+00
      1683   7 -2.972216E+01 -1.972205E+01 -3.167812E+00  8.053329E-01 -3.710357E+00 -1.834833E-01
      1683   8 -7.386586E+00  3.369245E+01  5.166646E+00  1.086331E+01 -3.636573E+00  3.914350E-01
      1684   1 -2.714838E+01  6.295152E+01 -2.342728E+00  8.303063E+00  1.585868E+00 -1.275316E+00
      1684   2 -8.971998E+00  1.065077E+02  2.035255E+00  1.740082E+01  1.581624E+00 -8.980716E-01
      1684   3 -2.674209E+01  6.449864E+01 -1.763518E+00  8.599082E+00 -3.645385E+00  2.367055E-01
      1684   4 -8.571134E+00  1.079802E+02  2.596385E+00  1.771551E+01 -3.615173E+00  7.226208E-01
      1684   5 -1.557704E+01  5.532659E+01 -1.128434E+00  2.235739E+01  2.125370E+00 -8.720359E-01
      1684   6  2.303006E+00  9.939025E+01  3.637743E+00  3.086668E+01  2.139785E+00 -4.965371E-01
      1684   7 -1.508744E+01  5.685989E+01 -5.165522E-01  2.265805E+01 -2.986233E+00  6.039617E-01
      1684   8  2.783722E+00  1.008495E+02  4.230259E+00  3.118582E+01 -2.942489E+00  1.089585E+00
      1685   1 -8.503735E+00  1.270097E+02 -1.829084E+00  2.889344E+01  2.034240E+00 -7.508912E-01
      1685   2  6.163745E+00  1.634770E+02 -9.386361E-02  3.663428E+01  2.023451E+00 -3.733743E-01
      1685   3 -8.092019E+00  1.283759E+02 -1.292222E+00  2.927488E+01 -2.941255E+00  8.822553E-01
      1685   4  6.561346E+00  1.647655E+02  4.206924E-01  3.702677E+01 -2.925674E+00  1.342739E+00
      1685   5  2.207439E+00  1.202087E+02 -7.731113E-02  4.183887E+01  2.575171E+00 -3.474065E-01
      1685   6  1.663636E+01  1.571211E+02  2.008615E+00  4.907433E+01  2.580733E+00  2.346004E-02
      1685   7  2.680425E+00  1.215587E+02  4.837423E-01  4.222201E+01 -2.302545E+00  1.255923E+00
      1685   8  1.709288E+01  1.583941E+02  2.546511E+00  4.946844E+01 -2.274537E+00  1.710880E+00
      1686   1 -5.143463E+01 -2.131446E+02 -1.377030E+01 -7.083971E+01  2.861728E-01 -5.979899E+00
      1686   2 -1.424660E+01 -1.286185E+02  6.680146E+00 -5.575628E+01  1.865898E-01 -4.631554E+00
      1686   3 -5.140051E+01 -2.101027E+02 -1.288947E+01 -7.023195E+01 -5.931238E+00 -5.092048E+00
      1686   4 -1.426078E+01 -1.258179E+02  7.481627E+00 -5.511059E+01 -5.960695E+00 -3.523162E+00
      1686   5 -4.073837E+01 -2.273691E+02 -1.667920E+01 -5.026003E+01  9.413855E-01 -5.232947E+00
      1686   6 -3.942046E+00 -1.419011E+02  4.348508E+00 -3.627789E+01  8.418675E-01 -3.885773E+00
      1686   7 -4.054782E+01 -2.243100E+02 -1.573038E+01 -4.967332E+01 -5.082781E+00 -4.404039E+00
      1686   8 -3.808019E+00 -1.390841E+02  5.214675E+00 -3.565212E+01 -5.122593E+00 -2.833323E+00
      1687   1 -5.158001E+01 -1.002972E+02 -7.650489E+00 -4.083000E+01  2.498525E-02 -3.770951E+00
      1687   2 -2.306633E+01 -3.486054E+01  4.833252E+00 -2.812027E+01  2.773710E-02 -2.851284E+00
      1687   3 -5.105146E+01 -9.716209E+01 -6.580257E+00 -4.046504E+01 -5.942047E+00 -2.556005E+00
      1687   4 -2.255618E+01 -3.188153E+01  5.858377E+00 -2.771990E+01 -5.882445E+00 -1.457997E+00
      1687   5 -3.947575E+01 -1.112021E+02 -8.432329E+00 -2.327000E+01  7.123945E-01 -3.026461E+00
      1687   6 -1.135786E+01 -4.503433E+01  4.549424E+00 -1.142029E+01  7.220765E-01 -2.097295E+00
      1687   7 -3.879882E+01 -1.080531E+02 -7.298812E+00 -2.291672E+01 -5.084231E+00 -1.863734E+00
      1687   8 -1.070653E+01 -4.204205E+01  5.634917E+00 -1.103103E+01 -5.026149E+00 -7.538219E-01
      1688   1 -4.225572E+01 -9.789647E+00 -4.578961E+00 -1.451877E+01  6.276309E-01 -2.455532E+00
      1688   2 -1.961957E+01  4.290033E+01  3.182794E+00 -3.740367E+00  6.056191E-01 -1.810639E+00
      1688   3 -4.166265E+01 -6.772628E+00 -3.512071E+00 -1.422512E+01 -4.924987E+00 -1.039166E+00
      1688   4 -1.904626E+01  4.577294E+01  4.207104E+00 -3.417989E+00 -4.902263E+00 -2.546050E-01
      1688   5 -2.989392E+01 -1.862510E+01 -3.987206E+00  9.969012E-01  1.314329E+00 -1.691501E+00
      1688   6 -7.616966E+00  3.466261E+01  4.211899E+00  1.107485E+01  1.305874E+00 -1.043016E+00
      1688   7 -2.915816E+01 -1.558686E+01 -2.858174E+00  1.273904E+00 -4.093599E+00 -3.198792E-01
      1688   8 -6.907374E+00  3.755554E+01  5.295633E+00  1.138132E+01 -4.063969E+00  4.701736E-01
      1689   1 -2.712671E+01  6.532454E+01 -2.908933E+00  8.852203E+00  1.404537E+00 -1.598761E+00
      1689   2 -8.914057E+00  1.087801E+02  1.555182E+00  1.798210E+01  1.351673E+00 -1.016016E+00
      1689   3 -2.657870E+01  6.803541E+01 -1.935680E+00  9.248126E+00 -3.777625E+00 -3.771015E-02
      1689   4 -8.396470E+00  1.113449E+02  2.481587E+00  1.839609E+01 -3.795198E+00  6.548900E-01
      1689   5 -1.533861E+01  5.774801E+01 -1.490773E+00  2.290508E+01  2.078713E+00 -8.229469E-01
      1689   6  2.578113E+00  1.017184E+02  3.375122E+00  3.144657E+01  2.039579E+00 -2.451210E-01
      1689   7 -1.467315E+01  6.047886E+01 -4.648600E-01  2.327975E+01 -2.980818E+00  6.996768E-01
      1689   8  3.208236E+00  1.043023E+02  4.352003E+00  3.184020E+01 -2.989906E+00  1.388875E+00
      1690   1 -8.390780E+00  1.290768E+02 -2.317239E+00  2.962296E+01  2.106116E+00 -7.911386E-01
      1690   2  6.232485E+00  1.653749E+02 -6.517980E-01  3.738050E+01  2.067810E+00 -1.455250E-01
      1690   3 -7.809805E+00  1.314309E+02 -1.430477E+00  3.019278E+01 -2.859281E+00  9.059385E-01
      1690   4  6.769151E+00  1.675809E+02  1.829439E-01  3.795472E+01 -2.869236E+00  1.640041E+00
      1690   5  2.504913E+00  1.223314E+02 -3.450851E-01  4.256244E+01  2.750043E+00 -1.565681E-02
      1690   6  1.690065E+01  1.590908E+02  1.704995E+00  4.981483E+01  2.718140E+00  6.173745E-01
      1690   7  3.156460E+00  1.246930E+02  5.753654E-01  4.310971E+01 -2.109548E+00  1.647745E+00
      1690   8  1.750513E+01  1.613039E+02  2.572093E+00  5.036737E+01 -2.117314E+00  2.370505E+00
      1691   1 -5.063466E+01 -2.065243E+02 -1.044228E+01 -6.969219E+01 -1.719754E-02 -6.856944E+00
      1691   2 -1.451048E+01 -1.234264E+02  7.600953E+00 -5.454280E+01 -1.506000E-01 -4.905970E+00
      1691   3 -5.043230E+01 -2.016520E+02 -8.961555E+00 -6.882432E+01 -6.849746E+00 -5.746502E+00
      1691   4 -1.439710E+01 -1.189180E+02  8.954321E+00 -5.363633E+01 -6.905428E+00 -3.553200E+00
      1691   5 -3.963837E+01 -2.206913E+02 -1.319980E+01 -4.916224E+01  8.055272E-01 -5.626017E+00
      1691   6 -3.887762E+00 -1.366204E+02  5.492327E+00 -3.511147E+01  6.555471E-01 -3.671718E+00
      1691   7 -3.922558E+01 -2.157513E+02 -1.161875E+01 -4.835169E+01 -5.812220E+00 -4.582964E+00
      1691   8 -3.575108E+00 -1.320479E+02  6.940923E+00 -3.425925E+01 -5.896020E+00 -2.382991E+00
      1692   1 -5.146500E+01 -9.493190E+01 -7.323699E+00 -4.023310E+01  2.897251E-03 -3.902683E+00
      1692   2 -2.324588E+01 -3.006979E+01  4.482166E+00 -2.745722E+01 -1.910391E-01 -2.876090E+00
      1692   3 -5.112786E+01 -8.998357E+01 -5.764650E+00 -3.996328E+01 -6.108796E+00 -2.568323E+00
      1692   4 -2.296710E+01 -2.543043E+01  5.938506E+00 -2.713894E+01 -6.244277E+00 -1.361669E+00
      1692   5 -3.900357E+01 -1.057228E+02 -7.837847E+00 -2.271298E+01  8.218104E-01 -2.668215E+00
      1692   6 -1.118577E+01 -4.012322E+01  4.480845E+00 -1.079516E+01  6.397792E-01 -1.645495E+00
      1692   7 -3.840359E+01 -1.006740E+02 -6.155221E+00 -2.250853E+01 -5.115093E+00 -1.389167E+00
      1692   8 -1.065694E+01 -3.538823E+01  6.054872E+00 -1.053905E+01 -5.247346E+00 -1.838454E-01
      1693   1 -4.249641E+01 -5.108029E+00 -5.141378E+00 -1.403269E+01  8.358740E-01 -2.607939E+00
      1693   2 -1.992764E+01  4.726142E+01  2.481097E+00 -3.200207E+00  5.160397E-01 -1.934185E+00
      1693   3 -4.242609E+01 -6.403877E-01 -3.793315E+00 -1.379960E+01 -4.713068E+00 -1.113223E+00
      1693   4 -1.991303E+01  5.144734E+01  3.734710E+00 -2.926695E+00 -4.987462E+00 -3.006786E-01
      1693   5 -2.977434E+01 -1.380352E+01 -4.251685E+00  1.435002E+00  1.643308E+00 -1.372115E+00
      1693   6 -7.572589E+00  3.916580E+01  3.814398E+00  1.156918E+01  1.346758E+00 -7.117494E-01
      1693   7 -2.945008E+01 -9.230445E+00 -2.783203E+00  1.599120E+00 -3.759301E+00  7.573901E-02
      1693   8 -7.315477E+00  4.345241E+01  5.183040E+00  1.177685E+01 -4.017150E+00  8.768956E-01
      1694   1 -2.734155E+01  6.942567E+01 -3.625785E+00  9.534719E+00  1.664906E+00 -1.849835E+00
      1694   2 -9.130342E+00  1.126544E+02  8.858834E-01  1.869833E+01  1.412183E+00 -1.220617E+00
      1694   3 -2.701891E+01  7.346403E+01 -2.318802E+00  9.922477E+00 -3.460654E+00 -2.268348E-01
      1694   4 -8.863987E+00  1.164527E+02  2.110297E+00  1.911071E+01 -3.676991E+00  5.134981E-01
      1694   5 -1.523973E+01  6.198794E+01 -1.909381E+00  2.353685E+01  2.456628E+00 -6.234261E-01
      1694   6  2.674140E+00  1.057374E+02  3.018941E+00  3.211418E+01  2.222836E+00 -7.969592E-03
      1694   7 -1.472345E+01  6.610583E+01 -5.095275E-01  2.386526E+01 -2.542900E+00  9.585864E-01
      1694   8  3.125993E+00  1.096119E+02  4.332277E+00  3.246970E+01 -2.745705E+00  1.686763E+00
      1695   1 -8.310729E+00  1.326290E+02 -2.841196E+00  3.067611E+01  2.358074E+00 -9.801709E-01
      1695   2  6.391944E+00  1.688091E+02 -8.865334E-01  3.843953E+01  2.225834E+00 -9.939295E-02
      1695   3 -7.700366E+00  1.361042E+02 -1.605590E+00  3.142720E+01 -2.479862E+00  7.628508E-01
      1695   4  6.926526E+00  1.720566E+02  2.642998E-01  3.919024E+01 -2.581471E+00  1.738285E+00
      1695   5  2.815827E+00  1.260088E+02 -5.710708E-01  4.356585E+01  3.112167E+00  2.344106E-01
      1695   6  1.730353E+01  1.626667E+02  1.806909E+00  5.082605E+01  2.979192E+00  1.095746E+00
      1695   7  3.519875E+00  1.295244E+02  7.142667E-01  4.426519E+01 -1.610955E+00  1.939446E+00
      1695   8  1.792806E+01  1.659531E+02  3.005350E+00  5.152704E+01 -1.717844E+00  2.896810E+00
      1696   1 -5.036383E+01 -1.966926E+02 -6.988889E+00 -6.833987E+01  1.553938E+00 -5.070206E+00
      1696   2 -1.567500E+01 -1.156037E+02  7.889500E+00 -5.311817E+01  8.408408E-01 -3.300313E+00
      1696   3 -5.116325E+01 -1.888079E+02 -4.903561E+00 -6.788168E+01 -6.061254E+00 -3.648143E+00
      1696   4 -1.667969E+01 -1.084643E+02  9.698819E+00 -5.260672E+01 -6.691508E+00 -1.625030E+00
      1696   5 -3.887932E+01 -2.106303E+02 -9.416987E+00 -4.795165E+01  2.440153E+00 -3.047296E+00
      1696   6 -4.564677E+00 -1.285552E+02  6.152241E+00 -3.382100E+01  1.719990E+00 -1.323409E+00
      1696   7 -3.926328E+01 -2.025045E+02 -7.116671E+00 -4.766683E+01 -4.946248E+00 -1.699103E+00
      1696   8 -5.176005E+00 -1.211874E+02  8.165366E+00 -3.347364E+01 -5.595843E+00  2.817646E-01
      1697   1 -5.295762E+01 -8.695306E+01 -7.760492E+00 -3.989822E+01  1.822861E+00 -2.883804E+00
      1697   2 -2.472264E+01 -2.260702E+01  4.181552E+00 -2.703123E+01  7.717139E-01 -2.200059E+00
      1697   3 -5.461236E+01 -7.994698E+01 -6.178436E+00 -3.998792E+01 -4.170835E+00 -1.487396E+00
      1697   4 -2.654631E+01 -1.628680E+01  5.514471E+00 -2.705311E+01 -5.164376E+00 -6.321126E-01
      1697   5 -3.987556E+01 -9.742067E+01 -7.830461E+00 -2.253788E+01  2.686103E+00 -9.370449E-01
      1697   6 -1.207193E+01 -3.235259E+01  4.603463E+00 -1.052112E+01  1.675061E+00 -3.268100E-01
      1697   7 -4.102977E+01 -9.012007E+01 -5.995935E+00 -2.282014E+01 -3.136423E+00  4.031846E-01
      1697   8 -1.341952E+01 -2.575223E+01  6.176625E+00 -1.072612E+01 -4.098375E+00  1.187694E+00
      1698   1 -4.409475E+01  2.043411E+00 -5.474162E+00 -1.367916E+01  2.003068E+00 -2.338905E+00
      1698   2 -2.166518E+01  5.381888E+01  1.906216E+00 -2.769877E+00  1.007357E+00 -1.820516E+00
      1698   3 -4.561116E+01  8.015509E+00 -4.147977E+00 -1.358151E+01 -3.542826E+00 -7.634635E-01
      1698   4 -2.330013E+01  5.927407E+01  3.048520E+00 -2.613447E+00 -4.492956E+00 -1.103464E-01
      1698   5 -3.079094E+01 -6.343296E+00 -4.167719E+00  1.636338E+00  2.879157E+00 -4.948677E-01
      1698   6 -8.750456E+00  4.602228E+01  3.647231E+00  1.185420E+01  1.931865E+00 -3.340544E-02
      1698   7 -3.186720E+01 -1.223681E-01 -2.622592E+00  1.575561E+00 -2.521102E+00  1.032172E+00
      1698   8 -9.965127E+00  5.171509E+01  4.998628E+00  1.185935E+01 -3.429549E+00  1.630510E+00
      1699   1 -2.849496E+01  7.567921E+01 -4.149090E+00  1.017194E+01  2.279711E+00 -2.029566E+00
      1699   2 -1.044043E+01  1.183893E+02  9.093884E-02  1.938492E+01  1.411324E+00 -1.568438E+00
      1699   3 -2.961794E+01  8.092079E+01 -2.912046E+00  1.046702E+01 -2.859514E+00 -3.274430E-01
      1699   4 -1.165489E+01  1.232368E+02  1.188818E+00  1.972281E+01 -3.690422E+00  2.445028E-01
      1699   5 -1.592298E+01  6.849778E+01 -2.062346E+00  2.404695E+01  3.169039E+00 -2.605925E-01
      1699   6  1.823698E+00  1.117271E+02  2.600270E+00  3.267896E+01  2.344644E+00  1.589585E-01
      1699   7 -1.669471E+01  7.393240E+01 -6.514160E-01  2.421617E+01 -1.841638E+00  1.398284E+00
      1699   8  9.457473E-01  1.167595E+02  3.864660E+00  3.289628E+01 -2.634090E+00  1.930399E+00
      1700   1 -8.613379E+00  1.379941E+02 -3.227375E+00  3.195791E+01  2.487137E+00 -1.572875E+00
      1700   2  6.325772E+00  1.741222E+02 -5.563782E-01  3.972477E+01  1.982944E+00 -8.008041E-01
      1700   3 -8.688610E+00  1.427082E+02 -1.822342E+00  3.265751E+01 -2.092559E+00  1.707338E-01
      1700   4  6.154987E+00  1.785195E+02  7.314929E-01  4.043511E+01 -2.564764E+00  1.039179E+00
      1700   5  2.800685E+00  1.315587E+02 -6.458143E-01  4.474268E+01  3.375395E+00  1.426157E-01
      1700   6  1.752618E+01  1.681700E+02  2.465594E+00  5.201043E+01  2.885232E+00  8.845827E-01
      1700   7  2.919133E+00  1.363848E+02  8.593940E-01  4.534864E+01 -1.085387E+00  1.845529E+00
      1700   8  1.754137E+01  1.726747E+02  3.849409E+00  5.263077E+01 -1.548296E+00  2.685343E+00
      1701   1 -3.959085E+01 -2.165518E+02 -1.576369E+01 -5.537942E+01  2.254969E+00 -1.480511E+00
      1701   2 -5.582173E+00 -1.333299E+02  5.212678E+00 -4.491536E+01  2.182445E+00 -1.292953E+00
      1701   3 -3.975918E+01 -2.161174E+02 -1.571439E+01 -5.541008E+01 -3.292912E+00 -1.263289E+00
      1701   4 -5.735127E+00 -1.329161E+02  5.265090E+00 -4.490977E+01 -3.320673E+00 -8.772059E-01
      1701   5 -3.302538E+01 -2.267908E+02 -1.869814E+01 -3.430506E+01  2.406461E+00 -1.380098E+00
      1701   6  7.750585E-01 -1.428778E+02  2.769186E+00 -2.496880E+01  2.354554E+00 -1.191168E+00
      1701   7 -3.311838E+01 -2.263903E+02 -1.862445E+01 -3.428740E+01 -2.971710E+00 -1.197232E+00
      1701   8  6.933913E-01 -1.424962E+02  2.844676E+00 -2.491747E+01 -2.988017E+00 -8.079639E-01
      1702   1 -4.349408E+01 -1.043994E+02 -7.928049E+00 -3.609394E+01  2.118045E+00 -1.168145E+00
      1702   2 -1.771557E+01 -4.021657E+01  4.713320E+00 -2.686678E+01  2.089382E+00 -1.023908E+00
      1702   3 -4.349836E+01 -1.039233E+02 -7.808901E+00 -3.607984E+01 -3.412818E+00 -6.061233E-01
      1702   4 -1.770279E+01 -3.974573E+01  4.840900E+00 -2.682664E+01 -3.402885E+00 -2.906514E-01
      1702   5 -3.446820E+01 -1.116702E+02 -8.629131E+00 -1.810161E+01  2.314841E+00 -1.063511E+00
      1702   6 -8.958410E+00 -4.695801E+01  4.450982E+00 -9.755595E+00  2.303755E+00 -9.147471E-01
      1702   7 -3.440921E+01 -1.112255E+02 -8.489501E+00 -1.804350E+01 -3.056294E+00 -5.338811E-01
      1702   8 -8.885537E+00 -4.651709E+01  4.597835E+00 -9.673619E+00 -3.036684E+00 -2.123283E-01
      1703   1 -3.785466E+01 -1.456280E+01 -4.035644E+00 -1.713982E+01  2.107514E+00 -9.388024E-01
      1703   2 -1.746125E+01  3.748318E+01  3.620561E+00 -9.115158E+00  2.094243E+00 -8.307821E-01
      1703   3 -3.777555E+01 -1.406549E+01 -3.876631E+00 -1.709841E+01 -3.256738E+00 -1.132139E-01
      1703   4 -1.737031E+01  3.796998E+01  3.784632E+00 -9.053552E+00 -3.238597E+00  1.339633E-01
      1703   5 -2.811533E+01 -2.023847E+01 -3.425468E+00 -1.043136E+00  2.338243E+00 -8.273776E-01
      1703   6 -7.978526E+00  3.224683E+01  4.630381E+00  6.254821E+00  2.342171E+00 -7.169339E-01
      1703   7 -2.797823E+01 -1.976784E+01 -3.247478E+00 -9.644062E-01 -2.885348E+00 -3.040015E-02
      1703   8 -7.832342E+00  3.270800E+01  4.812280E+00  6.352079E+00 -2.856439E+00  2.204676E-01
      1704   1 -2.650182E+01  6.070078E+01 -2.260266E+00  6.994654E-01  2.146206E+00 -7.687982E-01
      1704   2 -1.021024E+01  1.038208E+02  1.952224E+00  7.478370E+00  2.133039E+00 -6.754433E-01
      1704   3 -2.639132E+01  6.117799E+01 -2.089769E+00  7.764305E-01 -2.990830E+00  2.507581E-01
      1704   4 -1.009283E+01  1.042810E+02  2.123885E+00  7.572437E+00 -2.979458E+00  4.524778E-01
      1704   5 -1.737485E+01  5.578974E+01 -1.018979E+00  1.540916E+01  2.406455E+00 -6.552451E-01
      1704   6 -1.285543E+00  9.929531E+01  3.561261E+00  2.157216E+01  2.411633E+00 -5.623348E-01
      1704   7 -1.720915E+01  5.624483E+01 -8.303255E-01  1.551750E+01 -2.612639E+00  3.402190E-01
      1704   8 -1.115370E+00  9.973413E+01  3.750019E+00  2.169629E+01 -2.587945E+00  5.424878E-01
      1705   1 -1.155291E+01  1.249624E+02 -1.878861E+00  1.692799E+01  2.197241E+00 -6.207257E-01
      1705   2  1.342869E+00  1.607401E+02 -3.602881E-01  2.256984E+01  2.190412E+00 -5.295657E-01
      1705   3 -1.139603E+01  1.254119E+02 -1.695492E+00  1.704467E+01 -2.700552E+00  5.354794E-01
      1705   4  1.505360E+00  1.611746E+02 -1.761388E-01  2.270131E+01 -2.689307E+00  7.060978E-01
      1705   5 -3.436987E+00  1.205624E+02 -2.626733E-01  3.038001E+01  2.485254E+00 -5.095480E-01
      1705   6  9.307367E+00  1.566772E+02  1.578796E+00  3.549669E+01  2.497450E+00 -4.190768E-01
      1705   7 -3.230469E+00  1.209912E+02 -6.362644E-02  3.052531E+01 -2.320030E+00  6.276318E-01
      1705   8  9.517462E+00  1.570918E+02  1.777777E+00  3.565565E+01 -2.293460E+00  7.982905E-01
      1706   1 -3.957444E+01 -2.151316E+02 -1.491745E+01 -5.535659E+01  1.363508E+00 -4.135257E+00
      1706   2 -5.747579E+00 -1.321751E+02  5.591332E+00 -4.482799E+01  1.267952E+00 -3.378397E+00
      1706   3 -3.964233E+01 -2.136175E+02 -1.451470E+01 -5.517927E+01 -4.319114E+00 -3.896111E+00
      1706   4 -5.830885E+00 -1.307701E+02  5.961777E+00 -4.460966E+01 -4.366623E+00 -2.928493E+00
      1706   5 -3.289972E+01 -2.254542E+02 -1.788530E+01 -3.420760E+01  1.714213E+00 -3.757294E+00
      1706   6  7.280524E-01 -1.417872E+02  3.151230E+00 -2.481078E+01  1.627128E+00 -2.999909E+00
      1706   7 -3.285261E+01 -2.239443E+02 -1.743703E+01 -3.400670E+01 -3.786034E+00 -3.556431E+00
      1706   8  7.535631E-01 -1.403861E+02  3.564682E+00 -2.457015E+01 -3.834903E+00 -2.586317E+00
      1707   1 -4.345998E+01 -1.032315E+02 -7.694175E+00 -3.602410E+01  1.113359E+00 -2.868685E+00
      1707   2 -1.780027E+01 -3.921917E+01  4.624295E+00 -2.675097E+01  1.101109E+00 -2.286496E+00
      1707   3 -4.321463E+01 -1.016845E+02 -7.178841E+00 -3.588546E+01 -4.510388E+00 -2.272753E+00
      1707   4 -1.755744E+01 -3.773266E+01  5.125902E+00 -2.658395E+01 -4.481987E+00 -1.512017E+00
      1707   5 -3.432334E+01 -1.105576E+02 -8.373461E+00 -1.796168E+01  1.496616E+00 -2.487809E+00
      1707   6 -8.925638E+00 -4.600104E+01  4.410995E+00 -9.573146E+00  1.489248E+00 -1.896948E+00
      1707   7 -3.398977E+01 -1.090228E+02 -7.824248E+00 -1.779579E+01 -3.958595E+00 -1.927360E+00
      1707   8 -8.599015E+00 -4.452618E+01  4.944559E+00 -9.380200E+00 -3.933630E+00 -1.156306E+00
      1708   1 -3.787625E+01 -1.358097E+01 -4.219856E+00 -1.704108E+01  1.331758E+00 -1.963001E+00
      1708   2 -1.751036E+01  3.838691E+01  3.341195E+00 -8.980759E+00  1.333370E+00 -1.527502E+00
      1708   3 -3.752596E+01 -1.205303E+01 -3.669798E+00 -1.692544E+01 -4.057049E+00 -1.106334E+00
      1708   4 -1.716649E+01  3.985373E+01  3.875745E+00 -8.843103E+00 -4.023275E+00 -5.298596E-01
      1708   5 -2.801651E+01 -1.928469E+01 -3.545546E+00 -8.857592E-01  1.716090E+00 -1.566323E+00
      1708   6 -7.906697E+00  3.312972E+01  4.426192E+00  6.445221E+00  1.724887E+00 -1.125908E+00
      1708   7 -2.758495E+01 -1.776502E+01 -2.964026E+00 -7.492140E-01 -3.528456E+00 -7.402567E-01
      1708   8 -7.485363E+00  3.458853E+01  4.990469E+00  6.602815E+00 -3.494080E+00 -1.575590E-01
      1709   1 -2.654666E+01  6.155624E+01 -2.565945E+00  8.627705E-01  1.704122E+00 -1.308870E+00
      1709   2 -1.023956E+01  1.046379E+02  1.666363E+00  7.671446E+00  1.683426E+00 -9.385965E-01
      1709   3 -2.623398E+01  6.295722E+01 -2.056999E+00  1.022072E+00 -3.422135E+00 -2.632194E-01
      1709   4 -9.940722E+00  1.059672E+02  2.153907E+00  7.848240E+00 -3.418120E+00  2.149702E-01
      1709   5 -1.729645E+01  5.663373E+01 -1.242287E+00  1.562001E+01  2.079596E+00 -9.029267E-01
      1709   6 -1.194033E+00  1.001041E+02  3.360734E+00  2.181079E+01  2.069222E+00 -5.347356E-01
      1709   7 -1.690765E+01  5.803140E+01 -7.033851E-01  1.579210E+01 -2.927641E+00  1.171943E-01
      1709   8 -8.223924E-01  1.014301E+02  3.876670E+00  2.199983E+01 -2.918361E+00  5.943194E-01
      1710   1 -1.153635E+01  1.257283E+02 -2.166550E+00  1.717499E+01  2.072855E+00 -7.529752E-01
      1710   2  1.339977E+00  1.614381E+02 -7.025995E-01  2.284135E+01  2.040518E+00 -3.935755E-01
      1710   3 -1.125062E+01  1.269666E+02 -1.707174E+00  1.741469E+01 -2.834228E+00  4.329317E-01
      1710   4  1.606314E+00  1.626016E+02 -2.678075E-01  2.309283E+01 -2.848031E+00  8.730704E-01
      1710   5 -3.306078E+00  1.213230E+02 -4.627361E-01  3.066903E+01  2.432767E+00 -3.481018E-01
      1710   6  9.420171E+00  1.573760E+02  1.334258E+00  3.580858E+01  2.410545E+00  4.466372E-03
      1710   7 -2.960769E+00  1.225563E+02  1.991250E-02  3.091675E+01 -2.378906E+00  8.170224E-01
      1710   8  9.743665E+00  1.585347E+02  1.791154E+00  3.606778E+01 -2.386387E+00  1.251105E+00
      1711   1 -3.918257E+01 -2.115696E+02 -1.291695E+01 -5.498323E+01  6.804060E-01 -6.275470E+00
      1711   2 -5.869053E+00 -1.293108E+02  6.412177E+00 -4.438068E+01  5.365519E-01 -4.912085E+00
      1711   3 -3.923077E+01 -2.088651E+02 -1.215229E+01 -5.462417E+01 -5.323057E+00 -5.989583E+00
      1711   4 -5.961118E+00 -1.268043E+02  7.110204E+00 -4.397268E+01 -5.411826E+00 -4.386788E+00
      1711   5 -3.234241E+01 -2.219389E+02 -1.591857E+01 -3.380300E+01  1.209055E+00 -5.577835E+00
      1711   6  7.981823E-01 -1.389321E+02  4.021817E+00 -2.433391E+01  1.060486E+00 -4.212463E+00
      1711   7 -3.222457E+01 -2.192031E+02 -1.508185E+01 -3.344656E+01 -4.584877E+00 -5.337228E+00
      1711   8  8.631548E-01 -1.363960E+02  4.787794E+00 -2.392841E+01 -4.689627E+00 -3.730167E+00
      1712   1 -4.320951E+01 -1.003375E+02 -7.207548E+00 -3.578125E+01  3.735507E-01 -4.052922E+00
      1712   2 -1.781131E+01 -3.670340E+01  4.492921E+00 -2.645518E+01  3.424625E-01 -3.109072E+00
      1712   3 -4.278442E+01 -9.755129E+01 -6.266154E+00 -3.563451E+01 -5.413101E+00 -3.396949E+00
      1712   4 -1.740527E+01 -3.403890E+01  5.397681E+00 -2.626978E+01 -5.400328E+00 -2.262627E+00
      1712   5 -3.389336E+01 -1.076655E+02 -7.802605E+00 -1.767933E+01  9.144172E-01 -3.348769E+00
      1712   6 -8.745551E+00 -4.346669E+01  4.407339E+00 -9.239775E+00  8.806656E-01 -2.391925E+00
      1712   7 -3.332563E+01 -1.048578E+02 -6.800779E+00 -1.752634E+01 -4.690272E+00 -2.732393E+00
      1712   8 -8.204014E+00 -4.078190E+01  5.369211E+00 -9.048443E+00 -4.689134E+00 -1.583291E+00
      1713   1 -3.782135E+01 -1.110482E+01 -4.523378E+00 -1.685935E+01  8.887157E-01 -2.645657E+00
      1713   2 -1.751659E+01  4.069006E+01  2.900704E+00 -8.757230E+00  8.428079E-01 -1.997210E+00
      1713   3 -3.734170E+01 -8.408477E+00 -3.582858E+00 -1.679383E+01 -4.522521E+00 -1.739969E+00
      1713   4 -1.706160E+01  4.326044E+01  3.800933E+00 -8.659725E+00 -4.535336E+00 -9.485047E-01
      1713   5 -2.776210E+01 -1.677217E+01 -3.697347E+00 -6.765458E-01  1.398382E+00 -1.915634E+00
      1713   6 -7.713617E+00  3.547645E+01  4.151128E+00  6.694969E+00  1.357626E+00 -1.262765E+00
      1713   7 -2.714229E+01 -1.404713E+01 -2.696783E+00 -6.139521E-01 -3.864557E+00 -1.042678E+00
      1713   8 -7.124950E+00  3.807408E+01  5.108330E+00  6.789690E+00 -3.878989E+00 -2.454277E-01
      1714   1 -2.660483E+01  6.372739E+01 -3.041441E+00  1.139509E+00  1.563888E+00 -1.709904E+00
      1714   2 -1.026456E+01  1.067253E+02  1.296423E+00  7.980517E+00  1.485394E+00 -1.146368E+00
      1714   3 -2.619745E+01  6.616079E+01 -2.192954E+00  1.301560E+00 -3.512467E+00 -6.275438E-01
      1714   4 -9.893495E+00  1.090191E+02  2.096381E+00  8.165578E+00 -3.566051E+00  4.316914E-02
      1714   5 -1.715739E+01  5.885951E+01 -1.544511E+00  1.590967E+01  2.035251E+00 -9.678078E-01
      1714   6 -1.025317E+00  1.022487E+02  3.167890E+00  2.213224E+01  1.965120E+00 -4.111915E-01
      1714   7 -1.662730E+01  6.132253E+01 -6.425298E-01  1.605929E+01 -2.921194E+00  8.757059E-02
      1714   8 -5.368141E-01  1.045706E+02  4.018764E+00  2.230539E+01 -2.971509E+00  7.524157E-01
      1715   1 -1.154442E+01  1.276549E+02 -2.523220E+00  1.762804E+01  2.134162E+00 -8.603712E-01
      1715   2  1.302591E+00  1.632232E+02 -1.077931E+00  2.331415E+01  2.055960E+00 -2.528685E-01
      1715   3 -1.115874E+01  1.297682E+02 -1.769869E+00  1.797163E+01 -2.755434E+00  3.684249E-01
      1715   4  1.639415E+00  1.651881E+02 -3.799522E-01  2.366771E+01 -2.814392E+00  1.058845E+00
      1715   5 -3.148067E+00  1.233049E+02 -6.453094E-01  3.112629E+01  2.559464E+00 -1.245121E-01
      1715   6  9.552378E+00  1.592242E+02  1.149521E+00  3.628543E+01  2.484477E+00  4.663293E-01
      1715   7 -2.682085E+00  1.254369E+02  1.442903E-01  3.145144E+01 -2.230627E+00  1.081416E+00
      1715   8  9.966223E+00  1.612069E+02  1.882010E+00  3.662126E+01 -2.290304E+00  1.756017E+00
      1716   1 -3.856139E+01 -2.056156E+02 -9.819536E+00 -5.433403E+01  4.222155E-01 -7.239248E+00
      1716   2 -6.230715E+00 -1.246282E+02  7.281478E+00 -4.363956E+01  2.244051E-01 -5.233949E+00
      1716   3 -3.854965E+01 -2.013127E+02 -8.558051E+00 -5.389908E+01 -6.176443E+00 -6.825179E+00
      1716   4 -6.277491E+00 -1.205969E+02  8.450970E+00 -4.313623E+01 -6.310387E+00 -4.544699E+00
      1716   5 -3.142751E+01 -2.159375E+02 -1.273921E+01 -3.316775E+01  1.070869E+00 -6.116097E+00
      1716   6  7.623418E-01 -1.341568E+02  5.080288E+00 -2.360601E+01  8.563310E-01 -4.097604E+00
      1716   7 -3.116536E+01 -2.115547E+02 -1.136497E+01 -3.276113E+01 -5.284327E+00 -5.756026E+00
      1716   8  9.523825E-01 -1.300500E+02  6.356032E+00 -2.312948E+01 -5.448056E+00 -3.459715E+00
      1717   1 -4.318016E+01 -9.555518E+01 -6.900864E+00 -3.563802E+01  3.528392E-01 -4.181933E+00
      1717   2 -1.805495E+01 -3.240798E+01  4.183292E+00 -2.623372E+01  1.396684E-01 -3.136790E+00
      1717   3 -4.295685E+01 -9.116261E+01 -5.536719E+00 -3.579306E+01 -5.577125E+00 -3.436580E+00
      1717   4 -1.787857E+01 -2.826329E+01  5.464923E+00 -2.631947E+01 -5.743910E+00 -2.193646E+00
      1717   5 -3.351514E+01 -1.027664E+02 -7.252512E+00 -1.754220E+01  9.781737E-01 -3.035468E+00
      1717   6 -8.638986E+00 -3.904180E+01  4.372190E+00 -9.024123E+00  7.734808E-01 -1.986953E+00
      1717   7 -3.300399E+01 -9.826797E+01 -5.759147E+00 -1.773724E+01 -4.760054E+00 -2.333257E+00
      1717   8 -8.189057E+00 -3.479661E+01  5.776260E+00 -9.147912E+00 -4.927842E+00 -1.085012E+00
      1718   1 -3.812729E+01 -6.911512E+00 -5.027555E+00 -1.683736E+01  1.095114E+00 -2.755356E+00
      1718   2 -1.788510E+01  4.461299E+01  2.286637E+00 -8.669637E+00  7.710083E-01 -2.105141E+00
      1718   3 -3.815528E+01 -2.923862E+00 -3.849933E+00 -1.702071E+01 -4.312688E+00 -1.780191E+00
      1718   4 -1.796258E+01  4.836177E+01  3.382753E+00 -8.793302E+00 -4.602928E+00 -9.870183E-01
      1718   5 -2.770020E+01 -1.242589E+01 -3.902301E+00 -6.760751E-01  1.675699E+00 -1.593438E+00
      1718   6 -7.721777E+00  3.955455E+01  3.844037E+00  6.762026E+00  1.374218E+00 -9.513124E-01
      1718   7 -2.744625E+01 -8.327293E+00 -2.597807E+00 -9.073449E-01 -3.581424E+00 -6.529053E-01
      1718   8 -7.530196E+00  4.340909E+01  5.060888E+00  6.592623E+00 -3.855958E+00  1.336212E-01
      1719   1 -2.691954E+01  6.744449E+01 -3.654478E+00  1.367378E+00  1.826540E+00 -1.913446E+00
      1719   2 -1.057465E+01  1.102460E+02  7.617320E-01  8.254817E+00  1.557280E+00 -1.327234E+00
      1719   3 -2.673587E+01  7.107872E+01 -2.510626E+00  1.385880E+00 -3.189757E+00 -7.735383E-01
      1719   4 -1.044518E+01  1.136626E+02  1.828421E+00  8.314202E+00 -3.433574E+00 -8.028700E-02
      1719   5 -1.713916E+01  6.273306E+01 -1.852659E+00  1.610384E+01  2.367060E+00 -7.527358E-01
      1719   6 -1.007634E+00  1.059280E+02  2.945785E+00  2.237424E+01  2.118208E+00 -1.796027E-01
      1719   7 -1.673201E+01  6.645609E+01 -6.078301E-01  1.607662E+01 -2.527600E+00  3.584716E-01
      1719   8 -6.642057E-01  1.094296E+02  4.108827E+00  2.238983E+01 -2.756206E+00  1.039744E+00
      1720   1 -1.164597E+01  1.309314E+02 -2.890894E+00  1.825308E+01  2.378413E+00 -1.015678E+00
      1720   2  1.300504E+00  1.664051E+02 -1.095535E+00  2.395667E+01  2.192120E+00 -2.013959E-01
      1720   3 -1.127290E+01  1.340825E+02 -1.827441E+00  1.867893E+01 -2.369386E+00  2.557706E-01
      1720   4  1.588971E+00  1.693133E+02 -1.261604E-01  2.439304E+01 -2.535054E+00  1.157724E+00
      1720   5 -2.999764E+00  1.267233E+02 -7.172582E-01  3.170646E+01  2.869692E+00  1.286763E-01
      1720   6  9.808462E+00  1.625605E+02  1.458288E+00  3.688483E+01  2.683862E+00  9.118499E-01
      1720   7 -2.507099E+00  1.299291E+02  4.043778E-01  3.207854E+01 -1.771256E+00  1.374323E+00
      1720   8  1.021166E+01  1.655211E+02  2.483117E+00  3.726952E+01 -1.940674E+00  2.246119E+00
      1721   1 -3.851633E+01 -1.967186E+02 -6.550964E+00 -5.389574E+01  1.804419E+00 -5.120769E+00
      1721   2 -7.531891E+00 -1.175539E+02  7.537022E+00 -4.306535E+01  1.059381E+00 -3.337545E+00
      1721   3 -3.945501E+01 -1.894958E+02 -4.697591E+00 -5.431873E+01 -5.571380E+00 -4.471975E+00
      1721   4 -8.659188E+00 -1.110250E+02  9.133241E+00 -4.337252E+01 -6.247625E+00 -2.398350E+00
      1721   5 -3.079731E+01 -2.067835E+02 -9.104474E+00 -3.282501E+01  2.423251E+00 -3.215137E+00
      1721   6  4.578612E-02 -1.268084E+02  5.754229E+00 -2.312223E+01  1.681851E+00 -1.479514E+00
      1721   7 -3.121309E+01 -1.992978E+02 -7.001065E+00 -3.340336E+01 -4.690938E+00 -2.626372E+00
      1721   8 -5.868076E-01 -1.200309E+02  7.586596E+00 -2.357644E+01 -5.377593E+00 -5.972965E-01
      1722   1 -4.468974E+01 -8.844091E+01 -7.349477E+00 -3.620162E+01  1.996594E+00 -2.797556E+00
      1722   2 -1.953456E+01 -2.571436E+01  3.890825E+00 -2.665568E+01  9.884076E-01 -2.194245E+00
      1722   3 -4.634851E+01 -8.210454E+01 -5.964244E+00 -3.716031E+01 -3.822584E+00 -1.981427E+00
      1722   4 -2.135031E+01 -2.001514E+01  5.043634E+00 -2.748637E+01 -4.784628E+00 -1.188432E+00
      1722   5 -3.431755E+01 -9.530376E+01 -7.210308E+00 -1.822346E+01  2.577933E+00 -9.661227E-01
      1722   6 -9.444605E+00 -3.201540E+01  4.549901E+00 -9.557985E+00  1.627235E+00 -4.341877E-01
      1722   7 -3.536297E+01 -8.865498E+01 -5.536864E+00 -1.935437E+01 -3.052771E+00 -1.942910E-01
      1722   8 -1.067725E+01 -2.601927E+01  5.976343E+00 -1.055247E+01 -3.966739E+00  5.294852E-01
      1723   1 -3.972549E+01 -4.945123E-01 -5.346329E+00 -1.731698E+01  2.156275E+00 -2.210056E+00
      1723   2 -1.960398E+01  5.052313E+01  1.756248E+00 -9.027749E+00  1.206998E+00 -1.786615E+00
      1723   3 -4.123602E+01  4.901667E+00 -4.188631E+00 -1.794135E+01 -3.252417E+00 -1.154900E+00
      1723   4 -2.120872E+01  5.547737E+01  2.758056E+00 -9.543192E+00 -4.167679E+00 -5.931953E-01
      1723   5 -2.863070E+01 -5.676421E+00 -3.756678E+00 -1.268432E+00  2.732228E+00 -4.693949E-01
      1723   6 -8.799635E+00  4.578560E+01  3.765124E+00  6.296282E+00  1.849525E+00 -9.006594E-02
      1723   7 -2.960393E+01 -2.051098E-02 -2.351291E+00 -2.022037E+00 -2.527447E+00  5.498551E-01
      1723   8 -9.891514E+00  5.098768E+01  5.003022E+00  5.657437E+00 -3.383069E+00  1.069002E+00
      1724   1 -2.813342E+01  7.311801E+01 -4.132489E+00  1.286543E+00  2.402321E+00 -1.878585E+00
      1724   2 -1.192067E+01  1.154750E+02  5.548164E-02  8.259689E+00  1.562524E+00 -1.512595E+00
      1724   3 -2.927838E+01  7.790817E+01 -3.038227E+00  9.978325E-01 -2.626113E+00 -6.635550E-01
      1724   4 -1.312516E+01  1.199623E+02  1.045464E+00  8.052360E+00 -3.439710E+00 -1.912332E-01
      1724   5 -1.780651E+01  6.868576E+01 -1.918886E+00  1.592764E+01  2.982659E+00 -1.848119E-01
      1724   6 -1.821911E+00  1.114326E+02  2.652979E+00  2.228775E+01  2.201138E+00  1.616442E-01
      1724   7 -1.853129E+01  7.366842E+01 -6.339255E-01  1.554900E+01 -1.922721E+00  9.997522E-01
      1724   8 -2.624007E+00  1.161042E+02  3.825238E+00  2.199425E+01 -2.683381E+00  1.453689E+00
      1725   1 -1.216473E+01  1.359076E+02 -3.191700E+00  1.892534E+01  2.541907E+00 -1.433123E+00
      1725   2  1.028221E+00  1.713387E+02 -6.446395E-01  2.465455E+01  2.006834E+00 -7.541856E-01
      1725   3 -1.237638E+01  1.403372E+02 -1.917351E+00  1.917336E+01 -1.934847E+00 -1.428123E-01
      1725   4  7.289871E-01  1.754817E+02  5.220235E-01  2.493324E+01 -2.447251E+00  6.303844E-01
      1725   5 -3.172317E+00  1.319152E+02 -6.655986E-01  3.227658E+01  3.123677E+00  2.387371E-01
      1725   6  9.890167E+00  1.677227E+02  2.297569E+00  3.748456E+01  2.606873E+00  8.924223E-01
      1725   7 -3.158740E+00  1.364556E+02  7.145175E-01  3.244620E+01 -1.236806E+00  1.499776E+00
      1725   8  9.807093E+00  1.719719E+02  3.565230E+00  3.768792E+01 -1.735564E+00  2.248745E+00
      1726   1 -2.958411E+01 -2.096474E+02 -1.382658E+01 -3.980896E+01  2.287520E+00 -1.369576E+00
      1726   2  6.408870E-01 -1.310907E+02  5.217361E+00 -3.376950E+01  2.217647E+00 -1.187785E+00
      1726   3 -2.970406E+01 -2.092709E+02 -1.376836E+01 -3.983595E+01 -3.023239E+00 -1.565858E+00
      1726   4  5.280665E-01 -1.307232E+02  5.278098E+00 -3.376980E+01 -3.064235E+00 -1.181909E+00
      1726   5 -2.664283E+01 -2.160212E+02 -1.657829E+01 -1.919371E+01  2.371278E+00 -1.262959E+00
      1726   6  3.575840E+00 -1.369723E+02  2.965409E+00 -1.425748E+01  2.313852E+00 -1.077134E+00
      1726   7 -2.670575E+01 -2.156582E+02 -1.649814E+01 -1.916573E+01 -2.766815E+00 -1.480146E+00
      1726   8  3.516795E+00 -1.366178E+02  3.046422E+00 -1.420575E+01 -2.804652E+00 -1.091075E+00
      1727   1 -3.535955E+01 -1.029276E+02 -7.131182E+00 -3.105666E+01  2.159162E+00 -1.067519E+00
      1727   2 -1.238402E+01 -4.190802E+01  4.344710E+00 -2.496372E+01  2.130382E+00 -9.235097E-01
      1727   3 -3.534708E+01 -1.025030E+02 -7.013483E+00 -3.105783E+01 -3.153760E+00 -9.197598E-01
      1727   4 -1.236441E+01 -4.148584E+01  4.466946E+00 -2.494932E+01 -3.158111E+00 -6.044863E-01
      1727   5 -2.837201E+01 -1.064342E+02 -7.193211E+00 -1.329721E+01  2.268268E+00 -9.523531E-01
      1727   6 -5.561811E+00 -4.506601E+01  4.698458E+00 -8.074049E+00  2.246543E+00 -8.028847E-01
      1727   7 -2.831693E+01 -1.060248E+02 -7.059827E+00 -1.324959E+01 -2.884935E+00 -8.239888E-01
      1727   8 -5.501970E+00 -4.465859E+01  4.834957E+00 -8.013239E+00 -2.890087E+00 -5.023408E-01
      1728   1 -3.243112E+01 -1.659638E+01 -4.032218E+00 -1.865001E+01  2.146451E+00 -8.352979E-01
      1728   2 -1.381121E+01  3.421196E+01  3.317741E+00 -1.312255E+01  2.133106E+00 -7.270900E-01
      1728   3 -3.235509E+01 -1.614971E+01 -3.883407E+00 -1.864776E+01 -3.032577E+00 -4.145978E-01
      1728   4 -1.373304E+01  3.464618E+01  3.466444E+00 -1.310751E+01 -3.026071E+00 -1.673886E-01
      1728   5 -2.443337E+01 -1.897952E+01 -2.835090E+00 -2.340941E+00  2.269130E+00 -7.119076E-01
      1728   6 -5.988241E+00  3.212270E+01  4.895463E+00  2.450252E+00  2.263575E+00 -6.015204E-01
      1728   7 -2.431437E+01 -1.854451E+01 -2.670952E+00 -2.297128E+00 -2.769330E+00 -3.083471E-01
      1728   8 -5.869347E+00  3.254549E+01  5.058080E+00  2.504972E+00 -2.761421E+00 -5.820879E-02
      1729   1 -2.429426E+01  5.756926E+01 -2.537100E+00 -5.657885E+00  2.179263E+00 -6.599631E-01
      1729   2 -9.152913E+00  1.005084E+02  1.817779E+00 -1.048824E+00  2.167274E+00 -5.679281E-01
      1729   3 -2.419959E+01  5.799859E+01 -2.382719E+00 -5.637943E+00 -2.810592E+00 -2.906825E-02
      1729   4 -9.058499E+00  1.009212E+02  1.969848E+00 -1.016890E+00 -2.807087E+00  1.712199E-01
      1729   5 -1.713808E+01  5.541612E+01 -9.377397E-01  9.523835E+00  2.314050E+00 -5.341108E-01
      1729   6 -2.113265E+00  9.862848E+01  3.777417E+00  1.349721E+01  2.311860E+00 -4.419231E-01
      1729   7 -1.700085E+01  5.583601E+01 -7.689990E-01  9.580524E+00 -2.557850E+00  8.232362E-02
      1729   8 -1.978386E+00  9.903202E+01  3.942525E+00  1.356435E+01 -2.549529E+00  2.833528E-01
      1730   1 -1.243828E+01  1.220594E+02 -2.105353E+00  6.214154E+00  2.222422E+00 -5.084144E-01
      1730   2 -7.317736E-01  1.572780E+02 -6.477240E-01  9.828400E+00  2.216308E+00 -4.201415E-01
      1730   3 -1.230952E+01  1.224677E+02 -1.942388E+00  6.264448E+00 -2.570323E+00  2.785498E-01
      1730   4 -6.046345E-01  1.576691E+02 -4.880774E-01  9.889483E+00 -2.564971E+00  4.466791E-01
      1730   5 -6.766732E+00  1.199468E+02 -4.125944E-01  1.997903E+01  2.369987E+00 -3.834492E-01
      1730   6  4.888114E+00  1.554176E+02  1.375068E+00  2.305589E+01  2.374959E+00 -2.961255E-01
      1730   7 -6.599827E+00  1.203465E+02 -2.377133E-01  2.006154E+01 -2.329547E+00  3.919918E-01
      1730   8  5.051639E+00  1.558002E+02  1.545522E+00  2.314794E+01 -2.316795E+00  5.596086E-01
      1731   1 -2.956179E+01 -2.084438E+02 -1.314152E+01 -3.981371E+01  1.629705E+00 -4.186607E+00
      1731   2  5.012278E-01 -1.300926E+02  5.508419E+00 -3.372329E+01  1.516706E+00 -3.433706E+00
      1731   3 -2.960702E+01 -2.071176E+02 -1.277664E+01 -3.972527E+01 -3.798305E+00 -4.395719E+00
      1731   4  4.427188E-01 -1.288382E+02  5.851115E+00 -3.359531E+01 -3.879883E+00 -3.425314E+00
      1731   5 -2.655654E+01 -2.148843E+02 -1.597081E+01 -1.910982E+01  1.887839E+00 -3.832323E+00
      1731   6  3.513097E+00 -1.360210E+02  3.221251E+00 -1.412738E+01  1.777122E+00 -3.073759E+00
      1731   7 -2.649450E+01 -2.135446E+02 -1.556052E+01 -1.898436E+01 -3.352142E+00 -4.065231E+00
      1731   8  3.555869E+00 -1.347540E+02  3.606338E+00 -1.396435E+01 -3.441542E+00 -3.087972E+00
      1732   1 -3.533004E+01 -1.019140E+02 -6.961824E+00 -3.103856E+01  1.364083E+00 -2.935362E+00
      1732   2 -1.246704E+01 -4.103457E+01  4.238322E+00 -2.491679E+01  1.328736E+00 -2.350174E+00
      1732   3 -3.510849E+01 -1.005449E+02 -6.498264E+00 -3.098415E+01 -4.030044E+00 -2.780034E+00
      1732   4 -1.225566E+01 -3.971512E+01  4.687241E+00 -2.484176E+01 -4.039390E+00 -2.014350E+00
      1732   5 -2.828040E+01 -1.054625E+02 -7.041442E+00 -1.319970E+01  1.632156E+00 -2.569539E+00
      1732   6 -5.572833E+00 -4.421942E+01  4.605567E+00 -7.951588E+00  1.590549E+00 -1.975814E+00
      1732   7 -2.799048E+01 -1.040931E+02 -6.549712E+00 -1.311044E+01 -3.591585E+00 -2.435909E+00
      1732   8 -5.296725E+00 -4.290007E+01  5.080560E+00 -7.843423E+00 -3.615553E+00 -1.660709E+00
      1733   1 -3.245769E+01 -1.573333E+01 -4.216273E+00 -1.864335E+01  1.523626E+00 -2.003853E+00
      1733   2 -1.387228E+01  3.500478E+01  3.051938E+00 -1.309215E+01  1.506975E+00 -1.568303E+00
      1733   3 -3.215202E+01 -1.438291E+01 -3.727357E+00 -1.863306E+01 -3.677056E+00 -1.569689E+00
      1733   4 -1.358129E+01  3.629749E+01  3.522153E+00 -1.306473E+01 -3.673469E+00 -9.938924E-01
      1733   5 -2.437621E+01 -1.813094E+01 -2.987822E+00 -2.267577E+00  1.770288E+00 -1.623604E+00
      1733   6 -5.965767E+00  3.290532E+01  4.667967E+00  2.544345E+00  1.751123E+00 -1.184688E+00
      1733   7 -2.400260E+01 -1.677695E+01 -2.471521E+00 -2.230134E+00 -3.286745E+00 -1.207943E+00
      1733   8 -5.610211E+00  3.420110E+01  5.163589E+00  2.597688E+00 -3.292181E+00 -6.280104E-01
      1734   1 -2.435129E+01  5.832919E+01 -2.819968E+00 -5.618014E+00  1.825719E+00 -1.317264E+00
      1734   2 -9.203551E+00  1.012363E+02  1.554008E+00 -9.863161E-01  1.792245E+00 -9.549379E-01
      1734   3 -2.409151E+01  5.956969E+01 -2.372586E+00 -5.583026E+00 -3.155734E+00 -6.763126E-01
      1734   4 -8.960163E+00  1.024161E+02  1.980889E+00 -9.342696E-01 -3.174024E+00 -2.091892E-01
      1734   5 -1.710617E+01  5.617052E+01 -1.180201E+00  9.621733E+00  2.045452E+00 -9.305747E-01
      1734   6 -2.082685E+00  9.934715E+01  3.543054E+00  1.361531E+01  2.015743E+00 -5.690619E-01
      1734   7 -1.677443E+01  5.741896E+01 -7.044539E-01  9.678104E+00 -2.820239E+00 -3.047886E-01
      1734   8 -1.770637E+00  1.005343E+02  3.996431E+00  1.368785E+01 -2.839648E+00  1.621081E-01
      1735   1 -1.245112E+01  1.227561E+02 -2.363998E+00  6.322730E+00  2.116006E+00 -7.381451E-01
      1735   2 -7.663111E-01  1.579167E+02 -9.490294E-01  9.956757E+00  2.069764E+00 -3.928984E-01
      1735   3 -1.223224E+01  1.238680E+02 -1.962914E+00  6.432103E+00 -2.685940E+00  5.575336E-02
      1735   4 -5.647256E-01  1.589704E+02 -5.683260E-01  1.007989E+01 -2.720708E+00  4.800082E-01
      1735   5 -6.705924E+00  1.206332E+02 -6.478316E-01  2.013796E+01  2.310465E+00 -3.511095E-01
      1735   6  4.923838E+00  1.560460E+02  1.095057E+00  2.323264E+01  2.269911E+00 -8.880604E-03
      1735   7 -6.426756E+00  1.217508E+02 -2.238892E-01  2.026464E+01 -2.397915E+00  4.302817E-01
      1735   8  5.183087E+00  1.571048E+02  1.497095E+00  2.337240E+01 -2.430685E+00  8.519661E-01
      1736   1 -2.924954E+01 -2.053772E+02 -1.147937E+01 -3.963449E+01  1.131413E+00 -6.482254E+00
      1736   2  3.736151E-01 -1.275867E+02  6.169061E+00 -3.346905E+01  9.497356E-01 -5.112061E+00
      1736   3 -2.930616E+01 -2.030307E+02 -1.081329E+01 -3.947396E+01 -4.579292E+00 -6.719846E+00
      1736   4  2.798957E-01 -1.253887E+02  6.783463E+00 -3.325122E+01 -4.723968E+00 -5.096029E+00
      1736   5 -2.613070E+01 -2.118784E+02 -1.444555E+01 -1.887476E+01  1.541298E+00 -5.849263E+00
      1736   6  3.531818E+00 -1.335337E+02  3.842914E+00 -1.382028E+01  1.351892E+00 -4.473531E+00
      1736   7 -2.601113E+01 -2.094817E+02 -1.370179E+01 -1.869983E+01 -3.947697E+00 -6.115851E+00
      1736   8  3.604521E+00 -1.312885E+02  4.530046E+00 -1.358881E+01 -4.112000E+00 -4.485075E+00
      1737   1 -3.513360E+01 -9.940057E+01 -6.591024E+00 -3.097383E+01  7.754004E-01 -4.255771E+00
      1737   2 -1.250584E+01 -3.883754E+01  4.081298E+00 -2.481126E+01  7.078831E-01 -3.299856E+00
      1737   3 -3.476643E+01 -9.698906E+01 -5.771406E+00 -3.099922E+01 -4.763070E+00 -4.088283E+00
      1737   4 -1.216290E+01 -3.652434E+01  4.867899E+00 -2.480222E+01 -4.801394E+00 -2.931868E+00
      1737   5 -2.797081E+01 -1.029639E+02 -6.672536E+00 -1.308051E+01  1.173569E+00 -3.609363E+00
      1737   6 -5.476044E+00 -4.200852E+01  4.511991E+00 -7.794267E+00  1.091356E+00 -2.641051E+00
      1737   7 -2.747935E+01 -1.005233E+02 -5.799130E+00 -1.308716E+01 -4.173410E+00 -3.467190E+00
      1737   8 -5.015283E+00 -3.966810E+01  5.348855E+00 -7.767395E+00 -4.235816E+00 -2.297274E+00
      1738   1 -3.243193E+01 -1.357728E+01 -4.516171E+00 -1.867769E+01  1.176670E+00 -2.780588E+00
      1738   2 -1.390911E+01  3.700920E+01  2.639869E+00 -1.309169E+01  1.108089E+00 -2.138031E+00
      1738   3 -3.202129E+01 -1.124821E+01 -3.701807E+00 -1.880923E+01 -4.043431E+00 -2.321116E+00
      1738   4 -1.353078E+01  3.922339E+01  3.413170E+00 -1.319212E+01 -4.091120E+00 -1.535805E+00
      1738   5 -2.419234E+01 -1.593916E+01 -3.189018E+00 -2.262231E+00  1.513353E+00 -2.111634E+00
      1738   6 -5.844424E+00  3.495101E+01  4.366933E+00  2.582706E+00  1.440441E+00 -1.467246E+00
      1738   7 -2.365109E+01 -1.357360E+01 -2.318692E+00 -2.386665E+00 -3.558552E+00 -1.672239E+00
      1738   8 -5.341717E+00  3.719970E+01  5.192892E+00  2.489064E+00 -3.617290E+00 -8.842878E-01
      1739   1 -2.443769E+01  6.023468E+01 -3.250307E+00 -5.589533E+00  1.730696E+00 -1.790647E+00
      1739   2 -9.260092E+00  1.030798E+02  1.233016E+00 -9.243080E-01  1.635103E+00 -1.254525E+00
      1739   3 -2.411368E+01  6.233819E+01 -2.524299E+00 -5.641706E+00 -3.205549E+00 -1.131766E+00
      1739   4 -8.973715E+00  1.050600E+02  1.913202E+00 -9.486007E-01 -3.286764E+00 -4.981389E-01
      1739   5 -1.702366E+01  5.812481E+01 -1.496721E+00  9.678968E+00  2.004451E+00 -1.115549E+00
      1739   6 -1.986094E+00  1.012286E+02  3.310782E+00  1.370488E+01  1.913145E+00 -5.864065E-01
      1739   7 -1.657126E+01  6.026746E+01 -7.162248E-01  9.625540E+00 -2.822378E+00 -4.720609E-01
      1739   8 -1.576982E+00  1.032461E+02  4.042553E+00  1.367937E+01 -2.903929E+00  1.551650E-01
      1740   1 -1.251528E+01  1.244895E+02 -2.661348E+00  6.519918E+00  2.172176E+00 -9.244658E-01
      1740   2 -8.469995E-01  1.595484E+02 -1.240358E+00  1.018016E+01  2.068937E+00 -3.565014E-01
      1740   3 -1.224601E+01  1.263345E+02 -2.025115E+00  6.650956E+00 -2.615422E+00 -1.220661E-01
      1740   4 -6.175109E-01  1.612741E+02 -6.497837E-01  1.033144E+01 -2.708121E+00  5.171672E-01
      1740   5 -6.643647E+00  1.223923E+02 -8.826588E-01  2.035676E+01  2.395944E+00 -2.576260E-01
      1740   6  4.952503E+00  1.576902E+02  8.354723E-01  2.347681E+01  2.297790E+00  2.986891E-01
      1740   7 -6.272173E+00  1.242682E+02 -2.034389E-01  2.048225E+01 -2.305787E+00  5.322244E-01
      1740   8  5.279982E+00  1.594454E+02  1.466814E+00  2.362276E+01 -2.396789E+00  1.160249E+00
      1741   1 -2.875526E+01 -2.002637E+02 -8.794948E+00 -3.937994E+01  9.346006E-01 -7.573482E+00
      1741   2  7.532127E-03 -1.235345E+02  6.898927E+00 -3.310332E+01  6.840849E-01 -5.506477E+00
      1741   3 -2.883419E+01 -1.966951E+02 -7.771082E+00 -3.928201E+01 -5.322934E+00 -7.833458E+00
      1741   4 -9.969647E-02 -1.201276E+02  7.871210E+00 -3.291567E+01 -5.525087E+00 -5.437275E+00
      1741   5 -2.542430E+01 -2.067921E+02 -1.191591E+01 -1.859868E+01  1.440405E+00 -6.607152E+00
      1741   6  3.453560E+00 -1.294203E+02  4.629407E+00 -1.343418E+01  1.172116E+00 -4.515851E+00
      1741   7 -2.522258E+01 -2.031265E+02 -1.076794E+01 -1.849570E+01 -4.526834E+00 -6.905739E+00
      1741   8  3.611382E+00 -1.259222E+02  5.717817E+00 -1.324174E+01 -4.762308E+00 -4.483438E+00
      1742   1 -3.512946E+01 -9.532417E+01 -6.368650E+00 -3.119101E+01  7.648210E-01 -4.401329E+00
      1742   2 -1.274698E+01 -3.516217E+01  3.777437E+00 -2.495279E+01  5.383518E-01 -3.342577E+00
      1742   3 -3.494995E+01 -9.165198E+01 -5.226908E+00 -3.168822E+01 -4.904024E+00 -4.195677E+00
      1742   4 -1.261263E+01 -3.168395E+01  4.851654E+00 -2.537202E+01 -5.097816E+00 -2.916343E+00
      1742   5 -2.768089E+01 -9.879768E+01 -6.306675E+00 -1.327793E+01  1.217316E+00 -3.394075E+00
      1742   6 -5.413275E+00 -3.821563E+01  4.419518E+00 -7.916994E+00  9.908609E-01 -2.329331E+00
      1742   7 -2.721171E+01 -9.501571E+01 -5.037265E+00 -1.379111E+01 -4.238117E+00 -3.217593E+00
      1742   8 -5.003904E+00 -3.463346E+01  5.614072E+00 -8.351415E+00 -4.442400E+00 -1.931000E+00
      1743   1 -3.272263E+01 -1.000711E+01 -4.986025E+00 -1.905496E+01  1.375297E+00 -2.859363E+00
      1743   2 -1.426359E+01  4.034631E+01  2.085654E+00 -1.339966E+01  1.060873E+00 -2.240136E+00
      1743   3 -3.278028E+01 -6.679248E+00 -4.011553E+00 -1.959368E+01 -3.841049E+00 -2.350647E+00
      1743   4 -1.437364E+01  4.346769E+01  2.985612E+00 -1.386536E+01 -4.133994E+00 -1.588457E+00
      1743   5 -2.413761E+01 -1.221892E+01 -3.402987E+00 -2.640375E+00  1.740783E+00 -1.835427E+00
      1743   6 -5.861714E+00  3.843877E+01  4.074237E+00  2.273893E+00  1.447583E+00 -1.224920E+00
      1743   7 -2.389222E+01 -8.770454E+00 -2.295866E+00 -3.208032E+00 -3.324800E+00 -1.348210E+00
      1743   8 -5.682752E+00  4.167496E+01  5.100040E+00  1.780546E+00 -3.603425E+00 -5.938745E-01
      1744   1 -2.475758E+01  6.342082E+01 -3.786266E+00 -5.774036E+00  1.983208E+00 -1.961807E+00
      1744   2 -9.572388E+00  1.061067E+02  7.912108E-01 -1.049846E+00  1.717209E+00 -1.436320E+00
      1744   3 -2.464815E+01  6.646511E+01 -2.841392E+00 -6.082665E+00 -2.896786E+00 -1.263221E+00
      1744   4 -9.515129E+00  1.089629E+02  1.666276E+00 -1.301559E+00 -3.149211E+00 -6.486144E-01
      1744   5 -1.701384E+01  6.146186E+01 -1.777358E+00  9.482216E+00  2.276335E+00 -9.421310E-01
      1744   6 -1.990074E+00  1.043926E+02  3.095934E+00  1.356760E+01  2.035480E+00 -4.297174E-01
      1744   7 -1.664659E+01  6.460860E+01 -7.205075E-01  9.144790E+00 -2.501823E+00 -2.590834E-01
      1744   8 -1.686023E+00  1.073467E+02  4.077723E+00  1.328830E+01 -2.733466E+00  3.430171E-01
      1745   1 -1.269392E+01  1.273643E+02 -2.924022E+00  6.740349E+00  2.398364E+00 -1.087556E+00
      1745   2 -9.034134E-01  1.623799E+02 -1.114997E+00  1.043894E+01  2.180868E+00 -3.727513E-01
      1745   3 -1.249408E+01  1.300230E+02 -2.063801E+00  6.854029E+00 -2.248661E+00 -2.731939E-01
      1745   4 -7.898382E-01  1.647973E+02 -3.513858E-01  1.058182E+01 -2.457596E+00  4.974491E-01
      1745   5 -6.582728E+00  1.253744E+02 -9.704541E-01  2.055114E+01  2.641122E+00 -9.107204E-02
      1745   6  5.103015E+00  1.606016E+02  1.074545E+00  2.371056E+01  2.435262E+00  5.839820E-01
      1745   7 -6.213271E+00  1.281076E+02 -3.426498E-02  2.061434E+01 -1.936814E+00  7.117031E-01
      1745   8  5.379415E+00  1.630903E+02  1.910768E+00  2.380492E+01 -2.136864E+00  1.443041E+00
      1746   1 -2.878594E+01 -1.927473E+02 -5.840935E+00 -3.972579E+01  2.048253E+00 -5.197910E+00
      1746   2 -1.240751E+00 -1.175775E+02  7.083742E+00 -3.325008E+01  1.316139E+00 -3.354979E+00
      1746   3 -2.975957E+01 -1.867211E+02 -4.348801E+00 -4.103263E+01 -4.961151E+00 -5.364481E+00
      1746   4 -2.367229E+00 -1.121389E+02  8.360596E+00 -3.434840E+01 -5.633303E+00 -3.121550E+00
      1746   5 -2.483239E+01 -1.990496E+02 -8.733704E+00 -1.898299E+01  2.418174E+00 -3.546328E+00
      1746   6  2.889114E+00 -1.231546E+02  5.250867E+00 -1.361734E+01  1.724232E+00 -1.747990E+00
      1746   7 -2.508092E+01 -1.926962E+02 -6.914440E+00 -2.041382E+01 -4.233654E+00 -3.761697E+00
      1746   8  2.448138E+00 -1.174070E+02  6.835478E+00 -1.483302E+01 -4.886907E+00 -1.560873E+00
      1747   1 -3.648550E+01 -8.944677E+01 -6.851488E+00 -3.251745E+01  2.160046E+00 -2.677528E+00
      1747   2 -1.406466E+01 -2.959430E+01  3.476837E+00 -2.609967E+01  1.242766E+00 -2.152079E+00
      1747   3 -3.800108E+01 -8.423982E+01 -5.755984E+00 -3.428310E+01 -3.403580E+00 -2.389317E+00
      1747   4 -1.571024E+01 -2.491160E+01  4.380223E+00 -2.766635E+01 -4.287920E+00 -1.650695E+00
      1747   5 -2.825579E+01 -9.253740E+01 -6.243248E+00 -1.467392E+01  2.471405E+00 -1.088556E+00
      1747   6 -5.984757E+00 -3.228030E+01  4.646137E+00 -9.130030E+00  1.640873E+00 -6.215051E-01
      1747   7 -2.900785E+01 -8.698355E+01 -4.807442E+00 -1.657005E+01 -2.881487E+00 -8.307502E-01
      1747   8 -6.904693E+00 -2.726816E+01  5.872055E+00 -1.082079E+01 -3.689660E+00 -1.490642E-01
      1748   1 -3.414691E+01 -4.679344E+00 -5.301596E+00 -2.025130E+01  2.282434E+00 -2.052091E+00
      1748   2 -1.580360E+01  4.524553E+01  1.585210E+00 -1.443777E+01  1.428305E+00 -1.720120E+00
      1748   3 -3.549943E+01 -2.236461E-01 -4.375494E+00 -2.150760E+01 -2.936237E+00 -1.457889E+00
      1748   4 -1.723381E+01  4.934441E+01  2.384210E+00 -1.553464E+01 -3.767877E+00 -9.826651E-01
      1748   5 -2.480123E+01 -6.513343E+00 -3.181250E+00 -3.909935E+00  2.573945E+00 -5.340429E-01
      1748   6 -6.662984E+00  4.371118E+01  4.115848E+00  1.165860E+00  1.811261E+00 -2.355888E-01
      1748   7 -2.550028E+01 -1.769190E+00 -1.967562E+00 -5.258307E+00 -2.490775E+00  3.690994E-02
      1748   8 -7.469591E+00  4.808511E+01  5.188563E+00 -1.891760E-02 -3.238192E+00  4.795896E-01
      1749   1 -2.587461E+01  6.815739E+01 -4.233905E+00 -6.477410E+00  2.489558E+00 -1.708234E+00
      1749   2 -1.080308E+01  1.104774E+02  1.511291E-01 -1.628483E+00  1.723391E+00 -1.444171E+00
      1749   3 -2.692240E+01  7.214556E+01 -3.351181E+00 -7.246249E+00 -2.401108E+00 -9.247753E-01
      1749   4 -1.188386E+01  1.142511E+02  9.618315E-01 -2.269245E+00 -3.153616E+00 -5.763459E-01
      1749   5 -1.746022E+01  6.654119E+01 -1.709588E+00  8.720112E+00  2.760987E+00 -2.169921E-01
      1749   6 -2.575066E+00  1.090949E+02  2.956955E+00  1.293269E+01  2.086377E+00  4.251868E-02
      1749   7 -1.796081E+01  7.076064E+01 -5.899955E-01  7.898248E+00 -2.031466E+00  5.500820E-01
      1749   8 -3.131803E+00  1.130899E+02  3.994032E+00  1.224112E+01 -2.696802E+00  8.944917E-01
      1750   1 -1.329897E+01  1.316136E+02 -3.167570E+00  6.851390E+00  2.578016E+00 -1.317124E+00
      1750   2 -1.236982E+00  1.666285E+02 -5.597391E-01  1.061603E+01  2.041631E+00 -7.859687E-01
      1750   3 -1.358477E+01  1.354101E+02 -2.109782E+00  6.730934E+00 -1.786833E+00 -4.647276E-01
      1750   4 -1.585753E+00  1.701973E+02  4.122440E-01  1.056687E+01 -2.315918E+00  1.103041E-01
      1750   5 -6.719074E+00  1.298906E+02 -7.978256E-01  2.057272E+01  2.857298E+00  1.763879E-01
      1750   6  5.207445E+00  1.650941E+02  2.000796E+00  2.380167E+01  2.375734E+00  6.902009E-01
      1750   7 -6.658552E+00  1.338369E+02  4.107496E-01  2.039622E+01 -1.451972E+00  1.017442E+00
      1750   8  5.191342E+00  1.688068E+02  3.117351E+00  2.369866E+01 -1.928577E+00  1.575456E+00
      1751   1 -2.063559E+01 -1.962887E+02 -1.001491E+01 -2.607211E+01  2.314758E+00 -1.253532E+00
      1751   2  4.840404E+00 -1.271184E+02  5.398570E+00 -2.408843E+01  2.248209E+00 -1.078167E+00
      1751   3 -2.071196E+01 -1.959576E+02 -9.945950E+00 -2.607094E+01 -2.720879E+00 -1.743159E+00
      1751   4  4.768686E+00 -1.267810E+02  5.472120E+00 -2.407648E+01 -2.775379E+00 -1.374755E+00
      1751   5 -2.070633E+01 -1.988831E+02 -1.225483E+01 -7.501842E+00  2.343516E+00 -1.150958E+00
      1751   6  4.928639E+00 -1.294188E+02  3.640644E+00 -6.511935E+00  2.277650E+00 -9.682733E-01
      1751   7 -2.076071E+01 -1.985533E+02 -1.217419E+01 -7.444734E+00 -2.527404E+00 -1.647397E+00
      1751   8  4.877357E+00 -1.290830E+02  3.724365E+00 -6.447034E+00 -2.590041E+00 -1.271347E+00
      1752   1 -2.707771E+01 -1.015411E+02 -6.049534E+00 -2.642044E+01  2.193884E+00 -9.615024E-01
      1752   2 -6.586864E+00 -4.452929E+01  4.101976E+00 -2.316100E+01  2.163032E+00 -8.173592E-01
      1752   3 -2.704082E+01 -1.011564E+02 -5.928249E+00 -2.642246E+01 -2.867276E+00 -1.125887E+00
      1752   4 -6.553140E+00 -4.415796E+01  4.219635E+00 -2.315418E+01 -2.887811E+00 -8.165325E-01
      1752   5 -2.168923E+01 -1.014262E+02 -5.235511E+00 -9.426491E+00  2.227061E+00 -8.477206E-01
      1752   6 -1.280100E+00 -4.423779E+01  5.301221E+00 -6.999334E+00  2.197598E+00 -7.014729E-01
      1752   7 -2.161681E+01 -1.010359E+02 -5.098068E+00 -9.382627E+00 -2.680065E+00 -1.018527E+00
      1752   8 -1.213040E+00 -4.386161E+01  5.433176E+00 -6.948873E+00 -2.706763E+00 -7.067769E-01
      1753   1 -2.596565E+01 -2.017126E+01 -3.913624E+00 -1.929966E+01  2.175472E+00 -7.264571E-01
      1753   2 -8.769785E+00  2.899187E+01  3.113243E+00 -1.620019E+01  2.160192E+00 -6.187149E-01
      1753   3 -2.587985E+01 -1.978263E+01 -3.774153E+00 -1.931493E+01 -2.784505E+00 -6.194745E-01
      1753   4 -8.686378E+00  2.937005E+01  3.250156E+00 -1.620961E+01 -2.791308E+00 -3.759102E-01
      1753   5 -1.965476E+01 -1.936353E+01 -2.001026E+00 -3.157206E+00  2.210145E+00 -6.089905E-01
      1753   6 -2.549957E+00  2.995699E+01  5.391809E+00 -7.864941E-01  2.194993E+00 -4.989072E-01
      1753   7 -1.954034E+01 -1.897236E+01 -1.850101E+00 -3.128446E+00 -2.612475E+00 -5.077801E-01
      1753   8 -2.439727E+00  3.033709E+01  5.538503E+00 -7.538754E-01 -2.625355E+00 -2.616369E-01
      1754   1 -2.065287E+01  5.225850E+01 -2.769715E+00 -1.047884E+01  2.200059E+00 -5.468676E-01
      1754   2 -5.910833E+00  9.560373E+01  2.134573E+00 -7.929508E+00  2.189197E+00 -4.538391E-01
      1754   3 -2.055185E+01  5.263639E+01 -2.626623E+00 -1.049139E+01 -2.607800E+00 -2.202585E-01
      1754   4 -5.813492E+00  9.596885E+01  2.273959E+00 -7.936748E+00 -2.611816E+00 -1.760102E-02
      1754   5 -1.507428E+01  5.301364E+01 -5.003583E-01  5.088755E+00  2.233271E+00 -4.260782E-01
      1754   6 -3.685533E-01  9.652451E+01  4.769222E+00  6.986255E+00  2.223295E+00 -3.319588E-01
      1754   7 -1.494848E+01  5.339235E+01 -3.491455E-01  5.117629E+00 -2.455056E+00 -1.045466E-01
      1754   8 -2.479756E-01  9.688992E+01  4.915206E+00  7.018704E+00 -2.463198E+00  9.939609E-02
      1755   1 -1.175652E+01  1.178127E+02 -1.983273E+00 -2.933810E+00  2.236541E+00 -3.870447E-01
      1755   2  2.104737E-01  1.547641E+02  5.523468E-01 -1.406523E+00  2.231954E+00 -2.929473E-01
      1755   3 -1.162564E+01  1.181860E+02 -1.830415E+00 -2.927953E+00 -2.413049E+00  1.152124E-01
      1755   4  3.428760E-01  1.551377E+02  7.068584E-01 -1.394614E+00 -2.412145E+00  2.971309E-01
      1755   5 -9.032220E+00  1.176449E+02 -2.897236E-01  1.163195E+01  2.269362E+00 -2.632784E-01
      1755   6  3.024820E+00  1.547993E+02  2.638045E+00  1.259059E+01  2.267506E+00 -1.642991E-01
      1755   7 -8.882686E+00  1.180162E+02 -1.330377E-01  1.168039E+01 -2.277562E+00  2.345570E-01
      1755   8  3.174640E+00  1.551704E+02  2.795053E+00  1.264342E+01 -2.277947E+00  4.215011E-01
      1756   1 -2.063516E+01 -1.953111E+02 -9.550297E+00 -2.605878E+01  1.902350E+00 -4.114632E+00
      1756   2  4.713630E+00 -1.262689E+02  5.555982E+00 -2.405026E+01  1.773285E+00 -3.381782E+00
      1756   3 -2.064117E+01 -1.941703E+02 -9.217749E+00 -2.602587E+01 -3.226766E+00 -4.642221E+00
      1756   4  4.709826E+00 -1.251348E+02  5.888606E+00 -2.398978E+01 -3.342829E+00 -3.703378E+00
      1756   5 -2.071154E+01 -1.979621E+02 -1.190786E+01 -7.393127E+00  2.052433E+00 -3.794799E+00
      1756   6  4.808110E+00 -1.286113E+02  3.713721E+00 -6.383476E+00  1.913630E+00 -3.044644E+00
      1756   7 -2.064391E+01 -1.968001E+02 -1.154107E+01 -7.308394E+00 -2.898706E+00 -4.330463E+00
      1756   8  4.873598E+00 -1.274575E+02  4.077805E+00 -6.273953E+00 -3.034024E+00 -3.373986E+00
      1757   1 -2.705650E+01 -1.006783E+02 -5.985570E+00 -2.643157E+01  1.615798E+00 -2.900816E+00
      1757   2 -6.670127E+00 -4.379939E+01  3.937879E+00 -2.315442E+01  1.553867E+00 -2.322871E+00
      1757   3 -2.683506E+01 -9.945811E+01 -5.558504E+00 -2.645367E+01 -3.508877E+00 -3.081841E+00
      1757   4 -6.471242E+00 -4.264099E+01  4.341085E+00 -2.316120E+01 -3.559581E+00 -2.325736E+00
      1757   5 -2.163168E+01 -1.005837E+02 -5.219755E+00 -9.363071E+00  1.758624E+00 -2.556533E+00
      1757   6 -1.312516E+00 -4.351089E+01  5.129279E+00 -6.921859E+00  1.683365E+00 -1.976702E+00
      1757   7 -2.134946E+01 -9.934557E+01 -4.765094E+00 -9.352764E+00 -3.197828E+00 -2.745308E+00
      1757   8 -1.056329E+00 -4.233599E+01  5.557554E+00 -6.897802E+00 -3.270078E+00 -1.986994E+00
      1758   1 -2.598882E+01 -1.945628E+01 -4.135297E+00 -1.935093E+01  1.709035E+00 -1.962940E+00
      1758   2 -8.826702E+00  2.964936E+01  2.826557E+00 -1.623917E+01  1.671526E+00 -1.532881E+00
      1758   3 -2.570518E+01 -1.828812E+01 -3.702657E+00 -1.943331E+01 -3.267191E+00 -1.855212E+00
      1758   4 -8.563321E+00  3.076253E+01  3.237974E+00 -1.630984E+01 -3.295839E+00 -1.284530E+00
      1758   5 -1.962478E+01 -1.864518E+01 -2.211492E+00 -3.137132E+00  1.819525E+00 -1.615392E+00
      1758   6 -2.548058E+00  3.062574E+01  5.134645E+00 -7.573557E-01  1.770338E+00 -1.184362E+00
      1758   7 -1.928787E+01 -1.746249E+01 -1.756371E+00 -3.188934E+00 -3.012567E+00 -1.514453E+00
      1758   8 -2.234326E+00  3.175229E+01  5.566328E+00 -7.988214E-01 -3.059380E+00 -9.425439E-01
      1759   1 -2.069840E+01  5.289509E+01 -3.068657E+00 -1.052275E+01  1.937549E+00 -1.255370E+00
      1759   2 -5.962021E+00  9.621119E+01  1.836871E+00 -7.961220E+00  1.894617E+00 -8.931607E-01
      1759   3 -2.045211E+01  5.396986E+01 -2.672895E+00 -1.059525E+01 -2.867102E+00 -9.243217E-01
      1759   4 -5.732461E+00  9.723907E+01  2.214716E+00 -8.020231E+00 -2.903422E+00 -4.574917E-01
      1759   5 -1.505943E+01  5.366235E+01 -7.683978E-01  5.112426E+00  2.011448E+00 -9.057903E-01
      1759   6 -3.687303E-01  9.713675E+01  4.485152E+00  7.019298E+00  1.963253E+00 -5.427395E-01
      1759   7 -1.475387E+01  5.475392E+01 -3.493931E-01  5.069976E+00 -2.677445E+00 -5.804017E-01
      1759   8 -8.287060E-02  9.818025E+01  4.884138E+00  6.989075E+00 -2.723868E+00 -1.125401E-01
      1760   1 -1.177323E+01  1.184176E+02 -2.277453E+00 -2.926288E+00  2.161420E+00 -6.399633E-01
      1760   2  1.808334E-01  1.553552E+02  2.216304E-01 -1.385477E+00  2.108717E+00 -2.767443E-01
      1760   3 -1.156258E+01  1.194197E+02 -1.912139E+00 -2.927013E+00 -2.500837E+00 -1.423495E-01
      1760   4  3.984666E-01  1.563670E+02  5.929624E-01 -1.371876E+00 -2.548454E+00  3.011858E-01
      1760   5 -9.012402E+00  1.182433E+02 -5.907494E-01  1.171416E+01  2.208905E+00 -2.823692E-01
      1760   6  3.017033E+00  1.553710E+02  2.269842E+00  1.268340E+01  2.155156E+00  9.870537E-02
      1760   7 -8.749676E+00  1.192573E+02 -2.073173E-01  1.175855E+01 -2.358037E+00  2.103723E-01
      1760   8  3.284246E+00  1.563937E+02  2.657502E+00  1.274037E+01 -2.410423E+00  6.718585E-01
      1761   1 -2.042791E+01 -1.928037E+02 -8.378164E+00 -2.600622E+01  1.609754E+00 -6.448982E+00
      1761   2  4.587338E+00 -1.241253E+02  5.950886E+00 -2.394106E+01  1.393915E+00 -5.120418E+00
      1761   3 -2.042700E+01 -1.908009E+02 -7.785816E+00 -2.598440E+01 -3.746183E+00 -7.060789E+00
      1761   4  4.568172E+00 -1.221921E+02  6.518050E+00 -2.386748E+01 -3.946219E+00 -5.484461E+00
      1761   5 -2.047453E+01 -1.955314E+02 -1.095892E+01 -7.257061E+00  1.868966E+00 -5.887935E+00
      1761   6  4.751996E+00 -1.264982E+02  3.995406E+00 -6.195244E+00  1.636180E+00 -4.543157E+00
      1761   7 -2.032140E+01 -1.934717E+02 -1.029739E+01 -7.200496E+00 -3.270574E+00 -6.510155E+00
      1761   8  4.876377E+00 -1.245117E+02  4.626813E+00 -6.088780E+00 -3.499126E+00 -4.917196E+00
      1762   1 -2.691834E+01 -9.854621E+01 -5.822496E+00 -2.652297E+01  1.198457E+00 -4.287240E+00
      1762   2 -6.735453E+00 -4.194872E+01  3.682816E+00 -2.321391E+01  1.088572E+00 -3.337503E+00
      1762   3 -2.656754E+01 -9.647760E+01 -5.102435E+00 -2.668928E+01 -4.035033E+00 -4.491280E+00
      1762   4 -6.422491E+00 -3.998429E+01  4.361950E+00 -2.335033E+01 -4.131989E+00 -3.338432E+00
      1762   5 -2.141519E+01 -9.845787E+01 -5.107670E+00 -9.402938E+00  1.444213E+00 -3.702878E+00
      1762   6 -1.271095E+00 -4.163399E+01  4.900985E+00 -6.932333E+00  1.310698E+00 -2.749588E+00
      1762   7 -2.095175E+01 -9.634777E+01 -4.337135E+00 -9.549433E+00 -3.595290E+00 -3.916478E+00
      1762   8 -8.516119E-01 -3.963070E+01  5.626741E+00 -7.049907E+00 -3.725341E+00 -2.759705E+00
      1763   1 -2.598031E+01 -1.766365E+01 -4.496839E+00 -1.957267E+01  1.464326E+00 -2.779585E+00
      1763   2 -8.879580E+00  3.130920E+01  2.375276E+00 -1.643569E+01  1.370116E+00 -2.147270E+00
      1763   3 -2.560354E+01 -1.571570E+01 -3.802304E+00 -1.987022E+01 -3.525494E+00 -2.664631E+00
      1763   4 -8.541493E+00  3.315311E+01  3.028367E+00 -1.670810E+01 -3.610644E+00 -1.890335E+00
      1763   5 -1.950073E+01 -1.681447E+01 -2.516173E+00 -3.311559E+00  1.635966E+00 -2.189515E+00
      1763   6 -2.486839E+00  3.232573E+01  4.746452E+00 -9.086909E-01  1.524559E+00 -1.558624E+00
      1763   7 -1.901825E+01 -1.482788E+01 -1.776208E+00 -3.593991E+00 -3.206309E+00 -2.082250E+00
      1763   8 -2.048331E+00  3.420602E+01  5.441706E+00 -1.166668E+00 -3.315289E+00 -1.309105E+00
      1764   1 -2.077818E+01  5.448322E+01 -3.531597E+00 -1.070952E+01  1.880437E+00 -1.750383E+00
      1764   2 -6.031945E+00  9.774654E+01  1.441158E+00 -8.119846E+00  1.775458E+00 -1.228763E+00
      1764   3 -2.047534E+01  5.624911E+01 -2.911534E+00 -1.094851E+01 -2.894807E+00 -1.417899E+00
      1764   4 -5.762801E+00  9.942025E+01  2.024455E+00 -8.332356E+00 -2.994025E+00 -8.066978E-01
      1764   5 -1.501475E+01  5.529055E+01 -1.178161E+00  4.972072E+00  1.970309E+00 -1.161376E+00
      1764   6 -3.431325E-01  9.868677E+01  4.085036E+00  6.905138E+00  1.859471E+00 -6.424806E-01
      1764   7 -1.459795E+01  5.709832E+01 -5.109256E-01  4.747727E+00 -2.704027E+00 -8.347011E-01
      1764   8  3.479686E-02  1.004002E+02  4.712570E+00  6.706670E+00 -2.813322E+00 -2.260461E-01
      1765   1 -1.185633E+01  1.199126E+02 -2.661916E+00 -2.946949E+00  2.214543E+00 -8.502217E-01
      1765   2  1.012707E-01  1.568506E+02 -1.675090E-01 -1.376287E+00  2.105311E+00 -2.780468E-01
      1765   3 -1.159331E+01  1.215318E+02 -2.096106E+00 -3.000103E+00 -2.452743E+00 -3.758982E-01
      1765   4  3.598834E-01  1.584469E+02  3.909574E-01 -1.401407E+00 -2.557738E+00  2.616695E-01
      1765   5 -9.022543E+00  1.197296E+02 -1.025946E+00  1.176724E+01  2.256229E+00 -2.576690E-01
      1765   6  2.978687E+00  1.568290E+02  1.764529E+00  1.276346E+01  2.150065E+00  3.310394E-01
      1765   7 -8.647035E+00  1.213878E+02 -4.155091E-01  1.174716E+01 -2.331915E+00  2.116981E-01
      1765   8  3.345016E+00  1.584624E+02  2.365001E+00  1.277012E+01 -2.436943E+00  8.658747E-01
      1766   1 -2.009531E+01 -1.886566E+02 -6.478791E+00 -2.601558E+01  1.520151E+00 -7.610130E+00
      1766   2  4.262112E+00 -1.207348E+02  6.357793E+00 -2.384663E+01  1.219299E+00 -5.556534E+00
      1766   3 -2.009256E+01 -1.857065E+02 -5.603438E+00 -2.612097E+01 -4.261956E+00 -8.394970E+00
      1766   4  4.231446E+00 -1.179030E+02  7.190289E+00 -2.386174E+01 -4.539374E+00 -5.976513E+00
      1766   5 -2.008067E+01 -1.915131E+02 -9.496851E+00 -7.211631E+00  1.854776E+00 -6.782833E+00
      1766   6  4.611817E+00 -1.231025E+02  4.284910E+00 -6.048945E+00  1.530418E+00 -4.709365E+00
      1766   7 -1.980301E+01 -1.884515E+02 -8.497860E+00 -7.296978E+00 -3.606397E+00 -7.583162E+00
      1766   8  4.840475E+00 -1.201661E+02  5.232364E+00 -6.045097E+00 -3.924476E+00 -5.144198E+00
      1767   1 -2.692708E+01 -9.520958E+01 -5.811931E+00 -2.702209E+01  1.227624E+00 -4.436190E+00
      1767   2 -6.951889E+00 -3.895162E+01  3.298964E+00 -2.364579E+01  9.823835E-01 -3.387948E+00
      1767   3 -2.672090E+01 -9.227708E+01 -4.876323E+00 -2.776364E+01 -4.098568E+00 -4.656969E+00
      1767   4 -6.804119E+00 -3.618993E+01  4.167785E+00 -2.431540E+01 -4.328640E+00 -3.373885E+00
      1767   5 -2.121282E+01 -9.506303E+01 -5.073673E+00 -9.875462E+00  1.514282E+00 -3.580838E+00
      1767   6 -1.243618E+00 -3.853839E+01  4.640094E+00 -7.338926E+00  1.253910E+00 -2.532994E+00
      1767   7 -2.074814E+01 -9.202420E+01 -4.024206E+00 -1.061833E+01 -3.585040E+00 -3.813328E+00
      1767   8 -8.507198E-01 -3.567630E+01  5.615534E+00 -8.009777E+00 -3.841348E+00 -2.530189E+00
      1768   1 -2.621117E+01 -1.479054E+01 -5.000020E+00 -2.027974E+01  1.655947E+00 -2.830178E+00
      1768   2 -9.177306E+00  3.398286E+01  1.809436E+00 -1.708051E+01  1.361545E+00 -2.242756E+00
      1768   3 -2.621482E+01 -1.217984E+01 -4.220567E+00 -2.109995E+01 -3.328026E+00 -2.693115E+00
      1768   4 -9.242566E+00  3.641381E+01  2.517863E+00 -1.782469E+01 -3.613082E+00 -1.963238E+00
      1768   5 -1.945168E+01 -1.381646E+01 -2.847314E+00 -4.002018E+00  1.827173E+00 -1.975704E+00
      1768   6 -2.512687E+00  3.512326E+01  4.355628E+00 -1.537655E+00  1.545881E+00 -1.400059E+00
      1768   7 -1.915918E+01 -1.108277E+01 -1.940152E+00 -4.833281E+00 -3.006491E+00 -1.847226E+00
      1768   8 -2.295695E+00  3.767112E+01  5.184755E+00 -2.292383E+00 -3.285279E+00 -1.128813E+00
      1769   1 -2.103221E+01  5.705916E+01 -4.072120E+00 -1.124974E+01  2.106498E+00 -1.894257E+00
      1769   2 -6.298380E+00  1.001927E+02  9.537629E-01 -8.602855E+00  1.865446E+00 -1.414624E+00
      1769   3 -2.090935E+01  5.945160E+01 -3.317923E+00 -1.183299E+01 -2.632416E+00 -1.547727E+00
      1769   4 -6.231932E+00  1.024264E+02  1.644217E+00 -9.128764E+00 -2.868748E+00 -9.976127E-01
      1769   5 -1.500273E+01  5.798210E+01 -1.564881E+00  4.448544E+00  2.174304E+00 -1.056049E+00
      1769   6 -3.835697E-01  1.012148E+02  3.677538E+00  6.438129E+00  1.947909E+00 -5.897725E-01
      1769   7 -1.463922E+01  6.047323E+01 -7.085833E-01  3.856222E+00 -2.483234E+00 -7.152742E-01
      1769   8 -8.687125E-02  1.035427E+02  4.465056E+00  5.903523E+00 -2.708364E+00 -1.783380E-01
      1770   1 -1.202366E+01  1.223274E+02 -3.005965E+00 -3.083941E+00  2.409049E+00 -1.032637E+00
      1770   2  5.307450E-02  1.593342E+02 -2.151209E-01 -1.456173E+00  2.199537E+00 -3.849614E-01
      1770   3 -1.185568E+01  1.244872E+02 -2.306840E+00 -3.259331E+00 -2.168962E+00 -5.940175E-01
      1770   4  1.866568E-01  1.613911E+02  4.429649E-01 -1.580267E+00 -2.377670E+00  6.263633E-02
      1770   5 -9.010996E+00  1.221752E+02 -1.403201E+00  1.167689E+01  2.420443E+00 -2.103410E-01
      1770   6  2.998345E+00  1.592381E+02  1.442242E+00  1.272839E+01  2.233426E+00  4.357596E-01
      1770   7 -8.624761E+00  1.244226E+02 -6.128870E-01  1.150549E+01 -2.144103E+00  2.252704E-01
      1770   8  3.341590E+00  1.613792E+02  2.187785E+00  1.260813E+01 -2.330905E+00  8.803761E-01
      1771   1 -2.012692E+01 -1.828557E+02 -4.291096E+00 -2.687990E+01  2.306036E+00 -5.080018E+00
      1771   2  3.277942E+00 -1.160840E+02  6.392147E+00 -2.447962E+01  1.646649E+00 -3.235327E+00
      1771   3 -2.097646E+01 -1.787738E+02 -3.334292E+00 -2.884400E+01 -4.084022E+00 -6.095694E+00
      1771   4  2.359197E+00 -1.122939E+02  7.245312E+00 -2.614948E+01 -4.704063E+00 -3.648120E+00
      1771   5 -1.973401E+01 -1.857483E+02 -7.767544E+00 -8.061744E+00  2.460777E+00 -3.873022E+00
      1771   6  4.263017E+00 -1.182087E+02  4.532526E+00 -6.668503E+00  1.879321E+00 -2.032656E+00
      1771   7 -1.966974E+01 -1.812750E+02 -6.409679E+00 -1.006185E+01 -3.395532E+00 -4.913869E+00
      1771   8  4.207512E+00 -1.140498E+02  5.761387E+00 -8.372429E+00 -3.966446E+00 -2.469445E+00
      1772   1 -2.797043E+01 -9.077540E+01 -6.327052E+00 -2.889201E+01  2.304128E+00 -2.463334E+00
      1772   2 -7.967377E+00 -3.472621E+01  2.975943E+00 -2.532829E+01  1.530725E+00 -2.027490E+00
      1772   3 -2.919327E+01 -8.721092E+01 -5.630032E+00 -3.123062E+01 -2.927768E+00 -2.630256E+00
      1772   4 -9.278840E+00 -3.147701E+01  3.553640E+00 -2.742403E+01 -3.686380E+00 -1.976338E+00
      1772   5 -2.152720E+01 -9.028371E+01 -5.141811E+00 -1.176631E+01  2.400597E+00 -1.262480E+00
      1772   6 -1.580667E+00 -3.399958E+01  4.707559E+00 -9.041314E+00  1.729158E+00 -8.516302E-01
      1772   7 -2.190799E+01 -8.635788E+01 -4.079746E+00 -1.415720E+01 -2.616321E+00 -1.441583E+00
      1772   8 -2.091985E+00 -3.040740E+01  5.630869E+00 -1.118679E+01 -3.283796E+00 -8.121499E-01
      1773   1 -2.729749E+01 -1.076605E+01 -5.317013E+00 -2.202936E+01  2.375000E+00 -1.840964E+00
      1773   2 -1.038725E+01  3.764723E+01  1.339566E+00 -1.865908E+01  1.667375E+00 -1.588071E+00
      1773   3 -2.837163E+01 -7.636458E+00 -4.702750E+00 -2.374686E+01 -2.612468E+00 -1.670764E+00
      1773   4 -1.155304E+01  4.048025E+01  1.838703E+00 -2.019344E+01 -3.310611E+00 -1.280743E+00
      1773   5 -1.983548E+01 -9.471501E+00 -2.779362E+00 -5.786399E+00  2.448277E+00 -6.787264E-01
      1773   6 -3.054650E+00  3.909081E+01  4.246737E+00 -3.149409E+00  1.838686E+00 -4.598659E-01
      1773   7 -2.021333E+01 -6.043136E+00 -1.864829E+00 -7.557636E+00 -2.391738E+00 -5.178563E-01
      1773   8 -3.556111E+00  4.220859E+01  5.031373E+00 -4.735089E+00 -2.998788E+00 -1.614915E-01
      1774   1 -2.187547E+01  6.063632E+01 -4.477569E+00 -1.245940E+01  2.519038E+00 -1.485242E+00
      1774   2 -7.272151E+00  1.034375E+02  3.636900E-01 -9.673412E+00  1.905962E+00 -1.291372E+00
      1774   3 -2.270839E+01  6.340807E+01 -3.896045E+00 -1.358681E+01 -2.237078E+00 -1.109785E+00
      1774   4 -8.176582E+00  1.059684E+02  8.523650E-01 -1.063522E+01 -2.844535E+00 -8.391452E-01
      1774   5 -1.522813E+01  6.184207E+01 -1.625412E+00  3.210365E+00  2.547980E+00 -3.721131E-01
      1774   6 -7.504630E-01  1.047455E+02  3.452671E+00  5.340243E+00  2.058338E+00 -2.088224E-01
      1774   7 -1.538820E+01  6.490112E+01 -7.557413E-01  2.038875E+00 -2.118331E+00 -3.511003E-03
      1774   8 -1.010586E+00  1.075512E+02  4.216576E+00  4.336205E+00 -2.606468E+00  2.367962E-01
      1775   1 -1.253170E+01  1.256081E+02 -3.257096E+00 -3.465899E+00  2.579919E+00 -1.130208E+00
      1775   2 -1.927948E-01  1.627446E+02  2.115872E-01 -1.721348E+00  2.135497E+00 -7.530274E-01
      1775   3 -1.283874E+01  1.282170E+02 -2.565710E+00 -3.854867E+00 -1.782708E+00 -7.029507E-01
      1775   4 -5.385226E-01  1.652087E+02  8.468338E-01 -1.983007E+00 -2.232421E+00 -4.184291E-01
      1775   5 -9.027371E+00  1.256542E+02 -1.457122E+00  1.129428E+01  2.578432E+00 -5.262971E-02
      1775   6  3.042926E+00  1.626571E+02  1.633748E+00  1.246260E+01  2.249810E+00  3.165539E-01
      1775   7 -8.791885E+00  1.284916E+02 -5.350411E-01  1.088864E+01 -1.891852E+00  3.758046E-01
      1775   8  3.218992E+00  1.653413E+02  2.491733E+00  1.218491E+01 -2.221891E+00  6.521843E-01
      1776   1 -8.895213E+00  1.178433E+02  7.654655E-02 -1.209486E+01  2.780414E+00  3.452474E-01
      1776   2 -1.179813E+01  1.180749E+02 -1.713205E+00  3.131256E+00  2.854187E+00  4.910127E-01
      1776   3 -8.819001E+00  1.183206E+02  2.420273E-01 -1.210436E+01 -2.852178E+00 -2.932869E-01
      1776   4 -1.172359E+01  1.185388E+02 -1.553734E+00  3.075372E+00 -2.909338E+00 -1.523439E-01
      1776   5  3.144802E+00  1.548713E+02  3.065964E+00 -1.308049E+01  2.746012E+00  2.142892E-01
      1776   6  1.519004E-01  1.548905E+02  8.716895E-01  1.551200E+00  2.825107E+00  3.741608E-01
      1776   7  3.232950E+00  1.553769E+02  3.243123E+00 -1.309087E+01 -2.884698E+00 -5.324281E-01
      1776   8  2.377849E-01  1.553826E+02  1.041540E+00  1.496241E+00 -2.931392E+00 -3.771152E-01
      1777   1 -6.356583E+00  1.201074E+02 -6.679516E-02 -2.104166E+01  2.757445E+00  4.839734E-01
      1777   2 -1.251572E+01  1.224948E+02 -1.832493E+00 -6.623232E+00  2.972501E+00  6.660871E-01
      1777   3 -6.300163E+00  1.206411E+02  1.039038E-01 -2.100076E+01 -3.068825E+00 -5.002384E-01
      1777   4 -1.242728E+01  1.230000E+02 -1.656366E+00 -6.647144E+00 -2.971771E+00 -3.321045E-01
      1777   5  5.403761E+00  1.556391E+02  1.860365E+00 -2.425808E+01  2.719866E+00  3.720175E-01
      1777   6 -6.879997E-01  1.577602E+02 -2.402546E-01 -1.040255E+01  2.951994E+00  5.507501E-01
      1777   7  5.437883E+00  1.561307E+02  2.009554E+00 -2.420663E+01 -3.096485E+00 -7.103954E-01
      1777   8 -6.234400E-01  1.582241E+02 -8.663279E-02 -1.041338E+01 -2.977656E+00 -5.450791E-01
      1778   1 -2.605816E+00  1.205228E+02  1.252019E-01 -3.207297E+01  2.755725E+00  6.123180E-01
      1778   2 -1.143990E+01  1.254547E+02 -1.554547E+00 -1.800995E+01  3.095897E+00  8.537698E-01
      1778   3 -2.557801E+00  1.211300E+02  3.108630E-01 -3.203093E+01 -3.200173E+00 -8.415296E-01
      1778   4 -1.133294E+01  1.260141E+02 -1.355845E+00 -1.803051E+01 -2.978468E+00 -6.240328E-01
      1778   5  1.037922E+01  1.567992E+02  2.166103E+00 -3.743256E+01  2.719438E+00  4.948793E-01
      1778   6  1.719561E+00  1.613682E+02  1.541842E-01 -2.391856E+01  3.087758E+00  7.318834E-01
      1778   7  1.038987E+01  1.573498E+02  2.319496E+00 -3.736885E+01 -3.217874E+00 -1.058182E+00
      1778   8  1.786744E+00  1.618727E+02  3.198720E-01 -2.391501E+01 -2.963241E+00 -8.441731E-01
      1779   1  3.485533E+00  1.189650E+02  5.955658E-01 -4.366677E+01  2.738085E+00  7.461774E-01
      1779   2 -8.037451E+00  1.265381E+02 -1.095617E+00 -3.025969E+01  3.208470E+00  1.076996E+00
      1779   3  3.525096E+00  1.196700E+02  8.023905E-01 -4.363504E+01 -3.294591E+00 -1.253445E+00
      1779   4 -7.909818E+00  1.271766E+02 -8.673824E-01 -3.028082E+01 -2.943625E+00 -9.571021E-01
      1779   5  1.832011E+01  1.561211E+02  2.974419E+00 -5.122061E+01  2.704274E+00  6.214373E-01
      1779   6  7.071784E+00  1.632234E+02  9.404468E-01 -3.833696E+01  3.215402E+00  9.503802E-01
      1779   7  1.830501E+01  1.567634E+02  3.139891E+00 -5.115550E+01 -3.300442E+00 -1.478778E+00
      1779   8  7.141438E+00  1.638018E+02  1.126777E+00 -3.832264E+01 -2.903849E+00 -1.182914E+00
      1780   1  1.190922E+01  1.151856E+02  1.084444E+00 -5.497252E+01  2.702419E+00  8.999218E-01
      1780   2 -2.186146E+00  1.253919E+02 -6.289336E-01 -4.270982E+01  3.301652E+00  1.347505E+00
      1780   3  1.193904E+01  1.159950E+02  1.312736E+00 -5.496610E+01 -3.354189E+00 -1.685638E+00
      1780   4 -2.044560E+00  1.261176E+02 -3.717931E-01 -4.273857E+01 -2.872878E+00 -1.282782E+00
      1780   5  2.899293E+01  1.528191E+02  3.786388E+00 -6.467924E+01  2.673076E+00  7.679980E-01
      1780   6  1.526778E+01  1.624469E+02  1.719772E+00 -5.289527E+01  3.324975E+00  1.220123E+00
      1780   7  2.895036E+01  1.535692E+02  3.966950E+00 -6.463025E+01 -3.346143E+00 -1.917365E+00
      1780   8  1.533299E+01  1.631170E+02  1.928901E+00 -5.288008E+01 -2.807277E+00 -1.508127E+00
      1781   1  2.256817E+01  1.091483E+02  1.492788E+00 -6.537136E+01  2.645333E+00  1.074927E+00
      1781   2  6.088992E+00  1.218459E+02 -2.285092E-01 -5.477552E+01  3.366535E+00  1.664133E+00
      1781   3  2.258186E+01  1.100541E+02  1.737601E+00 -6.540540E+01 -3.380428E+00 -2.114133E+00
      1781   4  6.233179E+00  1.226551E+02  5.268743E-02 -5.482080E+01 -2.772407E+00 -1.578757E+00
      1781   5  4.225221E+01  1.467484E+02  4.460036E+00 -7.710589E+01  2.620748E+00  9.376886E-01
      1781   6  2.623458E+01  1.587686E+02  2.381726E+00 -6.692372E+01  3.405814E+00  1.540622E+00
      1781   7  4.217430E+01  1.476044E+02  4.652129E+00 -7.709130E+01 -3.358868E+00 -2.347497E+00
      1781   8  2.628270E+01  1.595322E+02  2.610251E+00 -6.691993E+01 -2.682222E+00 -1.796140E+00
      1782   1  3.524977E+01  1.009619E+02  1.796020E+00 -7.435884E+01  2.563472E+00  1.263520E+00
      1782   2  1.667599E+01  1.158965E+02  9.405908E-02 -6.592856E+01  3.395124E+00  2.018590E+00
      1782   3  3.524266E+01  1.019517E+02  2.052212E+00 -7.444906E+01 -3.373197E+00 -2.533347E+00
      1782   4  1.681210E+01  1.167821E+02  3.944531E-01 -6.600122E+01 -2.647141E+00 -1.839483E+00
      1782   5  5.786144E+01  1.380290E+02  4.976333E+00 -8.790843E+01  2.542988E+00  1.122901E+00
      1782   6  3.983293E+01  1.522006E+02  2.921164E+00 -7.980726E+01  3.448741E+00  1.903127E+00
      1782   7  5.774195E+01  1.389818E+02  5.175623E+00 -8.794774E+01 -3.339972E+00 -2.763788E+00
      1782   8  3.985199E+01  1.530543E+02  3.165098E+00 -7.982970E+01 -2.535296E+00 -2.042157E+00
      1783   1  4.965948E+01  9.085127E+01  2.003525E+00 -8.149523E+01  2.455282E+00  1.455453E+00
      1783   2  2.937882E+01  1.076670E+02  3.507651E-01 -7.567632E+01  3.381235E+00  2.400431E+00
      1783   3  4.963157E+01  9.191131E+01  2.267509E+00 -8.165835E+01 -3.330660E+00 -2.944148E+00
      1783   4  2.950031E+01  1.086222E+02  6.672766E-01 -7.578960E+01 -2.500591E+00 -2.065694E+00
      1783   5  7.549172E+01  1.269339E+02  5.358632E+00 -9.656433E+01  2.437748E+00  1.312728E+00
      1783   6  5.582837E+01  1.429187E+02  3.363354E+00 -9.097259E+01  3.446905E+00  2.296348E+00
      1783   7  7.532952E+01  1.279720E+02  5.562116E+00 -9.667853E+01 -3.288420E+00 -3.168306E+00
      1783   8  5.581100E+01  1.438573E+02  3.620244E+00 -9.103889E+01 -2.370962E+00 -2.248312E+00
      1784   1  6.541996E+01  7.914266E+01  2.134334E+00 -8.640032E+01  2.321024E+00  1.641053E+00
      1784   2  4.390947E+01  9.739371E+01  5.586782E-01 -8.356529E+01  3.320613E+00  2.799375E+00
      1784   3  6.537720E+01  8.025777E+01  2.404194E+00 -8.665347E+01 -3.250124E+00 -3.348003E+00
      1784   4  4.401472E+01  9.841117E+01  8.897837E-01 -8.373449E+01 -2.335297E+00 -2.259302E+00
      1784   5  9.471167E+01  1.138519E+02  5.637067E+00 -1.026185E+02  2.305221E+00  1.496704E+00
      1784   6  7.387467E+01  1.312241E+02  3.734949E+00 -9.989410E+01  3.395519E+00  2.709216E+00
      1784   7  9.451307E+01  1.149616E+02  5.843727E+00 -1.028297E+02 -3.201783E+00 -3.563850E+00
      1784   8  7.381990E+01  1.322416E+02  4.004205E+00 -1.000246E+02 -2.192458E+00 -2.417851E+00
      1785   1  8.207694E+01  6.625213E+01  2.207592E+00 -8.876651E+01  2.162286E+00  1.812247E+00
      1785   2  5.988824E+01  8.541539E+01  7.324747E-01 -8.919680E+01  3.210199E+00  3.205545E+00
      1785   3  8.203224E+01  6.740483E+01  2.482919E+00 -8.912625E+01 -3.129013E+00 -3.744868E+00
      1785   4  5.998193E+01  8.648608E+01  1.078231E+00 -8.943825E+01 -2.153970E+00 -2.422018E+00
      1785   5  1.149934E+02  9.927141E+01  5.837217E+00 -1.056993E+02  2.147142E+00  1.666214E+00
      1785   6  9.351517E+01  1.175309E+02  4.056193E+00 -1.061128E+02  3.291418E+00  3.131131E+00
      1785   7  1.147726E+02  1.004354E+02  6.047443E+00 -1.060292E+02 -3.077449E+00 -3.951394E+00
      1785   8  9.342935E+01  1.186181E+02  4.338710E+00 -1.063290E+02 -2.002692E+00 -2.553684E+00
      1786   1  9.911135E+01  5.266680E+01  2.238234E+00 -8.837765E+01  1.982276E+00  1.962963E+00
      1786   2  7.685243E+01  7.215979E+01  8.831609E-01 -9.224889E+01  3.048621E+00  3.609887E+00
      1786   3  9.908392E+01  5.383573E+01  2.519543E+00 -8.885834E+01 -2.964799E+00 -4.132529E+00
      1786   4  7.694558E+01  7.327116E+01  1.244396E+00 -9.257900E+01 -1.959193E+00 -2.554613E+00
      1786   5  1.357288E+02  8.376189E+01  5.977573E+00 -1.055413E+02  1.967031E+00  1.814647E+00
      1786   6  1.141952E+02  1.023501E+02  4.340278E+00 -1.092614E+02  3.133082E+00  3.552278E+00
      1786   7  1.355080E+02  8.495787E+01  6.192882E+00 -1.060095E+02 -2.912656E+00 -4.329670E+00
      1786   8  1.140926E+02  1.034932E+02  4.637900E+00 -1.095849E+02 -1.804453E+00 -2.657754E+00
      1787   1  1.159612E+02  3.892357E+01  2.237890E+00 -8.512431E+01  1.784643E+00  2.088662E+00
      1787   2  9.427400E+01  5.812560E+01  1.017699E+00 -9.249379E+01  2.835566E+00  4.003854E+00
      1787   3  1.159763E+02  4.008362E+01  2.526285E+00 -8.573654E+01 -2.756116E+00 -4.507215E+00
      1787   4  9.438351E+01  5.926103E+01  1.395854E+00 -9.292705E+01 -1.754057E+00 -2.657420E+00
      1787   5  1.562545E+02  6.795059E+01  6.070806E+00 -1.020032E+02  1.768943E+00  1.937162E+00
      1787   6  1.352841E+02  8.627309E+01  4.595200E+00 -1.090850E+02  2.920187E+00  3.963611E+00
      1787   7  1.560635E+02  6.915140E+01  6.293478E+00 -1.026253E+02 -2.705650E+00 -4.695587E+00
      1787   8  1.351867E+02  8.745304E+01  4.910569E+00 -1.095351E+02 -1.600841E+00 -2.731263E+00
      1788   1  1.320446E+02  2.558167E+01  2.213573E+00 -7.901395E+01  1.573804E+00  2.186283E+00
      1788   2  1.115809E+02  4.386022E+01  1.140455E+00 -8.981419E+01  2.571985E+00  4.379377E+00
      1788   3  1.321316E+02  2.670413E+01  2.510460E+00 -7.976296E+01 -2.502467E+00 -4.863940E+00
      1788   4  1.117290E+02  4.499861E+01  1.537090E+00 -9.036211E+01 -1.541955E+00 -2.730617E+00
      1788   5  1.758820E+02  5.249436E+01  6.124896E+00 -9.508112E+01  1.557528E+00  2.030566E+00
      1788   6  1.561021E+02  6.994427E+01  4.825156E+00 -1.054597E+02  2.653603E+00  4.356441E+00
      1788   7  1.757564E+02  5.366795E+01  6.357558E+00 -9.586670E+01 -2.455668E+00 -5.044643E+00
      1788   8  1.560384E+02  7.113630E+01  5.161054E+00 -1.060521E+02 -1.395291E+00 -2.775369E+00
      1789   1  1.467862E+02  1.319778E+01  2.170006E+00 -7.017412E+01  1.354245E+00  2.253894E+00
      1789   2  1.281810E+02  2.993387E+01  1.253275E+00 -8.421128E+01  2.259917E+00  4.728816E+00
      1789   3  1.469782E+02  1.425164E+01  2.477120E+00 -7.105847E+01 -2.204803E+00 -5.197086E+00
      1789   4  1.283947E+02  3.105008E+01  1.670230E+00 -8.488018E+01 -1.326645E+00 -2.774471E+00
      1789   5  1.939277E+02  3.804903E+01  6.144560E+00 -8.491254E+01  1.337716E+00  2.092886E+00
      1789   6  1.759495E+02  5.403243E+01  5.031770E+00 -9.840171E+01  2.335758E+00  4.722552E+00
      1789   7  1.939071E+02  3.915947E+01  6.389902E+00 -8.586319E+01 -2.163172E+00 -5.371576E+00
      1789   8  1.759533E+02  5.520637E+01  5.391020E+00 -9.914534E+01 -1.191100E+00 -2.791214E+00
      1790   1  1.596436E+02  2.298122E+00  2.109714E+00 -5.885002E+01  1.130964E+00  2.290807E+00
      1790   2  1.434891E+02  1.691241E+01  1.356718E+00 -7.580848E+01  1.902634E+00  5.045227E+00
      1790   3  1.599747E+02  3.250853E+00  2.428765E+00 -5.986044E+01 -1.864846E+00 -5.500590E+00
      1790   4  1.437986E+02  1.797836E+01  1.795698E+00 -7.659884E+01 -1.111894E+00 -2.789448E+00
      1790   5  2.097451E+02  2.523769E+01  6.132413E+00 -7.177412E+01  1.114990E+00  2.123345E+00
      1790   6  1.941381E+02  3.919826E+01  5.214858E+00 -8.807048E+01  1.969980E+00  5.054483E+00
      1790   7  2.098720E+02  2.624719E+01  6.393488E+00 -7.288255E+01 -1.829276E+00 -5.670715E+00
      1790   8  1.942482E+02  4.032056E+01  5.600489E+00 -8.896744E+01 -9.918590E-01 -2.780081E+00
      1791   1  1.701334E+02 -6.646879E+00  2.034362E+00 -4.539551E+01  9.084180E-01  2.297125E+00
      1791   2  1.569539E+02  5.331587E+00  1.450190E+00 -6.484755E+01  1.504133E+00  5.322199E+00
      1791   3  1.706374E+02 -5.826742E+00  2.367044E+00 -4.651488E+01 -1.485995E+00 -5.768671E+00
      1791   4  1.573905E+02  6.317796E+00  1.912868E+00 -6.575269E+01 -9.018425E-01 -2.776644E+00
      1791   5  2.227550E+02  1.462086E+01  6.089768E+00 -5.607193E+01  8.940031E-01  2.122233E+00
      1791   6  2.100236E+02  2.606528E+01  5.373442E+00 -7.476456E+01  1.560535E+00  5.345463E+00
      1791   7  2.230718E+02  1.549190E+01  6.369416E+00 -5.732130E+01 -1.456987E+00 -5.936371E+00
      1791   8  2.102801E+02  2.710031E+01  5.788285E+00 -7.580806E+01 -8.012230E-01 -2.743695E+00
      1792   1  1.778531E+02 -1.324740E+01  1.943797E+00 -3.025782E+01  6.911205E-01  2.274014E+00
      1792   2  1.680819E+02 -4.334950E+00  1.531654E+00 -5.167980E+01  1.069414E+00  5.554315E+00
      1792   3  1.785612E+02 -1.258820E+01  2.292243E+00 -3.146082E+01 -1.072719E+00 -5.995733E+00
      1792   4  1.686778E+02 -3.457201E+00  2.020095E+00 -5.268539E+01 -7.006410E-01 -2.737361E+00
      1792   5  2.324721E+02  6.666485E+00  6.016062E+00 -3.832288E+01  6.796416E-01  2.090851E+00
      1792   6  2.230330E+02  1.518157E+01  5.504578E+00 -5.890857E+01  1.112959E+00  5.589593E+00
      1792   7  2.330185E+02  7.364210E+00  6.317352E+00 -3.968635E+01 -1.050214E+00 -6.163040E+00
      1792   8  2.234763E+02  1.609411E+01  5.951618E+00 -6.008234E+01 -6.226143E-01 -2.684055E+00
      1793   1  1.824982E+02 -1.721230E+01  1.838186E+00 -1.395043E+01  4.830134E-01  2.223218E+00
      1793   2  1.764735E+02 -1.166917E+01  1.611275E+00 -3.673204E+01  6.038213E-01  5.737172E+00
      1793   3  1.834372E+02 -1.673779E+01  2.204595E+00 -1.520493E+01 -6.308667E-01 -6.176993E+00
      1793   4  1.772575E+02 -1.092843E+01  2.126646E+00 -3.781816E+01 -5.128769E-01 -2.673506E+00
      1793   5  2.385022E+02  1.721750E+00  5.901570E+00 -1.912975E+01  4.768044E-01  2.031520E+00
      1793   6  2.326798E+02  7.015648E+00  5.606989E+00 -4.102194E+01  6.326676E-01  5.782192E+00
      1793   7  2.393164E+02  2.217456E+00  6.228958E+00 -2.057169E+01 -6.135767E-01 -6.345608E+00
      1793   8  2.333502E+02  7.772411E+00  6.089675E+00 -4.230209E+01 -4.602778E-01 -2.603575E+00
      1794   1  1.839346E+02 -1.834876E+01  1.741467E+00  2.967656E+00  2.855070E-01  2.150990E+00
      1794   2  1.818126E+02 -1.650214E+01  1.654725E+00 -2.046134E+01  1.123798E-01  5.872797E+00
      1794   3  1.851228E+02 -1.807462E+01  2.128354E+00  1.695898E+00 -1.703080E-01 -6.304173E+00
      1794   4  1.828143E+02 -1.590732E+01  2.204904E+00 -2.160767E+01 -3.447395E-01 -2.579893E+00
      1794   5  2.405129E+02 -4.865441E-02  5.702856E+00  8.858460E-01  2.891903E-01  1.947664E+00
      1794   6  2.384594E+02  1.711553E+00  5.586056E+00 -2.162849E+01  1.254096E-01  5.924925E+00
      1794   7  2.416309E+02  2.285482E-01  6.064616E+00 -5.978258E-01 -1.558634E-01 -6.478297E+00
      1794   8  2.394038E+02  2.302483E+00  6.117800E+00 -2.299162E+01 -3.208915E-01 -2.497139E+00
      1795   1  1.822094E+02 -1.656118E+01  1.703316E+00  1.895095E+01  1.076608E-01  2.108565E+00
      1795   2  1.839149E+02 -1.821118E+01  1.784860E+00 -3.515571E+00 -3.656070E-01  5.695739E+00
      1795   3  1.836230E+02 -1.649949E+01  2.100131E+00  1.781526E+01  3.016335E-01 -6.349949E+00
      1795   4  1.851442E+02 -1.783281E+01  2.338474E+00 -4.728309E+00 -1.702563E-01 -2.762630E+00
      1795   5  2.392612E+02  1.812119E+00  5.805058E+00  1.995440E+01  1.004371E-01  1.903099E+00
      1795   6  2.409187E+02  2.450405E-01  5.926531E+00 -1.635020E+00 -3.765458E-01  5.738202E+00
      1795   7  2.406149E+02  1.834015E+00  6.173503E+00  1.859745E+01  2.829058E-01 -6.524199E+00
      1795   8  2.421007E+02  5.765839E-01  6.458077E+00 -3.066022E+00 -1.926692E-01 -2.690350E+00
      1796   1  1.775050E+02 -1.253389E+01  1.565597E+00  3.431617E+01 -8.649872E-02  2.298954E+00
      1796   2  1.828426E+02 -1.732848E+01  1.854992E+00  1.249496E+01 -8.244323E-01  5.592738E+00
      1796   3  1.791015E+02 -1.258568E+01  1.992595E+00  3.342499E+01  7.518697E-01 -6.149272E+00
      1796   4  1.842776E+02 -1.711721E+01  2.422987E+00  1.147354E+01  1.547094E-02 -2.856609E+00
      1796   5  2.338256E+02  6.084960E+00  5.568817E+00  3.824391E+01 -6.805820E-02  2.111408E+00
      1796   6  2.389732E+02  1.496033E+00  5.890149E+00  1.727458E+01 -8.437299E-01  5.630628E+00
      1796   7  2.354549E+02  5.989463E+00  5.993738E+00  3.715237E+01  7.566933E-01 -6.310589E+00
      1796   8  2.404523E+02  1.658361E+00  6.462306E+00  1.605789E+01 -1.725956E-02 -2.793718E+00
      1797   1  1.699986E+02 -5.953638E+00  1.463705E+00  4.876080E+01 -2.949100E-01  2.393457E+00
      1797   2  1.787530E+02 -1.387789E+01  1.900755E+00  2.808953E+01 -1.260396E+00  5.414836E+00
      1797   3  1.717252E+02 -6.111166E+00  1.906601E+00  4.807210E+01  1.185667E+00 -5.984332E+00
      1797   4  1.803533E+02 -1.380237E+01  2.479606E+00  2.724604E+01  2.191092E-01 -2.949231E+00
      1797   5  2.251901E+02  1.338476E+01  5.401520E+00  5.552383E+01 -2.805836E-01  2.210046E+00
      1797   6  2.336412E+02  5.808293E+00  5.911143E+00  3.565958E+01 -1.297564E+00  5.441209E+00
      1797   7  2.269723E+02  1.315569E+01  5.844373E+00  5.465191E+01  1.173168E+00 -6.147409E+00
      1797   8  2.353067E+02  5.807827E+00  6.495530E+00  3.463889E+01  1.554886E-01 -2.904236E+00
      1798   1  1.599339E+02  2.776086E+00  1.350171E+00  6.171245E+01 -5.182036E-01  2.455356E+00
      1798   2  1.718540E+02 -7.994182E+00  1.945801E+00  4.272001E+01 -1.668526E+00  5.187074E+00
      1798   3  1.617358E+02  2.564100E+00  1.807477E+00  6.124182E+01  1.591282E+00 -5.775715E+00
      1798   4  1.735659E+02 -8.015841E+00  2.530249E+00  4.207440E+01  4.353385E-01 -3.017474E+00
      1798   5  2.134484E+02  2.320564E+01  5.223887E+00  7.109128E+01 -5.029790E-01  2.278752E+00
      1798   6  2.249596E+02  1.291232E+01  5.927957E+00  5.284033E+01 -1.719264E+00  5.200871E+00
      1798   7  2.153363E+02  2.290576E+01  5.688189E+00  7.046135E+01  1.568321E+00 -5.939630E+00
      1798   8  2.267654E+02  1.279963E+01  6.524454E+00  5.204225E+01  3.470465E-01 -2.993089E+00
      1799   1  1.476575E+02  1.334981E+01  1.238401E+00  7.275162E+01 -7.502408E-01  2.486371E+00
      1799   2  1.623840E+02  7.956840E-02  1.987111E+00  5.591222E+01 -2.042635E+00  4.916291E+00
      1799   3  1.494821E+02  1.312575E+01  1.706192E+00  7.249981E+01  1.966423E+00 -5.526141E+00
      1799   4  1.641572E+02  2.951148E-03  2.573744E+00  5.547377E+01  6.621064E-01 -3.058370E+00
      1799   5  1.989843E+02  3.518857E+01  5.039456E+00  8.445249E+01 -7.341497E-01  2.315650E+00
      1799   6  2.132092E+02  2.250972E+01  5.930044E+00  6.827049E+01 -2.104102E+00  4.915887E+00
      1799   7  2.009188E+02  3.486536E+01  5.520300E+00  8.406764E+01  1.934711E+00 -5.693030E+00
      1799   8  2.150982E+02  2.233213E+01  6.534237E+00  6.770630E+01  5.537778E-01 -3.057366E+00
      1800   1  1.335758E+02  2.536199E+01  1.125767E+00  8.155147E+01 -9.867344E-01  2.485721E+00
      1800   2  1.506732E+02  1.001937E+01  2.022895E+00  6.726118E+01 -2.378128E+00  4.608414E+00
      1800   3  1.353734E+02  2.516731E+01  1.600717E+00  8.150829E+01  2.306864E+00 -5.240695E+00
      1800   4  1.524574E+02  9.929224E+00  2.608055E+00  6.702868E+01  8.956819E-01 -3.070279E+00
      1800   5  1.822729E+02  4.886535E+01  4.844395E+00  9.521124E+01 -9.702810E-01  2.320417E+00
      1800   6  1.987922E+02  3.421111E+01  5.915182E+00  8.147882E+01 -2.447563E+00  4.592720E+00
      1800   7  1.841965E+02  4.856535E+01  5.337177E+00  9.506252E+01  2.267583E+00 -5.412056E+00
      1800   8  2.007065E+02  3.401513E+01  6.522134E+00  8.114818E+01  7.718067E-01 -3.094721E+00
      1801   1  1.181520E+02  3.836308E+01  1.012070E+00  8.787304E+01 -1.223198E+00  2.453191E+00
      1801   2  1.371227E+02  2.143399E+01  2.050836E+00  7.643774E+01 -2.671365E+00  4.269690E+00
      1801   3  1.198776E+02  3.823399E+01  1.490558E+00  8.801926E+01  2.609197E+00 -4.924606E+00
      1801   4  1.388706E+02  2.136867E+01  2.630840E+00  7.640006E+01  1.132021E+00 -3.052065E+00
      1801   5  1.638572E+02  6.371394E+01  4.638509E+00  1.030751E+02 -1.206799E+00  2.292600E+00
      1801   6  1.821920E+02  4.755049E+01  5.881150E+00  9.208624E+01 -2.746136E+00  4.237934E+00
      1801   7  1.657180E+02  6.347845E+01  5.138610E+00  1.031431E+02  2.563608E+00 -5.101940E+00
      1801   8  1.840775E+02  4.737948E+01  6.486190E+00  9.197757E+01  9.969418E-01 -3.103459E+00
      1802   1  1.018828E+02  5.187071E+01  8.957245E-01  9.157340E+01 -1.455067E+00  2.389118E+00
      1802   2  1.221877E+02  3.388133E+01  2.068310E+00  8.320012E+01 -2.919532E+00  3.906610E+00
      1802   3  1.034981E+02  5.183680E+01  1.374141E+00  9.188204E+01  2.870908E+00 -4.583355E+00
      1802   4  1.238569E+02  3.387439E+01  2.639543E+00  8.333756E+01  1.367117E+00 -3.003217E+00
      1802   5  1.443224E+02  7.917182E+01  4.420470E+00  1.078640E+02 -1.439139E+00  2.232423E+00
      1802   6  1.639538E+02  6.200397E+01  5.825422E+00  9.981766E+01 -2.996925E+00  3.858490E+00
      1802   7  1.460750E+02  7.903464E+01  4.922997E+00  1.081202E+02  2.820333E+00 -4.768014E+00
      1802   8  1.657610E+02  6.189547E+01  6.423656E+00  9.990933E+01  1.225313E+00 -3.082336E+00
      1803   1  8.527981E+01  6.539120E+01  7.747681E-01  9.260906E+01 -1.677775E+00  2.294674E+00
      1803   2  1.063576E+02  4.688730E+01  2.071336E+00  8.740099E+01 -3.120792E+00  3.526094E+00
      1803   3  8.675395E+01  6.547399E+01  1.249326E+00  9.304750E+01  3.090531E+00 -4.222340E+00
      1803   4  1.079121E+02  4.696551E+01  2.630062E+00  8.768687E+01  1.597080E+00 -2.923534E+00
      1803   5  1.242730E+02  9.466088E+01  4.188460E+00  1.095147E+02 -1.662377E+00  2.141084E+00
      1803   6  1.446605E+02  7.701199E+01  5.743862E+00  1.045099E+02 -3.198003E+00  3.461746E+00
      1803   7  1.258805E+02  9.464706E+01  4.688478E+00  1.099238E+02  3.036688E+00 -4.415380E+00
      1803   8  1.463476E+02  7.699617E+01  6.330418E+00  1.047724E+02  1.453147E+00 -3.030441E+00
      1804   1  6.884728E+01  7.844021E+01  6.455862E-01  9.103584E+01 -1.887046E+00  2.171931E+00
      1804   2  9.013563E+01  5.996664E+01  2.054138E+00  8.899206E+01 -3.274382E+00  3.135430E+00
      1804   3  7.015840E+01  7.865228E+01  1.112407E+00  9.156780E+01  3.267519E+00 -3.846636E+00
      1804   4  9.154713E+01  6.014853E+01  2.596548E+00  8.939441E+01  1.818188E+00 -2.812995E+00
      1804   5  1.043069E+02  1.096113E+02  3.938488E+00  1.080806E+02 -1.872007E+00  2.020734E+00
      1804   6  1.249091E+02  9.200375E+01  5.630029E+00  1.061166E+02 -3.348673E+00  3.055456E+00
      1804   7  1.057423E+02  1.097360E+02  4.430965E+00  1.086030E+02  3.212381E+00 -4.048748E+00
      1804   8  1.264429E+02  9.210156E+01  6.199969E+00  1.065145E+02  1.676669E+00 -2.946998E+00
      1805   1  5.306311E+01  9.056369E+01  5.027981E-01  8.700390E+01 -2.078801E+00  2.023950E+00
      1805   2  7.401834E+01  7.264355E+01  2.008406E+00  8.802285E+01 -3.380371E+00  2.742186E+00
      1805   3  5.419790E+01  9.090789E+01  9.577202E-01  8.759147E+01  3.402462E+00 -3.460695E+00
      1805   4  7.526680E+01  7.293865E+01  2.530442E+00  8.850657E+01  2.027279E+00 -2.671637E+00
      1805   5  8.499377E+01  1.234869E+02  3.664802E+00  1.037275E+02 -2.063732E+00  1.874567E+00
      1805   6  1.052865E+02  1.064220E+02  5.474729E+00  1.047067E+02 -3.449030E+00  2.647707E+00
      1805   7  8.623942E+01  1.237545E+02  4.144338E+00  1.043212E+02  3.348222E+00 -3.672117E+00
      1805   8  1.066431E+02  1.066442E+02  6.022778E+00  1.052005E+02  1.892681E+00 -2.831202E+00
      1806   1  3.835969E+01  1.013561E+02  3.382561E-01  8.074822E+01 -2.249606E+00  1.855020E+00
      1806   2  5.847554E+01  8.447297E+01  1.922779E+00  8.463527E+01 -3.440021E+00  2.354488E+00
      1806   3  3.931313E+01  1.018253E+02  7.765120E-01  8.135404E+01  3.496724E+00 -3.067872E+00
      1806   4  5.954911E+01  8.488085E+01  2.419900E+00  8.516404E+01  2.221463E+00 -2.499023E+00
      1806   5  6.685069E+01  1.358057E+02  3.357699E+00  9.672162E+01 -2.233843E+00  1.707135E+00
      1806   6  8.634576E+01  1.197461E+02  5.264312E+00  1.004569E+02 -3.500530E+00  2.247135E+00
      1806   7  6.789904E+01  1.362096E+02  3.818570E+00  9.734498E+01  3.445816E+00 -3.288233E+00
      1806   8  8.751094E+01  1.200926E+02  5.784995E+00  1.010062E+02  2.098046E+00 -2.681761E+00
      1807   1  2.510873E+01  1.104775E+02  1.405600E-01  7.257605E+01 -2.396607E+00  1.670641E+00
      1807   2  4.393200E+01  9.505860E+01  1.781815E+00  7.905390E+01 -3.455726E+00  1.981086E+00
      1807   3  2.588345E+01  1.110545E+02  5.568123E-01  7.316542E+01  3.552491E+00 -2.670280E+00
      1807   4  4.482665E+01  9.556885E+01  2.248993E+00  7.959233E+01  2.398177E+00 -2.294001E+00
      1807   5  5.032400E+01  1.461579E+02  3.002435E+00  8.741544E+01 -2.379270E+00  1.524261E+00
      1807   6  6.858377E+01  1.315124E+02  4.979440E+00  9.364040E+01 -3.505702E+00  1.863164E+00
      1807   7  5.117588E+01  1.466802E+02  3.438169E+00  8.802953E+01  3.507496E+00 -2.898499E+00
      1807   8  6.955197E+01  1.319716E+02  5.466635E+00  9.420555E+01  2.289984E+00 -2.496464E+00
      1808   1  1.361057E+01  1.176657E+02 -1.048103E-01  6.285017E+01 -2.517973E+00  1.477897E+00
      1808   2  3.075457E+01  1.040705E+02  1.568062E+00  7.157207E+01 -3.431046E+00  1.631356E+00
      1808   3  1.421531E+01  1.183244E+02  2.833389E-01  6.339250E+01  3.572289E+00 -2.268368E+00
      1808   4  3.147334E+01  1.046628E+02  1.999547E+00  7.208769E+01  2.555139E+00 -2.054658E+00
      1808   5  3.577448E+01  1.542199E+02  2.578318E+00  7.622825E+01 -2.498021E+00  1.333660E+00
      1808   6  5.242462E+01  1.413309E+02  4.595240E+00  8.460964E+01 -3.468424E+00  1.505841E+00
      1808   7  3.643817E+01  1.548331E+02  2.981924E+00  7.679859E+01  3.535843E+00 -2.502292E+00
      1808   8  5.319868E+01  1.418811E+02  5.042334E+00  8.515432E+01  2.465768E+00 -2.272287E+00
      1809   1  4.088444E+00  1.227461E+02 -4.130757E-01  5.197392E+01 -2.613465E+00  1.285209E+00
      1809   2  1.924314E+01  1.112560E+02  1.264854E+00  6.253779E+01 -3.371110E+00  1.315182E+00
      1809   3  4.536899E+00  1.234521E+02 -5.988933E-02  5.244439E+01  3.558224E+00 -1.861564E+00
      1809   4  1.979524E+01  1.119012E+02  1.654379E+00  6.300251E+01  2.689732E+00 -1.778784E+00
      1809   5  2.346996E+01  1.597637E+02  2.060216E+00  6.362869E+01 -2.589904E+00  1.144338E+00
      1809   6  3.820938E+01  1.488985E+02  4.084169E+00  7.378014E+01 -3.394448E+00  1.185694E+00
      1809   7  2.395994E+01  1.604312E+02  2.424199E+00  6.412722E+01  3.532738E+00 -2.097963E+00
      1809   8  3.879949E+01  1.495082E+02  4.484301E+00  7.427316E+01  2.621952E+00 -2.005892E+00
      1810   1 -3.307824E+00  1.256392E+02 -7.926395E-01  4.037998E+01 -2.684326E+00  1.101479E+00
      1810   2  9.629609E+00  1.164496E+02  8.673609E-01  5.234570E+01 -3.282467E+00  1.041765E+00
      1810   3 -2.997498E+00  1.263530E+02 -4.809254E-01  4.076063E+01  3.511682E+00 -1.450437E+00
      1810   4  1.003039E+01  1.171126E+02  1.209234E+00  5.273745E+01  2.798634E+00 -1.466313E+00
      1810   5  1.358880E+01  1.626694E+02  1.427832E+00  5.012093E+01 -2.656512E+00  9.657525E-01
      1810   6  2.619513E+01  1.540125E+02  3.428937E+00  6.161951E+01 -3.291193E+00  9.124938E-01
      1810   7  1.392480E+01  1.633493E+02  1.745171E+00  5.052723E+01  3.498912E+00 -1.685065E+00
      1810   8  2.661834E+01  1.546439E+02  3.775932E+00  6.203648E+01  2.754027E+00 -1.696201E+00
      1811   1 -8.497065E+00  1.263742E+02 -1.226966E+00  2.853297E+01 -2.733548E+00  9.338940E-01
      1811   2  2.076943E+00  1.195853E+02  4.052824E-01  4.144805E+01 -3.172950E+00  8.165517E-01
      1811   3 -8.301296E+00  1.270581E+02 -9.604503E-01  2.881343E+01  3.432572E+00 -1.041550E+00
      1811   4  2.349155E+00  1.202315E+02  6.967837E-01  4.175197E+01  2.877106E+00 -1.124967E+00
      1811   5  6.235161E+00  1.629646E+02  6.952267E-01  3.624542E+01 -2.701570E+00  8.052965E-01
      1811   6  1.656544E+01  1.566098E+02  2.658255E+00  4.865631E+01 -3.167819E+00  6.915896E-01
      1811   7  6.443196E+00  1.636169E+02  9.621711E-01  3.654774E+01  3.433047E+00 -1.269850E+00
      1811   8  1.684701E+01  1.572259E+02  2.949387E+00  4.898116E+01  2.855425E+00 -1.350945E+00
      1812   1 -1.147257E+01  1.251249E+02 -1.639704E+00  1.695062E+01 -2.764873E+00  7.830564E-01
      1812   2 -3.350800E+00  1.207247E+02 -1.988863E-02  3.040378E+01 -3.050841E+00  6.351918E-01
      1812   3 -1.135871E+01  1.257549E+02 -1.414632E+00  1.712874E+01  3.319637E+00 -6.571958E-01
      1812   4 -3.173330E+00  1.213319E+02  2.260526E-01  3.061361E+01  2.918304E+00 -7.811567E-01
      1812   5  1.467722E+00  1.609427E+02 -1.589283E-02  2.259358E+01 -2.729936E+00  6.624817E-01
      1812   6  9.437488E+00  1.568793E+02  1.925851E+00  3.552152E+01 -3.034263E+00  5.169800E-01
      1812   7  1.583490E+00  1.615419E+02  2.049824E-01  2.278949E+01  3.332052E+00 -8.766485E-01
      1812   8  9.614254E+00  1.574565E+02  2.166487E+00  3.574790E+01  2.916971E+00 -9.991621E-01
      1813   1 -1.236127E+01  1.222165E+02 -1.867263E+00  6.226002E+00 -2.780863E+00  6.387575E-01
      1813   2 -6.685750E+00  1.201034E+02 -1.738008E-01  1.999267E+01 -2.924318E+00  4.808933E-01
      1813   3 -1.228710E+01  1.227881E+02 -1.671195E+00  6.308537E+00  3.172400E+00 -3.411376E-01
      1813   4 -6.561572E+00  1.206663E+02  3.843018E-02  2.011233E+01  2.911818E+00 -4.843805E-01
      1813   5 -6.106725E-01  1.574757E+02 -3.049165E-01  9.841259E+00 -2.745598E+00  5.235306E-01
      1813   6  5.013639E+00  1.556156E+02  1.719965E+00  2.307047E+01 -2.899687E+00  3.676715E-01
      1813   7 -5.422349E-01  1.580168E+02 -1.168266E-01  9.937331E+00  3.193267E+00 -5.565129E-01
      1813   8  5.129784E+00  1.561479E+02  1.922773E+00  2.320222E+01  2.926681E+00 -6.983036E-01
      1814   1 -1.167899E+01  1.179630E+02 -1.743827E+00 -2.929736E+00 -2.784432E+00  4.837471E-01
      1814   2 -8.944639E+00  1.178021E+02 -3.409147E-02  1.164132E+01 -2.808575E+00  3.324388E-01
      1814   3 -1.160635E+01  1.184761E+02 -1.566063E+00 -2.912637E+00  2.990367E+00 -1.473389E-01
      1814   4 -8.843554E+00  1.183144E+02  1.504672E-01  1.171548E+01  2.842887E+00 -2.932086E-01
      1814   5  3.344396E-01  1.549631E+02  8.973344E-01 -1.401337E+00 -2.750109E+00  3.636631E-01
      1814   6  3.152856E+00  1.549994E+02  2.985536E+00  1.260087E+01 -2.777260E+00  2.032215E-01
      1814   7  4.142268E-01  1.554882E+02  1.082208E+00 -1.375163E+00  3.018093E+00 -3.727583E-01
      1814   8  3.259366E+00  1.555230E+02  3.175509E+00  1.268187E+01  2.872433E+00 -5.279178E-01
      1815   1 -9.074520E+00  1.186365E+02 -4.874878E-01 -1.209349E+01  2.755303E+00  3.203952E-01
      1815   2 -1.195167E+01  1.188886E+02 -2.169966E+00  3.050615E+00  2.822233E+00  7.717873E-01
      1815   3 -8.668402E+00  1.202059E+02  1.047396E-01 -1.205310E+01 -2.912477E+00 -2.816443E-01
      1815   4 -1.161997E+01  1.204133E+02 -1.614683E+00  3.040067E+00 -2.965119E+00  1.666319E-01
      1815   5  2.943175E+00  1.556681E+02  2.423270E+00 -1.308690E+01  2.688611E+00 -1.367343E-01
      1815   6 -9.037659E-03  1.557230E+02  3.692486E-01  1.465969E+00  2.761751E+00  3.390019E-01
      1815   7  3.357842E+00  1.572560E+02  3.023217E+00 -1.306458E+01 -2.977447E+00 -8.396150E-01
      1815   8  3.335150E-01  1.572672E+02  9.322882E-01  1.439342E+00 -3.019178E+00 -3.667124E-01
      1816   1 -6.508473E+00  1.211045E+02 -4.392504E-01 -2.098841E+01  2.751705E+00  4.093878E-01
      1816   2 -1.262729E+01  1.234345E+02 -2.199195E+00 -6.690891E+00  2.909215E+00  9.267169E-01
      1816   3 -6.161383E+00  1.228139E+02  1.714259E-01 -2.099475E+01 -3.090189E+00 -5.665717E-01
      1816   4 -1.229481E+01  1.250879E+02 -1.605313E+00 -6.785652E+00 -3.044409E+00 -6.090484E-02
      1816   5  5.185579E+00  1.565214E+02  1.397105E+00 -2.418956E+01  2.683417E+00 -6.981010E-04
      1816   6 -8.609581E-01  1.585938E+02 -6.828663E-01 -1.045022E+01  2.862099E+00  5.109953E-01
      1816   7  5.486187E+00  1.581255E+02  1.960130E+00 -2.419360E+01 -3.149057E+00 -1.071428E+00
      1816   8 -5.747052E-01  1.601439E+02 -1.367194E-01 -1.053922E+01 -3.077637E+00 -5.708776E-01
      1817   1 -2.771071E+00  1.216923E+02 -2.263883E-01 -3.205098E+01  2.767999E+00  3.625446E-01
      1817   2 -1.154730E+01  1.264945E+02 -1.974391E+00 -1.810888E+01  3.015466E+00  9.851323E-01
      1817   3 -2.399098E+00  1.236293E+02  4.546872E-01 -3.214714E+01 -3.193206E+00 -1.099611E+00
      1817   4 -1.113728E+01  1.283554E+02 -1.295233E+00 -1.830176E+01 -3.065022E+00 -4.991924E-01
      1817   5  1.012410E+01  1.578249E+02  1.719195E+00 -3.737207E+01  2.711632E+00 -6.502569E-02
      1817   6  1.515411E+00  1.622645E+02 -3.690802E-01 -2.397426E+01  2.997627E+00  5.446786E-01
      1817   7  1.041830E+01  1.596079E+02  2.326584E+00 -3.744390E+01 -3.230763E+00 -1.628903E+00
      1817   8  1.846056E+00  1.639743E+02  2.361753E-01 -2.413903E+01 -3.059209E+00 -1.040442E+00
      1818   1  3.268718E+00  1.202913E+02  1.451280E-01 -4.370462E+01  2.797351E+00  3.046819E-01
      1818   2 -8.157098E+00  1.276850E+02 -1.637194E+00 -3.040109E+01  3.133444E+00  1.062798E+00
      1818   3  3.721810E+00  1.224830E+02  9.205844E-01 -4.392596E+01 -3.244499E+00 -1.705894E+00
      1818   4 -7.621746E+00  1.297803E+02 -8.512951E-01 -3.070811E+01 -3.032903E+00 -9.813181E-01
      1818   5  1.797482E+01  1.572849E+02  2.395173E+00 -5.119709E+01  2.764751E+00 -1.505250E-01
      1818   6  6.809186E+00  1.642040E+02  2.486928E-01 -3.841294E+01  3.155154E+00  6.002224E-01
      1818   7  1.832920E+01  1.593149E+02  3.086018E+00 -5.137535E+01 -3.247828E+00 -2.267684E+00
      1818   8  7.242690E+00  1.661416E+02  9.497483E-01 -3.867353E+01 -2.976804E+00 -1.549059E+00
      1819   1  1.162599E+01  1.166416E+02  4.825853E-01 -5.509763E+01  2.826186E+00  3.083164E-01
      1819   2 -2.325271E+00  1.266404E+02 -1.302915E+00 -4.290652E+01  3.245434E+00  1.217323E+00
      1819   3  1.218427E+01  1.190492E+02  1.347352E+00 -5.546330E+01 -3.254204E+00 -2.280410E+00
      1819   4 -1.650986E+00  1.289329E+02 -4.177071E-01 -4.333655E+01 -2.958628E+00 -1.415435E+00
      1819   5  2.853433E+01  1.541047E+02  3.008774E+00 -6.472522E+01  2.823807E+00 -1.653885E-01
      1819   6  1.493688E+01  1.635223E+02  8.476681E-01 -5.301005E+01  3.310586E+00  7.466295E-01
      1819   7  2.897419E+01  1.563582E+02  3.783047E+00 -6.503355E+01 -3.217279E+00 -2.860281E+00
      1819   8  1.548852E+01  1.656655E+02  1.642322E+00 -5.338022E+01 -2.849022E+00 -1.990399E+00
      1820   1  2.221976E+01  1.107070E+02  7.415593E-01 -6.560841E+01  2.840430E+00  3.876014E-01
      1820   2  5.927830E+00  1.231822E+02 -1.018485E+00 -5.504122E+01  3.332761E+00  1.458200E+00
      1820   3  2.289352E+01  1.132695E+02  1.680314E+00 -6.612937E+01 -3.227498E+00 -2.794643E+00
      1820   4  6.742316E+00  1.256140E+02 -5.055271E-02 -5.559853E+01 -2.853429E+00 -1.776942E+00
      1820   5  4.167865E+01  1.481390E+02  3.487900E+00 -7.725197E+01  2.868952E+00 -9.196463E-02
      1820   6  2.583239E+01  1.599368E+02  1.352345E+00 -6.709733E+01  3.439757E+00  9.942158E-01
      1820   7  4.221283E+01  1.505618E+02  4.332046E+00 -7.770582E+01 -3.150770E+00 -3.375848E+00
      1820   8  2.650239E+01  1.622346E+02  2.225919E+00 -6.758611E+01 -2.693242E+00 -2.340242E+00
      1821   1  3.484762E+01  1.025991E+02  9.175261E-01 -7.473123E+01  2.828983E+00  5.285199E-01
      1821   2  1.649354E+01  1.173061E+02 -7.888094E-01 -6.627817E+01  3.380959E+00  1.771969E+00
      1821   3  3.564486E+01  1.052560E+02  1.914886E+00 -7.541279E+01 -3.168728E+00 -3.252805E+00
      1821   4  1.744860E+01  1.198221E+02  2.462365E-01 -6.696312E+01 -2.726684E+00 -2.069248E+00
      1821   5  5.718402E+01  1.395090E+02  3.839048E+00 -8.818481E+01  2.885306E+00  5.396646E-02
      1821   6  3.936056E+01  1.534558E+02  1.765502E+00 -8.006176E+01  3.524893E+00  1.327013E+00
      1821   7  5.781849E+01  1.420439E+02  4.738382E+00 -8.879402E+01 -3.056696E+00 -3.821713E+00
      1821   8  4.014759E+01  1.558563E+02  2.703164E+00 -8.067422E+01 -2.522338E+00 -2.605876E+00
      1822   1  4.922221E+01  9.254350E+01  1.022627E+00 -8.202625E+01  2.785434E+00  7.093549E-01
      1822   2  2.918005E+01  1.091366E+02 -6.036887E-01 -7.612706E+01  3.380427E+00  2.138739E+00
      1822   3  5.015382E+01  9.524157E+01  2.066677E+00 -8.286977E+01 -3.079988E+00 -3.668446E+00
      1822   4  3.027871E+01  1.116908E+02  4.866683E-01 -7.693739E+01 -2.584748E+00 -2.303958E+00
      1822   5  7.472970E+01  1.284862E+02  4.088328E+00 -9.700197E+01  2.864424E+00  2.477800E-01
      1822   6  5.529155E+01  1.442530E+02  2.109169E+00 -9.133309E+01  3.554445E+00  1.722085E+00
      1822   7  7.547396E+01  1.310822E+02  5.031480E+00 -9.777287E+01 -2.939337E+00 -4.215198E+00
      1822   8  5.619758E+01  1.467121E+02  3.099717E+00 -9.207209E+01 -2.344733E+00 -2.802821E+00
      1823   1  6.497283E+01  8.086398E+01  1.071905E+00 -8.711257E+01  2.707640E+00  9.096716E-01
      1823   2  4.370416E+01  9.890894E+01 -4.508037E-01 -8.413645E+01  3.325449E+00  2.538924E+00
      1823   3  6.605474E+01  8.355784E+01  2.154740E+00 -8.811596E+01 -2.961039E+00 -4.054085E+00
      1823   4  4.495422E+01  1.014641E+02  6.874186E-01 -8.506777E+01 -2.431680E+00 -2.492670E+00
      1823   5  9.389259E+01  1.154551E+02  4.260746E+00 -1.032487E+02  2.803387E+00  4.663172E-01
      1823   6  7.328563E+01  1.326269E+02  2.404064E+00 -1.003888E+02  3.521961E+00  2.157130E+00
      1823   7  9.476195E+01  1.180679E+02  5.240288E+00 -1.041845E+02 -2.799338E+00 -4.572113E+00
      1823   8  7.431819E+01  1.351081E+02  3.440570E+00 -1.012553E+02 -2.165299E+00 -2.945957E+00
      1824   1  8.165268E+01  6.797170E+01  1.079402E+00 -8.968054E+01  2.596798E+00  1.113130E+00
      1824   2  5.969313E+01  8.695868E+01 -3.194090E-01 -8.990843E+01  3.213514E+00  2.955693E+00
      1824   3  8.290491E+01  7.062094E+01  2.196096E+00 -9.083814E+01 -2.810003E+00 -4.417952E+00
      1824   4  6.110633E+01  8.948383E+01  8.623097E-01 -9.095468E+01 -2.269835E+00 -2.644039E+00
      1824   5  1.141534E+02  1.008962E+02  4.375136E+00 -1.065518E+02  2.703197E+00  6.908198E-01
      1824   6  9.289434E+01  1.189852E+02  2.665021E+00 -1.067708E+02  3.424491E+00  2.612930E+00
      1824   7  1.151686E+02  1.034857E+02  5.386783E+00 -1.076526E+02 -2.635124E+00 -4.903509E+00
      1824   8  9.406623E+01  1.214574E+02  3.743773E+00 -1.077646E+02 -1.986917E+00 -3.046735E+00
      1825   1  9.874974E+01  5.434707E+01  1.055610E+00 -8.950934E+01  2.455652E+00  1.307467E+00
      1825   2  7.669167E+01  7.370797E+01 -2.019426E-01 -9.312024E+01  3.043937E+00  3.374984E+00
      1825   3  1.001957E+02  5.691500E+01  2.203402E+00 -9.081098E+01 -2.624924E+00 -4.764074E+00
      1825   4  7.828254E+01  7.617595E+01  1.021002E+00 -9.427272E+01 -2.101160E+00 -2.763912E+00
      1825   5  1.349134E+02  8.536994E+01  4.444647E+00 -1.066413E+02  2.566909E+00  9.071762E-01
      1825   6  1.135728E+02  1.038312E+02  2.901018E+00 -1.101112E+02  3.261375E+00  3.073478E+00
      1825   7  1.361003E+02  8.789838E+01  5.486456E+00 -1.079027E+02 -2.444481E+00 -5.215632E+00
      1825   8  1.149013E+02  1.062660E+02  4.020586E+00 -1.112293E+02 -1.811546E+00 -3.113313E+00
      1826   1  1.157089E+02  4.052090E+01  1.009090E+00 -8.648247E+01  2.288326E+00  1.484010E+00
      1826   2  9.417901E+01  5.964939E+01 -9.340567E-02 -9.354043E+01  2.817616E+00  3.784897E+00
      1826   3  1.173734E+02  4.297310E+01  2.186398E+00 -8.791268E+01 -2.404065E+00 -5.092853E+00
      1826   4  9.596355E+01  6.203527E+01  1.169478E+00 -9.478763E+01 -1.927545E+00 -2.855969E+00
      1826   5  1.555187E+02  6.949518E+01  4.478268E+00 -1.033684E+02  2.399127E+00  1.105243E+00
      1826   6  1.347003E+02  8.774787E+01  3.117705E+00 -1.101508E+02  3.033534E+00  3.525159E+00
      1826   7  1.569066E+02  7.192625E+01  5.549818E+00 -1.047808E+02 -2.225247E+00 -5.510672E+00
      1826   8  1.362063E+02  9.011793E+01  4.277963E+00 -1.113874E+02 -1.641093E+00 -3.151407E+00
      1827   1  1.319530E+02  2.704733E+01  9.449408E-01 -8.059794E+01  2.099334E+00  1.636607E+00
      1827   2  1.115897E+02  4.532392E+01  9.001735E-03 -9.104618E+01  2.536472E+00  4.175016E+00
      1827   3  1.338610E+02  2.935214E+01  2.151006E+00 -8.213541E+01 -2.146651E+00 -5.402485E+00
      1827   4  1.135846E+02  4.760432E+01  1.311337E+00 -9.237257E+01 -1.751168E+00 -2.922770E+00
      1827   5  1.752877E+02  5.392102E+01  4.481548E+00 -9.671861E+01  2.205011E+00  1.277728E+00
      1827   6  1.556059E+02  7.137065E+01  3.317486E+00 -1.067589E+02  2.743494E+00  3.956014E+00
      1827   7  1.769068E+02  5.621929E+01  5.583026E+00 -9.826558E+01 -1.976002E+00 -5.788275E+00
      1827   8  1.573118E+02  7.364867E+01  4.518923E+00 -1.081031E+02 -1.477120E+00 -3.165422E+00
      1828   1  1.469101E+02  1.448027E+01  8.669959E-01 -7.197190E+01  1.893833E+00  1.761419E+00
      1828   2  1.283376E+02  3.129651E+01  1.067482E-01 -8.563015E+01  2.203822E+00  4.536548E+00
      1828   3  1.490843E+02  1.660860E+01  2.101295E+00 -7.358904E+01 -1.852631E+00 -5.689314E+00
      1828   4  1.305590E+02  3.344970E+01  1.448158E+00 -8.701630E+01 -1.574166E+00 -2.965783E+00
      1828   5  1.935414E+02  3.929798E+01  4.457903E+00 -8.681595E+01  1.990539E+00  1.419777E+00
      1828   6  1.755971E+02  5.536085E+01  3.501190E+00 -9.994102E+01  2.395002E+00  4.355887E+00
      1828   7  1.954219E+02  4.142980E+01  5.590020E+00 -8.847404E+01 -1.695821E+00 -6.046110E+00
      1828   8  1.775266E+02  5.752016E+01  4.744650E+00 -1.013771E+02 -1.321269E+00 -3.158497E+00
      1829   1  1.600377E+02  3.345127E+00  7.771108E-01 -6.083669E+01  1.676796E+00  1.855944E+00
      1829   2  1.438408E+02  1.812962E+01  1.997976E-01 -7.740615E+01  1.823613E+00  4.861522E+00
      1829   3  1.624974E+02  5.272183E+00  2.039209E+00 -6.249998E+01 -1.523325E+00 -5.949123E+00
      1829   4  1.463025E+02  2.013607E+01  1.579929E+00 -7.882811E+01 -1.399183E+00 -2.986496E+00
      1829   5  2.096363E+02  2.624742E+01  4.409686E+00 -7.392224E+01  1.761488E+00  1.528162E+00
      1829   6  1.939918E+02  4.037480E+01  3.668527E+00 -8.984479E+01  1.992816E+00  4.715622E+00
      1829   7  2.118054E+02  2.818224E+01  5.573154E+00 -7.566063E+01 -1.385123E+00 -6.280967E+00
      1829   8  1.961669E+02  4.238995E+01  4.954823E+00 -9.135128E+01 -1.175264E+00 -3.133583E+00
      1830   1  1.708500E+02 -5.884268E+00  6.768895E-01 -4.753338E+01  1.453378E+00  1.919257E+00
      1830   2  1.575487E+02  6.358112E+00  2.874132E-01 -6.660457E+01  1.400989E+00  5.143132E+00
      1830   3  1.736090E+02 -4.177830E+00  1.966557E+00 -4.920363E+01 -1.161005E+00 -6.177042E+00
      1830   4  1.602618E+02  8.201178E+00  1.705896E+00 -6.803400E+01 -1.228749E+00 -2.986172E+00
      1830   5  2.229908E+02  1.533180E+01  4.337901E+00 -5.842780E+01  1.524179E+00  1.601428E+00
      1830   6  2.101464E+02  2.703396E+01  3.818337E+00 -7.675444E+01  1.543335E+00  5.027241E+00
      1830   7  2.254708E+02  1.704336E+01  5.533315E+00 -6.020820E+01 -1.044868E+00 -6.488792E+00
      1830   8  2.125869E+02  2.888126E+01  5.147913E+00 -7.830343E+01 -1.040224E+00 -3.093388E+00
      1831   1  1.789385E+02 -1.281146E+01  5.664010E-01 -3.249647E+01  1.228055E+00  1.951630E+00
      1831   2  1.689669E+02 -3.541693E+00  3.674209E-01 -5.356499E+01  9.412488E-01  5.376479E+00
      1831   3  1.820042E+02 -1.133799E+01  1.883457E+00 -3.413026E+01 -7.694094E-01 -6.368131E+00
      1831   4  1.719387E+02 -1.873192E+00  1.824232E+00 -5.496998E+01 -1.066016E+00 -2.965481E+00
      1831   5  2.331138E+02  7.025242E+00  4.242278E+00 -4.083380E+01  1.284351E+00  1.639367E+00
      1831   6  2.234871E+02  1.588863E+01  3.947185E+00 -6.107983E+01  1.053019E+00  5.285202E+00
      1831   7  2.359214E+02  8.494508E+00  5.470613E+00 -4.261230E+01 -6.772520E-01 -6.665362E+00
      1831   8  2.262093E+02  1.755017E+01  5.321158E+00 -6.263846E+01 -9.178497E-01 -3.039448E+00
      1832   1  1.839899E+02 -1.713627E+01  4.451692E-01 -1.622940E+01  1.004309E+00  1.954847E+00
      1832   2  1.776887E+02 -1.115127E+01  4.469010E-01 -3.870643E+01  4.492175E-01  5.558204E+00
      1832   3  1.873636E+02 -1.589925E+01  1.790303E+00 -1.778132E+01 -3.543686E-01 -6.517190E+00
      1832   4  1.809206E+02 -9.665995E+00  1.941115E+00 -4.005473E+01 -9.155365E-01 -2.924455E+00
      1832   5  2.396081E+02  1.686626E+00  4.114963E+00 -2.172937E+01  1.046935E+00  1.644124E+00
      1832   6  2.335262E+02  7.411392E+00  4.054646E+00 -4.332889E+01  5.272550E-01  5.485273E+00
      1832   7  2.427571E+02  2.904500E+00  5.379425E+00 -2.345753E+01 -2.867642E-01 -6.805339E+00
      1832   8  2.365442E+02  8.873107E+00  5.474659E+00 -4.486139E+01 -8.122435E-01 -2.972896E+00
      1833   1  1.858509E+02 -1.865335E+01  3.335711E-01  7.114096E-01  7.817494E-01  1.935464E+00
      1833   2  1.833947E+02 -1.626738E+01  4.966859E-01 -2.248861E+01 -7.028475E-02  5.691053E+00
      1833   3  1.895166E+02 -1.764885E+01  1.704765E+00 -7.139726E-01  7.420139E-02 -6.614278E+00
      1833   4  1.868841E+02 -1.494586E+01  2.034598E+00 -2.375654E+01 -7.818430E-01 -2.853515E+00
      1833   5  2.421416E+02 -4.945565E-01  3.922581E+00 -1.736235E+00  8.091885E-01  1.620595E+00
      1833   6  2.397775E+02  1.794468E+00  4.070503E+00 -2.403052E+01 -3.805132E-02  5.633039E+00
      1833   7  2.456541E+02  4.834987E-01  5.236180E+00 -3.370022E+00  1.105970E-01 -6.899763E+00
      1833   8  2.431263E+02  3.082851E+00  5.557560E+00 -2.551301E+01 -7.406096E-01 -2.880748E+00
      1834   1  1.845096E+02 -1.725428E+01  2.652221E-01  1.699779E+01  5.604222E-01  1.916363E+00
      1834   2  1.858875E+02 -1.836034E+01  6.017447E-01 -5.588409E+00 -5.793089E-01  5.506374E+00
      1834   3  1.884200E+02 -1.646993E+01  1.650562E+00  1.589284E+01  5.054318E-01 -6.666654E+00
      1834   4  1.896123E+02 -1.725046E+01  2.147792E+00 -6.732730E+00 -6.300006E-01 -3.087322E+00
      1834   5  2.412807E+02  8.967414E-01  3.976646E+00  1.761761E+01  5.364116E-01  1.602291E+00
      1834   6  2.426181E+02 -1.529516E-01  4.330721E+00 -4.086822E+00 -6.069264E-01  5.440638E+00
      1834   7  2.450286E+02  1.602866E+00  5.289119E+00  1.629059E+01  4.799790E-01 -6.949390E+00
      1834   8  2.461930E+02  8.714316E-01  5.810348E+00 -5.451679E+00 -6.590493E-01 -3.122638E+00
      1835   1  1.801052E+02 -1.343472E+01  1.494108E-01  3.282380E+01  3.295879E-01  2.111427E+00
      1835   2  1.851549E+02 -1.777251E+01  6.733376E-01  1.079136E+01 -1.077657E+00  5.377328E+00
      1835   3  1.841869E+02 -1.276152E+01  1.560136E+00  3.206526E+01  9.422407E-01 -6.491555E+00
      1835   4  1.890669E+02 -1.681971E+01  2.229233E+00  9.941859E+00 -4.610401E-01 -3.223516E+00
      1835   5  2.362839E+02  4.934844E+00  3.764384E+00  3.640176E+01  3.243207E-01  1.811683E+00
      1835   6  2.411661E+02  7.960559E-01  4.337153E+00  1.522945E+01 -1.117868E+00  5.304992E+00
      1835   7  2.402873E+02  5.521440E+00  5.128158E+00  3.543561E+01  9.218252E-01 -6.764895E+00
      1835   8  2.450114E+02  1.656435E+00  5.852330E+00  1.417590E+01 -5.162226E-01 -3.270747E+00
      1836   1  1.728005E+02 -7.029878E+00  5.773479E-02  4.767677E+01  8.014335E-02  2.243159E+00
      1836   2  1.813303E+02 -1.454524E+01  7.286477E-01  2.674854E+01 -1.550466E+00  5.176302E+00
      1836   3  1.769675E+02 -6.424458E+00  1.480617E+00  4.727808E+01  1.358909E+00 -6.304785E+00
      1836   4  1.853584E+02 -1.368909E+01  2.290515E+00  2.622562E+01 -2.698572E-01 -3.356923E+00
      1836   5  2.279007E+02  1.201688E+01  3.621583E+00  5.411870E+01  5.087558E-02  1.943512E+00
      1836   6  2.361436E+02  4.841040E+00  4.373932E+00  3.400751E+01 -1.633447E+00  5.084954E+00
      1836   7  2.320326E+02  1.251444E+01  5.006945E+00  5.352678E+01  1.302999E+00 -6.583786E+00
      1836   8  2.401468E+02  5.584303E+00  5.903913E+00  3.329622E+01 -3.791159E-01 -3.429301E+00
      1837   1  1.628385E+02  1.624127E+00 -3.616532E-02  6.105560E+01 -1.877653E-01  2.329400E+00
      1837   2  1.745981E+02 -8.805950E+00  7.842204E-01  4.177015E+01 -1.992852E+00  4.915991E+00
      1837   3  1.670080E+02  2.227008E+00  1.392947E+00  6.101029E+01  1.746878E+00 -6.086623E+00
      1837   4  1.786619E+02 -7.987225E+00  2.344776E+00  4.157748E+01 -6.069484E-02 -3.472433E+00
      1837   5  2.163137E+02  2.173159E+01  3.473674E+00  7.015292E+01 -2.404578E-01  2.025749E+00
      1837   6  2.276777E+02  1.177208E+01  4.409837E+00  5.162039E+01 -2.112805E+00  4.800092E+00
      1837   7  2.204790E+02  2.220646E+01  4.871083E+00  6.993325E+01  1.656559E+00 -6.377018E+00
      1837   8  2.317457E+02  1.245871E+01  5.943733E+00  5.125910E+01 -2.176641E-01 -3.577130E+00
      1838   1  1.505674E+02  1.220693E+01 -1.261660E-01  7.251770E+01 -4.664130E-01  2.375459E+00
      1838   2  1.652015E+02 -7.930796E-01  8.387677E-01  5.536365E+01 -2.396265E+00  4.605891E+00
      1838   3  1.546586E+02  1.286953E+01  1.302840E+00  7.281150E+01  2.103680E+00 -5.833156E+00
      1838   4  1.692223E+02  4.759828E-02  2.391357E+00  5.549451E+01  1.650141E-01 -3.563153E+00
      1838   5  2.018964E+02  3.370193E+01  3.319352E+00  8.398108E+01 -5.389310E-01  2.063721E+00
      1838   6  2.160394E+02  2.128963E+01  4.433701E+00  6.749673E+01 -2.546722E+00  4.460389E+00
      1838   7  2.060097E+02  3.422167E+01  4.722371E+00  8.412280E+01  1.983752E+00 -6.140411E+00
      1838   8  2.200891E+02  2.198450E+01  5.964769E+00  6.748188E+01 -3.193582E-02 -3.706568E+00
      1839   1  1.364003E+02  2.430982E+01 -2.138289E-01  8.171603E+01 -7.494910E-01  2.381849E+00
      1839   2  1.534729E+02  9.167288E+00  8.907492E-01  6.710468E+01 -2.754677E+00  4.253213E+00
      1839   3  1.403392E+02  2.508900E+01  1.209148E+00  8.232033E+01  2.426262E+00 -5.547449E+00
      1839   4  1.573773E+02  1.008609E+01  2.429241E+00  6.753857E+01  4.041968E-01 -3.625927E+00
      1839   5  1.851291E+02  4.745740E+01  3.157638E+00  9.518478E+01 -8.388563E-01  2.058310E+00
      1839   6  2.016315E+02  3.300229E+01  4.443745E+00  8.114384E+01 -2.929394E+00  4.073955E+00
      1839   7  1.891106E+02  4.808397E+01  4.559613E+00  9.566130E+01  2.281274E+00 -5.876393E+00
      1839   8  2.055833E+02  3.376658E+01  5.965112E+00  8.145656E+01  1.751257E-01 -3.813266E+00
      1840   1  1.208105E+02  3.747297E+01 -2.992905E-01  8.839476E+01 -1.031026E+00  2.348739E+00
      1840   2  1.398203E+02  2.067723E+01  9.381594E-01  7.664591E+01 -3.063420E+00  3.865491E+00
      1840   3  1.245326E+02  3.841666E+01  1.111810E+00  8.926859E+01  2.711803E+00 -5.234356E+00
      1840   4  1.435420E+02  2.172318E+01  2.456561E+00  7.734959E+01  6.529323E-01 -3.658387E+00
      1840   5  1.665660E+02  6.246567E+01  2.989010E+00  1.034523E+02 -1.134096E+00  2.009926E+00
      1840   6  1.849455E+02  4.643746E+01  4.439031E+00  9.216210E+01 -3.255894E+00  3.649170E+00
      1840   7  1.703441E+02  6.325142E+01  4.382962E+00  1.042231E+02  2.546526E+00 -5.589341E+00
      1840   8  1.887265E+02  4.732472E+01  5.943597E+00  9.276944E+01  3.999157E-01 -3.893783E+00
      1841   1  1.043080E+02  5.120108E+01 -3.836606E-01  9.239667E+01 -1.304980E+00  2.277280E+00
      1841   2  1.247095E+02  3.328492E+01  9.793302E-01  8.372990E+01 -3.318856E+00  3.450713E+00
      1841   3  1.077600E+02  5.234604E+01  1.009802E+00  9.348888E+01  2.958494E+00 -4.898669E+00
      1841   4  1.281922E+02  3.449741E+01  2.471693E+00  8.465934E+01  9.072972E-01 -3.658725E+00
      1841   5  1.468057E+02  7.815028E+01  2.812837E+00  1.085868E+02 -1.418179E+00  1.920274E+00
      1841   6  1.665371E+02  6.105999E+01  4.417616E+00  1.002583E+02 -3.522287E+00  3.195002E+00
      1841   7  1.503208E+02  7.913634E+01  4.191921E+00  1.096002E+02  2.778245E+00 -5.283239E+00
      1841   8  1.700845E+02  6.211377E+01  5.898347E+00  1.011153E+02  6.389033E-01 -3.945063E+00
      1842   1  8.742000E+01  6.498495E+01 -4.682592E-01  9.366803E+01 -1.565515E+00  2.169741E+00
      1842   2  1.086432E+02  4.650308E+01  1.011123E+00  8.819677E+01 -3.518447E+00  3.017649E+00
      1842   3  9.056157E+01  6.635456E+01  9.015671E-01  9.492047E+01  3.165344E+00 -4.545059E+00
      1842   4  1.118418E+02  4.790961E+01  2.471412E+00  8.929966E+01  1.163291E+00 -3.625257E+00
      1842   5  1.264698E+02  9.391631E+01  2.628049E+00  1.105129E+02 -1.684739E+00  1.792173E+00
      1842   6  1.470046E+02  7.629613E+01  4.376753E+00  1.052552E+02 -3.725662E+00  2.721406E+00
      1842   7  1.296754E+02  9.512940E+01  3.985034E+00  1.117088E+02  2.976001E+00 -4.961940E+00
      1842   8  1.502675E+02  7.754717E+01  5.826410E+00  1.063075E+02  8.884855E-01 -3.963969E+00
      1843   1  7.066829E+01  7.832332E+01 -5.555824E-01  9.225816E+01 -1.806777E+00  2.029958E+00
      1843   2  9.214067E+01  5.983114E+01  1.029444E+00  8.998907E+01 -3.660566E+00  2.575997E+00
      1843   3  7.347246E+01  7.992659E+01  7.844022E-01  9.360859E+01  3.332615E+00 -4.177313E+00
      1843   4  9.502263E+01  6.144585E+01  2.451384E+00  9.120780E+01  1.417293E+00 -3.556059E+00
      1843   5  1.061756E+02  1.091757E+02  2.432263E+00  1.092763E+02 -1.927320E+00  1.630365E+00
      1843   6  1.269625E+02  9.155830E+01  4.312102E+00  1.070958E+02 -3.864055E+00  2.239411E+00
      1843   7  1.090393E+02  1.106273E+02  3.759666E+00  1.105898E+02  3.140694E+00 -4.628045E+00
      1843   8  1.299031E+02  9.302305E+01  5.723145E+00  1.082828E+02  1.145405E+00 -3.946962E+00
      1844   1  5.454828E+01  9.074414E+01 -6.494181E-01  8.831466E+01 -2.023368E+00  1.863695E+00
      1844   2  7.571550E+01  7.277684E+01  1.028387E+00  8.915109E+01 -3.744757E+00  2.136770E+00
      1844   3  5.700125E+01  9.257444E+01  6.536740E-01  8.969993E+01  3.461488E+00 -3.797810E+00
      1844   4  7.826087E+01  7.459905E+01  2.405052E+00  9.042539E+01  1.665930E+00 -3.448362E+00
      1844   5  8.651195E+01  1.233725E+02  2.221660E+00  1.050390E+02 -2.139982E+00  1.441670E+00
      1844   6  1.070171E+02  1.062709E+02  4.217222E+00  1.058428E+02 -3.936937E+00  1.761537E+00
      1844   7  8.901579E+01  1.250577E+02  3.511308E+00  1.064036E+02  3.274043E+00 -4.282573E+00
      1844   8  1.096114E+02  1.079500E+02  5.581626E+00  1.071008E+02  1.406341E+00 -3.889461E+00
      1845   1  3.950970E+01  1.018238E+02 -7.556262E-01  8.207408E+01 -2.210381E+00  1.678977E+00
      1845   2  5.985491E+01  8.487745E+01  9.997803E-01  8.582328E+01 -3.771773E+00  1.712689E+00
      1845   3  4.160993E+01  1.038584E+02  5.024250E-01  8.343322E+01  3.554051E+00 -3.406994E+00
      1845   4  6.205562E+01  8.689035E+01  2.323078E+00  8.709349E+01  1.906017E+00 -3.297936E+00
      1845   5  6.801621E+01  1.360052E+02  1.989697E+00  9.806845E+01 -2.317368E+00  1.235409E+00
      1845   6  8.774128E+01  1.198945E+02  4.082918E+00  1.016713E+02 -3.944948E+00  1.302190E+00
      1845   7  7.015519E+01  1.379014E+02  3.232117E+00  9.941950E+01  3.378532E+00 -3.924381E+00
      1845   8  8.997821E+01  1.217713E+02  5.391299E+00  1.029369E+02  1.668161E+00 -3.785262E+00
      1846   1  2.594066E+01  1.112047E+02 -8.821959E-01  7.384898E+01 -2.364120E+00  1.486890E+00
      1846   2  4.500074E+01  9.571932E+01  9.324862E-01  8.023267E+01 -3.743869E+00  1.318938E+00
      1846   3  2.769717E+01  1.134043E+02  3.208810E-01  7.512559E+01  3.612680E+00 -3.002209E+00
      1846   4  4.685963E+01  9.788944E+01  2.192623E+00  8.144223E+01  2.134450E+00 -3.098040E+00
      1846   5  5.115310E+01  1.466448E+02  1.725990E+00  8.872238E+01 -2.455600E+00  1.024425E+00
      1846   6  6.965138E+01  1.319463E+02  3.895224E+00  9.485687E+01 -3.890748E+00  8.785238E-01
      1846   7  5.293411E+01  1.487122E+02  2.910115E+00  8.999975E+01  3.456667E+00 -3.548718E+00
      1846   8  7.153185E+01  1.339865E+02  5.136687E+00  9.606979E+01  1.927282E+00 -3.625318E+00
      1847   1  1.415526E+01  1.186086E+02 -1.039755E+00  6.401050E+01 -2.482524E+00  1.301807E+00
      1847   2  3.153539E+01  1.049552E+02  8.133698E-01  7.267869E+01 -3.665403E+00  9.734967E-01
      1847   3  1.558496E+01  1.209165E+02  9.562368E-02  6.515567E+01  3.639625E+00 -2.577423E+00
      1847   4  3.306411E+01  1.072314E+02  1.998045E+00  7.377684E+01  2.347622E+00 -2.839003E+00
      1847   5  3.629993E+01  1.549507E+02  1.415353E+00  7.742906E+01 -2.552625E+00  8.250442E-01
      1847   6  5.318973E+01  1.420185E+02  3.635248E+00  8.575884E+01 -3.779311E+00  5.108192E-01
      1847   7  3.773886E+01  1.571310E+02  2.527319E+00  7.858038E+01  3.510607E+00 -3.147182E+00
      1847   8  5.472460E+01  1.441691E+02  4.796387E+00  8.686498E+01  2.179383E+00 -3.397240E+00
      1848   1  4.388128E+00  1.238458E+02 -1.240030E+00  5.297334E+01 -2.566448E+00  1.141204E+00
      1848   2  1.977156E+01  1.123156E+02  6.278933E-01  6.351832E+01 -3.543845E+00  6.970561E-01
      1848   3  5.513915E+00  1.261884E+02 -1.881398E-01  5.394765E+01  3.635745E+00 -2.123436E+00
      1848   4  2.098934E+01  1.146293E+02  1.722114E+00  6.446252E+01  2.540497E+00 -2.508333E+00
      1848   5  2.373858E+01  1.606792E+02  1.037796E+00  6.466962E+01 -2.609884E+00  6.572930E-01
      1848   6  3.871266E+01  1.497903E+02  3.278978E+00  7.480293E+01 -3.619460E+00  2.225054E-01
      1848   7  2.485836E+01  1.628962E+02  2.060757E+00  6.565266E+01  3.540519E+00 -2.707488E+00
      1848   8  3.992134E+01  1.519801E+02  4.343771E+00  7.575703E+01  2.417945E+00 -3.085270E+00
      1849   1 -3.202881E+00  1.268251E+02 -1.491133E+00  4.118378E+01 -2.620654E+00  1.023095E+00
      1849   2  9.949832E+00  1.176191E+02  3.656345E-01  5.315836E+01 -3.390510E+00  5.096402E-01
      1849   3 -2.353692E+00  1.291146E+02 -5.411384E-01  4.195929E+01  3.599665E+00 -1.630849E+00
      1849   4  1.088329E+01  1.198871E+02  1.352487E+00  5.391670E+01  2.706249E+00 -2.094501E+00
      1849   5  1.365711E+01  1.636983E+02  5.739541E-01  5.096330E+01 -2.633581E+00  5.419273E-01
      1849   6  2.648674E+01  1.550421E+02  2.802488E+00  6.247040E+01 -3.424974E+00  3.625226E-02
      1849   7  1.448641E+01  1.658617E+02  1.488876E+00  5.174852E+01  3.543475E+00 -2.216649E+00
      1849   8  2.739727E+01  1.571850E+02  3.753398E+00  6.323911E+01  2.633528E+00 -2.674390E+00
      1850   1 -8.532298E+00  1.275710E+02 -1.785635E+00  2.912164E+01 -2.654854E+00  9.589882E-01
      1850   2  2.235256E+00  1.207866E+02  3.295552E-02  4.206573E+01 -3.221197E+00  4.220520E-01
      1850   3 -7.925077E+00  1.297161E+02 -9.544331E-01  2.968367E+01  3.527026E+00 -1.098753E+00
      1850   4  2.922329E+00  1.229214E+02  8.980899E-01  4.261949E+01  2.836045E+00 -1.597032E+00
      1850   5  6.164173E+00  1.640301E+02  2.616441E-02  3.686788E+01 -2.636437E+00  4.923083E-01
      1850   6  1.669573E+01  1.576950E+02  2.203932E+00  4.930664E+01 -3.215892E+00 -3.591008E-02
      1850   7  6.740486E+00  1.660476E+02  8.164849E-01  3.744068E+01  3.511905E+00 -1.670624E+00
      1850   8  1.734880E+01  1.597025E+02  3.026933E+00  4.987148E+01  2.812799E+00 -2.161628E+00
      1851   1 -1.159351E+01  1.262656E+02 -2.075821E+00  1.732112E+01 -2.681896E+00  9.381081E-01
      1851   2 -3.315560E+00  1.218746E+02 -3.233456E-01  3.081731E+01 -3.054130E+00  4.161934E-01
      1851   3 -1.117697E+01  1.281978E+02 -1.367932E+00  1.766929E+01  3.412696E+00 -5.539100E-01
      1851   4 -2.817130E+00  1.238098E+02  4.184404E-01  3.116472E+01  2.920599E+00 -1.049169E+00
      1851   5  1.314776E+00  1.619747E+02 -5.231324E-01  2.299341E+01 -2.636047E+00  4.956004E-01
      1851   6  9.442515E+00  1.579281E+02  1.564516E+00  3.596271E+01 -3.016014E+00 -1.651517E-02
      1851   7  1.694798E+00  1.637832E+02  1.412864E-01  2.335531E+01  3.435300E+00 -1.097278E+00
      1851   8  9.901089E+00  1.597393E+02  2.261165E+00  3.632389E+01  2.940225E+00 -1.583726E+00
      1852   1 -1.252142E+01  1.232524E+02 -2.253188E+00  6.393315E+00 -2.712018E+00  9.073824E-01
      1852   2 -6.743715E+00  1.211337E+02 -5.241084E-01  2.021583E+01 -2.906866E+00  4.204340E-01
      1852   3 -1.221005E+01  1.249711E+02 -1.641875E+00  6.543274E+00  3.253828E+00 -8.361983E-02
      1852   4 -6.340012E+00  1.228690E+02  1.237308E-01  2.037982E+01  2.946029E+00 -5.549804E-01
      1852   5 -8.034361E-01  1.584217E+02 -7.473956E-01  1.003444E+01 -2.648750E+00  4.842099E-01
      1852   6  4.912757E+00  1.565497E+02  1.296993E+00  2.331732E+01 -2.849038E+00  1.408459E-03
      1852   7 -5.206688E-01  1.600477E+02 -1.697150E-01  1.020452E+01  3.303244E+00 -6.016025E-01
      1852   8  5.283936E+00  1.581913E+02  1.909030E+00  2.350088E+01  2.994459E+00 -1.069362E+00
      1853   1 -1.185376E+01  1.188463E+02 -2.199867E+00 -2.914555E+00 -2.739861E+00  7.725215E-01
      1853   2 -9.078694E+00  1.186631E+02 -5.403549E-01  1.175242E+01 -2.767933E+00  3.257426E-01
      1853   3 -1.154567E+01  1.203979E+02 -1.640262E+00 -2.935722E+00  3.057502E+00  1.638804E-01
      1853   4 -8.681631E+00  1.202405E+02  5.247983E-02  1.178036E+01  2.908909E+00 -2.764094E-01
      1853   5  1.456745E-01  1.558356E+02  3.943873E-01 -1.365249E+00 -2.669821E+00  3.369581E-01
      1853   6  2.995412E+00  1.558425E+02  2.416129E+00  1.272913E+01 -2.697820E+00 -1.258076E-01
      1853   7  4.547616E-01  1.573788E+02  9.530716E-01 -1.363241E+00  3.121110E+00 -3.726702E-01
      1853   8  3.389421E+00  1.574100E+02  3.005396E+00  1.277832E+01  2.977300E+00 -8.290753E-01
      1854   1 -9.082811E+00  1.209486E+02 -1.094002E+00 -1.196692E+01  2.914721E+00  2.764487E-01
      1854   2 -1.205383E+01  1.211794E+02 -2.684551E+00  3.078864E+00  2.993043E+00  1.008551E+00
      1854   3 -8.574479E+00  1.234578E+02 -1.890155E-01 -1.177078E+01 -2.724431E+00 -2.722249E-01
      1854   4 -1.172658E+01  1.235953E+02 -1.862680E+00  3.196525E+00 -2.692552E+00  4.608673E-01
      1854   5  2.973448E+00  1.580195E+02  1.900459E+00 -1.300072E+01  2.769305E+00 -3.720131E-01
      1854   6  2.286012E-02  1.581458E+02  1.490475E-01  1.457668E+00  2.844640E+00  3.753600E-01
      1854   7  3.459105E+00  1.604713E+02  2.781242E+00 -1.284762E+01 -2.869182E+00 -9.624802E-01
      1854   8  3.342501E-01  1.605076E+02  9.493451E-01  1.535350E+00 -2.838474E+00 -2.139859E-01
      1855   1 -6.523869E+00  1.238617E+02 -7.600032E-01 -2.098452E+01  2.969221E+00  2.339266E-01
      1855   2 -1.271257E+01  1.260595E+02 -2.602716E+00 -6.859627E+00  3.097210E+00  1.119904E+00
      1855   3 -6.073102E+00  1.268078E+02  2.526180E-01 -2.094926E+01 -2.732664E+00 -7.282677E-01
      1855   4 -1.235152E+01  1.289001E+02 -1.644625E+00 -6.965984E+00 -2.693696E+00  1.504569E-01
      1855   5  5.235662E+00  1.592099E+02  1.361927E+00 -2.418590E+01  2.809767E+00 -3.945114E-01
      1855   6 -8.532694E-01  1.611801E+02 -7.397970E-01 -1.061244E+01  2.957522E+00  4.614314E-01
      1855   7  5.581200E+00  1.619031E+02  2.265311E+00 -2.415993E+01 -2.884583E+00 -1.434486E+00
      1855   8 -5.941770E-01  1.637716E+02  1.106308E-01 -1.072255E+01 -2.822273E+00 -5.854834E-01
      1856   1 -2.780294E+00  1.248872E+02 -5.209104E-01 -3.225578E+01  3.050916E+00  4.374199E-02
      1856   2 -1.159635E+01  1.294517E+02 -2.490728E+00 -1.849864E+01  3.219297E+00  1.115744E+00
      1856   3 -2.251631E+00  1.283351E+02  6.585043E-01 -3.245556E+01 -2.737051E+00 -1.428297E+00
      1856   4 -1.107471E+01  1.327778E+02 -1.341352E+00 -1.884279E+01 -2.691887E+00 -3.770882E-01
      1856   5  1.016010E+01  1.609039E+02  1.741892E+00 -3.753485E+01  2.907777E+00 -6.632205E-01
      1856   6  1.500295E+00  1.651022E+02 -5.895120E-01 -2.431478E+01  3.121157E+00  3.800088E-01
      1856   7  1.055727E+01  1.640638E+02  2.791014E+00 -3.771064E+01 -2.860721E+00 -2.242366E+00
      1856   8  1.890526E+00  1.681450E+02  4.302903E-01 -2.462931E+01 -2.765539E+00 -1.219044E+00
      1857   1  3.264189E+00  1.238224E+02 -3.337931E-01 -4.417902E+01  3.144982E+00 -9.122950E-02
      1857   2 -8.128735E+00  1.309328E+02 -2.340939E+00 -3.103872E+01  3.353501E+00  1.161506E+00
      1857   3  3.937394E+00  1.276736E+02  1.002508E+00 -4.464833E+01 -2.737366E+00 -2.098478E+00
      1857   4 -7.397187E+00  1.346452E+02 -1.015173E+00 -3.163425E+01 -2.662038E+00 -8.791647E-01
      1857   5  1.796254E+01  1.606741E+02  2.174275E+00 -5.159408E+01  3.042325E+00 -8.634557E-01
      1857   6  6.809243E+00  1.673018E+02 -2.332168E-01 -3.896679E+01  3.316277E+00  3.737469E-01
      1857   7  1.848717E+01  1.642449E+02  3.374783E+00 -5.201272E+01 -2.808662E+00 -2.986617E+00
      1857   8  7.389912E+00  1.707392E+02  9.571147E-01 -3.950672E+01 -2.662406E+00 -1.781367E+00
      1858   1  1.166260E+01  1.203969E+02 -2.248214E-01 -5.587339E+01  3.236613E+00 -1.088348E-01
      1858   2 -2.182715E+00  1.300897E+02 -2.191934E+00 -4.380700E+01  3.478619E+00  1.314893E+00
      1858   3  1.252242E+01  1.245222E+02  1.242502E+00 -5.662770E+01 -2.710611E+00 -2.669815E+00
      1858   4 -1.220080E+00  1.340554E+02 -7.224803E-01 -4.466194E+01 -2.599190E+00 -1.289685E+00
      1858   5  2.850340E+01  1.577083E+02  2.489992E+00 -6.539686E+01  3.185695E+00 -9.154365E-01
      1858   6  1.499203E+01  1.668161E+02  1.176909E-01 -5.380154E+01  3.507618E+00  5.073522E-01
      1858   7  2.919516E+01  1.615685E+02  3.817934E+00 -6.608070E+01 -2.719987E+00 -3.590268E+00
      1858   8  1.578283E+01  1.705231E+02  1.448212E+00 -5.458208E+01 -2.523194E+00 -2.209116E+00
      1859   1  2.234297E+01  1.145797E+02 -1.767803E-01 -6.670205E+01  3.308549E+00 -1.718815E-02
      1859   2  6.219105E+00  1.267373E+02 -2.064081E+00 -5.620979E+01  3.573000E+00  1.573259E+00
      1859   3  2.341854E+01  1.188588E+02  1.394773E+00 -6.774576E+01 -2.653685E+00 -3.145244E+00
      1859   4  7.429552E+00  1.308374E+02 -4.805101E-01 -5.732258E+01 -2.512126E+00 -1.606437E+00
      1859   5  4.167636E+01  1.518658E+02  2.703218E+00 -7.822283E+01  3.309707E+00 -8.330140E-01
      1859   6  2.598082E+01  1.633476E+02  4.202336E-01 -6.814019E+01  3.664959E+00  7.714098E-01
      1859   7  4.256084E+01  1.558983E+02  4.132087E+00 -7.918149E+01 -2.602447E+00 -4.068240E+00
      1859   8  2.699543E+01  1.672086E+02  1.861870E+00 -6.916523E+01 -2.364889E+00 -2.513086E+00
      1860   1  3.510707E+01  1.064977E+02 -1.745876E-01 -7.614804E+01  3.347911E+00  1.558707E-01
      1860   2  1.696792E+01  1.208830E+02 -1.958208E+00 -6.771140E+01  3.620835E+00  1.914677E+00
      1860   3  3.642707E+01  1.108292E+02  1.480240E+00 -7.747578E+01 -2.570259E+00 -3.547034E+00
      1860   4  1.844605E+01  1.250211E+02 -2.821975E-01 -6.907147E+01 -2.410305E+00 -1.846015E+00
      1860   5  5.726223E+01  1.432793E+02  2.841296E+00 -8.946811E+01  3.395954E+00 -6.512380E-01
      1860   6  3.963871E+01  1.569105E+02  6.780936E-01 -8.136084E+01  3.768257E+00  1.136921E+00
      1860   7  5.836453E+01  1.473852E+02  4.350086E+00 -9.070109E+01 -2.465093E+00 -4.452408E+00
      1860   8  4.089382E+01  1.608314E+02  2.209215E+00 -8.262488E+01 -2.200916E+00 -2.719330E+00
      1861   1  4.966905E+01  9.638967E+01 -2.072552E-01 -8.376298E+01  3.347451E+00  3.809177E-01
      1861   2  2.987146E+01  1.126658E+02 -1.868903E+00 -7.781517E+01  3.612359E+00  2.313923E+00
      1861   3  5.126507E+01  1.006899E+02  1.516242E+00 -8.536099E+01 -2.463477E+00 -3.897580E+00
      1861   4  3.164097E+01  1.167659E+02 -1.148260E-01 -7.940433E+01 -2.300567E+00 -2.026736E+00
      1861   5  7.494152E+01  1.322304E+02  2.925685E+00 -9.860321E+01  3.434608E+00 -4.052728E-01
      1861   6  5.573479E+01  1.476891E+02  9.041455E-01 -9.288760E+01  3.805681E+00  1.573279E+00
      1861   7  7.629040E+01  1.363282E+02  4.499868E+00 -1.001020E+02 -2.313587E+00 -4.771875E+00
      1861   8  5.725157E+01  1.515957E+02  2.510495E+00 -9.437785E+01 -2.040075E+00 -2.852507E+00
      1862   1  6.566000E+01  8.458871E+01 -2.666033E-01 -8.915847E+01  3.304857E+00  6.332315E-01
      1862   2  4.464796E+01  1.023327E+02 -1.789903E+00 -8.606440E+01  3.542421E+00  2.748247E+00
      1862   3  6.756648E+01  8.878786E+01  1.516038E+00 -9.100521E+01 -2.334171E+00 -4.213855E+00
      1862   4  4.673483E+01  1.063340E+02  3.329606E-02 -8.785798E+01 -2.187057E+00 -2.163564E+00
      1862   5  9.429259E+01  1.191092E+02  2.970292E+00 -1.051665E+02  3.422311E+00 -1.241340E-01
      1862   6  7.393074E+01  1.359904E+02  1.109521E+00 -1.021932E+02  3.771105E+00  2.053642E+00
      1862   7  9.592080E+01  1.231306E+02  4.600617E+00 -1.069154E+02 -2.149881E+00 -5.048276E+00
      1862   8  7.573386E+01  1.398232E+02  2.782453E+00 -1.038910E+02 -1.887538E+00 -2.932043E+00
      1863   1  8.263343E+01  7.151099E+01 -3.464206E-01 -9.201710E+01  3.221168E+00  8.939467E-01
      1863   2  6.092527E+01  9.022697E+01 -1.716021E+00 -9.205674E+01  3.409142E+00  3.198810E+00
      1863   3  8.488568E+01  7.554944E+01  1.489334E+00 -9.408317E+01 -2.181327E+00 -4.506639E+00
      1863   4  6.335545E+01  9.408011E+01  1.707138E-01 -9.402424E+01 -2.072001E+00 -2.267189E+00
      1863   5  1.147977E+02  1.043987E+02  2.983484E+00 -1.087779E+02  3.359916E+00  1.700451E-01
      1863   6  9.378013E+01  1.222272E+02  1.301161E+00 -1.088160E+02  3.662151E+00  2.555972E+00
      1863   7  1.167409E+02  1.082849E+02  4.664652E+00 -1.107541E+02 -1.973254E+00 -5.295911E+00
      1863   8  9.589623E+01  1.259372E+02  3.035831E+00 -1.106975E+02 -1.746127E+00 -2.972083E+00
      1864   1  1.000774E+02  5.764108E+01 -4.420271E-01 -9.210903E+01  3.099226E+00  1.149077E+00
      1864   2  7.824791E+01  7.677611E+01 -1.643967E+00 -9.546368E+01  3.212522E+00  3.649950E+00
      1864   3  1.027096E+02  6.146784E+01  1.443097E+00 -9.435728E+01 -2.003436E+00 -4.781685E+00
      1864   4  8.104580E+01  8.044082E+01  3.031726E-01 -9.756869E+01 -1.957026E+00 -2.345015E+00
      1864   5  1.358601E+02  8.866032E+01  2.970605E+00 -1.091586E+02  3.250477E+00  4.607011E-01
      1864   6  1.147401E+02  1.069056E+02  1.482660E+00 -1.123823E+02  3.478908E+00  3.061993E+00
      1864   7  1.381543E+02  9.236003E+01  4.699671E+00 -1.113318E+02 -1.782075E+00 -5.523328E+00
      1864   8  1.171958E+02  1.104519E+02  3.276760E+00 -1.144178E+02 -1.617462E+00 -2.982858E+00
      1865   1  1.174344E+02  4.351279E+01 -5.494377E-01 -8.930774E+01  2.943219E+00  1.388713E+00
      1865   2  9.609374E+01  6.247651E+01 -1.571594E+00 -9.604807E+01  2.954210E+00  4.088766E+00
      1865   3  1.204769E+02  4.708448E+01  1.382633E+00 -9.169335E+01 -1.798813E+00 -5.040829E+00
      1865   4  9.927998E+01  6.592029E+01  4.340226E-01 -9.824907E+01 -1.843260E+00 -2.401849E+00
      1865   5  1.568266E+02  7.251366E+01  2.935486E+00 -1.061498E+02  3.098677E+00  7.357780E-01
      1865   6  1.361917E+02  9.060973E+01  1.656229E+00 -1.126270E+02  3.223199E+00  3.556432E+00
      1865   7  1.595055E+02  7.598166E+01  4.710938E+00 -1.084818E+02 -1.574253E+00 -5.734732E+00
      1865   8  1.390116E+02  9.395755E+01  3.508737E+00 -1.147815E+02 -1.502572E+00 -2.971779E+00
      1866   1  1.341236E+02  2.968545E+01 -6.658105E-01 -8.360060E+01  2.757779E+00  1.605593E+00
      1866   2  1.138949E+02  4.787283E+01 -1.497638E+00 -9.367981E+01  2.636980E+00  4.504144E+00
      1866   3  1.376003E+02  3.296674E+01  1.311304E+00 -8.607142E+01 -1.566508E+00 -5.283491E+00
      1866   4  1.174842E+02  5.107050E+01  5.649209E-01 -9.593037E+01 -1.731930E+00 -2.441053E+00
      1866   5  1.770133E+02  5.660964E+01  2.880328E+00 -9.972487E+01  2.909938E+00  9.862600E-01
      1866   6  1.574634E+02  7.397603E+01  1.822069E+00 -1.094106E+02  2.898283E+00  4.026159E+00
      1866   7  1.801068E+02  5.980752E+01  4.701484E+00 -1.021698E+02 -1.348071E+00 -5.931570E+00
      1866   8  1.606682E+02  7.709670E+01  3.732676E+00 -1.116439E+02 -1.402212E+00 -2.944492E+00
      1867   1  1.495661E+02  1.671889E+01 -7.891052E-01 -7.509288E+01  2.547860E+00  1.794693E+00
      1867   2  1.310614E+02  3.353445E+01 -1.421588E+00 -8.834476E+01  2.264620E+00  4.886456E+00
      1867   3  1.534927E+02  1.968354E+01  1.231405E+00 -7.759045E+01 -1.306314E+00 -5.507460E+00
      1867   4  1.350611E+02  3.646832E+01  6.964423E-01 -9.059438E+01 -1.624289E+00 -2.465161E+00
      1867   5  1.957375E+02  4.160283E+01  2.806775E+00 -8.999557E+01  2.690132E+00  1.205728E+00
      1867   6  1.778615E+02  5.766811E+01  1.980019E+00 -1.027301E+02  2.508767E+00  4.459660E+00
      1867   7  1.992684E+02  4.449957E+01  4.673130E+00 -9.250027E+01 -1.102372E+00 -6.113308E+00
      1867   8  1.814662E+02  6.053882E+01  3.948405E+00 -1.049965E+02 -1.316775E+00 -2.905692E+00
      1868   1  1.632106E+02  5.147744E+00 -9.178782E-01 -6.400700E+01  2.318779E+00  1.952556E+00
      1868   2  1.470049E+02  2.002971E+01 -1.343828E+00 -8.014941E+01  1.842124E+00  5.227273E+00
      1868   3  1.675926E+02  7.779324E+00  1.144376E+00 -6.646788E+01 -1.018810E+00 -5.709580E+00
      1868   4  1.514145E+02  2.269022E+01  8.282213E-01 -8.234444E+01 -1.521488E+00 -2.476114E+00
      1868   5  2.123482E+02  2.812159E+01  2.716407E+00 -7.721134E+01  2.445827E+00  1.389450E+00
      1868   6  1.966990E+02  4.234643E+01  2.129539E+00 -9.272352E+01  2.060899E+00  4.846843E+00
      1868   7  2.163302E+02  3.069463E+01  4.627362E+00 -7.971621E+01 -8.364477E-01 -6.278313E+00
      1868   8  2.007115E+02  4.495128E+01  4.155305E+00 -9.497293E+01 -1.246109E+00 -2.859229E+00
      1869   1  1.745596E+02 -4.542899E+00 -1.050609E+00 -5.067512E+01  2.075834E+00  2.077027E+00
      1869   2  1.611679E+02  7.900619E+00 -1.264936E+00 -6.931761E+01  1.375277E+00  5.519324E+00
      1869   3  1.793910E+02 -2.250107E+00  1.051369E+00 -5.303263E+01 -7.053846E-01 -5.886240E+00
      1869   4  1.659771E+02  1.028660E+01  9.590988E-01 -7.140288E+01 -1.424677E+00 -2.475654E+00
      1869   5  2.262530E+02  1.673792E+01  2.610063E+00 -6.175055E+01  2.183874E+00  1.534280E+00
      1869   6  2.133263E+02  2.863788E+01  2.269340E+00 -7.966524E+01  1.561881E+00  5.178983E+00
      1869   7  2.306896E+02  1.897468E+01  4.564844E+00 -6.419123E+01 -5.500305E-01 -6.424231E+00
      1869   8  2.177460E+02  3.096857E+01  4.351679E+00 -8.184429E+01 -1.189837E+00 -2.808564E+00
      1870   1  1.831917E+02 -1.194236E+01 -1.186875E+00 -3.552576E+01  1.823961E+00  2.167264E+00
      1870   2  1.730468E+02 -2.365761E+00 -1.187269E+00 -5.618401E+01  8.704158E-01  5.756978E+00
      1870   3  1.884544E+02 -9.981668E+00  9.528346E-01 -3.771264E+01 -3.685773E-01 -6.033514E+00
      1870   4  1.782359E+02 -2.457260E-01  1.086816E+00 -5.810408E+01 -1.335229E+00 -2.465036E+00
      1870   5  2.369491E+02  7.940080E+00  2.488205E+00 -4.410575E+01  1.911074E+00  1.638681E+00
      1870   6  2.271612E+02  1.710369E+01  2.396463E+00 -6.395752E+01  1.020452E+00  5.449335E+00
      1870   7  2.418306E+02  9.839008E+00  4.485306E+00 -4.641522E+01 -2.434920E-01 -6.548108E+00
      1870   8  2.319768E+02  1.916055E+01  4.533933E+00 -6.601060E+01 -1.146618E+00 -2.756324E+00
      1871   1  1.887803E+02 -1.673408E+01 -1.327064E+00 -1.906145E+01  1.567155E+00  2.225119E+00
      1871   2  1.822221E+02 -1.034571E+01 -1.107724E+00 -4.117004E+01  3.334919E-01  5.940458E+00
      1871   3  1.944447E+02 -1.508536E+01  8.490075E-01 -2.101537E+01 -1.258865E-02 -6.145789E+00
      1871   4  1.877605E+02 -8.475460E+00  1.213264E+00 -4.287742E+01 -1.255537E+00 -2.440688E+00
      1871   5  2.440326E+02  2.105819E+00  2.346075E+00 -2.486092E+01  1.633291E+00  1.704376E+00
      1871   6  2.377097E+02  8.223984E+00  2.508355E+00 -4.610638E+01  4.425559E-01  5.657110E+00
      1871   7  2.493452E+02  3.681460E+00  4.387487E+00 -2.697501E+01  8.092229E-02 -6.644720E+00
      1871   8  2.429063E+02  1.001771E+01  4.701203E+00 -4.798355E+01 -1.118762E+00 -2.700197E+00
      1872   1  1.911405E+02 -1.870076E+01 -1.459251E+00 -1.839786E+00  1.305641E+00  2.259428E+00
      1872   2  1.883645E+02 -1.578874E+01 -1.049302E+00 -2.475053E+01 -2.307204E-01  6.074801E+00
      1872   3  1.971598E+02 -1.733478E+01  7.491907E-01 -3.498781E+00  3.544498E-01 -6.212295E+00
      1872   4  1.942172E+02 -1.412029E+01  1.323677E+00 -2.620688E+01 -1.188932E+00 -2.393416E+00
      1872   5  2.471846E+02 -5.412067E-01  2.161143E+00 -4.645481E+00  1.341194E+00  1.740278E+00
      1872   6  2.445176E+02  2.257724E+00  2.556474E+00 -2.666179E+01 -1.840196E-01  5.812084E+00
      1872   7  2.529255E+02  7.494116E-01  4.259787E+00 -6.504599E+00  4.026325E-01 -6.702462E+00
      1872   8  2.501040E+02  3.844664E+00  4.826368E+00 -2.832618E+01 -1.129516E+00 -2.625565E+00
      1873   1  1.902171E+02 -1.771529E+01 -1.561864E+00  1.506441E+01  1.028702E+00  2.267218E+00
      1873   2  1.912627E+02 -1.826673E+01 -9.692888E-01 -7.572856E+00 -8.033766E-01  5.905562E+00
      1873   3  1.965145E+02 -1.659597E+01  6.633456E-01  1.389807E+01  7.196346E-01 -6.267746E+00
      1873   4  1.973717E+02 -1.682114E+01  1.415517E+00 -8.731758E+00 -1.105589E+00 -2.645586E+00
      1873   5  2.467150E+02  3.372964E-01  2.131569E+00  1.530029E+01  1.006546E+00  1.749624E+00
      1873   6  2.477337E+02 -1.788211E-01  2.733158E+00 -6.453216E+00 -8.231795E-01  5.638162E+00
      1873   7  2.527236E+02  1.330291E+00  4.230786E+00  1.391407E+01  7.024722E-01 -6.754053E+00
      1873   8  2.535666E+02  1.133151E+00  4.998475E+00 -7.832282E+00 -1.120415E+00 -2.882298E+00
      1874   1  1.860933E+02 -1.410054E+01 -1.666112E+00  3.155833E+01  7.413198E-01  2.502851E+00
      1874   2  1.908430E+02 -1.795164E+01 -8.959193E-01  9.385392E+00 -1.363152E+00  5.753960E+00
      1874   3  1.925556E+02 -1.309125E+01  5.817485E-01  3.092369E+01  1.106174E+00 -6.084710E+00
      1874   4  1.971265E+02 -1.664951E+01  1.497903E+00  8.706447E+00 -9.915898E-01 -2.830650E+00
      1874   5  2.421312E+02  4.143210E+00  1.947879E+00  3.477443E+01  7.229621E-01  1.997130E+00
      1874   6  2.467329E+02  4.799665E-01  2.775627E+00  1.346711E+01 -1.409440E+00  5.477257E+00
      1874   7  2.483849E+02  5.015167E+00  4.095206E+00  3.392628E+01  1.074207E+00 -6.563675E+00
      1874   8  2.528199E+02  1.638430E+00  5.075080E+00  1.257639E+01 -1.051352E+00 -3.081823E+00
      1875   1  1.789180E+02 -7.803162E+00 -1.743831E+00  4.709847E+01  4.303353E-01  2.660454E+00
      1875   2  1.872037E+02 -1.487351E+01 -8.264367E-01  2.597078E+01 -1.895671E+00  5.521148E+00
      1875   3  1.854226E+02 -6.830127E+00  5.111070E-01  4.699824E+01  1.471977E+00 -5.893012E+00
      1875   4  1.935551E+02 -1.362584E+01  1.569840E+00  2.578937E+01 -8.493500E-01 -3.016076E+00
      1875   5  2.339525E+02  1.107915E+01  1.832660E+00  5.320087E+01  3.792258E-01  2.151708E+00
      1875   6  2.419691E+02  4.339126E+00  2.840855E+00  3.289802E+01 -1.994027E+00  5.221994E+00
      1875   7  2.402954E+02  1.189218E+01  3.997170E+00  5.289449E+01  1.395339E+00 -6.380524E+00
      1875   8  2.481696E+02  5.420771E+00  5.152190E+00  3.251362E+01 -9.729175E-01 -3.295624E+00
      1876   1  1.689360E+02  8.751026E-01 -1.817241E+00  6.115049E+01  9.760884E-02  2.767943E+00
      1876   2  1.805114E+02 -9.163096E+00 -7.536558E-01  4.162368E+01 -2.393555E+00  5.222750E+00
      1876   3  1.753633E+02  1.907850E+00  4.369022E-01  6.157084E+01  1.808171E+00 -5.671926E+00
      1876   4  1.868138E+02 -7.881598E+00  1.635603E+00  4.193474E+01 -6.825129E-01 -3.187911E+00
      1876   5  2.224006E+02  2.078200E+01  1.714862E+00  6.993872E+01  1.394539E-02  2.249683E+00
      1876   6  2.335949E+02  1.120658E+01  2.902287E+00  5.117425E+01 -2.538404E+00  4.892805E+00
      1876   7  2.287021E+02  2.163214E+01  3.885049E+00  7.016567E+01  1.688111E+00 -6.176082E+00
      1876   8  2.397808E+02  1.230010E+01  5.212453E+00  5.129618E+01 -8.632015E-01 -3.505759E+00
      1877   1  1.564995E+02  1.160618E+01 -1.882644E+00  7.325460E+01 -2.475759E-01  2.826477E+00
      1877   2  1.710132E+02 -1.060394E+00 -6.786257E-01  5.583009E+01 -2.847112E+00  4.867186E+00
      1877   3  1.627348E+02  1.278660E+01  3.619695E-01  7.416378E+01  2.113374E+00 -5.421921E+00
      1877   4  1.771558E+02  3.395627E-01  1.694734E+00  5.660866E+01 -4.919326E-01 -3.339870E+00
      1877   5  2.078650E+02  3.287306E+01  1.594099E+00  8.444549E+01 -3.594588E-01  2.292132E+00
      1877   6  2.218994E+02  2.078822E+01  2.954580E+00  6.770125E+01 -3.030850E+00  4.499030E+00
      1877   7  2.140063E+02  3.385226E+01  3.760812E+00  8.517811E+01  1.955378E+00 -5.950677E+00
      1877   8  2.279555E+02  2.198234E+01  5.254253E+00  6.830836E+01 -7.209288E-01 -3.704785E+00
      1878   1  1.420350E+02  2.397046E+01 -1.941313E+00  8.303702E+01 -5.975003E-01  2.836302E+00
      1878   2  1.590521E+02  9.101067E+00 -6.023020E-01  6.813976E+01 -3.249099E+00  4.462426E+00
      1878   3  1.479755E+02  2.537759E+01  2.858405E-01  8.438379E+01  2.385182E+00 -5.146051E+00
      1878   4  1.649331E+02  1.069623E+01  1.746937E+00  6.934162E+01 -2.803499E-01 -3.467549E+00
      1878   5  1.908376E+02  4.687099E+01  1.469397E+00  9.627375E+01 -7.328326E-01  2.280110E+00
      1878   6  2.072934E+02  3.268512E+01  2.996691E+00  8.195803E+01 -3.463537E+00  4.049913E+00
      1878   7  1.967107E+02  4.806255E+01  3.624052E+00  9.746380E+01  2.195338E+00 -5.706380E+00
      1878   8  2.131128E+02  3.406098E+01  5.277021E+00  8.300884E+01 -5.480916E-01 -3.886846E+00
      1879   1  1.260338E+02  3.749084E+01 -1.993186E+00  9.021884E+01 -9.445482E-01  2.797513E+00
      1879   2  1.450508E+02  2.090949E+01 -5.259004E-01  7.818193E+01 -3.593656E+00  4.016717E+00
      1879   3  1.315912E+02  3.918986E+01  2.088926E-01  9.193490E+01  2.621751E+00 -4.848826E+00
      1879   4  1.505819E+02  2.276476E+01  1.791321E+00  7.974621E+01 -5.108990E-02 -3.567731E+00
      1879   5  1.718892E+02  6.222571E+01  1.341815E+00  1.050861E+02 -1.098171E+00  2.214373E+00
      1879   6  1.902824E+02  4.641025E+01  3.028369E+00  9.351912E+01 -3.830048E+00  3.554925E+00
      1879   7  1.773996E+02  6.369893E+01  3.475798E+00  1.066670E+02  2.406809E+00 -5.446783E+00
      1879   8  1.957706E+02  4.803677E+01  5.280446E+00  9.495416E+01 -3.472010E-01 -4.047225E+00
      1880   1  1.090282E+02  5.165072E+01 -2.038704E+00  9.462425E+01 -1.281367E+00  2.711667E+00
      1880   2  1.294947E+02  3.389433E+01 -4.505661E-01  8.567936E+01 -3.876475E+00  3.539380E+00
      1880   3  1.141320E+02  5.368976E+01  1.307941E-01  9.662851E+01  2.821891E+00 -4.534729E+00
      1880   4  1.346033E+02  3.605912E+01  1.827056E+00  8.753141E+01  1.918666E-01 -3.637353E+00
      1880   5  1.516418E+02  7.833941E+01  1.211846E+00  1.106652E+02 -1.447135E+00  2.097310E+00
      1880   6  1.714425E+02  6.140938E+01  3.048675E+00  1.020695E+02 -4.125336E+00  3.024885E+00
      1880   7  1.567132E+02  8.014624E+01  3.316650E+00  1.125564E+02  2.589678E+00 -5.175273E+00
      1880   8  1.765212E+02  6.333988E+01  5.263953E+00  1.038144E+02 -1.214113E-01 -4.181099E+00
      1881   1  9.157043E+01  6.591597E+01 -2.078726E+00  9.618664E+01 -1.600550E+00  2.581538E+00
      1881   2  1.129094E+02  4.754626E+01 -3.780456E-01  9.045737E+01 -4.094193E+00  3.040288E+00
      1881   3  9.616975E+01  6.832424E+01  5.105517E-02  9.838883E+01  2.985467E+00 -4.208120E+00
      1881   4  1.175414E+02  5.005234E+01  1.852599E+00  9.251299E+01  4.446558E-01 -3.673876E+00
      1881   5  1.307424E+02  9.459082E+01  1.078951E+00  1.129207E+02 -1.771631E+00  1.932899E+00
      1881   6  1.513953E+02  7.708528E+01  3.056256E+00  1.074151E+02 -4.345433E+00  2.471324E+00
      1881   7  1.353176E+02  9.676372E+01  3.146134E+00  1.150312E+02  2.744580E+00 -4.894759E+00
      1881   8  1.560043E+02  7.935461E+01  5.226053E+00  1.093847E+02  1.260891E-01 -4.284014E+00
      1882   1  7.420883E+01  7.975885E+01 -2.114293E+00  9.494816E+01 -1.895217E+00  2.411944E+00
      1882   2  9.583911E+01  6.134017E+01 -3.103991E-01  9.244920E+01 -4.244904E+00  2.530545E+00
      1882   3  7.827291E+01  8.254458E+01 -3.177434E-02  9.725376E+01  3.113080E+00 -3.872211E+00
      1882   4  9.995947E+01  6.419924E+01  1.865632E+00  9.461849E+01  7.032083E-01 -3.674357E+00
      1882   5  1.098364E+02  1.103643E+02  9.426241E-01  1.118896E+02 -2.063933E+00  1.727261E+00
      1882   6  1.307822E+02  9.282470E+01  3.049372E+00  1.094882E+02 -4.488137E+00  1.907077E+00
      1882   7  1.138798E+02  1.129146E+02  2.963749E+00  1.141235E+02  2.872960E+00 -4.606896E+00
      1882   8  1.348818E+02  9.544756E+01  5.165187E+00  1.115911E+02  3.915155E-01 -4.351042E+00
      1883   1  5.746552E+01  9.267938E+01 -2.147405E+00  9.105520E+01 -2.158609E+00  2.209559E+00
      1883   2  7.882347E+01  7.475763E+01 -2.505664E-01  9.169509E+01 -4.327613E+00  2.022523E+00
      1883   3  6.098408E+01  9.582938E+01 -1.199021E-01  9.336969E+01  3.206457E+00 -3.529055E+00
      1883   4  8.241656E+01  7.796064E+01  1.862933E+00  9.388695E+01  9.638410E-01 -3.635239E+00
      1883   5  8.954145E+01  1.250747E+02  8.015099E-01  1.077316E+02 -2.316807E+00  1.488590E+00
      1883   6  1.102375E+02  1.080245E+02  3.025450E+00  1.083465E+02 -4.552158E+00  1.346571E+00
      1883   7  9.303800E+01  1.279909E+02  2.767519E+00  1.099921E+02  2.977027E+00 -4.311955E+00
      1883   8  1.138074E+02  1.109935E+02  5.078095E+00  1.104892E+02  6.714754E-01 -4.376306E+00
      1884   1  4.181571E+01  1.042261E+02 -2.180955E+00  8.474881E+01 -2.384668E+00  1.983846E+00
      1884   2  6.237521E+01  8.730891E+01 -2.023859E-01  8.833737E+01 -4.342526E+00  1.530540E+00
      1884   3  4.479654E+01  1.077055E+02 -2.172559E-01  8.698182E+01  3.268087E+00 -3.178349E+00
      1884   4  6.544335E+01  9.082579E+01  1.839755E+00  9.046348E+01  1.223121E+00 -3.551393E+00
      1884   5  7.042201E+01  1.381906E+02  6.527730E-01  1.007178E+02 -2.523718E+00  1.228317E+00
      1884   6  9.036164E+01  1.221165E+02  2.980605E+00  1.041663E+02 -4.537726E+00  8.065133E-01
      1884   7  7.337557E+01  1.414388E+02  2.553619E+00  1.029119E+02  3.059686E+00 -4.007418E+00
      1884   8  9.340047E+01  1.254022E+02  4.960018E+00  1.062576E+02  9.624363E-01 -4.352045E+00
      1885   1  2.767076E+01  1.140139E+02 -2.218707E+00  7.635084E+01 -2.568587E+00  1.747765E+00
      1885   2  4.696059E+01  9.855329E+01 -1.709304E-01  8.260970E+01 -4.291793E+00  1.072089E+00
      1885   3  3.013727E+01  1.177653E+02 -3.296073E-01  7.842029E+01  3.300581E+00 -2.816528E+00
      1885   4  4.952160E+01  1.023316E+02  1.789097E+00  8.458847E+01  1.477016E+00 -3.414695E+00
      1885   5  5.296898E+01  1.492549E+02  4.920226E-01  9.121542E+01 -2.679501E+00  9.617088E-01
      1885   6  7.169833E+01  1.345905E+02  2.909225E+00  9.722995E+01 -4.447270E+00  3.069863E-01
      1885   7  5.540021E+01  1.527777E+02  2.315778E+00  9.325805E+01  3.123802E+00 -3.687203E+00
      1885   8  7.422140E+01  1.381402E+02  4.803559E+00  9.918543E+01  1.259980E+00 -4.267336E+00
      1886   1  1.536438E+01  1.217365E+02 -2.266065E+00  6.624675E+01 -2.707127E+00  1.518261E+00
      1886   2  3.298376E+01  1.081159E+02 -1.622752E-01  7.482309E+01 -4.179433E+00  6.682988E-01
      1886   3  1.735219E+01  1.256801E+02 -4.654693E-01  6.808176E+01  3.306456E+00 -2.435890E+00
      1886   4  3.506835E+01  1.120802E+02  1.701956E+00  7.658269E+01  1.721170E+00 -3.213212E+00
      1886   5  3.758206E+01  1.578980E+02  3.116068E-01  7.966725E+01 -2.781112E+00  7.086799E-01
      1886   6  5.471459E+01  1.450102E+02  2.802319E+00  8.790877E+01 -4.285573E+00 -1.274596E-01
      1886   7  3.952442E+01  1.616142E+02  2.043022E+00  8.148469E+01  3.171608E+00 -3.340391E+00
      1886   8  5.675067E+01  1.487470E+02  4.596573E+00  8.965374E+01  1.558883E+00 -4.106580E+00
      1887   1  5.147142E+00  1.271775E+02 -2.328913E+00  5.486941E+01 -2.800527E+00  1.316787E+00
      1887   2  2.077596E+01  1.156995E+02 -1.847819E-01  6.535035E+01 -4.012988E+00  3.448945E-01
      1887   3  6.699030E+00  1.312085E+02 -6.359199E-01  5.641324E+01  3.286405E+00 -2.023793E+00
      1887   4  2.242377E+01  1.197498E+02  1.565313E+00  6.683167E+01  1.949529E+00 -2.930018E+00
      1887   5  2.456226E+01  1.638492E+02  1.007926E-01  6.657369E+01 -2.829347E+00  4.945579E-01
      1887   6  3.978869E+01  1.530270E+02  2.645980E+00  7.664546E+01 -4.061687E+00 -4.668979E-01
      1887   7  2.605744E+01  1.676515E+02  1.719438E+00  6.810683E+01  3.203183E+00 -2.950076E+00
      1887   8  4.137648E+01  1.568484E+02  4.320499E+00  7.811853E+01  1.851508E+00 -3.848266E+00
      1888   1 -2.811590E+00  1.302207E+02 -2.411956E+00  4.268687E+01 -2.853729E+00  1.167626E+00
      1888   2  1.059223E+01  1.210946E+02 -2.496090E-01  5.461841E+01 -3.804922E+00  1.310005E-01
      1888   3 -1.648794E+00  1.342080E+02 -8.523693E-01  4.389943E+01  3.238586E+00 -1.563819E+00
      1888   4  1.185024E+01  1.251045E+02  1.362438E+00  5.577750E+01  2.154008E+00 -2.543997E+00
      1888   5  1.411286E+01  1.669525E+02 -1.521944E-01  5.247776E+01 -2.830934E+00  3.487956E-01
      1888   6  2.720469E+01  1.583940E+02  2.418763E+00  6.394349E+01 -3.791172E+00 -6.765687E-01
      1888   7  1.520734E+01  1.707060E+02  1.326284E+00  5.368517E+01  3.214993E+00 -2.493693E+00
      1888   8  2.839083E+01  1.621695E+02  3.948036E+00  6.509952E+01  2.126726E+00 -3.464658E+00
      1889   1 -8.417734E+00  1.308738E+02 -2.513190E+00  3.020391E+01 -2.877805E+00  1.091999E+00
      1889   2  2.606327E+00  1.241971E+02 -3.718201E-01  4.311866E+01 -3.573323E+00  5.288266E-02
      1889   3 -7.595322E+00  1.346598E+02 -1.120064E+00  3.106385E+01  3.158777E+00 -1.041156E+00
      1889   4  3.530217E+00  1.280149E+02  1.073378E+00  4.392933E+01  2.326393E+00 -2.035547E+00
      1889   5  6.353749E+00  1.672154E+02 -4.484889E-01  3.796528E+01 -2.800822E+00  2.991133E-01
      1889   6  1.715541E+01  1.610074E+02  2.094563E+00  5.037584E+01 -3.498100E+00 -7.233742E-01
      1889   7  7.096720E+00  1.707575E+02  8.550784E-01  3.882637E+01  3.199190E+00 -1.947494E+00
      1889   8  1.799583E+01  1.645800E+02  3.448026E+00  5.118958E+01  2.370477E+00 -2.926880E+00
      1890   1 -1.165767E+01  1.293263E+02 -2.612112E+00  1.798145E+01 -2.889300E+00  1.092447E+00
      1890   2 -3.125943E+00  1.250529E+02 -5.676780E-01  3.145858E+01 -3.340629E+00  1.160395E-01
      1890   3 -1.111877E+01  1.327398E+02 -1.419881E+00  1.848700E+01  3.044271E+00 -4.596729E-01
      1890   4 -2.461298E+00  1.285150E+02  6.844192E-01  3.191486E+01  2.465751E+00 -1.405850E+00
      1890   5  1.345410E+00  1.649494E+02 -7.414822E-01  2.367689E+01 -2.763567E+00  3.535462E-01
      1890   6  9.732708E+00  1.610315E+02  1.663333E+00  3.662787E+01 -3.216016E+00 -5.971588E-01
      1890   7  1.795635E+00  1.681062E+02  3.520751E-01  2.419436E+01  3.145441E+00 -1.303514E+00
      1890   8  1.030357E+01  1.642347E+02  2.813933E+00  3.709800E+01  2.570821E+00 -2.225102E+00
      1891   1 -1.266163E+01  1.259759E+02 -2.673391E+00  6.658031E+00 -2.902685E+00  1.117016E+00
      1891   2 -6.672042E+00  1.239288E+02 -8.100873E-01  2.048485E+01 -3.126534E+00  2.592511E-01
      1891   3 -1.231955E+01  1.288853E+02 -1.695031E+00  6.822549E+00  2.908030E+00  1.166331E-01
      1891   4 -6.162823E+00  1.269048E+02  2.419416E-01  2.060875E+01  2.590995E+00 -7.263714E-01
      1891   5 -8.292098E-01  1.611148E+02 -8.166201E-01  1.033738E+01 -2.747439E+00  4.499307E-01
      1891   6  5.067431E+00  1.592885E+02  1.302692E+00  2.362440E+01 -2.977905E+00 -3.786565E-01
      1891   7 -5.736346E-01  1.637816E+02  6.528387E-02  1.053119E+01  3.051807E+00 -6.265983E-01
      1891   8  5.483392E+00  1.620191E+02  2.254840E+00  2.377918E+01  2.731841E+00 -1.440974E+00
      1892   1 -1.199954E+01  1.211852E+02 -2.718354E+00 -2.998819E+00 -2.911153E+00  1.014520E+00
      1892   2 -9.089259E+00  1.210056E+02 -1.122951E+00  1.174323E+01 -2.925172E+00  2.829439E-01
      1892   3 -1.169142E+01  1.236375E+02 -1.889033E+00 -3.148937E+00  2.788134E+00  4.541118E-01
      1892   4 -8.580219E+00  1.235348E+02 -2.111436E-01  1.161492E+01  2.721051E+00 -2.725844E-01
      1892   5  1.137297E-01  1.582546E+02  1.479124E-01 -1.400210E+00 -2.753917E+00  3.778355E-01
      1892   6  3.005924E+00  1.581776E+02  1.903935E+00  1.276630E+01 -2.777798E+00 -3.611020E-01
      1892   7  3.954129E-01  1.606239E+02  9.449470E-01 -1.502256E+00  2.942492E+00 -2.247320E-01
      1892   8  3.480423E+00  1.606205E+02  2.779634E+00  1.268521E+01  2.867654E+00 -9.588460E-01
      1893   1 -9.144076E+00  1.247710E+02 -1.372377E+00 -1.150918E+01  3.141334E+00  1.389385E-01
      1893   2 -1.253762E+01  1.248094E+02 -3.095488E+00  3.385017E+00  3.222267E+00  1.156449E+00
      1893   3 -8.989742E+00  1.280714E+02 -3.362363E-01 -1.099040E+01 -2.278316E+00 -3.793069E-01
      1893   4 -1.294581E+01  1.278486E+02 -2.307230E+00  3.782579E+00 -2.085269E+00  6.466698E-01
      1893   5  3.121050E+00  1.619658E+02  2.179018E+00 -1.265068E+01  2.802518E+00 -2.916186E-01
      1893   6 -4.325140E-02  1.620995E+02  7.489482E-01  1.662046E+00  2.795571E+00  7.219699E-01
      1893   7  3.209703E+00  1.650977E+02  3.145204E+00 -1.226596E+01 -2.618850E+00 -7.192326E-01
      1893   8 -4.947096E-01  1.649808E+02  1.477995E+00  1.930285E+00 -2.518374E+00  3.026284E-01
      1894   1 -6.741042E+00  1.287343E+02 -7.726853E-01 -2.081859E+01  3.245399E+00 -5.319919E-02
      1894   2 -1.327158E+01  1.306084E+02 -2.984036E+00 -6.951036E+00  3.337240E+00  1.361054E+00
      1894   3 -6.809299E+00  1.332648E+02  5.583110E-01 -2.049591E+01 -2.005871E+00 -1.024908E+00
      1894   4 -1.366224E+01  1.349253E+02 -1.811035E+00 -6.802877E+00 -1.975052E+00  3.875424E-01
      1894   5  5.366870E+00  1.641552E+02  2.401162E+00 -2.405534E+01  2.769765E+00 -5.919933E-01
      1894   6 -1.025933E+00  1.658389E+02  2.630212E-03 -1.072917E+01  2.839091E+00  7.944661E-01
      1894   7  5.179344E+00  1.683640E+02  3.598460E+00 -2.379493E+01 -2.476609E+00 -1.619462E+00
      1894   8 -1.523448E+00  1.698423E+02  1.047699E+00 -1.063647E+01 -2.465972E+00 -2.346273E-01
      1895   1 -3.108305E+00  1.305345E+02 -6.571634E-01 -3.253489E+01  3.380182E+00 -1.456401E-01
      1895   2 -1.209912E+01  1.347474E+02 -2.962446E+00 -1.904438E+01  3.454363E+00  1.512833E+00
      1895   3 -3.281103E+00  1.357987E+02  8.543825E-01 -3.255056E+01 -1.928147E+00 -1.580656E+00
      1895   4 -1.242075E+01  1.398079E+02 -1.549719E+00 -1.924968E+01 -1.982153E+00  5.841503E-02
      1895   5  1.016465E+01  1.665847E+02  2.697460E+00 -3.778173E+01  2.867831E+00 -8.236704E-01
      1895   6  1.320663E+00  1.704289E+02  5.775502E-03 -2.481789E+01  2.970366E+00  8.021984E-01
      1895   7  9.830746E+00  1.714545E+02  4.037574E+00 -3.779903E+01 -2.420520E+00 -2.372181E+00
      1895   8  8.434330E-01  1.751027E+02  1.250220E+00 -2.501742E+01 -2.441007E+00 -7.648250E-01
      1896   1  2.955259E+00  1.299827E+02 -6.502287E-01 -4.498677E+01  3.500268E+00 -1.074393E-01
      1896   2 -8.483684E+00  1.367162E+02 -2.937988E+00 -3.208701E+01  3.565683E+00  1.720952E+00
      1896   3  2.809723E+00  1.356583E+02  9.848996E-01 -4.544066E+01 -1.924478E+00 -2.025965E+00
      1896   4 -8.694236E+00  1.421587E+02 -1.380549E+00 -3.272697E+01 -1.992882E+00 -2.286587E-01
      1896   5  1.793341E+01  1.668490E+02  2.892474E+00 -5.231866E+01  3.006609E+00 -8.783060E-01
      1896   6  6.725930E+00  1.731044E+02  1.920794E-01 -3.992251E+01  3.126505E+00  9.202428E-01
      1896   7  1.759532E+01  1.720988E+02  4.334718E+00 -5.273458E+01 -2.386878E+00 -2.915922E+00
      1896   8  6.325232E+00  1.781301E+02  1.559377E+00 -4.051723E+01 -2.395297E+00 -1.147068E+00
      1897   1  1.148126E+01  1.268349E+02 -7.264127E-01 -5.725156E+01  3.603655E+00  2.974248E-02
      1897   2 -2.309499E+00  1.361274E+02 -2.909757E+00 -4.538418E+01  3.654642E+00  2.003310E+00
      1897   3  1.145122E+01  1.327097E+02  9.961586E-01 -5.820027E+01 -1.908132E+00 -2.384415E+00
      1897   4 -2.345567E+00  1.417334E+02 -1.252505E+00 -4.650104E+01 -1.984084E+00 -4.504886E-01
      1897   5  2.855667E+01  1.641710E+02  2.994859E+00 -6.665304E+01  3.144716E+00 -8.028145E-01
      1897   6  1.509521E+01  1.728916E+02  4.088761E-01 -5.524896E+01  3.267918E+00  1.148254E+00
      1897   7  2.830487E+01  1.696124E+02  4.511428E+00 -6.753153E+01 -2.326854E+00 -3.330686E+00
      1897   8  1.483776E+01  1.780748E+02  1.863001E+00 -5.628903E+01 -2.325273E+00 -1.417471E+00
      1898   1  2.239128E+01  1.211043E+02 -8.352308E-01 -6.866389E+01  3.678269E+00  2.362901E-01
      1898   2  6.400646E+00  1.328398E+02 -2.882444E+00 -5.831684E+01  3.705082E+00  2.350163E+00
      1898   3  2.256201E+01  1.270212E+02  9.543535E-01 -7.012729E+01 -1.869471E+00 -2.686935E+00
      1898   4  6.615236E+00  1.384551E+02 -1.147200E+00 -5.991916E+01 -1.959559E+00 -6.191947E-01
      1898   5  4.191801E+01  1.584445E+02  3.048077E+00 -8.003259E+01  3.257685E+00 -6.384726E-01
      1898   6  2.635320E+01  1.695234E+02  6.177425E-01 -7.008949E+01  3.371225E+00  1.462826E+00
      1898   7  4.183428E+01  1.639330E+02  4.621634E+00 -8.139795E+01 -2.242414E+00 -3.666993E+00
      1898   8  2.631205E+01  1.747225E+02  2.140098E+00 -7.158835E+01 -2.240779E+00 -1.609710E+00
      1899   1  3.548375E+01  1.129509E+02 -9.585968E-01 -7.868393E+01  3.716266E+00  4.870739E-01
      1899   2  1.753812E+01  1.268979E+02 -2.855521E+00 -7.032799E+01  3.706633E+00  2.744904E+00
      1899   3  3.594297E+01  1.187817E+02  8.869759E-01 -8.065586E+01 -1.809491E+00 -2.954793E+00
      1899   4  1.808408E+01  1.324012E+02 -1.052993E+00 -7.239986E+01 -1.925500E+00 -7.481528E-01
      1899   5  5.779052E+01  1.498288E+02  3.072443E+00 -9.183025E+01  3.333725E+00 -4.177899E-01
      1899   6  4.035860E+01  1.630443E+02  8.134934E-01 -8.380052E+01  3.423543E+00  1.839546E+00
      1899   7  5.795763E+01  1.552449E+02  4.693348E+00 -9.368116E+01 -2.138017E+00 -3.955742E+00
      1899   8  4.060982E+01  1.681465E+02  2.394790E+00 -8.574747E+01 -2.149932E+00 -1.747195E+00
      1900   1  5.047049E+01  1.026375E+02 -1.090222E+00 -8.684424E+01  3.714548E+00  7.623097E-01
      1900   2  3.090914E+01  1.184688E+02 -2.826929E+00 -8.090358E+01  3.653328E+00  3.171052E+00
      1900   3  5.130669E+01  1.082712E+02  8.057266E-01 -8.929787E+01 -1.729488E+00 -3.201804E+00
      1900   4  3.186701E+01  1.237583E+02 -9.620119E-01 -8.340994E+01 -1.886477E+00 -8.479652E-01
      1900   5  7.584995E+01  1.386246E+02  3.076467E+00 -1.014984E+02  3.368354E+00 -1.647773E-01
      1900   6  5.687732E+01  1.536629E+02  9.993088E-01 -9.578963E+01  3.417850E+00  2.257557E+00
      1900   7  7.635161E+01  1.438639E+02  4.739878E+00 -1.038139E+02 -2.016292E+00 -4.215294E+00
      1900   8  5.749698E+01  1.585726E+02  2.635432E+00 -9.815588E+01 -2.058287E+00 -1.845216E+00
      1901   1  6.697911E+01  9.051395E+01 -1.228588E+00 -9.273902E+01  3.673115E+00  1.046892E+00
      1901   2  4.622813E+01  1.078203E+02 -2.794479E+00 -8.957198E+01  3.542351E+00  3.614064E+00
      1901   3  6.827798E+01  9.585176E+01  7.150709E-01 -9.562906E+01 -1.629341E+00 -3.435940E+00
      1901   4  4.767422E+01  1.128085E+02 -8.690073E-01 -9.246126E+01 -1.845166E+00 -9.259006E-01
      1901   5  9.567110E+01  1.252357E+02  3.062708E+00 -1.085593E+02  3.361041E+00  1.028982E-01
      1901   6  7.556779E+01  1.417040E+02  1.178894E+00 -1.055159E+02  3.350641E+00  2.699785E+00
      1901   7  9.658955E+01  1.302047E+02  4.766790E+00 -1.113015E+02 -1.877787E+00 -4.456124E+00
      1901   8  7.662914E+01  1.463385E+02  2.868837E+00 -1.082574E+02 -1.969350E+00 -1.913525E+00
      1902   1  8.455715E+01  7.700996E+01 -1.373299E+00 -9.603384E+01  3.593606E+00  1.329383E+00
      1902   2  6.311605E+01  9.531227E+01 -2.756697E+00 -9.591737E+01  3.372497E+00  4.061214E+00
      1902   3  8.639781E+01  8.196425E+01  6.168748E-01 -9.929782E+01 -1.508101E+00 -3.661084E+00
      1902   4  6.511840E+01  9.992444E+01 -7.710174E-01 -9.912296E+01 -1.803493E+00 -9.869989E-01
      1902   5  1.167325E+02  1.101558E+02  3.031595E+00 -1.126173E+02  3.313241E+00  3.720808E-01
      1902   6  9.597935E+01  1.275944E+02  1.354249E+00 -1.125054E+02  3.220235E+00  3.151751E+00
      1902   7  1.181452E+02  1.147709E+02  4.776155E+00 -1.157321E+02 -1.721929E+00 -4.683805E+00
      1902   8  9.754925E+01  1.318826E+02  3.098670E+00 -1.155640E+02 -1.885716E+00 -1.958887E+00
      1903   1  1.026841E+02  6.262319E+01 -1.523626E+00 -9.648239E+01  3.478912E+00  1.601336E+00
      1903   2  8.110857E+01  8.138688E+01 -2.712576E+00 -9.959829E+01  3.144074E+00  4.501351E+00
      1903   3  1.051351E+02  6.711859E+01  5.125616E-01 -1.000417E+02 -1.364327E+00 -3.878076E+00
      1903   4  8.372380E+01  8.556149E+01 -6.664202E-01 -1.030403E+02 -1.762760E+00 -1.034716E+00
      1903   5  1.384309E+02  9.395635E+01  2.983247E+00 -1.133777E+02  3.227978E+00  6.330423E-01
      1903   6  1.175628E+02  1.118526E+02  1.525964E+00 -1.163719E+02  3.026756E+00  3.600775E+00
      1903   7  1.404069E+02  9.814410E+01  4.768844E+00 -1.167954E+02 -1.547284E+00 -4.900562E+00
      1903   8  1.196987E+02  1.157342E+02  3.326192E+00 -1.196769E+02 -1.809006E+00 -1.986402E+00
      1904   1  1.207898E+02  4.790110E+01 -1.678582E+00 -9.394241E+01  3.332371E+00  1.856274E+00
      1904   2  9.967160E+01  6.655526E+01 -2.661529E+00 -1.003665E+02  2.858515E+00  4.924594E+00
      1904   3  1.239054E+02  5.187671E+01  4.032500E-01 -9.770420E+01 -1.196945E+00 -4.085983E+00
      1904   4  1.029415E+02  7.024571E+01 -5.545687E-01 -1.039536E+02 -1.724053E+00 -1.071543E+00
      1904   5  1.601035E+02  7.726786E+01  2.918125E+00 -1.106657E+02  3.108951E+00  8.783051E-01
      1904   6  1.396900E+02  9.507401E+01  1.694164E+00 -1.168390E+02  2.771583E+00  4.035782E+00
      1904   7  1.626998E+02  8.096765E+01  4.745723E+00 -1.143030E+02 -1.352500E+00 -5.106651E+00
      1904   8  1.424372E+02  9.850234E+01  3.551856E+00 -1.203084E+02 -1.740438E+00 -1.999940E+00
      1905   1  1.382773E+02  3.341924E+01 -1.836979E+00 -8.838706E+01  3.157795E+00  2.089346E+00
      1905   2  1.182221E+02  5.137755E+01 -2.603355E+00 -9.808203E+01  2.518251E+00  5.321998E+00
      1905   3  1.420938E+02  3.683108E+01  2.899258E-01 -9.224686E+01 -1.005398E+00 -4.282575E+00
      1905   4  1.221706E+02  5.455390E+01 -4.355435E-01 -1.017145E+02 -1.688405E+00 -1.099333E+00
      1905   5  1.810542E+02  6.075473E+01  2.836596E+00 -1.044402E+02  2.960327E+00  1.102283E+00
      1905   6  1.616782E+02  7.790826E+01  1.858170E+00 -1.137567E+02  2.457108E+00  4.446795E+00
      1905   7  1.843129E+02  6.392103E+01  4.707244E+00 -1.082019E+02 -1.136780E+00 -5.300739E+00
      1905   8  1.650668E+02  8.085119E+01  3.774980E+00 -1.172999E+02 -1.681187E+00 -2.002549E+00
      1906   1  1.545483E+02  1.975652E+01 -1.997566E+00 -7.991001E+01  2.959166E+00  2.296726E+00
      1906   2  1.361526E+02  3.643971E+01 -2.538121E+00 -9.272338E+01  2.126631E+00  5.685157E+00
      1906   3  1.590820E+02  2.257995E+01  1.736156E-01 -8.375516E+01 -7.897701E-01 -4.465039E+00
      1906   4  1.407847E+02  3.908993E+01 -3.097838E-01 -9.629631E+01 -1.656805E+00 -1.119989E+00
      1906   5  2.005833E+02  4.508729E+01  2.739149E+00 -9.479936E+01  2.786574E+00  1.300644E+00
      1906   6  1.828189E+02  6.103229E+01  2.016948E+00 -1.071125E+02  2.087077E+00  4.824346E+00
      1906   7  2.045280E+02  4.769138E+01  4.653483E+00 -9.858100E+01 -8.997152E-01 -5.480775E+00
      1906   8  1.868615E+02  6.347326E+01  3.993982E+00 -1.106325E+02 -1.631837E+00 -1.997454E+00
      1907   1  1.690298E+02  7.468540E+00 -2.159193E+00 -6.872530E+01  2.740816E+00  2.475744E+00
      1907   2  1.528566E+02  2.232826E+01 -2.466244E+00 -8.439216E+01  1.688148E+00  6.006654E+00
      1907   3  1.742750E+02  9.699824E+00  5.523031E-02 -7.243879E+01 -5.506809E-01 -4.630068E+00
      1907   4  1.581569E+02  2.445949E+01 -1.780662E-01 -8.779907E+01 -1.629976E+00 -1.135138E+00
      1907   5  2.180201E+02  3.091236E+01  2.626927E+00 -8.198194E+01  2.592748E+00  1.470310E+00
      1907   6  2.024089E+02  4.512249E+01  2.169768E+00 -9.703716E+01  1.666367E+00  5.160200E+00
      1907   7  2.226550E+02  3.294478E+01  4.585555E+00 -8.567359E+01 -6.411599E-01 -5.644112E+00
      1907   8  2.071004E+02  4.706252E+01  4.207980E+00 -1.004342E+02 -1.592671E+00 -1.987341E+00
      1908   1  1.812001E+02 -2.936862E+00 -2.320615E+00 -5.516078E+01  2.507170E+00  2.624464E+00
      1908   2  1.677563E+02  9.604066E+00 -2.388344E+00 -7.331112E+01  1.208136E+00  6.279611E+00
      1908   3  1.871279E+02 -1.279758E+00 -6.436775E-02 -5.862583E+01 -2.895056E-01 -4.774359E+00
      1908   4  1.736886E+02  1.124256E+01 -4.151372E-02 -7.644805E+01 -1.608565E+00 -1.146527E+00
      1908   5  2.327507E+02  1.882304E+01  2.500627E+00 -6.635921E+01  2.383881E+00  1.609123E+00
      1908   6  2.197802E+02  3.082283E+01  2.315349E+00 -8.380094E+01  1.200874E+00  5.446711E+00
      1908   7  2.380585E+02  2.029443E+01  4.503785E+00 -6.984937E+01 -3.618934E-01 -5.787877E+00
      1908   8  2.250963E+02  3.228045E+01  4.415186E+00 -8.697579E+01 -1.563777E+00 -1.974937E+00
      1909   1  1.906131E+02 -1.102356E+01 -2.480416E+00 -3.964582E+01  2.262673E+00  2.741570E+00
      1909   2  1.803283E+02 -1.224719E+00 -2.305622E+00 -5.981667E+01  6.931029E-01  6.497738E+00
      1909   3  1.971713E+02 -9.900873E+00 -1.844022E-01 -4.275010E+01 -8.102171E-03 -4.894634E+00
      1909   4  1.868365E+02 -3.280695E-02  9.846519E-02 -6.258549E+01 -1.592505E+00 -1.155849E+00
      1909   5  2.442463E+02  9.330841E+00  2.360945E+00 -4.842103E+01  2.165580E+00  1.715757E+00
      1909   6  2.343303E+02  1.871442E+01  2.452533E+00 -6.780443E+01  6.985287E-01  5.677274E+00
      1909   7  2.501867E+02  1.027235E+01  4.408160E+00 -5.160054E+01 -6.268978E-02 -5.908971E+00
      1909   8  2.402271E+02  1.972693E+01  4.614143E+00 -7.066154E+01 -1.543744E+00 -1.962419E+00
      1910   1  1.969191E+02 -1.644851E+01 -2.637606E+00 -2.269307E+01  2.011282E+00  2.826450E+00
      1910   2  1.901306E+02 -9.719326E+00 -2.217784E+00 -4.434429E+01  1.498500E-01  6.656424E+00
      1910   3  2.040339E+02 -1.579889E+01 -3.039336E-01 -2.533331E+01  2.908448E-01 -4.987859E+00
      1910   4  1.971387E+02 -8.914482E+00  2.401450E-01 -4.665537E+01 -1.582043E+00 -1.165415E+00
      1910   5  2.520884E+02  2.842627E+00  2.208516E+00 -2.875720E+01  1.944065E+00  1.789904E+00
      1910   6  2.455500E+02  9.294271E+00  2.577407E+00 -4.956314E+01  1.699190E-01  5.845953E+00
      1910   7  2.585943E+02  3.302771E+00  4.296032E+00 -3.152208E+01  2.572520E-01 -6.004626E+00
      1910   8  2.519584E+02  9.908526E+00  4.795790E+00 -5.201173E+01 -1.527782E+00 -1.953952E+00
      1911   1  1.998978E+02 -1.897520E+01 -2.786641E+00 -4.873243E+00  1.756197E+00  2.891959E+00
      1911   2  1.968179E+02 -1.557460E+01 -2.139791E+00 -2.739887E+01 -4.106957E-01  6.796726E+00
      1911   3  2.074657E+02 -1.871617E+01 -4.203599E-01 -6.980712E+00  6.044096E-01 -5.037597E+00
      1911   4  2.042280E+02 -1.506067E+01  3.723053E-01 -2.921069E+01 -1.572073E+00 -1.129851E+00
      1911   5  2.559749E+02 -3.732686E-01  2.035596E+00 -8.017497E+00  1.711330E+00  1.845657E+00
      1911   6  2.530189E+02  2.898043E+00  2.665193E+00 -2.966374E+01 -3.961934E-01  5.999542E+00
      1911   7  2.629915E+02 -3.048097E-01  4.175490E+00 -1.030237E+01  5.818289E-01 -6.056400E+00
      1911   8  2.598890E+02  3.216711E+00  4.957527E+00 -3.166450E+01 -1.534971E+00 -1.897662E+00
      1912   1  1.994573E+02 -1.846696E+01 -2.920541E+00  1.298721E+01  1.483177E+00  2.935231E+00
      1912   2  2.001650E+02 -1.846787E+01 -2.074593E+00 -9.603380E+00 -1.007667E+00  6.654528E+00
      1912   3  2.073579E+02 -1.853104E+01 -5.435381E-01  1.165445E+01  9.261118E-01 -5.084475E+00
      1912   4  2.078677E+02 -1.822454E+01  4.467541E-01 -1.083641E+01 -1.555658E+00 -1.378436E+00
      1912   5  2.559669E+02 -6.505434E-02  1.929762E+00  1.284515E+01  1.447380E+00  1.881361E+00
      1912   6  2.566691E+02 -4.379796E-02  2.794337E+00 -8.863495E+00 -9.977644E-01  5.850711E+00
      1912   7  2.633225E+02 -3.590166E-01  4.073842E+00  1.130099E+01  9.008757E-01 -6.107486E+00
      1912   8  2.638396E+02 -3.719592E-02  5.089142E+00 -1.031182E+01 -1.535362E+00 -2.151833E+00
      1913   1  1.956076E+02 -1.505862E+01 -3.013159E+00  3.051565E+01  1.184909E+00  3.221005E+00
      1913   2  2.000387E+02 -1.839850E+01 -1.998376E+00  8.299080E+00 -1.589063E+00  6.485623E+00
      1913   3  2.036732E+02 -1.524900E+01 -6.200217E-01  3.002468E+01  1.270631E+00 -4.878304E+00
      1913   4  2.079103E+02 -1.827726E+01  5.353612E-01  7.854391E+00 -1.494395E+00 -1.608223E+00
      1913   5  2.517944E+02  3.513297E+00  1.798170E+00  3.335812E+01  1.195841E+00  2.175664E+00
      1913   6  2.560974E+02  3.487419E-01  2.878272E+00  1.200888E+01 -1.563023E+00  5.674986E+00
      1913   7  2.593943E+02  3.080317E+00  3.982801E+00  3.264383E+01  1.273913E+00 -5.896116E+00
      1913   8  2.635157E+02  2.200160E-01  5.209195E+00  1.133906E+01 -1.476055E+00 -2.392408E+00
      1914   1  1.884784E+02 -8.807586E+00 -3.086354E+00  4.708390E+01  8.555054E-01  3.413527E+00
      1914   2  1.964923E+02 -1.538180E+01 -1.917100E+00  2.584767E+01 -2.141324E+00  6.233191E+00
      1914   3  1.965207E+02 -8.984817E+00 -6.925235E-01  4.740768E+01  1.589822E+00 -4.677733E+00
      1914   4  2.043576E+02 -1.523558E+01  6.194602E-01  2.617814E+01 -1.400218E+00 -1.839328E+00
      1914   5  2.437394E+02  1.035863E+01  1.698821E+00  5.281941E+01  8.877021E-01  2.371745E+00
      1914   6  2.515018E+02  4.102441E+00  2.965590E+00  3.241225E+01 -2.111918E+00  5.412268E+00
      1914   7  2.513581E+02  9.908214E+00  3.890302E+00  5.291088E+01  1.602475E+00 -5.696550E+00
      1914   8  2.589548E+02  3.967269E+00  5.304589E+00  3.251014E+01 -1.390256E+00 -2.638794E+00
      1915   1  1.783227E+02  2.155398E-02 -3.147695E+00  6.213494E+01  4.997957E-01  3.558789E+00
      1915   2  1.896774E+02 -9.551548E+00 -1.830438E+00  4.244713E+01 -2.656603E+00  5.917230E+00
      1915   3  1.861621E+02  1.348981E-02 -7.612427E-01  6.324601E+01  1.878450E+00 -4.446063E+00
      1915   4  1.973617E+02 -9.236558E+00  6.984777E-01  4.352655E+01 -1.275271E+00 -2.056826E+00
      1915   5  2.320776E+02  2.016905E+01  1.599589E+00  7.057331E+01  5.558284E-01  2.521729E+00
      1915   6  2.430655E+02  1.104624E+01  3.043998E+00  5.165413E+01 -2.619832E+00  5.084232E+00
      1915   7  2.395399E+02  1.986013E+01  3.791599E+00  7.145099E+01  1.904368E+00 -5.466356E+00
      1915   8  2.503830E+02  1.105186E+01  5.382445E+00  5.250139E+01 -1.268297E+00 -2.874945E+00
      1916   1  1.655024E+02  1.108272E+01 -3.198275E+00  7.517185E+01  1.265741E-01  3.655430E+00
      1916   2  1.798539E+02 -1.156533E+00 -1.739312E+00  5.754450E+01 -3.125935E+00  5.544311E+00
      1916   3  1.729721E+02  1.138459E+01 -8.277648E-01  7.700803E+01  2.134260E+00 -4.187097E+00
      1916   4  1.871963E+02 -5.375651E-01  7.734340E-01  5.931439E+01 -1.121708E+00 -2.255790E+00
      1916   5  2.172144E+02  3.255146E+01  1.495961E+00  8.603769E+01  2.073271E-01  2.622868E+00
      1916   6  2.310976E+02  2.088187E+01  3.112206E+00  6.909854E+01 -3.078094E+00  4.697888E+00
      1916   7  2.243526E+02  3.252649E+01  3.679754E+00  8.764535E+01  2.175086E+00 -5.210550E+00
      1916   8  2.381170E+02  2.116536E+01  5.441379E+00  7.064250E+01 -1.113196E+00 -3.095348E+00
      1917   1  1.504674E+02  2.393773E+01 -3.238490E+00  8.578295E+01 -2.563442E-01  3.701171E+00
      1917   2  1.673837E+02  9.452648E+00 -1.644168E+00  7.065249E+01 -3.542130E+00  5.121720E+00
      1917   3  1.574204E+02  2.467345E+01 -8.915153E-01  8.825123E+01  2.354689E+00 -3.905481E+00
      1917   4  1.742414E+02  1.049427E+01  8.444255E-01  7.302490E+01 -9.425069E-01 -2.431969E+00
      1917   5  1.996636E+02  4.700704E+01  1.388629E+00  9.872552E+01 -1.500061E-01  2.673366E+00
      1917   6  2.160260E+02  3.319409E+01  3.169601E+00  8.418573E+01 -3.479147E+00  4.261343E+00
      1917   7  2.063270E+02  4.739219E+01  3.555934E+00  1.009756E+02  2.412558E+00 -4.933092E+00
      1917   8  2.226013E+02  3.387656E+01  5.480840E+00  8.634365E+01 -9.270590E-01 -3.294709E+00
      1918   1  1.337376E+02  3.808157E+01 -3.268237E+00  9.365693E+01 -6.412366E-01  3.695190E+00
      1918   2  1.527163E+02  2.183963E+01 -1.545741E+00  8.136859E+01 -3.899715E+00  4.657710E+00
      1918   3  1.400519E+02  3.935133E+01 -9.520557E-01  9.663934E+01  2.538036E+00 -3.606317E+00
      1918   4  1.589704E+02  2.339983E+01  9.110346E-01  8.423101E+01 -7.413686E-01 -2.581768E+00
      1918   5  1.800229E+02  6.295801E+01  1.278254E+00  1.082650E+02 -5.082062E-01  2.672606E+00
      1918   6  1.983816E+02  4.747113E+01  3.215828E+00  9.645638E+01 -3.817468E+00  3.783512E+00
      1918   7  1.860859E+02  6.385666E+01  3.421268E+00  1.110441E+02  2.615566E+00 -4.638629E+00
      1918   8  2.043898E+02  4.865190E+01  5.500946E+00  9.912022E+01 -7.133032E-01 -3.468509E+00
      1919   1  1.158809E+02  5.296405E+01 -3.287644E+00  9.859361E+01 -1.020364E+00  3.637972E+00
      1919   2  1.363690E+02  3.550274E+01 -1.444919E+00  8.939001E+01 -4.194276E+00  4.161070E+00
      1919   3  1.214640E+02  5.483977E+01 -1.009058E+00  1.019533E+02  2.683265E+00 -3.294934E+00
      1919   4  1.419289E+02  3.765054E+01  9.728958E-01  9.261132E+01 -5.224224E-01 -2.702375E+00
      1919   5  1.589499E+02  7.977269E+01  1.165620E+00  1.144123E+02 -8.595285E-01  2.621294E+00
      1919   6  1.787728E+02  6.312776E+01  3.250686E+00  1.055681E+02 -4.088672E+00  3.273920E+00
      1919   7  1.643156E+02  8.126047E+01  3.276962E+00  1.175874E+02  2.783144E+00 -4.332058E+00
      1919   8  1.841189E+02  6.487963E+01  5.501971E+00  1.086101E+02 -4.760388E-01 -3.612980E+00
      1920   1  9.748770E+01  6.801369E+01 -3.297090E+00  1.005096E+02 -1.386106E+00  3.531329E+00
      1920   2  1.189042E+02  4.989777E+01 -1.342555E+00  9.452473E+01 -4.422996E+00  3.641340E+00
      1920   3  1.022805E+02  7.053618E+01 -1.062294E+00  1.040979E+02  2.790311E+00 -2.976361E+00
      1920   4  1.237107E+02  5.267233E+01  1.029713E+00  9.796214E+01 -2.902487E-01 -2.791315E+00
      1920   5  1.371295E+02  9.679190E+01  1.050658E+00  1.170584E+02 -1.196158E+00  2.521535E+00
      1920   6  1.578575E+02  7.953087E+01  3.273365E+00  1.113072E+02 -4.289800E+00  2.742932E+00
      1920   7  1.417335E+02  9.891332E+01  3.123328E+00  1.204834E+02  2.915540E+00 -4.017843E+00
      1920   8  1.624770E+02  8.189679E+01  5.483461E+00  1.145872E+02 -2.195886E-01 -3.724547E+00
      1921   1  7.914696E+01  8.266266E+01 -3.297241E+00  9.943970E+01 -1.730966E+00  3.378555E+00
      1921   2  1.009048E+02  6.446125E+01 -1.239845E+00  9.669662E+01 -4.584088E+00  3.108415E+00
      1921   3  8.312398E+01  8.584056E+01 -1.111846E+00  1.031038E+02  2.860058E+00 -2.655276E+00
      1921   4  1.049314E+02  6.787046E+01  1.080836E+00  1.002029E+02 -4.933421E-02 -2.846810E+00
      1921   5  1.152496E+02  1.133599E+02  9.339228E-01  1.162317E+02 -1.510282E+00  2.377117E+00
      1921   6  1.363177E+02  9.602883E+01  3.283783E+00  1.135958E+02 -4.419065E+00  2.201295E+00
      1921   7  1.190612E+02  1.161275E+02  2.961572E+00  1.197555E+02  3.014002E+00 -3.699905E+00
      1921   8  1.401790E+02  9.902069E+01  5.445942E+00  1.169679E+02  5.159869E-02 -3.800316E+00
      1922   1  6.142145E+01  9.637062E+01 -3.288761E+00  9.553145E+01 -2.047996E+00  3.184665E+00
      1922   2  8.294943E+01  7.863601E+01 -1.137717E+00  9.594522E+01 -4.676966E+00  2.572747E+00
      1922   3  6.459073E+01  1.001805E+02 -1.157961E+00  9.912168E+01  2.894143E+00 -2.335445E+00
      1922   4  8.620227E+01  8.265684E+01  1.125824E+00  9.937560E+01  1.958433E-01 -2.867201E+00
      1922   5  9.396858E+01  1.288493E+02  8.151731E-01  1.120914E+02 -1.794801E+00  2.193631E+00
      1922   6  1.148272E+02  1.119782E+02  3.281425E+00  1.124890E+02 -4.476077E+00  1.660409E+00
      1922   7  9.699101E+01  1.322438E+02  2.791993E+00  1.155652E+02  3.080254E+00 -3.381240E+00
      1922   8  1.179315E+02  1.155768E+02  5.389515E+00  1.158092E+02  3.327671E-01 -3.837483E+00
      1923   1  4.482383E+01  1.086466E+02 -3.272936E+00  8.903530E+01 -2.330637E+00  2.956298E+00
      1923   2  6.558829E+01  9.189452E+01 -1.037073E+00  9.242006E+01 -4.702446E+00  2.045744E+00
      1923   3  4.722492E+01  1.130346E+02 -1.201537E+00  9.241209E+01  2.895082E+00 -2.019514E+00
      1923   4  6.810354E+01  9.647425E+01  1.164142E+00  9.563920E+01  4.407457E-01 -2.850424E+00
      1923   5  7.388994E+01  1.426881E+02  6.937750E-01  1.049171E+02 -2.043005E+00  1.978405E+00
      1923   6  9.402529E+01  1.267715E+02  3.265957E+00  1.081697E+02 -4.461781E+00  1.132816E+00
      1923   7  7.615748E+01  1.466587E+02  2.614057E+00  1.082011E+02  3.116949E+00 -3.063550E+00
      1923   8  9.640381E+01  1.309276E+02  5.313941E+00  1.113022E+02  6.192345E-01 -3.832593E+00
      1924   1  2.979874E+01  1.190669E+02 -3.251321E+00  8.029023E+01 -2.573068E+00  2.702220E+00
      1924   2  4.932139E+01  1.037586E+02 -9.388760E-01  8.636957E+01 -4.661945E+00  1.539591E+00
      1924   3  3.149771E+01  1.239518E+02 -1.244312E+00  8.332975E+01  2.866016E+00 -1.708485E+00
      1924   4  5.116175E+01  1.088175E+02  1.194639E+00  8.925724E+01  6.815314E-01 -2.793966E+00
      1924   5  5.553992E+01  1.543798E+02  5.685938E-01  9.509259E+01 -2.249034E+00  1.741358E+00
      1924   6  7.449176E+01  1.398605E+02  3.237239E+00  1.009346E+02 -4.377990E+00  6.320756E-01
      1924   7  5.711400E+01  1.588482E+02  2.426559E+00  9.806228E+01  3.127151E+00 -2.746539E+00
      1924   8  7.620264E+01  1.444970E+02  5.218979E+00  1.037584E+02  9.066334E-01 -3.781623E+00
      1925   1  1.670789E+01  1.272888E+02 -3.225649E+00  6.970465E+01 -2.771274E+00  2.434079E+00
      1925   2  3.458247E+01  1.138172E+02 -8.434291E-01  7.812537E+01 -4.558999E+00  1.068798E+00
      1925   3  1.779241E+01  1.325637E+02 -1.289217E+00  7.230421E+01  2.809614E+00 -1.400419E+00
      1925   4  3.583162E+01  1.192507E+02  1.215977E+00  8.058125E+01  9.133553E-01 -2.692891E+00
      1925   5  3.934807E+01  1.635168E+02  4.370238E-01  8.308357E+01 -2.408835E+00  1.495626E+00
      1925   6  5.672548E+01  1.507718E+02  3.194436E+00  9.117553E+01 -4.228829E+00  1.743656E-01
      1925   7  4.031256E+01  1.683788E+02  2.225932E+00  8.563508E+01  3.113366E+00 -2.426775E+00
      1925   8  5.784882E+01  1.557868E+02  5.103028E+00  9.358899E+01  1.189334E+00 -3.677969E+00
      1926   1  5.822221E+00  1.330579E+02 -3.198429E+00  5.773989E+01 -2.922500E+00  2.165754E+00
      1926   2  2.172667E+01  1.217365E+02 -7.527106E-01  6.808645E+01 -4.398484E+00  6.502723E-01
      1926   3  6.395294E+00  1.385916E+02 -1.341405E+00  5.982158E+01  2.728425E+00 -1.090629E+00
      1926   4  2.248424E+01  1.274156E+02  1.223722E+00  7.003433E+01  1.131224E+00 -2.539349E+00
      1926   5  2.563889E+01  1.697904E+02  2.951970E-01  6.941943E+01 -2.520071E+00  1.257364E+00
      1926   6  4.113219E+01  1.591207E+02  3.134860E+00  7.936207E+01 -4.020196E+00 -2.208775E-01
      1926   7  2.609346E+01  1.749168E+02  2.005600E+00  7.147339E+01  3.077598E+00 -2.097298E+00
      1926   8  4.176441E+01  1.643873E+02  4.960846E+00  8.128743E+01  1.461187E+00 -3.511258E+00
      1927   1 -2.674444E+00  1.362181E+02 -3.171302E+00  4.489731E+01 -3.027775E+00  1.914052E+00
      1927   2  1.102853E+01  1.272672E+02 -6.731911E-01  5.671073E+01 -4.188720E+00  3.048336E-01
      1927   3 -2.502216E+00  1.418518E+02 -1.408585E+00  4.641223E+01  2.622849E+00 -7.699475E-01
      1927   4  1.140349E+01  1.330362E+02  1.206071E+00  5.810252E+01  1.328702E+00 -2.320261E+00
      1927   5  1.463426E+01  1.730053E+02  1.403840E-01  5.467805E+01 -2.584352E+00  1.047561E+00
      1927   6  2.802038E+01  1.646220E+02  3.049893E+00  6.603028E+01 -3.762183E+00 -5.286101E-01
      1927   7  1.468759E+01  1.782399E+02  1.757300E+00  5.618439E+01  3.019691E+00 -1.744458E+00
      1927   8  2.826861E+01  1.699866E+02  4.779005E+00  6.741829E+01  1.714004E+00 -3.263886E+00
      1928   1 -8.680091E+00  1.367321E+02 -3.144203E+00  3.172011E+01 -3.092560E+00  1.696253E+00
      1928   2  2.678694E+00  1.302600E+02 -6.233354E-01  4.452660E+01 -3.942963E+00  5.780541E-02
      1928   3 -8.797659E+00  1.422688E+02 -1.502214E+00  3.265446E+01  2.491869E+00 -4.258356E-01
      1928   4  2.785792E+00  1.359259E+02  1.135161E+00  4.534902E+01  1.499786E+00 -2.015715E+00
      1928   5  6.467838E+00  1.731273E+02 -2.106320E-02  3.948703E+01 -2.609299E+00  8.909675E-01
      1928   6  1.760521E+01  1.671298E+02  2.919474E+00  5.179355E+01 -3.472504E+00 -7.161733E-01
      1928   7  6.231112E+00  1.782768E+02  1.476820E+00  4.043210E+01  2.937028E+00 -1.346021E+00
      1928   8  1.758423E+01  1.724034E+02  4.528961E+00  5.263106E+01  1.937780E+00 -2.906353E+00
      1929   1 -1.217565E+01  1.347443E+02 -3.111992E+00  1.881263E+01 -3.128258E+00  1.523466E+00
      1929   2 -3.251447E+00  1.307086E+02 -6.532072E-01  3.218644E+01 -3.679785E+00 -6.193927E-02
      1929   3 -1.248155E+01  1.399204E+02 -1.640083E+00  1.919796E+01  2.337196E+00 -4.649510E-02
      1929   4 -3.289579E+00  1.360181E+02  9.450879E-01  3.247335E+01  1.648863E+00 -1.597366E+00
      1929   5  1.212257E+00  1.704312E+02 -1.484724E-01  2.453715E+01 -2.612945E+00  8.117629E-01
      1929   6  9.996966E+00  1.667620E+02  2.701760E+00  3.738885E+01 -3.182047E+00 -7.429785E-01
      1929   7  7.922286E-01  1.752436E+02  1.185465E+00  2.495727E+01  2.825830E+00 -8.690495E-01
      1929   8  9.833938E+00  1.717022E+02  4.156421E+00  3.771439E+01  2.125362E+00 -2.390484E+00
      1930   1 -1.327924E+01  1.306336E+02 -3.076866E+00  6.853489E+00 -3.147191E+00  1.382247E+00
      1930   2 -6.802070E+00  1.288538E+02 -7.883247E-01  2.059708E+01 -3.411941E+00 -2.278709E-02
      1930   3 -1.369172E+01  1.350464E+02 -1.871310E+00  6.774395E+00  2.188465E+00  3.465392E-01
      1930   4 -6.810520E+00  1.334439E+02  5.940259E-01  2.044215E+01  1.854657E+00 -1.044675E+00
      1930   5 -1.038187E+00  1.658890E+02 -8.776804E-02  1.060267E+01 -2.630498E+00  8.112942E-01
      1930   6  5.305677E+00  1.642982E+02  2.390403E+00  2.380971E+01 -2.944739E+00 -5.669269E-01
      1930   7 -1.541840E+00  1.699950E+02  1.000144E+00  1.060474E+01  2.696148E+00 -2.789454E-01
      1930   8  5.190104E+00  1.685744E+02  3.647797E+00  2.373891E+01  2.315739E+00 -1.643782E+00
      1931   1 -1.252659E+01  1.248782E+02 -3.137481E+00 -3.363380E+00 -3.145361E+00  1.171852E+00
      1931   2 -9.145475E+00  1.248741E+02 -1.385667E+00  1.140137E+01 -3.151219E+00  1.402996E-01
      1931   3 -1.295792E+01  1.279708E+02 -2.337954E+00 -3.798857E+00  2.174871E+00  6.416992E-01
      1931   4 -8.983539E+00  1.282160E+02 -3.342311E-01  1.094651E+01  2.272967E+00 -3.902447E-01
      1931   5 -1.230634E-02  1.622238E+02  7.232881E-01 -1.648068E+00 -2.708682E+00  7.351056E-01
      1931   6  3.141843E+00  1.621249E+02  2.185121E+00  1.254026E+01 -2.810331E+00 -2.869589E-01
      1931   7 -4.958281E-01  1.651350E+02  1.451644E+00 -1.944580E+00  2.616628E+00  2.951745E-01
      1931   8  3.228858E+00  1.652760E+02  3.156549E+00  1.222513E+01  2.615216E+00 -7.271547E-01
      1932   1 -1.504341E+01  5.320421E+01 -3.480896E-01 -5.532439E+00  2.760470E+00  5.556293E-01
      1932   2 -2.089948E+01  5.249933E+01 -2.717403E+00  1.080332E+01  2.821045E+00  6.962231E-01
      1932   3 -1.490129E+01  5.373209E+01 -1.468982E-01 -5.511050E+00 -3.049577E+00  1.391031E-01
      1932   4 -2.075738E+01  5.301206E+01 -2.520165E+00  1.075561E+01 -3.146184E+00  2.737776E-01
      1932   5 -2.810256E-01  9.675728E+01  5.054740E+00 -7.451590E+00  2.737614E+00  4.344901E-01
      1932   6 -6.101089E+00  9.587273E+01  2.296498E+00  8.200173E+00  2.801897E+00  5.745696E-01
      1932   7 -1.507811E-01  9.725802E+01  5.243788E+00 -7.433398E+00 -3.070015E+00 -1.212581E-01
      1932   8 -5.971545E+00  9.635827E+01  2.480180E+00  8.152158E+00 -3.156310E+00  1.317155E-02
      1933   1 -1.703516E+01  5.553031E+01 -8.317516E-01 -1.028115E+01  2.734262E+00  6.802930E-01
      1933   2 -2.467164E+01  5.801500E+01 -2.470704E+00  5.615866E+00  2.913443E+00  8.605809E-01
      1933   3 -1.689407E+01  5.614307E+01 -6.076504E-01 -1.025277E+01 -3.315330E+00 -1.103631E-01
      1933   4 -2.450369E+01  5.859493E+01 -2.242256E+00  5.577649E+00 -3.286891E+00  5.189419E-02
      1933   5 -1.917971E+00  9.877189E+01  3.993722E+00 -1.439108E+01  2.707643E+00  5.598963E-01
      1933   6 -9.422768E+00  1.009645E+02  1.984601E+00  8.403020E-01  2.901429E+00  7.404913E-01
      1933   7 -1.795432E+00  9.935145E+01  4.199734E+00 -1.435434E+01 -3.328458E+00 -3.649435E-01
      1933   8 -9.274859E+00  1.015122E+02  2.193889E+00  8.132349E-01 -3.279019E+00 -2.015911E-01
      1934   1 -1.701542E+01  5.567163E+01 -9.043673E-01 -1.656786E+01  2.720664E+00  8.032654E-01
      1934   2 -2.688310E+01  6.117884E+01 -2.180635E+00 -1.207821E+00  3.004225E+00  1.043203E+00
      1934   3 -1.686664E+01  5.638177E+01 -6.497744E-01 -1.655546E+01 -3.512916E+00 -4.799941E-01
      1934   4 -2.667710E+01  6.183645E+01 -1.913279E+00 -1.259786E+00 -3.380239E+00 -2.707391E-01
      1934   5 -6.966992E-01  9.928195E+01  3.834149E+00 -2.299520E+01  2.693256E+00  6.822028E-01
      1934   6 -1.033623E+01  1.043735E+02  2.179582E+00 -8.278311E+00  3.003249E+00  9.209585E-01
      1934   7 -5.841921E-01  9.994050E+01  4.057645E+00 -2.296094E+01 -3.515200E+00 -7.360087E-01
      1934   8 -1.016904E+01  1.049816E+02  2.414994E+00 -8.305714E+00 -3.349630E+00 -5.266120E-01
      1935   1 -1.494773E+01  5.394220E+01 -7.512167E-01 -2.354800E+01  2.689716E+00  9.336107E-01
      1935   2 -2.736742E+01  6.240668E+01 -1.892009E+00 -9.005292E+00  3.082539E+00  1.256728E+00
      1935   3 -1.478685E+01  5.475940E+01 -4.627482E-01 -2.356247E+01 -3.672374E+00 -9.249243E-01
      1935   4 -2.712154E+01  6.315052E+01 -1.583498E+00 -9.074111E+00 -3.429840E+00 -6.453782E-01
      1935   5  3.317132E+00  9.817890E+01  4.198713E+00 -3.241080E+01  2.663153E+00  8.095534E-01
      1935   6 -8.770555E+00  1.061009E+02  2.666984E+00 -1.847701E+01  3.094355E+00  1.133798E+00
      1935   7  3.422769E+00  9.893685E+01  4.445796E+00 -3.239077E+01 -3.661722E+00 -1.184013E+00
      1935   8 -8.583348E+00  1.067887E+02  2.933523E+00 -1.850906E+01 -3.374310E+00 -9.014534E-01
      1936   1 -1.104981E+01  5.063256E+01 -5.208204E-01 -3.045415E+01  2.641886E+00  1.081184E+00
      1936   2 -2.612973E+01  6.196268E+01 -1.635322E+00 -1.719282E+01  3.143074E+00  1.509455E+00
      1936   3 -1.087690E+01  5.155026E+01 -2.017682E-01 -3.050870E+01 -3.789198E+00 -1.402978E+00
      1936   4 -2.584569E+01  6.278837E+01 -1.288591E+00 -1.728402E+01 -3.433835E+00 -1.030214E+00
      1936   5  9.743237E+00  9.526321E+01  4.736762E+00 -4.176939E+01  2.616389E+00  9.548605E-01
      1936   6 -4.895177E+00  1.059290E+02  3.225792E+00 -2.906333E+01  3.168083E+00  1.389648E+00
      1936   7  9.839328E+00  9.612192E+01  5.005759E+00 -4.177837E+01 -3.765917E+00 -1.660859E+00
      1936   8 -4.692229E+00  1.067000E+02  3.522181E+00 -2.910743E+01 -3.353674E+00 -1.279153E+00
      1937   1 -5.589362E+00  4.593802E+01 -3.058722E-01 -3.678918E+01  2.575391E+00  1.247104E+00
      1937   2 -2.321670E+01  5.995523E+01 -1.423944E+00 -2.534859E+01  3.179248E+00  1.800853E+00
      1937   3 -5.404273E+00  4.693850E+01  3.754778E-02 -3.689586E+01 -3.859892E+00 -1.889067E+00
      1937   4 -2.289897E+01  6.084898E+01 -1.045098E+00 -2.546735E+01 -3.393539E+00 -1.400926E+00
      1937   5  1.820411E+01  9.048183E+01  5.255808E+00 -5.044026E+01  2.550990E+00  1.119416E+00
      1937   6  1.126342E+00  1.037236E+02  3.744719E+00 -3.947870E+01  3.216947E+00  1.687781E+00
      1937   7  1.828851E+01  9.143016E+01  5.541971E+00 -5.049347E+01 -3.825284E+00 -2.141217E+00
      1937   8  1.338489E+00  1.045704E+02  4.066384E+00 -3.954348E+01 -3.290747E+00 -1.635560E+00
      1938   1  1.201630E+00  3.999551E+01 -1.460574E-01 -4.221472E+01  2.487815E+00  1.424973E+00
      1938   2 -1.869048E+01  5.641563E+01 -1.260746E+00 -3.312612E+01  3.184368E+00  2.124366E+00
      1938   3  1.400955E+00  4.105845E+01  2.158065E-01 -4.238403E+01 -3.882219E+00 -2.373374E+00
      1938   4 -1.834346E+01  5.736273E+01 -8.555437E-01 -3.327721E+01 -3.312109E+00 -1.747494E+00
      1938   5  2.840252E+01  8.391487E+01  5.689966E+00 -5.796395E+01  2.464224E+00  1.296319E+00
      1938   6  9.159514E+00  9.946364E+01  4.193042E+00 -4.925590E+01  3.233585E+00  2.020861E+00
      1938   7  2.847541E+01  8.493737E+01  5.988530E+00 -5.807611E+01 -3.838274E+00 -2.616688E+00
      1938   8  9.374910E+00  1.003762E+02  4.535457E+00 -4.935062E+01 -3.189680E+00 -1.962364E+00
      1939   1  9.098226E+00  3.295713E+01 -4.847300E-02 -4.645785E+01  2.377797E+00  1.605992E+00
      1939   2 -1.264471E+01  5.139116E+01 -1.139415E+00 -4.020003E+01  3.152936E+00  2.471170E+00
      1939   3  9.316582E+00  3.406246E+01  3.272659E-01 -4.669889E+01 -3.854376E+00 -2.852829E+00
      1939   4 -1.227127E+01  5.237884E+01 -7.121972E-01 -4.038850E+01 -3.192871E+00 -2.066732E+00
      1939   5  4.005343E+01  7.574132E+01  6.030947E+00 -6.396280E+01  2.354548E+00  1.476206E+00
      1939   6  1.904438E+01  9.322695E+01  4.573832E+00 -5.796699E+01  3.211947E+00  2.379374E+00
      1939   7  4.011884E+01  7.682160E+01  6.338520E+00 -6.414820E+01 -3.803442E+00 -3.085591E+00
      1939   8  1.925973E+01  9.419580E+01  4.933871E+00 -5.810201E+01 -3.054492E+00 -2.257901E+00
      1940   1  1.785075E+01  2.502784E+01 -4.481474E-03 -4.928571E+01  2.245197E+00  1.781574E+00
      1940   2 -5.226344E+00  4.499017E+01 -1.049813E+00 -4.625857E+01  3.080955E+00  2.832125E+00
      1940   3  1.809630E+01  2.615611E+01  3.819577E-01 -4.960596E+01 -3.774760E+00 -3.326028E+00
      1940   4 -4.826522E+00  4.600746E+01 -6.033449E-01 -4.648951E+01 -3.038806E+00 -2.357720E+00
      1940   5  5.283574E+01  6.622920E+01  6.291594E+00 -6.811481E+01  2.221872E+00  1.650115E+00
      1940   6  3.055797E+01  8.518874E+01  4.900445E+00 -6.521443E+01  3.147787E+00  2.753733E+00
      1940   7  5.290221E+01  6.735005E+01  6.606163E+00 -6.838670E+01 -3.719250E+00 -3.547491E+00
      1940   8  3.077398E+01  8.620502E+01  5.276546E+00 -6.540076E+01 -2.888495E+00 -2.522292E+00
      1941   1  2.716880E+01  1.647221E+01 -1.125784E-03 -5.051158E+01  2.091271E+00  1.944459E+00
      1941   2  3.354883E+00  3.739494E+01 -9.818101E-01 -5.101627E+01  2.965599E+00  3.198456E+00
      1941   3  2.745326E+01  1.760380E+01  3.940082E-01 -5.091694E+01 -3.641836E+00 -3.790780E+00
      1941   4  3.783598E+00  3.843165E+01 -5.177121E-01 -5.129515E+01 -2.853023E+00 -2.619751E+00
      1941   5  6.637112E+01  5.572515E+01  6.488532E+00 -7.015964E+01  2.067450E+00  1.810477E+00
      1941   6  4.339853E+01  7.561598E+01  5.185453E+00 -7.064318E+01  3.037898E+00  3.134691E+00
      1941   7  6.645222E+01  5.686795E+01  6.809279E+00 -7.053013E+01 -3.584268E+00 -4.000939E+00
      1941   8  4.361995E+01  7.666995E+01  5.577208E+00 -7.089246E+01 -2.695261E+00 -2.755743E+00
      1942   1  3.672332E+01  7.604673E+00 -2.617080E-02 -5.000787E+01  1.918415E+00  2.089085E+00
      1942   2  1.282907E+01  2.885673E+01 -9.268692E-01 -5.423071E+01  2.805564E+00  3.562081E+00
      1942   3  3.706138E+01  8.719352E+00  3.764413E-01 -5.050134E+01 -3.454458E+00 -4.243228E+00
      1942   4  1.329237E+01  2.990236E+01 -4.459719E-01 -5.456252E+01 -2.638534E+00 -2.851488E+00
      1942   5  8.022649E+01  4.463864E+01  6.635586E+00 -6.991365E+01  1.893964E+00  1.951614E+00
      1942   6  5.718977E+01  6.485794E+01  5.438994E+00 -7.395970E+01  2.880827E+00  3.513809E+00
      1942   7  8.034050E+01  4.578249E+01  6.962595E+00 -7.039195E+01 -3.397143E+00 -4.442574E+00
      1942   8  5.742632E+01  6.593818E+01  5.846892E+00 -7.428312E+01 -2.478014E+00 -2.957651E+00
      1943   1  4.615824E+01 -1.227829E+00 -7.002660E-02 -4.771805E+01  1.729687E+00  2.211320E+00
      1943   2  2.287549E+01  1.968326E+01 -8.790267E-01 -5.571800E+01  2.600482E+00  3.915388E+00
      1943   3  4.656710E+01 -1.511504E-01  3.392846E-01 -4.829937E+01 -3.212408E+00 -4.678125E+00
      1943   4  2.338152E+01  2.072597E+01 -3.818325E-01 -5.610668E+01 -2.398986E+00 -3.051232E+00
      1943   5  9.392955E+01  3.342244E+01  6.743057E+00 -6.728482E+01  1.704660E+00  2.069312E+00
      1943   6  7.149257E+01  5.332883E+01  5.666694E+00 -7.494980E+01  2.676076E+00  3.883037E+00
      1943   7  9.409889E+01  3.454401E+01  7.076831E+00 -6.787656E+01 -3.157500E+00 -4.867595E+00
      1943   8  7.175793E+01  5.442079E+01  6.091529E+00 -7.535695E+01 -2.240547E+00 -3.127118E+00
      1944   1  5.510704E+01 -9.663728E+00 -1.258187E-01 -4.366153E+01  1.528752E+00  2.308296E+00
      1944   2  3.313684E+01  1.022317E+01 -8.342493E-01 -5.536338E+01  2.351273E+00  4.251367E+00
      1944   3  5.560524E+01 -8.646609E+00  2.897319E-01 -4.432623E+01 -2.916416E+00 -5.089230E+00
      1944   4  3.369623E+01  1.124971E+01 -3.210395E-01 -5.581108E+01 -2.138244E+00 -3.216985E+00
      1944   5  1.069907E+02  2.255001E+01  6.817469E+00 -6.228007E+01  1.503540E+00  2.160694E+00
      1944   6  8.582627E+01  4.149006E+01  5.872365E+00 -7.349195E+01  2.424526E+00  4.234922E+00
      1944   7  1.072407E+02  2.362384E+01  7.158870E+00 -6.298583E+01 -2.865738E+00 -5.270115E+00
      1944   8  8.613836E+01  4.257634E+01  6.315197E+00 -7.398981E+01 -1.986752E+00 -3.262935E+00
      1945   1  6.320935E+01 -1.734750E+01 -1.894045E-01 -3.793652E+01  1.319509E+00  2.378271E+00
      1945   2  4.323489E+01  8.479278E-01 -7.901771E-01 -5.312924E+01  2.059629E+00  4.563367E+00
      1945   3  6.381579E+01 -1.641154E+01  2.319546E-01 -3.867569E+01 -2.568577E+00 -5.469649E+00
      1945   4  4.385972E+01  1.843357E+00 -2.613578E-01 -5.363570E+01 -1.860991E+00 -3.346964E+00
      1945   5  1.189248E+02  1.249140E+01  6.862632E+00 -5.500971E+01  1.294714E+00  2.224047E+00
      1945   6  9.968818E+01  2.982647E+01  6.057292E+00 -6.956626E+01  2.127848E+00  4.562332E+00
      1945   7  1.192831E+02  1.349085E+01  7.212723E+00 -5.582447E+01 -2.523682E+00 -5.643564E+00
      1945   8  1.000678E+02  3.088661E+01  6.519195E+00 -7.015802E+01 -1.721261E+00 -3.364147E+00
      1946   1  7.012937E+01 -2.394658E+01 -2.580733E-01 -3.071688E+01  1.106042E+00  2.420483E+00
      1946   2  5.278724E+01 -8.066219E+00 -7.458345E-01 -4.905836E+01  1.728404E+00  4.845398E+00
      1946   3  7.086200E+01 -2.311215E+01  1.687552E-01 -3.151656E+01 -2.172186E+00 -5.812358E+00
      1946   4  5.349105E+01 -7.117613E+00 -2.017290E-01 -4.961993E+01 -1.572079E+00 -3.439614E+00
      1946   5  1.292752E+02  3.690470E+00  6.880520E+00 -4.568428E+01  1.082643E+00  2.258761E+00
      1946   6  1.125774E+02  1.882401E+01  6.221987E+00 -6.325782E+01  1.789103E+00  4.858900E+00
      1946   7  1.297691E+02  4.588800E+00  7.240389E+00 -4.659631E+01 -2.134132E+00 -5.981099E+00
      1946   8  1.130479E+02  1.983598E+01  6.704093E+00 -6.394172E+01 -1.448589E+00 -3.429893E+00
      1947   1  7.557231E+01 -2.916945E+01 -3.304909E-01 -2.224604E+01  8.923968E-01  2.435141E+00
      1947   2  6.142570E+01 -1.615892E+01 -7.018417E-01 -4.327403E+01  1.361125E+00  5.091990E+00
      1947   3  7.644734E+01 -2.845483E+01  1.015462E-01 -2.308768E+01 -1.731856E+00 -6.110439E+00
      1947   4  6.222221E+01 -1.527309E+01 -1.427480E-01 -4.388361E+01 -1.276928E+00 -3.493977E+00
      1947   5  1.376364E+02 -3.458194E+00  6.872093E+00 -3.460726E+01  8.715272E-01  2.265111E+00
      1947   6  1.240170E+02  8.942490E+00  6.364445E+00 -5.475479E+01  1.411938E+00  5.118704E+00
      1947   7  1.382921E+02 -2.686203E+00  7.242821E+00 -3.559845E+01 -1.701391E+00 -6.276038E+00
      1947   8  1.246022E+02  9.883181E+00  6.867788E+00 -5.552362E+01 -1.173865E+00 -3.459972E+00
      1948   1  7.930225E+01 -3.278161E+01 -4.054482E-01 -1.282570E+01  6.823517E-01  2.423209E+00
      1948   2  6.881692E+01 -2.310532E+01 -6.589655E-01 -3.597306E+01  9.622006E-01  5.298459E+00
      1948   3  8.033223E+01 -3.220136E+01  3.169521E-02 -1.368624E+01 -1.253565E+00 -6.357439E+00
      1948   4  6.971949E+01 -2.229647E+01 -8.481944E-02 -3.661986E+01 -9.810961E-01 -3.509521E+00
      1948   5  1.436727E+02 -8.631791E+00  6.836421E+00 -2.216059E+01  6.654201E-01  2.244300E+00
      1948   6  1.335786E+02  5.915991E-01  6.482184E+00 -4.433872E+01  1.000897E+00  5.336855E+00
      1948   7  1.445139E+02 -8.007588E+00  7.219586E+00 -2.320644E+01 -1.231026E+00 -6.521944E+00
      1948   8  1.343028E+02  1.439932E+00  7.008495E+00 -4.517979E+01 -9.023720E-01 -3.454294E+00
      1949   1  8.116809E+01 -3.462228E+01 -4.777874E-01 -2.801824E+00  4.789213E-01  2.386657E+00
      1949   2  7.468137E+01 -2.866207E+01 -6.248427E-01 -2.741395E+01  5.364724E-01  5.461188E+00
      1949   3  8.236002E+01 -3.418509E+01 -3.548480E-02 -3.654937E+00 -7.451084E-01 -6.547226E+00
      1949   4  7.570164E+01 -2.793918E+01 -3.450260E-02 -2.808423E+01 -6.907359E-01 -3.486039E+00
      1949   5  1.471380E+02 -1.160648E+01  6.770405E+00 -8.781023E+00  4.675953E-01  2.198191E+00
      1949   6  1.408930E+02 -5.925741E+00  6.559739E+00 -3.236261E+01  5.609773E-01  5.509524E+00
      1949   7  1.481834E+02 -1.114501E+01  7.168143E+00 -9.852191E+00 -7.303774E-01 -6.712996E+00
      1949   8  1.417793E+02 -5.185031E+00  7.112162E+00 -3.325860E+01 -6.399002E-01 -3.413062E+00
      1950   1  8.106685E+01 -3.463245E+01 -5.583342E-01  7.454600E+00  2.859004E-01  2.329314E+00
      1950   2  7.880770E+01 -3.256573E+01 -5.844874E-01 -1.793000E+01  8.942278E-02  5.582399E+00
      1950   3  8.242748E+01 -3.433710E+01 -1.082091E-01  6.634047E+00 -2.125214E-01 -6.672496E+00
      1950   4  7.995580E+01 -3.194005E+01  2.177725E-02 -1.860822E+01 -4.102131E-01 -3.416167E+00
      1950   5  1.479547E+02 -1.222513E+01  6.702985E+00  5.024069E+00  2.791930E-01  2.133423E+00
      1950   6  1.457807E+02 -1.025439E+01  6.655866E+00 -1.929764E+01  9.706730E-02  5.639208E+00
      1950   7  1.492145E+02 -1.193434E+01  7.117235E+00  3.960249E+00 -2.094589E-01 -6.839386E+00
      1950   8  1.468429E+02 -9.641173E+00  7.233538E+00 -2.022510E+01 -3.927253E-01 -3.329019E+00
      1951   1  7.908922E+01 -3.260266E+01 -5.598622E-01  1.670905E+01  1.116017E-01  2.295015E+00
      1951   2  8.093841E+01 -3.433033E+01 -4.801979E-01 -7.488306E+00 -3.442982E-01  5.421483E+00
      1951   3  8.057953E+01 -3.246777E+01 -1.197989E-01  1.604928E+01  3.311908E-01 -6.713217E+00
      1951   4  8.222357E+01 -3.386349E+01  1.129088E-01 -8.240961E+00 -1.231530E-01 -3.594100E+00
      1951   5  1.460577E+02 -1.031308E+01  6.667554E+00  1.785108E+01  1.153973E-01  2.094633E+00
      1951   6  1.478361E+02 -1.196177E+01  6.759391E+00 -5.333104E+00 -3.517390E-01  5.467297E+00
      1951   7  1.475096E+02 -1.021159E+01  7.084999E+00  1.693670E+01  3.301065E-01 -6.882568E+00
      1951   8  1.490971E+02 -1.153656E+01  7.336682E+00 -6.336482E+00 -1.354273E-01 -3.518302E+00
      1952   1  7.545722E+01 -2.925986E+01 -6.342700E-01  2.578755E+01 -8.340674E-02  2.455990E+00
      1952   2  8.116851E+01 -3.452475E+01 -4.364505E-01  2.198948E+00 -7.648145E-01  5.330558E+00
      1952   3  7.703447E+01 -2.918645E+01 -1.820732E-01  2.532713E+01  8.419047E-01 -6.540677E+00
      1952   4  8.256643E+01 -3.416293E+01  1.572215E-01  1.606562E+00  1.610488E-01 -3.658406E+00
      1952   5  1.418570E+02 -6.571697E+00  6.568356E+00  3.035207E+01 -7.542394E-02  2.269591E+00
      1952   6  1.473538E+02 -1.159144E+01  6.815571E+00  7.751154E+00 -7.875247E-01  5.371350E+00
      1952   7  1.434427E+02 -6.562210E+00  7.006516E+00  2.965546E+01  8.297339E-01 -6.701255E+00
      1952   8  1.487730E+02 -1.130032E+01  7.401626E+00  6.928107E+00  1.183807E-01 -3.593366E+00
      1953   1  7.018088E+01 -2.437001E+01 -7.009747E-01  3.409407E+01 -2.864987E-01  2.540701E+00
      1953   2  7.958644E+01 -3.297001E+01 -3.817516E-01  1.174954E+01 -1.163279E+00  5.174189E+00
      1953   3  7.181147E+01 -2.434209E+01 -2.428392E-01  3.380571E+01  1.341298E+00 -6.358507E+00
      1953   4  8.107350E+01 -3.269654E+01  2.093603E-01  1.129587E+01  4.620629E-01 -3.704478E+00
      1953   5  1.352587E+02 -8.575978E-01  6.429767E+00  4.192408E+01 -2.716838E-01  2.363791E+00
      1953   6  1.443108E+02 -9.057218E+00  6.829581E+00  2.051516E+01 -1.198432E+00  5.206227E+00
      1953   7  1.369474E+02 -9.151791E-01  6.885132E+00  4.142305E+01  1.322927E+00 -6.516252E+00
      1953   8  1.458669E+02 -8.874593E+00  7.423837E+00  1.985574E+01  3.941466E-01 -3.655282E+00
      1954   1  6.346589E+01 -1.808209E+01 -7.522982E-01  4.133590E+01 -5.013323E-01  2.594838E+00
      1954   2  7.626776E+01 -2.977618E+01 -3.291282E-01  2.080355E+01 -1.537037E+00  4.972621E+00
      1954   3  6.510768E+01 -1.806977E+01 -2.919460E-01  4.121877E+01  1.813402E+00 -6.128526E+00
      1954   4  7.780719E+01 -2.956026E+01  2.573345E-01  2.049870E+01  7.699503E-01 -3.716867E+00
      1954   5  1.265955E+02  6.686778E+00  6.294920E+00  5.219485E+01 -4.835664E-01  2.425003E+00
      1954   6  1.389183E+02 -4.460737E+00  6.833213E+00  3.252221E+01 -1.583898E+00  4.993201E+00
      1954   7  1.283310E+02  6.593921E+00  6.759967E+00  5.189169E+01  1.785240E+00 -6.287618E+00
      1954   8  1.405602E+02 -4.353990E+00  7.429668E+00  3.203919E+01  6.778844E-01 -3.688003E+00
      1955   1  5.555413E+01 -1.067306E+01 -7.992198E-01  4.726357E+01 -7.244415E-01  2.619287E+00
      1955   2  7.136824E+01 -2.508730E+01 -2.753050E-01  2.905223E+01 -1.881543E+00  4.731687E+00
      1955   3  5.716830E+01 -1.064158E+01 -3.379527E-01  4.731120E+01  2.251200E+00 -5.851078E+00
      1955   4  7.292206E+01 -2.489788E+01  3.042744E-01  2.889920E+01  1.079038E+00 -3.692509E+00
      1955   5  1.161492E+02  1.571956E+01  6.147750E+00  6.081276E+01 -7.044639E-01  2.456587E+00
      1955   6  1.313744E+02  1.982153E+00  6.820769E+00  4.336394E+01 -1.937910E+00  4.739403E+00
      1955   7  1.178850E+02  1.563259E+01  6.620457E+00  6.070463E+01  2.213937E+00 -6.013117E+00
      1955   8  1.330566E+02  2.050670E+00  7.416506E+00  4.306356E+01  9.665203E-01 -3.686993E+00
      1956   1  4.672535E+01 -2.423323E+00 -8.422429E-01  5.168782E+01 -9.514091E-01  2.614105E+00
      1956   2  6.508349E+01 -1.909924E+01 -2.209379E-01  3.622458E+01 -2.192470E+00  4.456713E+00
      1956   3  4.827624E+01 -2.342636E+00 -3.818259E-01  5.188644E+01  2.649652E+00 -5.530329E+00
      1956   4  6.661600E+01 -1.890575E+01  3.499526E-01  3.621910E+01  1.384442E+00 -3.630721E+00
      1956   5  1.042740E+02  2.588809E+01  5.987401E+00  6.750912E+01 -9.300754E-01  2.458021E+00
      1956   6  1.219526E+02  9.999544E+00  6.790603E+00  5.269336E+01 -2.256039E+00  4.450516E+00
      1956   7  1.059662E+02  2.584304E+01  6.464819E+00  6.758371E+01  2.604191E+00 -5.697165E+00
      1956   8  1.236309E+02  1.006629E+01  7.382611E+00  5.257238E+01  1.255593E+00 -3.650867E+00
      1957   1  3.728727E+01  6.360106E+00 -8.821885E-01  5.448143E+01 -1.178081E+00  2.579283E+00
      1957   2  5.765532E+01 -1.205363E+01 -1.678225E-01  4.209695E+01 -2.466432E+00  4.153234E+00
      1957   3  3.874421E+01  6.515603E+00 -4.243940E-01  5.481096E+01  3.004384E+00 -5.171824E+00
      1957   4  5.913322E+01 -1.182828E+01  3.924892E-01  4.222775E+01  1.681264E+00 -3.531720E+00
      1957   5  9.136887E+01  3.680129E+01  5.813339E+00  7.209426E+01 -1.156144E+00  2.429203E+00
      1957   6  1.109883E+02  1.926280E+01  6.740936E+00  6.022835E+01 -2.534801E+00  4.132464E+00
      1957   7  9.297828E+01  3.682939E+01  6.292439E+00  7.233131E+01  2.951863E+00 -5.345125E+00
      1957   8  1.126211E+02  1.936117E+01  7.326089E+00  6.027499E+01  1.540424E+00 -3.579175E+00
      1958   1  2.756410E+01  1.535562E+01 -9.206037E-01  5.558155E+01 -1.400267E+00  2.515270E+00
      1958   2  4.936323E+01 -4.227928E+00 -1.181135E-01  4.650045E+01 -2.700894E+00  3.827044E+00
      1958   3  2.890256E+01  1.560573E+01 -4.670795E-01  5.601691E+01  3.311930E+00 -4.781672E+00
      1958   4  5.075762E+01 -3.947181E+00  4.298099E-01  4.675029E+01  1.964666E+00 -3.396469E+00
      1958   5  7.785935E+01  4.804514E+01  5.624717E+00  7.446206E+01 -1.378326E+00  2.370467E+00
      1958   6  9.886419E+01  2.940004E+01  6.670099E+00  6.576118E+01 -2.771604E+00  3.791351E+00
      1958   7  7.935341E+01  4.817132E+01  6.102538E+00  7.483486E+01  3.253745E+00 -4.962938E+00
      1958   8  1.004148E+02  2.955855E+01  7.245291E+00  6.595624E+01  1.816325E+00 -3.472282E+00
      1959   1  1.788472E+01  2.424019E+01 -9.590620E-01  5.499174E+01 -1.613975E+00  2.423245E+00
      1959   2  4.051112E+01  4.075737E+00 -7.562931E-02  4.932716E+01 -2.894152E+00  3.484228E+00
      1959   3  1.908647E+01  2.459766E+01 -5.117237E-01  5.550434E+01  3.569764E+00 -4.366109E+00
      1959   4  4.179831E+01  4.430123E+00  4.580346E-01  4.967391E+01  2.230149E+00 -3.226462E+00
      1959   5  6.418095E+01  5.919908E+01  5.420413E+00  7.459272E+01 -1.592419E+00  2.282888E+00
      1959   6  8.599190E+01  4.001089E+01  6.574753E+00  6.916534E+01 -2.964771E+00  3.433662E+00
      1959   7  6.553440E+01  5.944029E+01  5.893752E+00  7.506978E+01  3.507585E+00 -4.556638E+00
      1959   8  8.742983E+01  4.025178E+01  7.136831E+00  6.948350E+01  2.078820E+00 -3.330968E+00
      1960   1  8.566964E+00  3.270264E+01 -1.000738E+00  5.278006E+01 -1.815396E+00  2.305141E+00
      1960   2  3.141549E+01  1.254583E+01 -4.515775E-02  5.053334E+01 -3.045501E+00  3.131269E+00
      1960   3  9.620940E+00  3.317266E+01 -5.616957E-01  5.333948E+01  3.776453E+00 -3.931233E+00
      1960   4  3.257761E+01  1.298534E+01  4.721194E-01  5.095138E+01  2.473506E+00 -3.023357E+00
      1960   5  5.075970E+01  6.985380E+01  5.197770E+00  7.255141E+01 -1.794419E+00  2.168391E+00
      1960   6  7.279589E+01  5.068534E+01  6.450169E+00  7.039877E+01 -3.113632E+00  3.066238E+00
      1960   7  5.195565E+01  7.021858E+01  5.663354E+00  7.309847E+01  3.712164E+00 -4.132029E+00
      1960   8  7.409766E+01  5.102310E+01  6.995864E+00  7.081037E+01  2.323675E+00 -3.156228E+00
      1961   1 -9.511479E-02  4.045797E+01 -1.050196E+00  4.907529E+01 -2.000994E+00  2.163814E+00
      1961   2  2.238956E+01  2.087523E+01 -3.371691E-02  5.013934E+01 -3.154951E+00  2.774892E+00
      1961   3  8.063275E-01  4.103759E+01 -6.221537E-01  4.965089E+01  3.931653E+00 -3.482621E+00
      1961   4  2.341514E+01  2.140417E+01  4.647272E-01  5.060112E+01  2.691221E+00 -2.788943E+00
      1961   5  3.799493E+01  7.962892E+01  4.952232E+00  6.848373E+01 -1.980545E+00  2.029834E+00
      1961   6  5.969368E+01  6.102166E+01  6.289067E+00  6.950323E+01 -3.218350E+00  2.696198E+00
      1961   7  3.902436E+01  8.011656E+01  5.406394E+00  6.906574E+01  3.867369E+00 -3.694364E+00
      1961   8  6.084385E+01  6.146250E+01  6.814973E+00  6.997616E+01  2.547193E+00 -2.949137E+00
      1962   1 -7.843064E+00  4.726072E+01 -1.113763E+00  4.405923E+01 -2.167910E+00  2.003231E+00
      1962   2  1.373044E+01  2.877596E+01 -5.092670E-02  4.822664E+01 -3.223824E+00  2.422493E+00
      1962   3 -7.092146E+00  4.793901E+01 -6.998824E-01  4.462196E+01  4.035740E+00 -3.024904E+00
      1962   4  1.461388E+01  2.939032E+01  4.256020E-01  4.870440E+01  2.879859E+00 -2.524434E+00
      1962   5  2.624282E+01  8.819001E+01  4.676775E+00  6.260669E+01 -2.147725E+00  1.871273E+00
      1962   6  4.707836E+01  7.064463E+01  6.080947E+00  6.659961E+01 -3.280344E+00  2.331234E+00
      1962   7  2.710448E+01  8.879051E+01  5.115316E+00  6.318980E+01  3.973752E+00 -3.247865E+00
      1962   8  4.806848E+01  7.118539E+01  6.582994E+00  6.710131E+01  2.745797E+00 -2.710295E+00
      1963   1 -1.446383E+01  5.291675E+01 -1.199743E+00  3.795673E+01 -2.313757E+00  1.828391E+00
      1963   2  5.707465E+00  3.599458E+01 -1.082416E-01  4.493045E+01 -3.254265E+00  2.081915E+00
      1963   3 -1.385561E+01  5.367499E+01 -8.036590E-01  3.848058E+01  4.089937E+00 -2.561701E+00
      1963   4  6.449470E+00  3.668241E+01  3.429051E-01  4.539785E+01  3.036548E+00 -2.230597E+00
      1963   5  1.580371E+01  9.526283E+01  4.361510E+00  5.519669E+01 -2.293477E+00  1.697874E+00
      1963   6  3.530387E+01  7.922264E+01  5.812030E+00  6.187840E+01 -3.302065E+00  1.979554E+00
      1963   7  1.650362E+01  9.595752E+01  4.779871E+00  5.575011E+01  4.032565E+00 -2.795637E+00
      1963   8  3.613313E+01  7.985103E+01  6.285861E+00  6.237775E+01  2.916214E+00 -2.439754E+00
      1964   1 -1.979558E+01  5.729101E+01 -1.317689E+00  3.102336E+01 -2.437209E+00  1.645719E+00
      1964   2 -1.444396E+00  4.232302E+01 -2.166752E-01  4.043089E+01 -3.249617E+00  1.761566E+00
      1964   3 -1.931840E+01  5.810278E+01 -9.441180E-01  3.148671E+01  4.095679E+00 -2.095343E+00
      1964   4 -8.381540E-01  4.306453E+01  2.047876E-01  4.086456E+01  3.158571E+00 -1.907744E+00
      1964   5  6.913320E+00  1.006438E+02  3.993844E+00  4.657495E+01 -2.416316E+00  1.516252E+00
      1964   6  2.467564E+01  8.648201E+01  5.467646E+00  5.558857E+01 -3.287165E+00  1.649966E+00
      1964   7  7.462681E+00  1.014051E+02  4.386517E+00  4.707260E+01  4.045318E+00 -2.339388E+00
      1964   8  2.534950E+01  8.717687E+01  5.908180E+00  5.605778E+01  3.055329E+00 -2.136998E+00
      1965   1 -2.372629E+01  6.030798E+01 -1.476133E+00  2.353178E+01 -2.538246E+00  1.462643E+00
      1965   2 -7.522167E+00  4.760292E+01 -3.819610E-01  3.494188E+01 -3.214495E+00  1.470084E+00
      1965   3 -2.336508E+01  6.114125E+01 -1.130311E+00  2.391850E+01  4.054211E+00 -1.627852E+00
      1965   4 -7.042136E+00  4.837157E+01  4.944891E-03  3.532245E+01  3.243221E+00 -1.556615E+00
      1965   5 -2.545403E-01  1.042073E+02  3.563188E+00  3.709301E+01 -2.516287E+00  1.334251E+00
      1965   6  1.545417E+01  9.221726E+01  5.038718E+00  4.802536E+01 -3.240684E+00  1.351644E+00
      1965   7  1.597562E-01  1.050010E+02  3.924095E+00  3.751472E+01  4.013106E+00 -1.880150E+00
      1965   8  1.598287E+01  9.294962E+01  5.440294E+00  4.844117E+01  3.159887E+00 -1.801661E+00
      1966   1 -2.618365E+01  6.193514E+01 -1.679765E+00  1.576534E+01 -2.618045E+00  1.286856E+00
      1966   2 -1.233764E+01  5.171429E+01 -5.939589E-01  2.871151E+01 -3.154486E+00  1.215158E+00
      1966   3 -2.592105E+01  6.275545E+01 -1.366526E+00  1.606544E+01  3.966621E+00 -1.163118E+00
      1966   4 -1.197040E+01  5.248036E+01 -2.458863E-01  2.902463E+01  3.288062E+00 -1.180944E+00
      1966   5 -5.571316E+00  1.059079E+02  3.070683E+00  2.712722E+01 -2.594708E+00  1.160050E+00
      1966   6  7.878605E+00  9.629866E+01  4.539606E+00  3.953131E+01 -3.168792E+00  1.092943E+00
      1966   7 -5.273630E+00  1.066959E+02  3.393975E+00  2.745965E+01  3.936722E+00 -1.420568E+00
      1966   8  8.276851E+00  9.703499E+01  4.896963E+00  3.987621E+01  3.226688E+00 -1.436056E+00
      1967   1 -2.711540E+01  6.213879E+01 -1.924600E+00  8.031496E+00 -2.678948E+00  1.124382E+00
      1967   2 -1.568949E+01  5.453779E+01 -8.121981E-01  2.205220E+01 -3.075776E+00  1.001097E+00
      1967   3 -2.693161E+01  6.291507E+01 -1.646547E+00  8.240991E+00  3.834090E+00 -7.111381E-01
      1967   4 -1.541777E+01  5.527352E+01 -5.050451E-01  2.228873E+01  3.291263E+00 -7.920431E-01
      1967   5 -8.917976E+00  1.057828E+02  2.553000E+00  1.709326E+01 -2.654223E+00  1.000132E+00
      1967   6  2.211065E+00  9.868168E+01  4.042427E+00  3.052690E+01 -3.078378E+00  8.786352E-01
      1967   7 -8.715522E+00  1.065295E+02  2.834999E+00  1.732999E+01  3.816684E+00 -9.694692E-01
      1967   8  2.497817E+00  9.938953E+01  4.352447E+00  3.078953E+01  3.252802E+00 -1.050342E+00
      1968   1 -2.647964E+01  6.080263E+01 -2.197435E+00  7.154851E-01 -2.723191E+00  9.760669E-01
      1968   2 -1.734511E+01  5.589233E+01 -9.494792E-01  1.542703E+01 -2.984076E+00  8.248843E-01
      1968   3 -2.635036E+01  6.151531E+01 -1.951989E+00  8.358544E-01  3.659322E+00 -2.946065E-01
      1968   4 -1.714539E+01  5.657950E+01 -6.803449E-01  1.558380E+01  3.251703E+00 -4.156238E-01
      1968   5 -1.014194E+01  1.039647E+02  2.123079E+00  7.495810E+00 -2.697586E+00  8.550432E-01
      1968   6 -1.210738E+00  9.943915E+01  3.736771E+00  2.159137E+01 -2.976084E+00  7.047531E-01
      1968   7 -1.000771E+01  1.046472E+02  2.366202E+00  7.637137E+00  3.654410E+00 -5.502253E-01
      1968   8 -1.009191E+00  1.000971E+02  4.002217E+00  2.176757E+01  3.235425E+00 -6.715889E-01
      1969   1 -2.427288E+01  5.766472E+01 -2.470955E+00 -5.651013E+00 -2.751073E+00  8.349477E-01
      1969   2 -1.711059E+01  5.551234E+01 -8.677760E-01  9.533314E+00 -2.883188E+00  6.759504E-01
      1969   3 -2.416991E+01  5.830377E+01 -2.251823E+00 -5.612397E+00  3.448644E+00  4.889599E-02
      1969   4 -1.695052E+01  5.614189E+01 -6.288775E-01  9.615800E+00  3.169909E+00 -9.197379E-02
      1969   5 -9.086999E+00  1.006455E+02  1.988652E+00 -1.040601E+00 -2.725549E+00  7.160519E-01
      1969   6 -2.042506E+00  9.876533E+01  3.949591E+00  1.350793E+01 -2.867272E+00  5.568905E-01
      1969   7 -8.986519E+00  1.012580E+02  2.202444E+00 -9.863172E-01  3.454911E+00 -2.043388E-01
      1969   8 -1.887699E+00  9.936842E+01  4.181432E+00  1.360425E+01  3.172762E+00 -3.461045E-01
      1970   1 -2.062828E+01  5.234570E+01 -2.698201E+00 -1.047947E+01 -2.763592E+00  6.895005E-01
      1970   2 -1.503590E+01  5.311025E+01 -4.087621E-01  5.091015E+00 -2.789215E+00  5.419230E-01
      1970   3 -2.052062E+01  5.290040E+01 -2.500136E+00 -1.049359E+01  3.209079E+00  2.764484E-01
      1970   4 -1.488645E+01  5.367087E+01 -1.958979E-01  5.126205E+00  3.033610E+00  1.353420E-01
      1970   5 -5.843287E+00  9.573134E+01  2.307914E+00 -7.928665E+00 -2.739381E+00  5.693723E-01
      1970   6 -2.867714E-01  9.666217E+01  4.964204E+00  6.989864E+00 -2.767057E+00  4.213674E-01
      1970   7 -5.742823E+00  9.626285E+01  2.498397E+00 -7.933484E+00  3.224704E+00  1.913203E-02
      1970   8 -1.469062E-01  9.719870E+01  5.167380E+00  7.032292E+00  3.053467E+00 -1.226478E-01
      1971   1 -1.511508E+01  5.410491E+01 -8.504320E-01 -5.437983E+00  2.520208E+00  1.058668E+00
      1971   2 -2.097394E+01  5.338096E+01 -3.198038E+00  1.077224E+01  2.537196E+00  1.497999E+00
      1971   3 -1.465418E+01  5.578642E+01 -2.074857E-01 -5.258423E+00 -3.278947E+00  6.559432E-01
      1971   4 -2.056345E+01  5.502403E+01 -2.581069E+00  1.086671E+01 -3.398038E+00  1.091441E+00
      1971   5 -3.675621E-01  9.760647E+01  4.554190E+00 -7.367185E+00  2.455781E+00  6.292065E-01
      1971   6 -6.165789E+00  9.672814E+01  1.873944E+00  8.164297E+00  2.485938E+00  1.069619E+00
      1971   7  6.156199E-02  9.921290E+01  5.164695E+00 -7.203222E+00 -3.341269E+00  1.034662E-01
      1971   8 -5.785554E+00  9.829715E+01  2.458182E+00  8.246738E+00 -3.441440E+00  5.402823E-01
      1972   1 -1.708366E+01  5.665851E+01 -1.235072E+00 -1.021781E+01  2.448804E+00  1.087420E+00
      1972   2 -2.470883E+01  5.905957E+01 -2.910852E+00  5.553850E+00  2.523399E+00  1.603482E+00
      1972   3 -1.659876E+01  5.860239E+01 -5.085873E-01 -1.014972E+01 -3.557359E+00  3.025879E-01
      1972   4 -2.425278E+01  6.093804E+01 -2.206660E+00  5.528011E+00 -3.623784E+00  8.034061E-01
      1972   5 -1.958495E+00  9.986511E+01  3.666119E+00 -1.431715E+01  2.395466E+00  6.637304E-01
      1972   6 -9.443328E+00  1.019867E+02  1.642993E+00  7.941206E-01  2.490520E+00  1.176894E+00
      1972   7 -1.521826E+00  1.016978E+02  4.342338E+00 -1.425142E+01 -3.598052E+00 -2.489416E-01
      1972   8 -9.034656E+00  1.037564E+02  2.297024E+00  7.698636E-01 -3.638022E+00  2.496930E-01
      1973   1 -1.706988E+01  5.700642E+01 -1.308344E+00 -1.657134E+01  2.372831E+00  1.015479E+00
      1973   2 -2.689113E+01  6.237241E+01 -2.658461E+00 -1.334322E+00  2.511626E+00  1.636002E+00
      1973   3 -1.653652E+01  5.924574E+01 -4.802041E-01 -1.662635E+01 -3.803550E+00 -2.621257E-01
      1973   4 -2.634203E+01  6.452446E+01 -1.840751E+00 -1.485222E+00 -3.812694E+00  3.303488E-01
      1973   5 -7.609221E-01  1.005600E+02  3.515774E+00 -2.296201E+01  2.331119E+00  5.795208E-01
      1973   6 -1.035631E+01  1.055160E+02  1.789641E+00 -8.362991E+00  2.504971E+00  1.195973E+00
      1973   7 -2.983507E-01  1.026572E+02  4.275277E+00 -2.299847E+01 -3.820579E+00 -8.326623E-01
      1973   8 -9.878797E+00  1.075294E+02  2.538807E+00 -8.491344E+00 -3.788312E+00 -2.429907E-01
      1974   1 -1.502277E+01  5.545895E+01 -1.229064E+00 -2.364270E+01  2.304120E+00  9.251416E-01
      1974   2 -2.735301E+01  6.373516E+01 -2.453374E+00 -9.205983E+00  2.509837E+00  1.668927E+00
      1974   3 -1.440272E+01  5.798490E+01 -2.912310E-01 -2.384691E+01 -4.000105E+00 -9.186989E-01
      1974   4 -2.667592E+01  6.615053E+01 -1.515489E+00 -9.496925E+00 -3.944273E+00 -2.158784E-01
      1974   5  3.199432E+00  9.962503E+01  3.790698E+00 -3.244432E+01  2.280787E+00  4.767270E-01
      1974   6 -8.806168E+00  1.073631E+02  2.170470E+00 -1.861209E+01  2.535814E+00  1.220828E+00
      1974   7  3.725948E+00  1.019957E+02  4.646730E+00 -3.261013E+01 -3.986257E+00 -1.503929E+00
      1974   8 -8.224931E+00  1.096279E+02  3.026735E+00 -1.886099E+01 -3.874615E+00 -7.989416E-01
      1975   1 -1.114982E+01  5.228865E+01 -1.111090E+00 -3.066594E+01  2.242271E+00  8.712263E-01
      1975   2 -2.608880E+01  6.339914E+01 -2.289833E+00 -1.747968E+01  2.513611E+00  1.748951E+00
      1975   3 -1.041965E+01  5.504435E+01 -7.445461E-02 -3.104078E+01 -4.138321E+00 -1.580724E+00
      1975   4 -2.526457E+01  6.602205E+01 -1.243324E+00 -1.792283E+01 -4.012635E+00 -7.554938E-01
      1975   5  9.558547E+00  9.684498E+01  4.193277E+00 -4.189842E+01  2.239904E+00  4.199119E-01
      1975   6 -4.947760E+00  1.072974E+02  2.613905E+00 -2.926428E+01  2.573835E+00  1.305401E+00
      1975   7  1.016935E+01  9.944279E+01  5.137274E+00 -4.221721E+01 -4.091918E+00 -2.165384E+00
      1975   8 -4.246483E+00  1.097683E+02  3.568163E+00 -2.964854E+01 -3.897257E+00 -1.330002E+00
      1976   1 -5.700641E+00  4.768798E+01 -1.009884E+00 -3.713927E+01  2.182207E+00  8.707722E-01
      1976   2 -2.313980E+01  6.146515E+01 -2.162305E+00 -2.573057E+01  2.512381E+00  1.890590E+00
      1976   3 -4.838892E+00  5.059982E+01  1.094157E-01 -3.769785E+01 -4.213927E+00 -2.212710E+00
      1976   4 -2.215395E+01  6.422465E+01 -1.024209E+00 -2.633121E+01 -4.021034E+00 -1.255001E+00
      1976   5  1.796228E+01  9.216589E+01  4.579221E+00 -5.069169E+01  2.200676E+00  4.256137E-01
      1976   6  1.063494E+00  1.051764E+02  3.032157E+00 -3.976068E+01  2.605218E+00  1.462669E+00
      1976   7  1.867556E+01  9.492435E+01  5.596451E+00 -5.118024E+01 -4.136573E+00 -2.783788E+00
      1976   8  1.896331E+00  1.077895E+02  4.068901E+00 -4.028953E+01 -3.863224E+00 -1.805989E+00
      1977   1  1.101880E+00  4.179681E+01 -9.493172E-01 -4.271895E+01  2.117360E+00  9.177858E-01
      1977   2 -1.856586E+01  5.796671E+01 -2.066998E+00 -3.360879E+01  2.495001E+00  2.088307E+00
      1977   3  2.116614E+00  4.479101E+01  2.368926E-01 -4.346543E+01 -4.227628E+00 -2.807615E+00
      1977   4 -1.740468E+01  6.079441E+01 -8.534078E-01 -3.436439E+01 -3.976427E+00 -1.706768E+00
      1977   5  2.812423E+01  8.566898E+01  4.899980E+00 -5.836113E+01  2.154522E+00  4.846719E-01
      1977   6  9.096322E+00  1.009782E+02  3.400470E+00 -4.963243E+01  2.616770E+00  1.683865E+00
      1977   7  2.895894E+01  8.852073E+01  5.976142E+00 -5.902838E+01 -4.123122E+00 -3.356716E+00
      1977   8  1.007232E+01  1.036713E+02  4.505134E+00 -5.030842E+01 -3.781634E+00 -2.223955E+00
      1978   1  9.037462E+00  3.477070E+01 -9.327397E-01 -4.712708E+01  2.042176E+00  9.972411E-01
      1978   2 -1.245965E+01  5.295591E+01 -1.997772E+00 -4.078672E+01  2.452496E+00  2.328473E+00
      1978   3  1.022817E+01  3.778110E+01  3.076375E-01 -4.805726E+01 -4.181504E+00 -3.370394E+00
      1978   4 -1.110848E+01  5.579340E+01 -7.212362E-01 -4.168769E+01 -3.885287E+00 -2.114277E+00
      1978   5  3.976539E+01  7.753422E+01  5.149882E+00 -6.452579E+01  2.094771E+00  5.795531E-01
      1978   6  1.899306E+01  9.478259E+01  3.720358E+00 -5.845089E+01  2.598373E+00  1.952917E+00
      1978   7  4.074304E+01  8.041837E+01  6.273687E+00 -6.537327E+01 -4.054875E+00 -3.892442E+00
      1978   8  2.012578E+01  9.750247E+01  4.881904E+00 -5.927040E+01 -3.660174E+00 -2.590641E+00
      1979   1  1.785924E+01  2.681651E+01 -9.536623E-01 -5.012596E+01  1.953902E+00  1.093499E+00
      1979   2 -4.966812E+00  4.654491E+01 -1.947280E+00 -4.695074E+01  2.378824E+00  2.596237E+00
      1979   3  1.925025E+01  2.978603E+01  3.314660E-01 -5.122844E+01 -4.076511E+00 -3.907560E+00
      1979   4 -3.410636E+00  4.934471E+01 -6.168037E-01 -4.798210E+01 -3.752458E+00 -2.483173E+00
      1979   5  5.256888E+01  6.802846E+01  5.338193E+00 -6.885992E+01  2.017965E+00  6.929124E-01
      1979   6  3.053361E+01  8.676586E+01  4.001162E+00 -6.581767E+01  2.543087E+00  2.253211E+00
      1979   7  5.371362E+01  7.089190E+01  6.501656E+00 -6.988284E+01 -3.933622E+00 -4.399674E+00
      1979   8  3.183829E+01  8.946835E+01  5.212037E+00 -6.677243E+01 -3.504695E+00 -2.913951E+00
      1980   1  2.727915E+01  1.819902E+01 -1.002856E+00 -5.152409E+01  1.852121E+00  1.193730E+00
      1980   2  3.703941E+00  3.891804E+01 -1.908539E+00 -5.181413E+01  2.270684E+00  2.878426E+00
      1980   3  2.889526E+01  2.107913E+01  3.204215E-01 -5.278033E+01 -3.912707E+00 -4.422884E+00
      1980   4  5.480152E+00  4.164210E+01 -5.302569E-01 -5.295610E+01 -3.581337E+00 -2.817497E+00
      1980   5  6.616098E+01  5.749577E+01  5.476931E+00 -7.109921E+01  1.923589E+00  8.107973E-01
      1980   6  4.341963E+01  7.719391E+01  4.251641E+00 -7.137706E+01  2.447224E+00  2.570301E+00
      1980   7  6.749913E+01  6.029209E+01  6.674961E+00 -7.228620E+01 -3.759646E+00 -4.883677E+00
      1980   8  4.491326E+01  7.984281E+01  5.507249E+00 -7.245456E+01 -3.319085E+00 -3.199568E+00
      1981   1  3.696944E+01  9.232239E+00 -1.071589E+00 -5.118766E+01  1.738168E+00  1.288545E+00
      1981   2  1.328458E+01  3.032717E+01 -1.875612E+00 -5.513236E+01  2.126613E+00  3.164186E+00
      1981   3  3.883426E+01  1.198178E+01  2.851315E-01 -5.257290E+01 -3.689788E+00 -4.916636E+00
      1981   4  1.529430E+01  3.294539E+01 -4.536905E-01 -5.636122E+01 -3.374826E+00 -3.118959E+00
      1981   5  8.011256E+01  4.634202E+01  5.575940E+00 -7.105388E+01  1.812963E+00  9.228694E-01
      1981   6  5.727954E+01  6.641386E+01  4.479101E+00 -7.483346E+01  2.309031E+00  2.892185E+00
      1981   7  8.167079E+01  4.903040E+01  6.805221E+00 -7.238749E+01 -3.532748E+00 -5.346004E+00
      1981   8  5.897911E+01  6.897891E+01  5.776683E+00 -7.601723E+01 -3.106616E+00 -3.450691E+00
      1982   1  4.657473E+01  2.628382E-01 -1.152933E+00 -4.905340E+01  1.614402E+00  1.371685E+00
      1982   2  2.345558E+01  2.107947E+01 -1.844347E+00 -5.671887E+01  1.946529E+00  3.444689E+00
      1982   3  4.870855E+01  2.847313E+00  2.335748E-01 -5.053662E+01 -3.407950E+00 -5.385916E+00
      1982   4  2.570950E+01  2.356836E+01 -3.819686E-01 -5.800741E+01 -3.135947E+00 -3.387254E+00
      1982   5  9.395489E+01  3.501676E+01  5.642647E+00 -6.862463E+01  1.688745E+00  1.022129E+00
      1982   6  7.167814E+01  5.483614E+01  4.687120E+00 -7.596912E+01  2.128418E+00  3.208958E+00
      1982   7  9.575849E+01  3.756111E+01  6.900967E+00 -7.008094E+01 -3.252889E+00 -5.784826E+00
      1982   8  7.359972E+01  5.729182E+01  6.024928E+00 -7.723891E+01 -2.870362E+00 -3.668418E+00
      1983   1  5.572782E+01 -8.346654E+00 -1.241495E+00 -4.513309E+01  1.483674E+00  1.439284E+00
      1983   2  3.386069E+01  1.152297E+01 -1.811979E+00 -5.645542E+01  1.731179E+00  3.712571E+00
      1983   3  5.814668E+01 -5.954813E+00  1.718418E-01 -4.667807E+01 -3.068342E+00 -5.825700E+00
      1983   4  3.636506E+01  1.386464E+01 -3.119046E-01 -5.777361E+01 -2.868353E+00 -3.620987E+00
      1983   5  1.072005E+02  2.399140E+01  5.681950E+00 -6.380934E+01  1.554187E+00  1.104030E+00
      1983   6  8.613880E+01  4.291889E+01  4.878195E+00 -7.465761E+01  1.906214E+00  3.512138E+00
      1983   7  1.092724E+02  2.636073E+01  6.967844E+00 -6.535853E+01 -2.920814E+00 -6.196152E+00
      1983   8  8.829598E+01  4.524346E+01  6.254984E+00 -7.598949E+01 -2.613878E+00 -3.852824E+00
      1984   1  6.406599E+01 -1.623870E+01 -1.334211E+00 -3.951719E+01  1.349144E+00  1.489596E+00
      1984   2  4.412183E+01  2.028695E+00 -1.776899E+00 -5.430032E+01  1.482294E+00  3.961931E+00
      1984   3  6.677968E+01 -1.405991E+01  1.034098E-01 -4.108316E+01 -2.673247E+00 -6.229374E+00
      1984   4  4.687892E+01  4.211237E+00 -2.413788E-01 -5.561594E+01 -2.576089E+00 -3.817826E+00
      1984   5  1.193648E+02  1.373574E+01  5.696709E+00 -5.670856E+01  1.413015E+00  1.166235E+00
      1984   6  1.001615E+02  3.114404E+01  5.052976E+00 -7.087262E+01  1.644576E+00  3.794819E+00
      1984   7  1.217231E+02  1.590441E+01  7.008970E+00 -5.831498E+01 -2.538192E+00 -6.574287E+00
      1984   8  1.025652E+02  3.332015E+01  6.467849E+00 -7.223922E+01 -2.340722E+00 -4.002904E+00
      1985   1  7.124925E+01 -2.307653E+01 -1.428795E+00 -3.237154E+01  1.213781E+00  1.522063E+00
      1985   2  5.385632E+01 -7.026359E+00 -1.738419E+00 -5.029130E+01  1.202024E+00  4.187665E+00
      1985   3  7.426034E+01 -2.112364E+01  3.060607E-02 -3.391446E+01 -2.226438E+00 -6.589854E+00
      1985   4  5.686254E+01 -5.009581E+00 -1.699360E-01 -5.157091E+01 -2.264080E+00 -3.975478E+00
      1985   5  1.299885E+02  4.695534E+00  5.688309E+00 -4.752192E+01  1.268820E+00  1.207679E+00
      1985   6  1.132468E+02  1.999657E+01  5.211605E+00 -6.469140E+01  1.346088E+00  4.050832E+00
      1985   7  1.326455E+02  6.644180E+00  7.025804E+00 -4.914517E+01 -2.108069E+00 -6.912990E+00
      1985   8  1.159034E+02  2.201064E+01  6.663425E+00 -6.606237E+01 -2.055266E+00 -4.117765E+00
      1986   1  7.697735E+01 -2.856279E+01 -1.523950E+00 -2.393252E+01  1.080215E+00  1.537374E+00
      1986   2  6.269419E+01 -1.528003E+01 -1.697183E+00 -4.454675E+01  8.930584E-01  4.385722E+00
      1986   3  8.028002E+01 -2.684036E+01 -4.530325E-02 -2.540637E+01 -1.733257E+00 -6.899804E+00
      1986   4  6.594032E+01 -1.342976E+01 -9.828015E-02 -4.575645E+01 -1.937887E+00 -4.091622E+00
      1986   5  1.386622E+02 -2.729849E+00  5.657689E+00 -3.654276E+01  1.125002E+00  1.228712E+00
      1986   6  1.249171E+02  9.936785E+00  5.351856E+00 -5.629384E+01  1.014177E+00  4.275283E+00
      1986   7  1.416233E+02 -1.013095E+00  7.019550E+00 -3.813853E+01 -1.634872E+00 -7.205571E+00
      1986   8  1.278286E+02  1.178063E+01  6.839741E+00 -5.763649E+01 -1.762180E+00 -4.196222E+00
      1987   1  8.100601E+01 -3.245472E+01 -1.618540E+00 -1.449572E+01  9.505789E-01  1.537427E+00
      1987   2  7.029891E+01 -2.240300E+01 -1.654291E+00 -3.725881E+01  5.584911E-01  4.553523E+00
      1987   3  8.458570E+01 -3.095824E+01 -1.231592E-01 -1.585450E+01 -1.200397E+00 -7.151853E+00
      1987   4  7.376952E+01 -2.071312E+01 -2.730837E-02 -3.836558E+01 -1.603445E+00 -4.163601E+00
      1987   5  1.450432E+02 -8.209469E+00  5.604183E+00 -2.414362E+01  9.843365E-01  1.231088E+00
      1987   6  1.347422E+02  1.379195E+00  5.471534E+00 -4.595358E+01  6.524639E-01  4.465122E+00
      1987   7  1.483057E+02 -6.727677E+00  6.989665E+00 -2.566565E+01 -1.124528E+00 -7.445045E+00
      1987   8  1.379052E+02  3.051341E+00  6.994914E+00 -4.723415E+01 -1.466737E+00 -4.236321E+00
      1988   1  8.317190E+01 -3.458051E+01 -1.708933E+00 -4.403092E+00  8.259148E-01  1.525348E+00
      1988   2  7.638511E+01 -2.814150E+01 -1.618582E+00 -2.868280E+01  2.017485E-01  4.688973E+00
      1988   3  8.700336E+01 -3.329518E+01 -1.993738E-01 -5.601993E+00 -6.362470E-01 -7.338584E+00
      1988   4  8.005936E+01 -2.659291E+01  3.638742E-02 -2.965596E+01 -1.266891E+00 -4.189231E+00
      1988   5  1.488755E+02 -1.150674E+01  5.524692E+00 -1.075479E+01  8.483501E-01  1.217982E+00
      1988   6  1.423492E+02 -5.361048E+00  5.555950E+00 -3.401787E+01  2.642724E-01  4.619033E+00
      1988   7  1.524290E+02 -1.025096E+01  6.934441E+00 -1.215727E+01 -5.850829E-01 -7.624011E+00
      1988   8  1.457576E+02 -3.847516E+00  7.117822E+00 -3.520407E+01 -1.175315E+00 -4.235166E+00
      1989   1  8.336765E+01 -3.486344E+01 -1.804489E+00  5.971427E+00  7.110162E-01  1.505247E+00
      1989   2  8.073674E+01 -3.223483E+01 -1.577313E+00 -1.914953E+01 -1.692165E-01  4.794476E+00
      1989   3  8.741759E+01 -3.375992E+01 -2.813724E-01  4.973699E+00 -4.602108E-02 -7.452710E+00
      1989   4  8.458554E+01 -3.080831E+01  1.028524E-01 -1.995820E+01 -9.304888E-01 -4.163734E+00
      1989   5  1.500607E+02 -1.245369E+01  5.442376E+00  3.121642E+00  7.174231E-01  1.196969E+00
      1989   6  1.475347E+02 -9.940371E+00  5.647829E+00 -2.094746E+01 -1.436049E-01  4.739461E+00
      1989   7  1.538742E+02 -1.140673E+01  6.873169E+00  1.886699E+00 -2.519755E-02 -7.732323E+00
      1989   8  1.511613E+02 -8.578074E+00  7.242825E+00 -2.200127E+01 -8.903496E-01 -4.188522E+00
      1990   1  8.162434E+01 -3.312042E+01 -1.839477E+00  1.558140E+01  5.977451E-01  1.490797E+00
      1990   2  8.311648E+01 -3.427224E+01 -1.492697E+00 -8.759926E+00 -5.304528E-01  4.608147E+00
      1990   3  8.583003E+01 -3.218988E+01 -3.211500E-01  1.495510E+01  5.485103E-01 -7.508753E+00
      1990   4  8.710971E+01 -3.301057E+01  1.760117E-01 -9.432879E+00 -5.755744E-01 -4.400298E+00
      1990   5  1.484970E+02 -1.088689E+01  5.376109E+00  1.628274E+01  5.966192E-01  1.179253E+00
      1990   6  1.499404E+02 -1.197672E+01  5.740493E+00 -7.039379E+00 -5.384072E-01  4.541787E+00
      1990   7  1.525290E+02 -1.004039E+01  6.816511E+00  1.540301E+01  5.452364E-01 -7.789506E+00
      1990   8  1.537745E+02 -1.080731E+01  7.338186E+00 -7.963812E+00 -5.856525E-01 -4.436779E+00
      1991   1  7.813721E+01 -2.988384E+01 -1.892435E+00  2.505179E+01  4.590357E-01  1.655181E+00
      1991   2  8.353467E+01 -3.464125E+01 -1.448313E+00  1.250471E+00 -8.987733E-01  4.505901E+00
      1991   3  8.241049E+01 -2.901969E+01 -3.721406E-01  2.475210E+01  1.130616E+00 -7.354855E+00
      1991   4  8.762106E+01 -3.346638E+01  2.177890E-01  8.622500E-01 -2.235490E-01 -4.498883E+00
      1991   5  1.445179E+02 -7.310414E+00  5.300935E+00  2.920355E+01  4.431901E-01  1.351903E+00
      1991   6  1.497191E+02 -1.183880E+01  5.796068E+00  6.398825E+00 -9.415833E-01  4.432463E+00
      1991   7  1.486664E+02 -6.562327E+00  6.751675E+00  2.865797E+01  1.098345E+00 -7.631466E+00
      1991   8  1.536940E+02 -1.078767E+01  7.398885E+00  5.768429E+00 -2.826321E-01 -4.547068E+00
      1992   1  7.293295E+01 -2.505399E+01 -1.948819E+00  3.371869E+01  3.074282E-01  1.805402E+00
      1992   2  8.208640E+01 -3.321676E+01 -1.392973E+00  1.110251E+01 -1.240135E+00  4.355653E+00
      1992   3  7.720286E+01 -2.418792E+01 -4.273130E-01  3.376147E+01  1.697264E+00 -7.133055E+00
      1992   4  8.619811E+01 -3.207817E+01  2.650456E-01  1.102024E+01  1.504866E-01 -4.562970E+00
      1992   5  1.380723E+02 -1.700925E+00  5.177413E+00  4.117455E+01  2.812067E-01  1.508735E+00
      1992   6  1.468891E+02 -9.475285E+00  5.818710E+00  1.950536E+01 -1.312409E+00  4.268355E+00
      1992   7  1.422697E+02 -9.747904E-01  6.640931E+00  4.098916E+01  1.640339E+00 -7.409600E+00
      1992   8  1.509398E+02 -8.483151E+00  7.424503E+00  1.920014E+01  4.787926E-02 -4.632055E+00
      1993   1  6.620896E+01 -1.876326E+01 -1.988762E+00  4.131409E+01  1.396950E-01  1.921998E+00
      1993   2  7.883038E+01 -3.008816E+01 -1.335915E+00  2.046941E+01 -1.556829E+00  4.161914E+00
      1993   3  7.040076E+01 -1.784546E+01 -4.736683E-01  4.168400E+01  2.234526E+00 -6.861205E+00
      1993   4  8.290063E+01 -2.893260E+01  3.096349E-01  2.068675E+01  5.336725E-01 -4.587509E+00
      1993   5  1.294601E+02  5.807484E+00  5.058391E+00  5.184293E+01  9.953444E-02  1.624288E+00
      1993   6  1.416161E+02 -4.980175E+00  5.831061E+00  3.187103E+01 -1.657970E+00  4.053578E+00
      1993   7  1.336210E+02  6.563317E+00  6.524104E+00  5.200554E+01  2.150633E+00 -7.146955E+00
      1993   8  1.456650E+02 -3.992023E+00  7.432347E+00  3.188745E+01  3.894601E-01 -4.686261E+00
      1994   1  5.821250E+01 -1.128049E+01 -2.020058E+00  4.757689E+01 -4.418805E-02  2.010549E+00
      1994   2  7.391969E+01 -2.539977E+01 -1.275338E+00  2.902866E+01 -1.846179E+00  3.932805E+00
      1994   3  6.225515E+01 -1.025578E+01 -5.161640E-01  4.824793E+01  2.731478E+00 -6.536515E+00
      1994   4  7.788015E+01 -2.417436E+01  3.529951E-01  2.952834E+01  9.179034E-01 -4.567568E+00
      1994   5  1.189765E+02  1.488625E+01  4.931335E+00  6.084635E+01 -9.774351E-02  1.708051E+00
      1994   6  1.341052E+02  1.437392E+00  5.829751E+00  4.307476E+01 -1.972133E+00  3.798918E+00
      1994   7  1.230219E+02  1.573129E+01  6.392921E+00  6.133474E+01  2.622609E+00 -6.836861E+00
      1994   8  1.380760E+02  2.478870E+00  7.420239E+00  4.339896E+01  7.376571E-01 -4.702097E+00
      1995   1  4.923021E+01 -2.895122E+00 -2.044545E+00  5.230371E+01 -2.401948E-01  2.071431E+00
      1995   2  6.755514E+01 -1.935017E+01 -1.211575E+00  3.649518E+01 -2.104357E+00  3.674300E+00
      1995   3  5.306082E+01 -1.714344E+00 -5.559713E-01  5.323842E+01  3.182033E+00 -6.162727E+00
      1995   4  7.134358E+01 -1.800721E+01  3.950517E-01  3.724844E+01  1.297107E+00 -4.501658E+00
      1995   5  1.069817E+02  2.517345E+01  4.793643E+00  6.789862E+01 -3.054943E-01  1.761105E+00
      1995   6  1.246343E+02  9.502326E+00  5.813207E+00  5.275201E+01 -2.250124E+00  3.511267E+00
      1995   7  1.108409E+02  2.616208E+01  6.245771E+00  6.867795E+01  3.051530E+00 -6.482137E+00
      1995   8  1.284569E+02  1.065016E+01  7.387209E+00  5.335754E+01  1.087582E+00 -4.676931E+00
      1996   1  3.958048E+01  6.076130E+00 -2.063058E+00  5.535498E+01 -4.439241E-01  2.104232E+00
      1996   2  5.998504E+01 -1.218751E+01 -1.146249E+00  4.263190E+01 -2.328087E+00  3.391997E+00
      1996   3  4.314650E+01  7.452299E+00 -5.938344E-01  5.650575E+01  3.581156E+00 -5.745807E+00
      1996   4  6.354777E+01 -1.068698E+01  4.344408E-01  4.359947E+01  1.665397E+00 -4.390045E+00
      1996   5  9.388535E+01  3.626806E+01  4.644998E+00  7.279493E+01 -5.189194E-01  1.783320E+00
      1996   6  1.135454E+02  1.887898E+01  5.779725E+00  6.060458E+01 -2.488314E+00  3.197085E+00
      1996   7  9.749852E+01  3.744507E+01  6.082615E+00  7.381877E+01  3.432942E+00 -6.088179E+00
      1996   8  1.171587E+02  2.017844E+01  7.331966E+00  6.145285E+01  1.433867E+00 -4.609858E+00
      1997   1  2.960042E+01  1.529947E+01 -2.076685E+00  5.665834E+01 -6.510011E-01  2.108983E+00
      1997   2  5.149879E+01 -4.198738E+00 -1.081047E+00  4.725881E+01 -2.515286E+00  3.091961E+00
      1997   3  3.286157E+01  1.689837E+01 -6.308199E-01  5.797017E+01  3.924898E+00 -5.292448E+00
      1997   4  5.479239E+01 -2.510981E+00  4.694959E-01  4.839324E+01  2.016819E+00 -4.233611E+00
      1997   5  8.012652E+01  4.774288E+01  4.484811E+00  7.541712E+01 -7.330822E-01  1.774969E+00
      1997   6  1.012321E+02  2.918520E+01  5.728336E+00  6.641116E+01 -2.684189E+00  2.863198E+00
      1997   7  8.344580E+01  4.914042E+01  5.902722E+00  7.663006E+01  3.763585E+00 -5.661134E+00
      1997   8  1.045855E+02  3.067089E+01  7.253469E+00  6.745416E+01  1.771115E+00 -4.500701E+00
      1998   1  1.963264E+01  2.443760E+01 -2.086795E+00  5.621074E+01 -8.571170E-01  2.086469E+00
      1998   2  4.241220E+01  4.302927E+00 -1.018768E+00  5.025913E+01 -2.664556E+00  2.780559E+00
      1998   3  2.256176E+01  2.627334E+01 -6.683180E-01  5.762364E+01  4.210355E+00 -4.809583E+00
      1998   4  4.540501E+01  6.195614E+00  4.973658E-01  5.150698E+01  2.345887E+00 -4.033879E+00
      1998   5  6.615611E+01  5.916190E+01  4.312515E+00  7.573662E+01 -9.433099E-01  1.737321E+00
      1998   6  8.811935E+01  4.000781E+01  5.656584E+00  7.003424E+01 -2.836170E+00  2.516880E+00
      1998   7  6.914760E+01  6.079862E+01  5.705560E+00  7.707717E+01  4.040991E+00 -5.207161E+00
      1998   8  9.117441E+01  4.170164E+01  7.149214E+00  7.121663E+01  2.094070E+00 -4.349770E+00
      1999   1  1.001004E+01  3.316434E+01 -2.095611E+00  5.407713E+01 -1.058000E+00  2.038812E+00
      1999   2  3.305492E+01  1.299267E+01 -9.628974E-01  5.158319E+01 -2.775348E+00  2.464981E+00
      1999   3  1.259273E+01  3.523634E+01 -7.092040E-01  5.552937E+01  4.435925E+00 -4.303587E+00
      1999   4  3.572734E+01  1.509485E+01  5.142153E-01  5.288779E+01  2.647642E+00 -3.792306E+00
      1999   5  5.241723E+01  7.009915E+01  4.126410E+00  7.381383E+01 -1.144839E+00  1.672945E+00
      1999   6  7.464700E+01  5.092188E+01  5.561249E+00  7.142431E+01 -2.943590E+00  2.166298E+00
      1999   7  5.506090E+01  7.197810E+01  5.488956E+00  7.521769E+01  4.264085E+00 -4.731850E+00
      1999   8  7.737883E+01  5.283188E+01  7.015835E+00  7.268668E+01  2.397919E+00 -4.157209E+00
      2000   1  1.041039E+00  4.117897E+01 -2.106617E+00  5.038643E+01 -1.249734E+00  1.969786E+00
      2000   2  2.375431E+01  2.154919E+01 -9.186328E-01  5.124862E+01 -2.848297E+00  2.153745E+00
      2000   3  3.276330E+00  4.347183E+01 -7.574224E-01  5.181756E+01  4.601097E+00 -3.779695E+00
      2000   4  2.609861E+01  2.385056E+01  5.140457E-01  5.255318E+01  2.917379E+00 -3.509448E+00
      2000   5  3.932594E+01  8.015672E+01  3.923281E+00  6.979342E+01 -1.333412E+00  1.586258E+00
      2000   6  6.124919E+01  6.150982E+01  5.437289E+00  7.061948E+01 -3.007007E+00  1.820847E+00
      2000   7  4.161572E+01  8.226516E+01  5.249059E+00  7.119676E+01  4.432702E+00 -4.239483E+00
      2000   8  6.364526E+01  6.362834E+01  6.847349E+00  7.190158E+01  2.678030E+00 -3.922389E+00
      2001   1 -7.001130E+00  4.822076E+01 -2.124219E+00  4.532404E+01 -1.428718E+00  1.885111E+00
      2001   2  1.482141E+01  2.966931E+01 -8.931623E-01  4.933752E+01 -2.884730E+00  1.856769E+00
      2001   3 -5.102747E+00  5.070358E+01 -8.185299E-01  4.667737E+01  4.706475E+00 -3.241483E+00
      2001   4  1.684167E+01  3.214468E+01  4.887498E-01  5.058750E+01  3.151191E+00 -3.184720E+00
      2001   5  2.725522E+01  8.898301E+01  3.698280E+00  6.389531E+01 -1.505294E+00  1.483738E+00
      2001   6  4.833506E+01  7.137944E+01  5.276882E+00  6.774075E+01 -3.028096E+00  1.491515E+00
      2001   7  2.919802E+01  9.129212E+01  4.980123E+00  6.523775E+01  4.547535E+00 -3.732555E+00
      2001   8  5.039615E+01  7.368294E+01  6.635232E+00  6.898419E+01  2.930075E+00 -3.643324E+00
      2002   1 -1.389049E+01  5.408073E+01 -2.154067E+00  3.912141E+01 -1.592601E+00  1.793433E+00
      2002   2  6.539621E+00  3.708493E+01 -8.943968E-01  4.598891E+01 -2.887650E+00  1.586286E+00
      2002   3 -1.230967E+01  5.670624E+01 -9.005112E-01  4.034697E+01  4.752985E+00 -2.689628E+00
      2002   4  8.249212E+00  3.969315E+01  4.283301E-01  4.713500E+01  3.345046E+00 -2.815178E+00
      2002   5  1.652098E+01  9.628747E+01  3.444633E+00  5.640254E+01 -1.657992E+00  1.374791E+00
      2002   6  3.627512E+01  8.018272E+01  5.070258E+00  6.298249E+01 -3.010219E+00  1.191593E+00
      2002   7  1.813417E+01  9.875115E+01  4.673357E+00  5.763032E+01  4.609546E+00 -3.210657E+00
      2002   8  3.801281E+01  8.263095E+01  6.367932E+00  6.413412E+01  3.149551E+00 -3.315696E+00
      2003   1 -1.945517E+01  5.860973E+01 -2.203152E+00  3.204346E+01 -1.740605E+00  1.705874E+00
      2003   2 -8.445549E-01  4.357328E+01 -9.308037E-01  4.138978E+01 -2.861926E+00  1.356664E+00
      2003   3 -1.816511E+01  6.131518E+01 -1.012796E+00  3.310043E+01  4.741354E+00 -2.122273E+00
      2003   4  5.754202E-01  4.625682E+01  3.218958E-01  4.239031E+01  3.494474E+00 -2.395651E+00
      2003   5  7.371404E+00  1.018507E+02  3.152941E+00  4.764614E+01 -1.790863E+00  1.271719E+00
      2003   6  2.538891E+01  8.762998E+01  4.806369E+00  5.660110E+01 -2.958915E+00  9.367482E-01
      2003   7  8.680856E+00  1.044066E+02  4.317049E+00  4.871473E+01  4.619224E+00 -2.670402E+00
      2003   8  2.682368E+01  9.016576E+01  6.032153E+00  5.761563E+01  3.331200E+00 -2.932683E+00
      2004   1 -2.357512E+01  6.172085E+01 -2.277942E+00  2.437453E+01 -1.874459E+00  1.635699E+00
      2004   2 -7.119762E+00  4.896227E+01 -1.007826E+00  3.576321E+01 -2.814853E+00  1.183755E+00
      2004   3 -2.254431E+01  6.442879E+01 -1.164605E+00  2.523346E+01  4.671093E+00 -1.535608E+00
      2004   4 -5.962195E+00  5.164912E+01  1.616795E-01  3.658662E+01  3.594030E+00 -1.919675E+00
      2004   5 -9.697755E-03  1.055343E+02  2.815629E+00  3.799002E+01 -1.906059E+00  1.189301E+00
      2004   6  1.594733E+01  9.350063E+01  4.477492E+00  4.890184E+01 -2.882513E+00  7.446018E-01
      2004   7  1.027567E+00  1.081044E+02  3.900806E+00  3.886666E+01  4.575560E+00 -2.105966E+00
      2004   8  1.710657E+01  9.605106E+01  5.617742E+00  4.974445E+01  3.468424E+00 -2.485563E+00
      2005   1 -2.617414E+01  6.337414E+01 -2.384015E+00  1.641099E+01 -1.998590E+00  1.595101E+00
      2005   2 -1.209330E+01  5.312114E+01 -1.120947E+00  2.936838E+01 -2.755790E+00  1.081074E+00
      2005   3 -2.536825E+01  6.599672E+01 -1.363587E+00  1.705512E+01  4.540423E+00 -9.278851E-01
      2005   4 -1.116622E+01  5.572856E+01 -4.939342E-02  2.999463E+01  3.637978E+00 -1.384108E+00
      2005   5 -5.488386E+00  1.072833E+02  2.433584E+00  2.782472E+01 -2.008979E+00  1.141988E+00
      2005   6  8.195179E+00  9.765194E+01  4.092486E+00  4.023956E+01 -2.791998E+00  6.312208E-01
      2005   7 -4.688469E+00  1.097775E+02  3.423170E+00  2.848986E+01  4.475733E+00 -1.512525E+00
      2005   8  9.111479E+00  1.001319E+02  5.131686E+00  4.088757E+01  3.553752E+00 -1.967822E+00
      2006   1 -2.720025E+01  6.353581E+01 -2.524986E+00  8.473293E+00 -2.119754E+00  1.588927E+00
      2006   2 -1.556540E+01  5.592427E+01 -1.246536E+00  2.252927E+01 -2.695165E+00  1.052351E+00
      2006   3 -2.658161E+01  6.598536E+01 -1.611944E+00  8.898989E+00  4.347029E+00 -3.079328E-01
      2006   4 -1.483147E+01  5.836904E+01 -2.858432E-01  2.295045E+01  3.622009E+00 -7.987609E-01
      2006   5 -8.945471E+00  1.071327E+02  2.034924E+00  1.758047E+01 -2.108117E+00  1.137250E+00
      2006   6  2.392086E+00  1.000297E+02  3.702865E+00  3.104791E+01 -2.700214E+00  6.031161E-01
      2006   7 -8.344603E+00  1.094595E+02  2.913232E+00  1.802857E+01  4.315599E+00 -8.948290E-01
      2006   8  3.103454E+00  1.023519E+02  4.626907E+00  3.149169E+01  3.580298E+00 -1.385043E+00
      2007   1 -2.661548E+01  6.209947E+01 -2.706861E+00  9.583780E-01 -2.243651E+00  1.603540E+00
      2007   2 -1.731058E+01  5.719084E+01 -1.331294E+00  1.572174E+01 -2.641705E+00  1.078999E+00
      2007   3 -2.613989E+01  6.430653E+01 -1.907864E+00  1.173527E+00  4.092889E+00  2.910174E-01
      2007   4 -1.672440E+01  5.940571E+01 -4.868474E-01  1.594261E+01  3.546969E+00 -2.012235E-01
      2007   5 -1.023328E+01  1.052248E+02  1.708048E+00  7.775825E+00 -2.211941E+00  1.161914E+00
      2007   6 -1.135356E+00  1.007043E+02  3.452150E+00  2.192103E+01 -2.619067E+00  6.409189E-01
      2007   7 -9.785192E+00  1.073135E+02  2.468560E+00  8.014135E+00  4.093906E+00 -2.839875E-01
      2007   8 -5.814727E-01  1.028004E+02  4.255818E+00  2.216482E+01  3.545193E+00 -7.739576E-01
      2008   1 -2.442539E+01  5.881264E+01 -2.936881E+00 -5.590562E+00 -2.368736E+00  1.596049E+00
      2008   2 -1.713425E+01  5.666634E+01 -1.263528E+00  9.660051E+00 -2.596743E+00  1.107026E+00
      2008   3 -2.403391E+01  6.075183E+01 -2.240824E+00 -5.568546E+00  3.790265E+00  7.928112E-01
      2008   4 -1.663571E+01  5.862577E+01 -5.239127E-01  9.699434E+00  3.421240E+00  3.227481E-01
      2008   5 -9.205566E+00  1.017679E+02  1.615189E+00 -9.498851E-01 -2.321730E+00  1.167391E+00
      2008   6 -2.044737E+00  9.988652E+01  3.626757E+00  1.366217E+01 -2.552392E+00  6.811911E-01
      2008   7 -8.844545E+00  1.036042E+02  2.274400E+00 -9.037148E-01  3.818781E+00  2.372082E-01
      2008   8 -1.581497E+00  1.017418E+02  4.326876E+00  1.372497E+01  3.453047E+00 -2.307555E-01
      2009   1 -2.076984E+01  5.329481E+01 -3.191958E+00 -1.055335E+01 -2.478470E+00  1.499531E+00
      2009   2 -1.509426E+01  5.407140E+01 -8.836416E-01  5.096478E+00 -2.546890E+00  1.061050E+00
      2009   3 -2.040282E+01  5.496960E+01 -2.580136E+00 -1.070120E+01  3.468063E+00  1.090108E+00
      2009   4 -1.463924E+01  5.577364E+01 -2.366384E-01  4.981350E+00  3.262575E+00  6.587442E-01
      2009   5 -5.971406E+00  9.665497E+01  1.870359E+00 -7.982464E+00 -2.419724E+00  1.072842E+00
      2009   6 -3.530416E-01  9.757946E+01  4.503041E+00  7.012085E+00 -2.480599E+00  6.331379E-01
      2009   7 -5.630856E+00  9.825679E+01  2.453723E+00 -8.110241E+00  3.518994E+00  5.403148E-01
      2009   8  7.126017E-02  9.920703E+01  5.118793E+00  6.915668E+00  3.326773E+00  1.075030E-01
      2010   1 -1.506612E+01  5.662403E+01 -1.454136E+00 -4.973494E+00  2.607175E+00  1.169828E+00
      2010   2 -2.107011E+01  5.580042E+01 -3.895564E+00  1.107819E+01  2.623516E+00  1.905306E+00
      2010   3 -1.448330E+01  5.940368E+01 -4.452108E-01 -4.373231E+00 -3.172039E+00  7.595788E-01
      2010   4 -2.066176E+01  5.848519E+01 -2.966891E+00  1.156288E+01 -3.257757E+00  1.493784E+00
      2010   5 -3.639573E-01  9.998568E+01  3.934744E+00 -6.941011E+00  2.452124E+00  6.706789E-01
      2010   6 -6.263507E+00  9.904960E+01  1.252654E+00  8.438575E+00  2.472837E+00  1.397538E+00
      2010   7  1.495555E-01  1.025990E+02  4.872693E+00 -6.387383E+00 -3.325518E+00  1.654493E-01
      2010   8 -5.917611E+00  1.015716E+02  2.112652E+00  8.881468E+00 -3.402568E+00  8.911741E-01
      2011   1 -1.702778E+01  5.973785E+01 -1.733977E+00 -9.989297E+00  2.569824E+00  1.094911E+00
      2011   2 -2.480275E+01  6.195016E+01 -3.587575E+00  5.605807E+00  2.594906E+00  1.994632E+00
      2011   3 -1.641855E+01  6.316716E+01 -5.251535E-01 -9.617839E+00 -3.363198E+00  2.921591E-01
      2011   4 -2.435881E+01  6.524426E+01 -2.463326E+00  5.845478E+00 -3.462434E+00  1.180328E+00
      2011   5 -1.915246E+00  1.027984E+02  3.259611E+00 -1.410385E+01  2.410881E+00  5.704950E-01
      2011   6 -9.529233E+00  1.047535E+02  1.099644E+00  8.382588E-01  2.444796E+00  1.459570E+00
      2011   7 -1.388010E+00  1.060157E+02  4.377981E+00 -1.376534E+01 -3.511074E+00 -3.475791E-01
      2011   8 -9.160660E+00  1.078410E+02  2.136257E+00  1.050490E+00 -3.596226E+00  5.305302E-01
      2012   1 -1.703218E+01  6.061809E+01 -1.828053E+00 -1.660882E+01  2.521289E+00  9.109985E-01
      2012   2 -2.695167E+01  6.572262E+01 -3.414401E+00 -1.553995E+00  2.557225E+00  1.989829E+00
      2012   3 -1.638164E+01  6.467228E+01 -4.220926E-01 -1.650475E+01 -3.557548E+00 -3.898874E-01
      2012   4 -2.639626E+01  6.962026E+01 -2.073624E+00 -1.589772E+00 -3.666446E+00  6.636607E-01
      2012   5 -7.526391E-01  1.039901E+02  3.108600E+00 -2.297439E+01  2.359500E+00  3.427194E-01
      2012   6 -1.044669E+01  1.086909E+02  1.145516E+00 -8.549938E+00  2.424949E+00  1.410765E+00
      2012   7 -2.087386E-01  1.077877E+02  4.400773E+00 -2.287106E+01 -3.695286E+00 -1.092495E+00
      2012   8 -9.994144E+00  1.123383E+02  2.374812E+00 -8.580589E+00 -3.768470E+00 -4.853720E-02
      2013   1 -1.498147E+01  5.949135E+01 -1.883160E+00 -2.399995E+01  2.477095E+00  7.455434E-01
      2013   2 -2.733216E+01  6.746173E+01 -3.331746E+00 -9.730752E+00  2.528510E+00  1.989217E+00
      2013   3 -1.423841E+01  6.403244E+01 -3.064472E-01 -2.421280E+01 -3.730896E+00 -1.105142E+00
      2013   4 -2.661505E+01  7.182292E+01 -1.801437E+00 -1.007758E+01 -3.829474E+00  1.000594E-01
      2013   5  3.167151E+00  1.034460E+02  3.218065E+00 -3.273744E+01  2.329000E+00  1.441842E-01
      2013   6 -8.866286E+00  1.108828E+02  1.363758E+00 -1.906570E+01  2.430107E+00  1.381636E+00
      2013   7  3.775076E+00  1.077052E+02  4.662295E+00 -3.291846E+01 -3.841880E+00 -1.845962E+00
      2013   8 -8.283191E+00  1.149697E+02  2.763596E+00 -1.937509E+01 -3.884263E+00 -6.451896E-01
      2014   1 -1.105348E+01  5.660712E+01 -1.930134E+00 -3.138510E+01  2.440621E+00  6.486960E-01
      2014   2 -2.593357E+01  6.737918E+01 -3.296080E+00 -1.833527E+01  2.507953E+00  2.046170E+00
      2014   3 -1.015822E+01  6.148595E+01 -2.097476E-01 -3.195016E+01 -3.854273E+00 -1.786248E+00
      2014   4 -2.500720E+01  7.205044E+01 -1.607873E+00 -1.901809E+01 -3.932180E+00 -4.382386E-01
      2014   5  9.526124E+00  1.009355E+02  3.417166E+00 -4.251867E+01  2.316114E+00  3.308750E-02
      2014   6 -4.929892E+00  1.110575E+02  1.644098E+00 -3.001526E+01  2.449911E+00  1.430721E+00
      2014   7  1.025243E+01  1.055177E+02  4.988197E+00 -4.302271E+01 -3.930224E+00 -2.537329E+00
      2014   8 -4.173492E+00  1.154411E+02  3.184996E+00 -3.063212E+01 -3.935288E+00 -1.186852E+00
      2015   1 -5.483358E+00  5.215423E+01 -1.989189E+00 -3.824475E+01  2.408368E+00  6.281374E-01
      2015   2 -2.279287E+01  6.556938E+01 -3.282085E+00 -2.692693E+01  2.484766E+00  2.173348E+00
      2015   3 -4.378635E+00  5.722499E+01 -1.515601E-01 -3.917984E+01 -3.916104E+00 -2.411321E+00
      2015   4 -2.161139E+01  7.040554E+01 -1.465259E+00 -2.795337E+01 -3.976064E+00 -9.245782E-01
      2015   5  1.799220E+01  9.640400E+01  3.612683E+00 -5.167019E+01  2.310568E+00  1.080109E-02
      2015   6  1.214181E+00  1.090642E+02  1.922960E+00 -4.082626E+01  2.467259E+00  1.564657E+00
      2015   7  1.889058E+01  1.011748E+02  5.286739E+00 -5.251975E+01 -3.955496E+00 -3.156137E+00
      2015   8  2.186717E+00  1.136108E+02  3.578494E+00 -4.176335E+01 -3.929095E+00 -1.658002E+00
      2016   1  1.512744E+00  4.628497E+01 -2.066005E+00 -4.421606E+01  2.372611E+00  6.700825E-01
      2016   2 -1.796928E+01  6.207793E+01 -3.279374E+00 -3.513874E+01  2.446294E+00  2.361956E+00
      2016   3  2.884265E+00  5.141774E+01 -1.325794E-01 -4.552032E+01 -3.917014E+00 -2.985270E+00
      2016   4 -1.648552E+01  6.695394E+01 -1.356542E+00 -3.649875E+01 -3.968901E+00 -1.359030E+00
      2016   5  2.828733E+01  8.994392E+01  3.774796E+00 -5.971183E+01  2.300844E+00  5.814627E-02
      2016   6  9.435951E+00  1.048905E+02  2.180320E+00 -5.101460E+01  2.466389E+00  1.769405E+00
      2016   7  2.941240E+01  9.478386E+01  5.533030E+00 -6.091174E+01 -3.922038E+00 -3.714644E+00
      2016   8  1.066950E+01  1.094854E+02  3.930597E+00 -5.226793E+01 -3.876396E+00 -2.065901E+00
      2017   1  9.715134E+00  3.917021E+01 -2.161281E+00 -4.900354E+01  2.326853E+00  7.542767E-01
      2017   2 -1.155735E+01  5.697499E+01 -3.282425E+00 -4.262781E+01  2.382822E+00  2.595419E+00
      2017   3  1.141056E+01  4.425267E+01 -1.481048E-01 -5.065916E+01 -3.859997E+00 -3.520180E+00
      2017   4 -9.723524E+00  6.178726E+01 -1.269494E+00 -4.429594E+01 -3.917699E+00 -1.749960E+00
      2017   5  4.013346E+01  8.174726E+01  3.897730E+00 -6.624665E+01  2.278323E+00  1.517248E-01
      2017   6  1.957637E+01  9.863126E+01  2.414509E+00 -6.013788E+01  2.435916E+00  2.025268E+00
      2017   7  4.153996E+01  8.655266E+01  5.726264E+00 -6.778573E+01 -3.835029E+00 -4.228748E+00
      2017   8  2.111677E+01  1.031791E+02  4.245825E+00 -6.168894E+01 -3.785899E+00 -2.422704E+00
      2018   1  1.887403E+01  3.103107E+01 -2.272081E+00 -5.235401E+01  2.267531E+00  8.619955E-01
      2018   2 -3.707456E+00  5.039009E+01 -3.287487E+00 -4.906828E+01  2.288304E+00  2.856906E+00
      2018   3  2.094894E+01  3.596729E+01 -1.906828E-01 -5.432786E+01 -3.746904E+00 -4.026373E+00
      2018   4 -1.477944E+00  5.505366E+01 -1.195379E+00 -5.100581E+01 -3.827174E+00 -2.105662E+00
      2018   5  5.321201E+01  7.209160E+01  3.984931E+00 -7.093500E+01  2.238445E+00  2.710193E-01
      2018   6  3.141201E+01  9.047599E+01  2.629259E+00 -6.778686E+01  2.368811E+00  2.313531E+00
      2018   7  5.495417E+01  7.677301E+01  5.874097E+00 -7.278776E+01 -3.697476E+00 -4.710860E+00
      2018   8  3.330396E+01  9.489780E+01  4.532577E+00 -6.960481E+01 -3.663444E+00 -2.738896E+00
      2019   1  2.869613E+01  2.214512E+01 -2.394217E+00 -5.406105E+01  2.193750E+00  9.786945E-01
      2019   2  5.366082E+00  4.252263E+01 -3.291381E+00 -5.416259E+01  2.159720E+00  3.132096E+00
      2019   3  3.120191E+01  2.685407E+01 -2.528481E-01 -5.630582E+01 -3.578231E+00 -4.509608E+00
      2019   4  8.032079E+00  4.696906E+01 -1.127503E+00 -5.631903E+01 -3.700266E+00 -2.431555E+00
      2019   5  6.714626E+01  6.132985E+01  4.041918E+00 -7.349874E+01  2.180024E+00  4.003596E-01
      2019   6  4.464152E+01  8.070252E+01  2.828806E+00 -7.359599E+01  2.261585E+00  2.618590E+00
      2019   7  6.927546E+01  6.581039E+01  5.985077E+00 -7.562632E+01 -3.510327E+00 -5.168113E+00
      2019   8  4.692632E+01  8.493368E+01  4.798337E+00 -7.563897E+01 -3.512590E+00 -3.021426E+00
      2020   1  3.884588E+01  1.283821E+01 -2.523675E+00 -5.397783E+01  2.106562E+00  1.094085E+00
      2020   2  1.538720E+01  3.363799E+01 -3.291325E+00 -5.765730E+01  1.995968E+00  3.409450E+00
      2020   3  4.182644E+01  1.725296E+01 -3.285541E-01 -5.643388E+01 -3.353913E+00 -4.971126E+00
      2020   4  1.852204E+01  3.781373E+01 -1.061128E+00 -5.997259E+01 -3.539413E+00 -2.730077E+00
      2020   5  8.150182E+01  4.987624E+01  4.073116E+00 -7.373545E+01  2.104032E+00  5.284988E-01
      2020   6  5.888779E+01  6.966754E+01  3.016420E+00 -7.726089E+01  2.112742E+00  2.927690E+00
      2020   7  8.406406E+01  5.409110E+01  6.065655E+00 -7.608727E+01 -3.273721E+00 -5.602983E+00
      2020   8  6.160027E+01  7.365582E+01  5.048306E+00 -7.947782E+01 -3.336280E+00 -3.274237E+00
      2021   1  4.895719E+01  3.469126E+00 -2.657103E+00 -5.202858E+01  2.007884E+00  1.201471E+00
      2021   2  2.602690E+01  2.405596E+01 -3.285528E+00 -5.935823E+01  1.797318E+00  3.679936E+00
      2021   3  5.244619E+01  7.537543E+00 -4.130168E-01 -5.462540E+01 -3.074291E+00 -5.408666E+00
      2021   4  2.965245E+01  2.792210E+01 -9.931626E-01 -6.176441E+01 -3.346954E+00 -3.001309E+00
      2021   5  9.580259E+01  3.818873E+01  4.081951E+00 -7.153304E+01  2.012760E+00  6.480021E-01
      2021   6  7.370963E+01  5.779078E+01  3.193353E+00 -7.855579E+01  1.922582E+00  3.230737E+00
      2021   7  9.883582E+01  4.208543E+01  6.120736E+00 -7.404760E+01 -2.987711E+00 -6.014251E+00
      2021   8  7.687661E+01  6.149660E+01  5.285122E+00 -8.088772E+01 -3.136898E+00 -3.498767E+00
      2022   1  5.865061E+01 -5.586085E+00 -2.791237E+00 -4.821493E+01  1.900387E+00  1.296802E+00
      2022   2  3.691721E+01  1.413655E+01 -3.272715E+00 -5.914139E+01  1.565075E+00  3.936356E+00
      2022   3  6.266776E+01 -1.901410E+00 -5.026765E-01 -5.087369E+01 -2.740395E+00 -5.817523E+00
      2022   4  4.104228E+01  1.766848E+01 -9.220996E-01 -6.156533E+01 -3.125656E+00 -3.243776E+00
      2022   5  1.095523E+02  2.674894E+01  4.071222E+00 -6.687811E+01  1.909207E+00  7.540568E-01
      2022   6  8.862192E+01  4.553879E+01  3.360352E+00 -7.734706E+01  1.692459E+00  3.519363E+00
      2022   7  1.130829E+02  3.028759E+01  6.153408E+00 -6.948518E+01 -2.653014E+00 -6.398302E+00
      2022   8  9.225917E+01  4.893435E+01  5.509692E+00 -7.972912E+01 -2.917158E+00 -3.695049E+00
      2023   1  6.754854E+01 -1.395488E+01 -2.924151E+00 -4.261905E+01  1.786479E+00  1.377801E+00
      2023   2  4.766859E+01  4.263650E+00 -3.251928E+00 -5.696103E+01  1.300968E+00  4.172769E+00
      2023   3  7.209843E+01 -1.067500E+01 -5.953466E-01 -4.525526E+01 -2.354705E+00 -6.191808E+00
      2023   4  5.228730E+01  7.451162E+00 -8.470536E-01 -5.932666E+01 -2.879016E+00 -3.455422E+00
      2023   5  1.222539E+02  1.603827E+01  4.042240E+00 -5.986080E+01  1.796449E+00  8.438511E-01
      2023   6  1.031160E+02  3.340365E+01  3.517509E+00 -7.360225E+01  1.424507E+00  3.786580E+00
      2023   7  1.262952E+02  1.919310E+01  6.165336E+00 -6.248331E+01 -2.271415E+00 -6.750119E+00
      2023   8  1.072270E+02  3.647370E+01  5.722196E+00 -7.596550E+01 -2.680117E+00 -3.862396E+00
      2024   1  7.529469E+01 -2.128450E+01 -3.054291E+00 -3.540155E+01  1.668849E+00  1.443831E+00
      2024   2  5.788504E+01 -5.173279E+00 -3.223045E+00 -5.285337E+01  1.007475E+00  4.384408E+00
      2024   3  8.036521E+01 -1.841403E+01 -6.894258E-01 -3.792850E+01 -1.920714E+00 -6.524711E+00
      2024   4  6.297714E+01 -2.325731E+00 -7.678179E-01 -5.508487E+01 -2.611045E+00 -3.633739E+00
      2024   5  1.334348E+02  6.516197E+00  3.995961E+00 -5.067287E+01  1.677807E+00  9.161412E-01
      2024   6  1.166813E+02  2.187999E+01  3.664199E+00 -6.739400E+01  1.121726E+00  4.026561E+00
      2024   7  1.379853E+02  9.276075E+00  6.157437E+00 -5.323000E+01 -1.845704E+00 -7.063802E+00
      2024   8  1.212567E+02  2.462206E+01  5.921966E+00 -6.966805E+01 -2.429178E+00 -3.999664E+00
      2025   1  8.157097E+01 -2.726010E+01 -3.180507E+00 -2.679648E+01  1.549591E+00  1.495207E+00
      2025   2  6.718352E+01 -1.379873E+01 -3.186704E+00 -4.693725E+01  6.872749E-01  4.567549E+00
      2025   3  8.713274E+01 -2.478678E+01 -7.839089E-01 -2.912849E+01 -1.443531E+00 -6.809359E+00
      2025   4  7.271406E+01 -1.127244E+01 -6.853003E-01 -4.896185E+01 -2.326551E+00 -3.776190E+00
      2025   5  1.426698E+02 -1.402226E+00  3.933279E+00 -3.960194E+01  1.556204E+00  9.708516E-01
      2025   6  1.288295E+02  1.144031E+01  3.798674E+00 -5.889936E+01  7.876039E-01  4.234654E+00
      2025   7  1.477118E+02  9.667917E-01  6.130285E+00 -4.201183E+01 -1.379984E+00 -7.333194E+00
      2025   8  1.338463E+02  1.386472E+01  6.106826E+00 -6.101474E+01 -2.168155E+00 -4.105556E+00
      2026   1  8.611503E+01 -3.162033E+01 -3.301544E+00 -1.710131E+01  1.430488E+00  1.533425E+00
      2026   2  7.521373E+01 -2.126895E+01 -3.144006E+00 -3.940844E+01  3.435686E-01  4.720010E+00
      2026   3  9.212162E+01 -2.951517E+01 -8.776980E-01 -1.915760E+01 -9.294762E-01 -7.038828E+00
      2026   4  8.113336E+01 -1.903110E+01 -6.007239E-01 -4.115982E+01 -2.030655E+00 -3.879834E+00
      2026   5  1.495999E+02 -7.367982E+00  3.853976E+00 -2.701899E+01  1.434077E+00  1.009326E+00
      2026   6  1.391180E+02  2.512952E+00  3.918583E+00 -4.839208E+01  4.258235E-01  4.408148E+00
      2026   7  1.551005E+02 -5.369421E+00  6.083896E+00 -2.920258E+01 -8.797630E-01 -7.551777E+00
      2026   8  1.445403E+02  4.643675E+00  6.274653E+00 -5.028353E+01 -1.901515E+00 -4.177913E+00
      2027   1  8.874109E+01 -3.417346E+01 -3.414940E+00 -6.663183E+00  1.313054E+00  1.562365E+00
      2027   2  8.167691E+01 -2.730581E+01 -3.101720E+00 -3.052960E+01 -1.862408E-02  4.843890E+00
      2027   3  9.512546E+01 -3.239054E+01 -9.695638E-01 -8.372765E+00 -3.852205E-01 -7.204837E+00
      2027   4  8.792164E+01 -2.530367E+01 -5.195625E-01 -3.195273E+01 -1.726619E+00 -3.938142E+00
      2027   5  1.539521E+02 -1.112170E+01  3.755984E+00 -1.335816E+01  1.312897E+00  1.035909E+00
      2027   6  1.471655E+02 -4.559824E+00  4.013503E+00 -3.622527E+01  4.065536E-02  4.550568E+00
      2027   7  1.598620E+02 -9.454379E+00  6.016951E+00 -1.524534E+01 -3.519497E-01 -7.710819E+00
      2027   8  1.529471E+02 -2.677015E+00  6.418208E+00 -3.783800E+01 -1.633463E+00 -4.208785E+00
      2028   1  8.932631E+01 -3.481718E+01 -3.528851E+00  4.137591E+00  1.202886E+00  1.587344E+00
      2028   2  8.634027E+01 -3.164899E+01 -3.055310E+00 -2.063162E+01 -3.916297E-01  4.936287E+00
      2028   3  9.601185E+01 -3.329232E+01 -1.065275E+00  2.841517E+00  1.859204E-01 -7.299496E+00
      2028   4  9.283556E+01 -2.982708E+01 -4.397303E-01 -2.167240E+01 -1.415880E+00 -3.952207E+00
      2028   5  1.555902E+02 -1.248123E+01  3.653105E+00  8.821499E-01  1.195016E+00  1.058956E+00
      2028   6  1.527293E+02 -9.445481E+00  4.107351E+00 -2.284993E+01 -3.602080E-01  4.658234E+00
      2028   7  1.618375E+02 -1.109487E+01  5.939439E+00 -6.363931E-01  1.978080E-01 -7.800036E+00
      2028   8  1.588001E+02 -7.768715E+00  6.552953E+00 -2.412386E+01 -1.364486E+00 -4.200669E+00
      2029   1  8.786420E+01 -3.339694E+01 -3.599429E+00  1.447230E+01  1.078179E+00  1.595373E+00
      2029   2  8.898643E+01 -3.397446E+01 -2.993305E+00 -9.924663E+00 -7.720768E-01  4.758223E+00
      2029   3  9.474751E+01 -3.208473E+01 -1.139011E+00  1.377067E+01  7.576956E-01 -7.363055E+00
      2029   4  9.565473E+01 -3.232731E+01 -3.825568E-01 -1.060415E+01 -1.085802E+00 -4.211352E+00
      2029   5  1.544076E+02 -1.129194E+01  3.558535E+00  1.473516E+01  1.068645E+00  1.061432E+00
      2029   6  1.555022E+02 -1.182593E+01  4.184441E+00 -8.640268E+00 -7.685189E-01  4.472002E+00
      2029   7  1.609134E+02 -1.014401E+01  5.855950E+00  1.378187E+01  7.516766E-01 -7.866120E+00
      2029   8  1.618076E+02 -1.035142E+01  6.639087E+00 -9.572347E+00 -1.078781E+00 -4.467409E+00
      2030   1  8.449050E+01 -3.027112E+01 -3.648617E+00  2.459441E+01  9.255058E-01  1.804623E+00
      2030   2  8.956226E+01 -3.448072E+01 -2.945169E+00  6.641178E-01 -1.158858E+00  4.635992E+00
      2030   3  9.143142E+01 -2.901727E+01 -1.188648E+00  2.445411E+01  1.335468E+00 -7.194354E+00
      2030   4  9.630518E+01 -3.289648E+01 -3.372522E-01  5.019899E-01 -7.423059E-01 -4.359086E+00
      2030   5  1.506202E+02 -7.889037E+00  3.485481E+00  2.831663E+01  9.105378E-01  1.279532E+00
      2030   6  1.555156E+02 -1.188649E+01  4.243134E+00  5.388347E+00 -1.181292E+00  4.343748E+00
      2030   7  1.572338E+02 -6.832528E+00  5.790931E+00  2.792098E+01  1.309126E+00 -7.692068E+00
      2030   8  1.619447E+02 -1.050812E+01  6.702690E+00  4.971780E+00 -7.760637E-01 -4.625204E+00
      2031   1  7.926229E+01 -2.541530E+01 -3.692205E+00  3.393543E+01  7.542503E-01  1.990311E+00
      2031   2  8.814092E+01 -3.308578E+01 -2.884184E+00  1.112511E+01 -1.517399E+00  4.463218E+00
      2031   3  8.613602E+01 -2.411536E+01 -1.238799E+00  3.435888E+01  1.895480E+00 -6.962913E+00
      2031   4  9.483989E+01 -3.147306E+01 -2.875788E-01  1.148503E+01 -3.722631E-01 -4.470679E+00
      2031   5  1.442375E+02 -2.301538E+00  3.382390E+00  4.098800E+01  7.369030E-01  1.471109E+00
      2031   6  1.527971E+02 -9.598017E+00  4.279867E+00  1.913277E+01 -1.562073E+00  4.158291E+00
      2031   7  1.508407E+02 -1.225989E+00  5.693353E+00  4.116165E+01  1.851825E+00 -7.460588E+00
      2031   8  1.592378E+02 -8.217892E+00  6.739495E+00  1.924554E+01 -4.429943E-01 -4.755867E+00
      2032   1  7.237274E+01 -1.899078E+01 -3.720259E+00  4.217317E+01  5.617728E-01  2.143570E+00
      2032   2  8.478412E+01 -2.987426E+01 -2.816830E+00  2.108395E+01 -1.848642E+00  4.246269E+00
      2032   3  7.905635E+01 -1.755080E+01 -1.282154E+00  4.313103E+01  2.423447E+00 -6.676884E+00
      2032   4  9.132412E+01 -2.813972E+01 -2.381615E-01  2.194335E+01  1.190776E-02 -4.540297E+00
      2032   5  1.355304E+02  5.296605E+00  3.280751E+00  5.233108E+01  5.386229E-01  1.624225E+00
      2032   6  1.474914E+02 -5.061877E+00  4.308126E+00  3.212486E+01 -1.914965E+00  3.922280E+00
      2032   7  1.419926E+02  6.485527E+00  5.585839E+00  5.304968E+01  2.360478E+00 -7.182340E+00
      2032   8  1.538205E+02 -3.586184E+00  6.758465E+00  3.274913E+01 -9.370508E-02 -4.852685E+00
      2033   1  6.407724E+01 -1.126012E+01 -3.735762E+00  4.902383E+01  3.490336E-01  2.265433E+00
      2033   2  7.964470E+01 -2.499350E+01 -2.742241E+00  3.019511E+01 -2.149698E+00  3.992051E+00
      2033   3  7.045553E+01 -9.589493E+00 -1.320278E+00  5.046455E+01  2.909166E+00 -6.337756E+00
      2033   4  8.591582E+01 -2.305029E+01 -1.886938E-01  3.150932E+01  4.020500E-01 -4.563763E+00
      2033   5  1.248063E+02  1.458711E+01  3.174587E+00  6.196185E+01  3.205947E-01  1.742539E+00
      2033   6  1.398074E+02  1.514183E+00  4.325869E+00  4.392149E+01 -2.233718E+00  3.644714E+00
      2033   7  1.310066E+02  1.598290E+01  5.465189E+00  6.317916E+01  2.828828E+00 -6.856148E+00
      2033   8  1.459090E+02  3.175272E+00  6.758400E+00  4.501759E+01  2.670125E-01 -4.909335E+00
      2034   1  5.467878E+01 -2.525718E+00 -3.739939E+00  5.426135E+01  1.204407E-01  2.355499E+00
      2034   2  7.293578E+01 -1.865392E+01 -2.660980E+00  3.815087E+01 -2.416452E+00  3.706747E+00
      2034   3  6.065176E+01 -5.459397E-01 -1.353618E+00  5.611415E+01  3.346112E+00 -5.949993E+00
      2034   4  7.884010E+01 -1.642727E+01 -1.395238E-01  3.985618E+01  7.915432E-01 -4.539300E+00
      2034   5  1.124422E+02  2.519670E+01  3.062317E+00  6.956954E+01  8.839508E-02  1.826400E+00
      2034   6  1.300359E+02  9.844947E+00  4.331912E+00  5.413367E+01 -2.513214E+00  3.332779E+00
      2034   7  1.182749E+02  2.688203E+01  5.331059E+00  7.121929E+01  3.251741E+00 -6.485509E+00
      2034   8  1.358065E+02  1.177051E+01  6.738858E+00  5.564207E+01  6.337589E-01 -4.922810E+00
      2035   1  4.451669E+01  6.875714E+00 -3.733710E+00  5.772652E+01 -1.188358E-01  2.412763E+00
      2035   2  6.492398E+01 -1.111994E+01 -2.574082E+00  4.469409E+01 -2.645548E+00  3.396446E+00
      2035   3  5.000327E+01  9.225686E+00 -1.382461E+00  5.990467E+01  3.729314E+00 -5.520112E+00
      2035   4  7.038141E+01 -8.551061E+00 -9.111350E-02  4.671115E+01  1.173870E+00 -4.466631E+00
      2035   5  9.886876E+01  3.670483E+01  2.943773E+00  7.492725E+01 -1.522565E-01  1.875130E+00
      2035   6  1.185375E+02  1.957860E+01  4.325426E+00  6.244049E+01 -2.749525E+00  2.993326E+00
      2035   7  1.042463E+02  3.874520E+01  5.183671E+00  7.692592E+01  3.625002E+00 -6.076343E+00
      2035   8  1.238905E+02  2.183217E+01  6.699357E+00  6.428488E+01  1.000787E+00 -4.891796E+00
      2036   1  3.395275E+01  1.658657E+01 -3.717882E+00  5.933256E+01 -3.636639E-01  2.437000E+00
      2036   2  5.591998E+01 -2.699427E+00 -2.482778E+00  4.962925E+01 -2.834465E+00  3.067465E+00
      2036   3  3.889327E+01  1.934721E+01 -1.407444E+00  6.173761E+01  4.054774E+00 -5.055208E+00
      2036   4  6.086998E+01  2.517539E-01 -4.439799E-02  5.186673E+01  1.542729E+00 -4.346570E+00
      2036   5  8.454956E+01  4.865979E+01  2.818574E+00  7.789981E+01 -3.958476E-01  1.888883E+00
      2036   6  1.057272E+02  3.031158E+01  4.305741E+00  6.860282E+01 -2.939902E+00  2.633623E+00
      2036   7  8.940591E+01  5.110058E+01  5.022970E+00  8.015096E+01  3.945143E+00 -5.635060E+00
      2036   8  1.105956E+02  3.293785E+01  6.639620E+00  7.069340E+01  1.362146E+00 -4.815828E+00
      2037   1  2.335603E+01  2.624334E+01 -3.693244E+00  5.906730E+01 -6.087830E-01  2.428795E+00
      2037   2  4.626413E+01  6.270833E+00 -2.388600E+00  5.282881E+01 -2.981799E+00  2.726725E+00
      2037   3  2.771338E+01  2.943220E+01 -1.429476E+00  6.159436E+01  4.319839E+00 -4.562737E+00
      2037   4  5.066771E+01  9.622948E+00 -9.047496E-04  5.518832E+01  1.891955E+00 -4.180442E+00
      2037   5  6.996314E+01  6.059887E+01  2.686780E+00  7.844755E+01 -6.365639E-01  1.868586E+00
      2037   6  9.205556E+01  4.160617E+01  4.271696E+00  7.247027E+01 -3.082595E+00  2.261452E+00
      2037   7  7.425499E+01  6.346221E+01  4.849001E+00  8.084698E+01  4.210150E+00 -5.168446E+00
      2037   8  9.639428E+01  4.462851E+01  6.558651E+00  7.470918E+01  1.712108E+00 -4.695051E+00
      2038   1  1.308622E+01  3.549197E+01 -3.661197E+00  5.699271E+01 -8.492677E-01  2.390365E+00
      2038   2  3.631137E+01  1.544067E+01 -2.293497E+00  5.423780E+01 -3.087105E+00  2.382051E+00
      2038   3  1.684699E+01  3.910315E+01 -1.449947E+00  5.953518E+01  4.522873E+00 -4.049459E+00
      2038   4  4.015126E+01  1.918970E+01  3.720422E-02  5.661853E+01  2.215790E+00 -3.969541E+00
      2038   5  5.558091E+01  7.206684E+01  2.547693E+00  7.662602E+01 -8.691326E-01  1.817105E+00
      2038   6  7.798951E+01  5.301095E+01  4.221971E+00  7.398642E+01 -3.177024E+00  1.885630E+00
      2038   7  5.928864E+01  7.535120E+01  4.660901E+00  7.906679E+01  4.418809E+00 -4.682294E+00
      2038   8  8.177524E+01  5.642962E+01  6.454744E+00  7.627223E+01  2.045102E+00 -4.529437E+00
      2039   1  3.479324E+00  4.400383E+01 -3.623506E+00  5.324072E+01 -1.080052E+00  2.325567E+00
      2039   2  2.641471E+01  2.446161E+01 -2.200434E+00  5.387458E+01 -3.150528E+00  2.042354E+00
      2039   3  6.652204E+00  4.800751E+01 -1.471151E+00  5.569545E+01  4.663833E+00 -3.521223E+00
      2039   4  2.969532E+01  2.858065E+01  6.662534E-02  5.617803E+01  2.509394E+00 -3.714753E+00
      2039   5  4.184768E+01  8.263659E+01  2.399896E+00  7.258152E+01 -1.088175E+00  1.738936E+00
      2039   6  6.399003E+01  6.407996E+01  4.153819E+00  7.318883E+01 -3.223449E+00  1.516107E+00
      2039   7  4.497486E+01  8.631625E+01  4.457029E+00  7.495929E+01  4.571383E+00 -4.181475E+00
      2039   8  6.722224E+01  6.787187E+01  6.325102E+00  7.542163E+01  2.356144E+00 -4.318493E+00
      2040   1 -5.166773E+00  5.149016E+01 -3.582277E+00  4.800499E+01 -1.296929E+00  2.240958E+00
      2040   2  1.691060E+01  3.300395E+01 -2.112776E+00  5.182701E+01 -3.173710E+00  1.718538E+00
      2040   3 -2.553348E+00  5.583268E+01 -1.496447E+00  5.027732E+01  4.743464E+00 -2.981611E+00
      2040   4  1.965533E+01  3.744268E+01  8.269704E-02  5.396213E+01  2.768049E+00 -3.415336E+00
      2040   5  2.916349E+01  9.192748E+01  2.241305E+00  6.654152E+01 -1.289152E+00  1.641286E+00
      2040   6  5.049412E+01  7.439308E+01  4.063752E+00  7.020354E+01 -3.223564E+00  1.164702E+00
      2040   7  3.173408E+01  9.595220E+01  4.234092E+00  6.875968E+01  4.668902E+00 -3.668594E+00
      2040   8  5.319195E+01  7.851144E+01  6.165010E+00  7.229022E+01  2.640423E+00 -4.060236E+00
      2041   1 -1.260487E+01  5.771385E+01 -3.540580E+00  4.153062E+01 -1.496612E+00  2.145950E+00
      2041   2  8.104586E+00  4.077267E+01 -2.034201E+00  4.824533E+01 -3.159694E+00  1.424250E+00
      2041   3 -1.050511E+01  6.231834E+01 -1.530647E+00  4.353812E+01  4.763126E+00 -2.431486E+00
      2041   4  1.035356E+01  4.545777E+01  7.995975E-02  5.013209E+01  2.987159E+00 -3.067866E+00
      2041   5  1.786812E+01  9.961969E+01  2.068562E+00  5.880239E+01 -1.468914E+00  1.534526E+00
      2041   6  3.789701E+01  8.357436E+01  3.947191E+00  6.523594E+01 -3.180980E+00  8.462226E-01
      2041   7  1.992435E+01  1.039158E+02  3.987169E+00  6.077612E+01  4.712492E+00 -3.143262E+00
      2041   8  4.009736E+01  8.794885E+01  5.968300E+00  6.709399E+01  2.892643E+00 -3.749792E+00
      2042   1 -1.864514E+01  6.249963E+01 -3.501657E+00  3.410101E+01 -1.677634E+00  2.053538E+00
      2042   2  2.620665E-01  4.751803E+01 -1.968742E+00  4.333255E+01 -3.113617E+00  1.176230E+00
      2042   3 -1.700179E+01  6.726561E+01 -1.580605E+00  3.577758E+01  4.724005E+00 -1.867941E+00
      2042   4  2.067946E+00  5.235300E+01  5.116822E-02  4.490623E+01  3.161673E+00 -2.665581E+00
      2042   5  8.229990E+00  1.054668E+02  1.876992E+00  4.971375E+01 -1.626014E+00  1.432702E+00
      2042   6  2.653979E+01  9.130679E+01  3.799029E+00  5.855875E+01 -3.101549E+00  5.786216E-01
      2042   7  9.827006E+00  1.099368E+02  3.708360E+00  5.137445E+01  4.703157E+00 -2.601243E+00
      2042   8  2.829333E+01  9.584369E+01  5.727002E+00  6.012087E+01  3.106879E+00 -3.378914E+00
      2043   1 -2.315462E+01  6.573557E+01 -3.468871E+00  2.602298E+01 -1.841597E+00  1.979591E+00
      2043   2 -6.390801E+00  5.304283E+01 -1.919136E+00  3.733211E+01 -3.043253E+00  9.941354E-01
      2043   3 -2.190293E+01  7.053904E+01 -1.654554E+00  2.732144E+01  4.625753E+00 -1.284708E+00
      2043   4 -4.966576E+00  5.790792E+01 -1.073279E-02  3.854580E+01  3.285485E+00 -2.198300E+00
      2043   5  4.482089E-01  1.093046E+02  1.663693E+00  3.966256E+01 -1.762777E+00  1.353466E+00
      2043   6  1.671054E+01  9.734376E+01  3.616221E+00  5.049815E+01 -2.994535E+00  3.835047E-01
      2043   7  1.649963E+00  1.138272E+02  3.390295E+00  4.096072E+01  4.639673E+00 -2.034181E+00
      2043   8  1.807812E+01  1.019259E+02  5.434154E+00  5.171511E+01  3.275356E+00 -2.935174E+00
      2044   1 -2.605008E+01  6.736121E+01 -3.447652E+00  1.761825E+01 -1.993804E+00  1.940321E+00
      2044   2 -1.165274E+01  5.719346E+01 -1.884822E+00  3.052650E+01 -2.959486E+00  8.980520E-01
      2044   3 -2.512243E+01  7.205484E+01 -1.763991E+00  1.851337E+01  4.465903E+00 -6.748524E-01
      2044   4 -1.054281E+01  6.194667E+01 -1.099699E-01  3.135408E+01  3.351408E+00 -1.655217E+00
      2044   5 -5.334199E+00  1.110561E+02  1.431497E+00  2.906566E+01 -1.885809E+00  1.315893E+00
      2044   6  8.664545E+00  1.015183E+02  3.405490E+00  4.143341E+01 -2.873286E+00  2.840972E-01
      2044   7 -4.459714E+00  1.154860E+02  3.029891E+00  2.997432E+01  4.518230E+00 -1.431561E+00
      2044   8  9.713917E+00  1.060056E+02  5.091792E+00  4.227736E+01  3.388364E+00 -2.403911E+00
      2045   1 -2.727753E+01  6.733294E+01 -3.448504E+00  9.233714E+00 -2.142368E+00  1.944813E+00
      2045   2 -1.532310E+01  5.982849E+01 -1.860943E+00  2.326446E+01 -2.874026E+00  9.008166E-01
      2045   3 -2.660545E+01  7.174994E+01 -1.924851E+00  9.723509E+00  4.241591E+00 -3.928595E-02
      2045   4 -1.445441E+01  6.430983E+01 -2.452322E-01  2.370218E+01  3.355328E+00 -1.033670E+00
      2045   5 -8.995321E+00  1.107440E+02  1.202139E+00  1.838128E+01 -2.006183E+00  1.333823E+00
      2045   6  2.661858E+00  1.037571E+02  3.197561E+00  3.182455E+01 -2.753929E+00  2.984419E-01
      2045   7 -8.379085E+00  1.149149E+02  2.642965E+00  1.889772E+01  4.333207E+00 -7.874952E-01
      2045   8  3.466446E+00  1.079896E+02  4.726555E+00  3.229109E+01  3.437474E+00 -1.775206E+00
      2046   1 -2.680191E+01  6.555408E+01 -3.496990E+00  1.290305E+00 -2.293805E+00  1.982425E+00
      2046   2 -1.718154E+01  6.076803E+01 -1.827812E+00  1.604728E+01 -2.794784E+00  9.942136E-01
      2046   3 -2.631390E+01  6.952162E+01 -2.163257E+00  1.395367E+00  3.956368E+00  5.954585E-01
      2046   4 -1.647328E+01  6.481249E+01 -3.956449E-01  1.611351E+01  3.305318E+00 -3.579663E-01
      2046   5 -1.039152E+01  1.085208E+02  1.039485E+00  8.154193E+00 -2.136180E+00  1.401635E+00
      2046   6 -9.825331E-01  1.041266E+02  3.085447E+00  2.229328E+01 -2.651516E+00  4.235631E-01
      2046   7 -9.962449E+00  1.122582E+02  2.291881E+00  8.299567E+00  4.082707E+00 -1.182187E-01
      2046   8 -3.426377E-01  1.079375E+02  4.431689E+00  2.240145E+01  3.423694E+00 -1.062843E+00
      2047   1 -2.463438E+01  6.181100E+01 -3.636826E+00 -5.649323E+00 -2.443178E+00  2.004049E+00
      2047   2 -1.705816E+01  5.977502E+01 -1.749683E+00  9.617156E+00 -2.719219E+00  1.128278E+00
      2047   3 -2.425564E+01  6.517149E+01 -2.517118E+00 -5.890769E+00  3.636365E+00  1.158025E+00
      2047   4 -1.643568E+01  6.322586E+01 -5.247390E-01  9.354219E+00  3.230286E+00  3.014634E-01
      2047   5 -9.387302E+00  1.046420E+02  1.048714E+00 -9.561248E-01 -2.278479E+00  1.467164E+00
      2047   6 -1.963855E+00  1.028557E+02  3.240592E+00  1.367112E+01 -2.568719E+00  6.022132E-01
      2047   7 -9.067957E+00  1.077998E+02  2.092711E+00 -1.144395E+00  3.783860E+00  5.065081E-01
      2047   8 -1.411291E+00  1.060998E+02  4.384693E+00  1.346225E+01  3.369113E+00 -3.399413E-01
      2048   1 -2.094376E+01  5.577231E+01 -3.905098E+00 -1.095325E+01 -2.564244E+00  1.912744E+00
      2048   2 -1.505289E+01  5.663469E+01 -1.474939E+00  4.742088E+00 -2.630941E+00  1.174683E+00
      2048   3 -2.057992E+01  5.849576E+01 -2.979464E+00 -1.149265E+01  3.331053E+00  1.489147E+00
      2048   4 -1.447751E+01  5.944182E+01 -4.603228E-01  4.204896E+00  3.155582E+00  7.582006E-01
      2048   5 -6.141295E+00  9.903531E+01  1.238659E+00 -8.336701E+00 -2.405371E+00  1.406404E+00
      2048   6 -3.510169E-01  1.000076E+02  3.907874E+00  6.701463E+00 -2.472892E+00  6.764120E-01
      2048   7 -5.836260E+00  1.015973E+02  2.099275E+00 -8.826418E+00  3.483690E+00  8.876612E-01
      2048   8  1.562596E-01  1.026494E+02  4.852726E+00  6.213860E+00  3.311960E+00  1.645679E-01
      2049   1 -1.520594E+01  6.089303E+01 -1.673483E+00 -3.639565E+00  3.016997E+00  5.289281E-01
      2049   2 -2.174735E+01  5.977715E+01 -4.439316E+00  1.219260E+01  3.064785E+00  1.582812E+00
      2049   3 -1.546156E+01  6.448761E+01 -6.717203E-01 -2.234035E+00 -2.801862E+00  8.374121E-02
      2049   4 -2.269978E+01  6.304768E+01 -3.743556E+00  1.342977E+01 -2.850739E+00  1.137773E+00
      2049   5 -6.929485E-01  1.038647E+02  3.456799E+00 -5.736497E+00  2.535339E+00  3.279855E-01
      2049   6 -7.106572E+00  1.026494E+02  4.658662E-01  9.432766E+00  2.485007E+00  1.349973E+00
      2049   7 -1.074132E+00  1.071466E+02  4.326793E+00 -4.511184E+00 -3.282168E+00 -2.094088E-01
      2049   8 -8.155838E+00  1.056204E+02  1.041610E+00  1.049677E+01 -3.425474E+00  8.127619E-01
      2050   1 -1.737171E+01  6.527541E+01 -1.822768E+00 -9.100679E+00  3.084539E+00  3.890762E-01
      2050   2 -2.569505E+01  6.706655E+01 -4.173352E+00  6.250711E+00  3.127432E+00  1.808422E+00
      2050   3 -1.799328E+01  7.020377E+01 -5.351209E-01 -8.057362E+00 -2.871787E+00 -5.018274E-01
      2050   4 -2.685830E+01  7.168855E+01 -3.135342E+00  7.120086E+00 -2.940029E+00  9.095098E-01
      2050   5 -2.444657E+00  1.078985E+02  2.909762E+00 -1.330638E+01  2.437459E+00  9.791509E-02
      2050   6 -1.058068E+01  1.094535E+02  2.814614E-01  1.402208E+00  2.422651E+00  1.507514E+00
      2050   7 -3.156341E+00  1.125335E+02  4.080202E+00 -1.238961E+01 -3.509466E+00 -8.989828E-01
      2050   8 -1.181166E+01  1.137946E+02  1.212010E+00  2.152318E+00 -3.630935E+00  5.031160E-01
      2051   1 -1.762632E+01  6.714540E+01 -2.060521E+00 -1.625709E+01  3.173462E+00  3.226373E-01
      2051   2 -2.791329E+01  7.182190E+01 -4.048806E+00 -1.468161E+00  3.159094E+00  2.000005E+00
      2051   3 -1.851705E+01  7.301555E+01 -5.745323E-01 -1.568234E+01 -2.914685E+00 -1.038422E+00
      2051   4 -2.916774E+01  7.739224E+01 -2.752203E+00 -1.097889E+00 -3.070151E+00  6.167182E-01
      2051   5 -1.570255E+00  1.099920E+02  2.593354E+00 -2.264492E+01  2.424791E+00 -5.335092E-02
      2051   6 -1.162265E+01  1.142766E+02  2.306409E-01 -8.475224E+00  2.400184E+00  1.602672E+00
      2051   7 -2.595479E+00  1.154621E+02  3.914071E+00 -2.212860E+01 -3.640442E+00 -1.548494E+00
      2051   8 -1.299657E+01  1.194592E+02  1.369413E+00 -8.154817E+00 -3.800216E+00  8.639297E-02
      2052   1 -1.566413E+01  6.672815E+01 -2.241662E+00 -2.429663E+01  3.230662E+00  3.380271E-01
      2052   2 -2.823248E+01  7.423669E+01 -4.030762E+00 -1.029276E+01  3.168679E+00  2.199965E+00
      2052   3 -1.665879E+01  7.320355E+01 -6.088634E-01 -2.431040E+01 -2.988011E+00 -1.553881E+00
      2052   4 -2.946785E+01  8.037905E+01 -2.555276E+00 -1.053136E+01 -3.198757E+00  2.723837E-01
      2052   5  2.196118E+00  1.100806E+02  2.523476E+00 -3.298957E+01  2.436059E+00 -1.102399E-01
      2052   6 -1.005393E+01  1.170667E+02  3.240834E-01 -1.957205E+01  2.397952E+00  1.715612E+00
      2052   7  1.005675E+00  1.160494E+02  3.937956E+00 -3.300070E+01 -3.746271E+00 -2.144292E+00
      2052   8 -1.147501E+01  1.227165E+02  1.587819E+00 -1.979860E+01 -3.926733E+00 -3.524876E-01
      2053   1 -1.167005E+01  6.426403E+01 -2.421078E+00 -3.241100E+01  3.268470E+00  4.259431E-01
      2053   2 -2.664041E+01  7.453486E+01 -4.064896E+00 -1.960325E+01  3.163083E+00  2.435023E+00
      2053   3 -1.262326E+01  7.105647E+01 -6.839455E-01 -3.310248E+01 -3.046090E+00 -2.028991E+00
      2053   4 -2.774145E+01  8.094787E+01 -2.465586E+00 -2.051663E+01 -3.295805E+00 -6.651130E-02
      2053   5  8.547452E+00  1.079404E+02  2.536791E+00 -4.344045E+01  2.456385E+00 -9.185175E-02
      2053   6 -6.001682E+00  1.175756E+02  4.820457E-01 -3.116898E+01  2.400388E+00  1.875108E+00
      2053   7  7.342504E+00  1.141645E+02  4.017964E+00 -4.407542E+01 -3.810275E+00 -2.685807E+00
      2053   8 -7.348001E+00  1.234364E+02  1.831793E+00 -3.201656E+01 -4.004252E+00 -7.633622E-01
      2054   1 -5.877924E+00  5.997288E+01 -2.597460E+00 -4.003810E+01  3.289912E+00  5.709423E-01
      2054   2 -2.317317E+01  7.284720E+01 -4.114501E+00 -2.891770E+01  3.136095E+00  2.711790E+00
      2054   3 -6.649282E+00  6.684913E+01 -7.833099E-01 -4.144538E+01 -3.066088E+00 -2.469568E+00
      2054   4 -2.401508E+01  7.929878E+01 -2.422591E+00 -3.052347E+01 -3.355195E+00 -3.840777E-01
      2054   5  1.715848E+01  1.035504E+02  2.571386E+00 -5.330872E+01  2.475829E+00 -1.768348E-02
      2054   6  3.895177E-01  1.156877E+02  6.561163E-01 -4.265394E+01  2.392499E+00  2.082582E+00
      2054   7  1.608154E+01  1.098325E+02  4.103685E+00 -5.461235E+01 -3.822376E+00 -3.189586E+00
      2054   8 -7.544394E-01  1.215636E+02  2.072656E+00 -4.414775E+01 -4.034918E+00 -1.142185E+00
      2055   1  1.492891E+00  5.404047E+01 -2.772419E+00 -4.677408E+01  3.291873E+00  7.546742E-01
      2055   2 -1.789076E+01  6.925977E+01 -4.164226E+00 -3.783101E+01  3.079232E+00  3.023394E+00
      2055   3  1.043271E+00  6.080788E+01 -8.964290E-01 -4.889298E+01 -3.042757E+00 -2.885665E+00
      2055   4 -1.834429E+01  7.556492E+01 -2.395450E+00 -4.010876E+01 -3.379877E+00 -6.792256E-01
      2055   5  2.774789E+01  9.703117E+01  2.600983E+00 -6.207467E+01  2.485994E+00  9.366991E-02
      2055   6  8.987842E+00  1.114252E+02  8.287148E-01 -5.350607E+01  2.362593E+00  2.328618E+00
      2055   7  2.693593E+01  1.032020E+02  4.175648E+00 -6.404977E+01 -3.782330E+00 -3.668437E+00
      2055   8  8.173056E+00  1.171540E+02  2.302809E+00 -5.563336E+01 -4.024488E+00 -1.492920E+00
      2056   1  1.021662E+01  4.666669E+01 -2.947673E+00 -5.228776E+01  3.271216E+00  9.609999E-01
      2056   2 -1.089280E+01  6.387809E+01 -4.207918E+00 -4.596790E+01  2.985961E+00  3.358657E+00
      2056   3  1.022578E+01  5.315917E+01 -1.017896E+00 -5.507981E+01 -2.975469E+00 -3.285587E+00
      2056   4 -1.083120E+01  6.988181E+01 -2.369747E+00 -4.886612E+01 -3.373433E+00 -9.552943E-01
      2056   5  4.003087E+01  8.859806E+01  2.616133E+00 -6.930733E+01  2.481732E+00  2.266818E-01
      2056   6  1.962838E+01  1.049119E+02  9.958378E-01 -6.325209E+01  2.302842E+00  2.601372E+00
      2056   7  3.961591E+01  9.450727E+01  4.228628E+00 -7.192356E+01 -3.691536E+00 -4.130746E+00
      2056   8  1.926496E+01  1.103541E+02  2.523561E+00 -6.597004E+01 -3.977819E+00 -1.820271E+00
      2057   1  2.003368E+01  3.809753E+01 -3.124026E+00 -5.629382E+01  3.226448E+00  1.177150E+00
      2057   2 -2.340135E+00  5.686122E+01 -4.243447E+00 -5.297421E+01  2.852398E+00  3.706055E+00
      2057   3  2.063084E+01  4.416879E+01 -1.144843E+00 -5.969011E+01 -2.864032E+00 -3.673632E+00
      2057   4 -1.645398E+00  6.243130E+01 -2.339134E+00 -5.641379E+01 -3.338397E+00 -1.215209E+00
      2057   5  5.367998E+01  7.854850E+01  2.614536E+00 -7.463692E+01  2.460914E+00  3.693959E-01
      2057   6  3.207831E+01  9.636182E+01  1.157744E+00 -7.145630E+01  2.208809E+00  2.889607E+00
      2057   7  5.378645E+01  8.406133E+01  4.262827E+00 -7.783504E+01 -3.550583E+00 -4.580237E+00
      2057   8  3.227993E+01  1.013961E+02  2.738179E+00 -7.469589E+01 -3.898134E+00 -2.127115E+00
      2058   1  3.063614E+01  2.863409E+01 -3.301171E+00 -5.855643E+01  3.157665E+00  1.393576E+00
      2058   2  7.537363E+00  4.843582E+01 -4.269613E+00 -5.852733E+01  2.676641E+00  4.055246E+00
      2058   3  3.193673E+01  3.415692E+01 -1.275324E+00 -6.246054E+01 -2.708044E+00 -4.050496E+00
      2058   4  8.967437E+00  5.346138E+01 -2.300685E+00 -6.240460E+01 -3.276640E+00 -1.460345E+00
      2058   5  6.830596E+01  6.725430E+01  2.596500E+00 -7.775754E+01  2.423419E+00  5.130455E-01
      2058   6  4.602310E+01  8.607567E+01  1.315677E+00 -7.772967E+01  2.078063E+00  3.183456E+00
      2058   7  6.904613E+01  7.225203E+01  4.279796E+00 -8.145239E+01 -3.359467E+00 -5.016992E+00
      2058   8  4.688942E+01  9.059901E+01  2.949242E+00 -8.139880E+01 -3.788001E+00 -2.414534E+00
      2059   1  4.166819E+01  1.862678E+01 -3.478345E+00 -5.890287E+01  3.066081E+00  1.603446E+00
      2059   2  1.844214E+01  3.889409E+01 -4.285570E+00 -6.235304E+01  2.458354E+00  4.397263E+00
      2059   3  4.376767E+01  2.349566E+01 -1.407950E+00 -6.319369E+01 -2.507210E+00 -4.414013E+00
      2059   4  2.068834E+01  4.328755E+01 -2.252990E+00 -6.654322E+01 -3.189732E+00 -1.690598E+00
      2059   5  8.345791E+01  5.515027E+01  2.562828E+00 -7.844221E+01  2.370494E+00  6.516456E-01
      2059   6  6.106765E+01  7.443227E+01  1.470373E+00 -8.174792E+01  1.909803E+00  3.474528E+00
      2059   7  8.492694E+01  5.953310E+01  4.281029E+00 -8.252530E+01 -3.118016E+00 -5.438224E+00
      2059   8  6.267972E+01  7.836203E+01  3.158098E+00 -8.573458E+01 -3.649603E+00 -2.682077E+00
      2060   1  5.273866E+01  8.462243E+00 -3.654178E+00 -5.723507E+01  2.953523E+00  1.801789E+00
      2060   2  3.001990E+01  2.858423E+01 -4.290596E+00 -6.424031E+01  2.198344E+00  4.724357E+00
      2060   3  5.570684E+01  1.259711E+01 -1.541387E+00 -6.177115E+01 -2.261846E+00 -4.760265E+00
      2060   4  3.313633E+01  3.228408E+01 -2.195506E+00 -6.860212E+01 -3.079366E+00 -1.904859E+00
      2060   5  9.863856E+01  4.271753E+01  2.514506E+00 -7.655674E+01  2.303965E+00  7.811196E-01
      2060   6  7.674995E+01  6.187588E+01  1.622053E+00 -8.326868E+01  1.704349E+00  3.755610E+00
      2060   7  1.009091E+02  4.640811E+01  4.267568E+00 -8.089992E+01 -2.826636E+00 -5.839397E+00
      2060   8  7.916541E+01  6.515252E+01  3.364888E+00 -8.744488E+01 -3.485198E+00 -2.928374E+00
      2061   1  6.343718E+01 -1.453577E+00 -3.827149E+00 -5.353788E+01  2.822270E+00  1.985220E+00
      2061   2  4.187336E+01  1.789581E+01 -4.284439E+00 -6.405411E+01  1.898267E+00  5.029744E+00
      2061   3  6.731412E+01  1.896204E+00 -1.674284E+00 -5.816288E+01 -1.973040E+00 -5.084120E+00
      2061   4  4.588436E+01  2.086935E+01 -2.128231E+00 -6.843532E+01 -2.947591E+00 -2.101455E+00
      2061   5  1.133251E+02  3.046356E+01  2.452641E+00 -7.207034E+01  2.226089E+00  8.989457E-01
      2061   6  9.255946E+01  4.889803E+01  1.770254E+00 -8.214621E+01  1.462907E+00  4.020379E+00
      2061   7  1.164432E+02  3.341040E+01  4.240346E+00 -7.653048E+01 -2.486502E+00 -6.214793E+00
      2061   8  9.580935E+01  5.148775E+01  3.568904E+00 -8.637279E+01 -3.297340E+00 -3.151571E+00
      2062   1  7.335306E+01 -1.071453E+01 -3.995828E+00 -4.788268E+01  2.674849E+00  2.151227E+00
      2062   2  5.358093E+01  7.243457E+00 -4.266766E+00 -6.174313E+01  1.560583E+00  5.307296E+00
      2062   3  7.814564E+01 -8.169370E+00 -1.805657E+00 -5.243184E+01 -1.642804E+00 -5.380081E+00
      2062   4  5.847856E+01  9.488455E+00 -2.051465E+00 -6.598721E+01 -2.796823E+00 -2.278665E+00
      2062   5  1.269916E+02  1.889914E+01  2.378020E+00 -6.506049E+01  2.139191E+00  1.003497E+00
      2062   6  1.079600E+02  3.601779E+01  1.914585E+00 -7.834055E+01  1.187304E+00  4.263060E+00
      2062   7  1.309737E+02  2.107938E+01  4.199894E+00 -6.948534E+01 -2.099838E+00 -6.558334E+00
      2062   8  1.120464E+02  3.791416E+01  3.769279E+00 -8.247307E+01 -3.089073E+00 -3.349898E+00
      2063   1  8.209456E+01 -1.893317E+01 -4.158894E+00 -4.042652E+01  2.513760E+00  2.298208E+00
      2063   2  6.471501E+01 -2.951929E+00 -4.237543E+00 -5.734473E+01  1.188438E+00  5.551650E+00
      2063   3  8.777544E+01 -1.717857E+01 -1.934403E+00 -4.473352E+01 -1.274259E+00 -5.642442E+00
      2063   4  7.045864E+01 -1.406553E+00 -1.965600E+00 -6.129715E+01 -2.629848E+00 -2.434750E+00
      2063   5  1.391335E+02  8.514893E+00  2.291303E+00 -5.571268E+01  2.045584E+00  1.094159E+00
      2063   6  1.224125E+02  2.375775E+01  2.054303E+00 -7.192254E+01  8.802135E-01  4.478678E+00
      2063   7  1.439647E+02  9.936245E+00  4.146697E+00 -5.994674E+01 -1.669901E+00 -6.863639E+00
      2063   8  1.273079E+02  2.498282E+01  3.964925E+00 -7.581687E+01 -2.863596E+00 -3.521533E+00
      2064   1  8.930757E+01 -2.575936E+01 -4.315274E+00 -3.140698E+01  2.341605E+00  2.425284E+00
      2064   2  7.486129E+01 -1.228395E+01 -4.197341E+00 -5.098519E+01  7.855430E-01  5.758000E+00
      2064   3  9.581524E+01 -2.474811E+01 -2.059685E+00 -3.531119E+01 -8.713873E-01 -5.865662E+00
      2064   4  8.137923E+01 -1.137865E+01 -1.871434E+00 -5.450036E+01 -2.449791E+00 -2.568305E+00
      2064   5  1.492920E+02 -2.418916E-01  2.193234E+00 -4.431443E+01  1.947529E+00  1.170927E+00
      2064   6  1.354000E+02  1.261858E+01  2.187889E+00 -6.307288E+01  5.448281E-01  4.662740E+00
      2064   7  1.549258E+02  4.590483E-01  4.081263E+00 -4.820572E+01 -1.200965E+00 -7.124565E+00
      2064   8  1.410481E+02  1.322262E+01  4.154070E+00 -6.659141E+01 -2.624493E+00 -3.665028E+00
      2065   1  9.469481E+01 -3.089689E+01 -4.463379E+00 -2.113300E+01  2.160842E+00  2.532087E+00
      2065   2  8.363942E+01 -2.037907E+01 -4.147006E+00 -4.287475E+01  3.563165E-01  5.922740E+00
      2065   3  1.019352E+02 -3.054977E+01 -2.180160E+00 -2.448673E+01 -4.392032E-01 -6.044595E+00
      2065   4  9.083075E+01 -2.002645E+01 -1.770359E+00 -4.582231E+01 -2.259968E+00 -2.677830E+00
      2065   5  1.570765E+02 -6.988643E+00  2.084686E+00 -3.124423E+01  1.846936E+00  1.234421E+00
      2065   6  1.464521E+02  3.056912E+00  2.313461E+00 -5.207562E+01  1.850465E-01  4.811840E+00
      2065   7  1.634351E+02 -6.940001E+00  4.003906E+00 -3.465068E+01 -6.983450E-01 -7.335304E+00
      2065   8  1.527688E+02  3.115890E+00  4.333975E+00 -5.509291E+01 -2.375340E+00 -3.778998E+00
      2066   1  9.803175E+01 -3.411983E+01 -4.601544E+00 -9.972243E+00  1.974290E+00  2.619809E+00
      2066   2  9.072227E+01 -2.692041E+01 -4.088812E+00 -3.329939E+01 -9.333892E-02  6.044882E+00
      2066   3  1.058808E+02 -3.432842E+01 -2.294461E+00 -1.264720E+01  1.691290E-02 -6.173821E+00
      2066   4  9.846069E+01 -2.700403E+01 -1.663500E+00 -3.557053E+01 -2.062806E+00 -2.760427E+00
      2066   5  1.621820E+02 -1.142930E+01  1.965280E+00 -1.695486E+01  1.745032E+00  1.286985E+00
      2066   6  1.551659E+02 -4.544116E+00  2.426602E+00 -3.930528E+01 -1.953961E-01  4.926444E+00
      2066   7  1.691618E+02 -1.193513E+01  3.915252E+00 -1.975182E+01 -1.688979E-01 -7.489411E+00
      2066   8  1.620450E+02 -4.924759E+00  4.502619E+00 -4.171533E+01 -2.120612E+00 -3.859200E+00
      2067   1  9.917078E+01 -3.528934E+01 -4.733242E+00  1.672216E+00  1.789975E+00  2.698676E+00
      2067   2  9.585061E+01 -3.163864E+01 -4.023966E+00 -2.260763E+01 -5.489315E-01  6.152453E+00
      2067   3  1.074700E+02 -3.591530E+01 -2.407659E+00 -2.421758E-01  4.980183E-01 -6.238078E+00
      2067   4  1.039771E+02 -3.202683E+01 -1.557876E+00 -2.413808E+01 -1.850871E+00 -2.783429E+00
      2067   5  1.644255E+02 -1.335808E+01  1.841658E+00 -1.956401E+00  1.646840E+00  1.341199E+00
      2067   6  1.612498E+02 -9.854563E+00  2.534648E+00 -2.521960E+01 -5.822098E-01  5.034469E+00
      2067   7  1.718780E+02 -1.429720E+01  3.815295E+00 -4.059029E+00  3.860457E-01 -7.569659E+00
      2067   8  1.685428E+02 -1.055996E+01  4.656632E+00 -2.695436E+01 -1.852449E+00 -3.873467E+00
      2068   1  9.807463E+01 -3.428177E+01 -4.838414E+00  1.318252E+01  1.584105E+00  2.757266E+00
      2068   2  9.882163E+01 -3.428503E+01 -3.974059E+00 -1.112586E+01 -1.039222E+00  6.007001E+00
      2068   3  1.066450E+02 -3.522122E+01 -2.524037E+00  1.226233E+01  9.890872E-01 -6.282109E+00
      2068   4  1.071728E+02 -3.490411E+01 -1.513857E+00 -1.188671E+01 -1.624732E+00 -3.042932E+00
      2068   5  1.637023E+02 -1.263324E+01  1.718253E+00  1.301307E+01  1.533768E+00  1.381360E+00
      2068   6  1.644422E+02 -1.261224E+01  2.602692E+00 -1.027749E+01 -1.004593E+00  4.878650E+00
      2068   7  1.714797E+02 -1.390828E+01  3.693532E+00  1.185190E+01  9.549326E-01 -7.627613E+00
      2068   8  1.720153E+02 -1.357460E+01  4.731055E+00 -1.128600E+01 -1.574228E+00 -4.141187E+00
      2069   1  9.479863E+01 -3.125807E+01 -4.887427E+00  2.443952E+01  1.339480E+00  3.026249E+00
      2069   2  9.952382E+01 -3.488119E+01 -3.917924E+00  5.204989E-01 -1.526821E+00  5.855870E+00
      2069   3  1.034203E+02 -3.226593E+01 -2.580172E+00  2.452483E+01  1.494118E+00 -6.087720E+00
      2069   4  1.079312E+02 -3.552816E+01 -1.457363E+00  7.182503E-01 -1.362961E+00 -3.252732E+00
      2069   5  1.600923E+02 -9.398217E+00  1.640883E+00  2.771359E+01  1.381850E+00  1.658617E+00
      2069   6  1.646610E+02 -1.282839E+01  2.665901E+00  4.796104E+00 -1.421176E+00  4.728796E+00
      2069   7  1.679742E+02 -1.077476E+01  3.618565E+00  2.752848E+01  1.536693E+00 -7.426866E+00
      2069   8  1.723430E+02 -1.385379E+01  4.802983E+00  4.718730E+00 -1.257365E+00 -4.352242E+00
      2070   1  8.942499E+01 -2.628531E+01 -4.927071E+00  3.490634E+01  1.068955E+00  3.232321E+00
      2070   2  9.799761E+01 -3.337913E+01 -3.847926E+00  1.203189E+01 -1.984615E+00  5.637001E+00
      2070   3  9.788230E+01 -2.716933E+01 -2.633856E+00  3.596405E+01  1.977503E+00 -5.862734E+00
      2070   4  1.062534E+02 -3.387438E+01 -1.395654E+00  1.315187E+01 -1.069748E+00 -3.436497E+00
      2070   5  1.536588E+02 -3.749396E+00  1.547529E+00  4.151107E+01  1.204422E+00  1.881621E+00
      2070   6  1.619311E+02 -1.048750E+01  2.718477E+00  1.959439E+01 -1.807538E+00  4.517316E+00
      2070   7  1.614405E+02 -5.034852E+00  3.523834E+00  4.227855E+01  2.097039E+00 -7.189292E+00
      2070   8  1.695247E+02 -1.139548E+01  4.858802E+00  2.042153E+01 -9.086918E-01 -4.533588E+00
      2071   1  8.215201E+01 -1.954231E+01 -4.950292E+00  4.420818E+01  7.728878E-01  3.397078E+00
      2071   2  9.431203E+01 -2.986204E+01 -3.768132E+00  2.298916E+01 -2.409654E+00  5.365279E+00
      2071   3  9.023429E+01 -2.012092E+01 -2.679864E+00  4.617978E+01  2.427626E+00 -5.587163E+00
      2071   4  1.022154E+02 -3.002934E+01 -1.331759E+00  2.497410E+01 -7.539080E-01 -3.582359E+00
      2071   5  1.446535E+02  4.112622E+00  1.456142E+00  5.392821E+01  9.963132E-01  2.071032E+00
      2071   6  1.563798E+02 -5.699553E+00  2.764924E+00  3.359764E+01 -2.163433E+00  4.259488E+00
      2071   7  1.521230E+02  3.096476E+00  3.420399E+00  5.559744E+01  2.620452E+00 -6.895502E+00
      2071   8  1.636825E+02 -6.317015E+00  4.898889E+00  3.527966E+01 -5.381201E-01 -4.672568E+00
      2072   1  7.325253E+01 -1.130125E+01 -4.958446E+00  5.201676E+01  4.559457E-01  3.520671E+00
      2072   2  8.863311E+01 -2.449268E+01 -3.679010E+00  3.300265E+01 -2.796614E+00  5.047401E+00
      2072   3  8.076943E+01 -1.140522E+01 -2.717146E+00  5.480495E+01  2.837060E+00 -5.263520E+00
      2072   4  9.600122E+01 -2.417267E+01 -1.265707E+00  3.575710E+01 -4.220897E-01 -3.686297E+00
      2072   5  1.334045E+02  1.386433E+01  1.364056E+00  6.453745E+01  7.637987E-01  2.227990E+00
      2072   6  1.482328E+02  1.316950E+00  2.803973E+00  4.631947E+01 -2.482651E+00  3.962295E+00
      2072   7  1.403725E+02  1.328708E+01  3.309878E+00  6.702017E+01  3.100988E+00 -6.546974E+00
      2072   8  1.550625E+02  1.150144E+00  4.924386E+00  4.876987E+01 -1.515412E-01 -4.764828E+00
      2073   1  6.306022E+01 -1.890977E+00 -4.952119E+00  5.806689E+01  1.245231E-01  3.601196E+00
      2073   2  8.120015E+01 -1.750733E+01 -3.581287E+00  4.172636E+01 -3.140055E+00  4.689643E+00
      2073   3  6.984878E+01 -1.377548E+00 -2.745920E+00  6.153910E+01  3.200292E+00 -4.897640E+00
      2073   4  8.787742E+01 -1.656539E+01 -1.197443E+00  4.512116E+01 -8.056782E-02 -3.746233E+00
      2073   5  1.203190E+02  2.510815E+01  1.270629E+00  7.298757E+01  5.124375E-01  2.349924E+00
      2073   6  1.378069E+02  1.025318E+01  2.834922E+00  5.733124E+01 -2.760401E+00  3.631962E+00
      2073   7  1.266216E+02  2.511435E+01  3.191929E+00  7.615976E+01  3.532493E+00 -6.149975E+00
      2073   8  1.440066E+02  1.067371E+01  4.935272E+00  6.042924E+01  2.443088E-01 -4.808089E+00
      2074   1  5.195255E+01  8.315780E+00 -4.931909E+00  6.216738E+01 -2.148560E-01  3.637398E+00
      2074   2  7.231586E+01 -9.204182E+00 -3.475663E+00  4.887204E+01 -3.435740E+00  4.298947E+00
      2074   3  5.788470E+01  9.557221E+00 -2.766039E+00  6.616304E+01  3.512854E+00 -4.496235E+00
      2074   4  7.817980E+01 -7.537433E+00 -1.127126E+00  5.275129E+01  2.641678E-01 -3.761020E+00
      2074   5  1.058635E+02  3.738842E+01  1.175758E+00  7.901771E+01  2.478574E-01  2.434960E+00
      2074   6  1.254970E+02  2.072486E+01  2.857383E+00  6.627914E+01 -2.993226E+00  3.275180E+00
      2074   7  1.113700E+02  3.809166E+01  3.066967E+00  8.272668E+01  3.909897E+00 -5.711546E+00
      2074   8  1.309415E+02  2.183899E+01  4.931527E+00  6.987655E+01  6.424465E-01 -4.801165E+00
      2075   1  4.033479E+01  1.891951E+01 -4.898566E+00  6.420824E+01 -5.554930E-01  3.628975E+00
      2075   2  6.233161E+01  7.006952E-02 -3.362858E+00  5.422102E+01 -3.680366E+00  3.882566E+00
      2075   3  4.532163E+01  2.096228E+01 -2.777588E+00  6.854705E+01  3.771403E+00 -4.066645E+00
      2075   4  6.729790E+01  2.528249E+00 -1.054878E+00  5.841019E+01  6.056959E-01 -3.730698E+00
      2075   5  9.054538E+01  5.021274E+01  1.079637E+00  8.246754E+01 -2.405436E-02  2.482043E+00
      2075   6  1.117583E+02  3.228965E+01  2.870937E+00  7.289851E+01 -3.178533E+00  2.898817E+00
      2075   7  9.516252E+01  5.169056E+01  2.935729E+00  8.654001E+01  4.229238E+00 -5.239488E+00
      2075   8  1.163587E+02  3.416847E+01  4.913183E+00  7.682760E+01  1.035915E+00 -4.744168E+00
      2076   1  2.862232E+01  2.951063E+01 -4.852796E+00  6.416472E+01 -8.909125E-01  3.576826E+00
      2076   2  5.163205E+01  9.935067E+00 -3.244007E+00  5.763258E+01 -3.871993E+00  3.448321E+00
      2076   3  3.261736E+01  3.238765E+01 -2.780709E+00  6.865592E+01  3.973634E+00 -3.616331E+00
      2076   4  5.565699E+01  1.321208E+01 -9.813039E-01  6.194736E+01  9.375307E-01 -3.656051E+00
      2076   5  7.488886E+01  6.307211E+01  9.821813E-01  8.328259E+01 -2.973769E-01  2.491179E+00
      2076   6  9.708583E+01  4.446688E+01  2.875202E+00  7.702395E+01 -3.315070E+00  2.510196E+00
      2076   7  7.856493E+01  6.536268E+01  2.798735E+00  8.753377E+01  4.487828E+00 -4.741798E+00
      2076   8  1.007931E+02  4.714329E+01  4.880462E+00  8.110609E+01  1.417698E+00 -4.638017E+00
      2077   1  1.722305E+01  3.968821E+01 -4.795379E+00  6.209616E+01 -1.214695E+00  3.483089E+00
      2077   2  4.061748E+01  1.999553E+01 -3.120276E+00  5.904825E+01 -4.009649E+00  3.004351E+00
      2077   3  2.022264E+01  4.339121E+01 -2.775624E+00  6.654800E+01  4.118585E+00 -3.152710E+00
      2077   4  4.369909E+01  2.407893E+01 -9.069629E-01  6.330374E+01  1.253647E+00 -3.538626E+00
      2077   5  5.941348E+01  7.546446E+01  8.833170E-01  8.151389E+01 -5.661415E-01  2.463561E+00
      2077   6  8.199171E+01  5.675967E+01  2.869466E+00  7.859359E+01 -3.402437E+00  2.116887E+00
      2077   7  6.213875E+01  7.856547E+01  2.656450E+00  8.575673E+01  4.684331E+00 -4.226488E+00
      2077   8  8.479779E+01  6.022739E+01  4.833225E+00  8.264831E+01  1.781263E+00 -4.484475E+00
      2078   1  6.518937E+00  4.907691E+01 -4.727250E+00  5.814214E+01 -1.520867E+00  3.351461E+00
      2078   2  2.968591E+01  2.985843E+01 -2.992819E+00  5.849265E+01 -4.093526E+00  2.559360E+00
      2078   3  8.561041E+00  5.355773E+01 -2.762765E+00  6.237095E+01  4.206390E+00 -2.682522E+00
      2078   4  3.186192E+01  3.469691E+01 -8.327263E-01  6.251233E+01  1.548419E+00 -3.380260E+00
      2078   5  4.461121E+01  8.691587E+01  7.828386E-01  7.731382E+01 -8.247322E-01  2.401992E+00
      2078   6  6.698315E+01  6.867702E+01  2.853059E+00  7.764961E+01 -3.441284E+00  1.726953E+00
      2078   7  4.641684E+01  9.078575E+01  2.509145E+00  8.136809E+01  4.818579E+00 -3.700828E+00
      2078   8  6.891893E+01  7.289149E+01  4.771083E+00  8.150353E+01  2.120561E+00 -4.285649E+00
      2079   1 -3.150149E+00  5.734296E+01 -4.649462E+00  5.251408E+01 -1.803986E+00  3.187258E+00
      2079   2  1.921467E+01  3.915058E+01 -2.863023E+00  5.606982E+01 -4.124973E+00  2.122858E+00
      2079   3 -1.989674E+00  6.251611E+01 -2.743022E+00  5.635298E+01  4.238327E+00 -2.211537E+00
      2079   4  2.055953E+01  4.465709E+01 -7.596007E-01  5.969362E+01  1.816737E+00 -3.182552E+00
      2079   5  3.092500E+01  9.699987E+01  6.798231E-01  7.092608E+01 -1.067869E+00  2.310849E+00
      2079   6  5.253909E+01  7.975507E+01  2.824818E+00  7.433296E+01 -3.433504E+00  1.349287E+00
      2079   7  3.188033E+01  1.015602E+02  2.356333E+00  7.462710E+01  4.891646E+00 -3.171162E+00
      2079   8  5.367258E+01  8.463623E+01  4.693516E+00  7.782788E+01  2.429876E+00 -4.043392E+00
      2080   1 -1.149987E+01  6.420731E+01 -4.563180E+00  4.548270E+01 -2.059455E+00  2.997818E+00
      2080   2  9.545940E+00  4.753623E+01 -2.731301E+00  5.195393E+01 -4.106532E+00  1.705378E+00
      2080   3 -1.111365E+01  6.995394E+01 -2.718093E+00  4.878901E+01  4.216584E+00 -1.743865E+00
      2080   4  1.016477E+01  5.359107E+01 -6.886038E-01  5.504590E+01  2.054031E+00 -2.946327E+00
      2080   5  1.873313E+01  1.053546E+02  5.732794E-01  6.267161E+01 -1.291028E+00  2.196480E+00
      2080   6  3.909300E+01  8.957677E+01  2.784054E+00  6.887189E+01 -3.381932E+00  9.936032E-01
      2080   7  1.893897E+01  1.104938E+02  2.196573E+00  6.587766E+01  4.905545E+00 -2.642278E+00
      2080   8  3.952284E+01  9.501239E+01  4.599324E+00  7.187256E+01  2.704245E+00 -3.759037E+00
      2081   1 -1.831252E+01  6.945459E+01 -4.470023E+00  3.736451E+01 -2.284492E+00  2.792731E+00
      2081   2  9.745389E-01  5.472710E+01 -2.598063E+00  4.637952E+01 -4.042345E+00  1.319384E+00
      2081   3 -1.856795E+01  7.562613E+01 -2.690999E+00  4.002527E+01  4.143283E+00 -1.281181E+00
      2081   4  9.963122E-01  6.118195E+01 -6.215099E-01  4.883280E+01  2.255807E+00 -2.670278E+00
      2081   5  8.334347E+00  1.116936E+02  4.613683E-01  5.293263E+01 -1.491686E+00  2.067831E+00
      2081   6  2.701761E+01  9.778664E+01  2.730468E+00  6.157017E+01 -3.291437E+00  6.716955E-01
      2081   7  7.917564E+00  1.172712E+02  2.027136E+00  5.553070E+01  4.861988E+00 -2.116230E+00
      2081   8  2.686724E+01  1.036364E+02  4.487370E+00  6.396944E+01  2.938260E+00 -3.431693E+00
      2082   1 -2.343545E+01  7.293421E+01 -4.372125E+00  2.850491E+01 -2.478061E+00  2.583361E+00
      2082   2 -6.250935E+00  6.048859E+01 -2.462619E+00  3.962700E+01 -3.938226E+00  9.794372E-01
      2082   3 -2.418505E+01  7.935311E+01 -2.668104E+00  3.044185E+01  4.020536E+00 -8.228974E-01
      2082   4 -6.681158E+00  6.716708E+01 -5.612423E-01  4.136938E+01  2.417696E+00 -2.350464E+00
      2082   5 -4.972208E-02  1.158148E+02  3.439602E-01  4.213475E+01 -1.668884E+00  1.935704E+00
      2082   6  1.662647E+01  1.041015E+02  2.666316E+00  5.279116E+01 -3.168739E+00  3.973294E-01
      2082   7 -9.453550E-01  1.216630E+02  1.844871E+00  4.404611E+01  4.762828E+00 -1.592707E+00
      2082   8  1.603733E+01  1.101990E+02  4.357463E+00  5.451610E+01  3.126475E+00 -3.057929E+00
      2083   1 -2.677453E+01  7.454619E+01 -4.275480E+00  1.926965E+01 -2.642284E+00  2.381571E+00
      2083   2 -1.191356E+01  6.462910E+01 -2.323649E+00  3.202155E+01 -3.801737E+00  7.026284E-01
      2083   3 -2.786436E+01  8.100129E+01 -2.663630E+00  2.044300E+01  3.849240E+00 -3.668862E-01
      2083   4 -1.264159E+01  7.132248E+01 -5.134816E-01  3.301981E+01  2.536016E+00 -1.979561E+00
      2083   5 -6.261814E+00  1.176030E+02  2.255417E-01  3.073982E+01 -1.825752E+00  1.812425E+00
      2083   6  8.193526E+00  1.083177E+02  2.601122E+00  4.295777E+01 -3.023838E+00  1.870661E-01
      2083   7 -7.482437E+00  1.235257E+02  1.648614E+00  3.192462E+01  4.607943E+00 -1.068413E+00
      2083   8  7.319763E+00  1.144690E+02  4.214681E+00  4.397482E+01  3.262711E+00 -2.630242E+00
      2084   1 -2.827209E+01  7.420622E+01 -4.195147E+00  1.005401E+01 -2.781441E+00  2.195694E+00
      2084   2 -1.580069E+01  6.696847E+01 -2.179992E+00  2.395988E+01 -3.640751E+00  5.077073E-01
      2084   3 -2.955110E+01  8.043807E+01 -2.707980E+00  1.046945E+01  3.631009E+00  8.547819E-02
      2084   4 -1.666706E+01  7.342313E+01 -4.888923E-01  2.422847E+01  2.611743E+00 -1.548955E+00
      2084   5 -1.017373E+01  1.170417E+02  1.246136E-01  1.925645E+01 -1.969327E+00  1.708443E+00
      2084   6  1.992297E+00  1.103238E+02  2.561294E+00  3.258007E+01 -2.870218E+00  5.979755E-02
      2084   7 -1.156224E+01  1.228045E+02  1.446286E+00  1.972212E+01  4.396544E+00 -5.400409E-01
      2084   8  9.991083E-01  1.163001E+02  4.078249E+00  3.290504E+01  3.342582E+00 -2.137290E+00
      2085   1 -2.789288E+01  7.178284E+01 -4.167533E+00  1.330185E+00 -2.897968E+00  2.021746E+00
      2085   2 -1.768466E+01  6.729093E+01 -2.032385E+00  1.599493E+01 -3.457887E+00  4.108409E-01
      2085   3 -2.921913E+01  7.746139E+01 -2.861358E+00  1.049165E+00  3.376522E+00  5.185032E-01
      2085   4 -1.851922E+01  7.319374E+01 -5.027451E-01  1.560679E+01  2.663262E+00 -1.054709E+00
      2085   5 -1.164288E+01  1.142473E+02  8.999861E-02  8.283746E+00 -2.110285E+00  1.624248E+00
      2085   6 -1.659288E+00  1.101463E+02  2.608949E+00  2.233447E+01 -2.724120E+00  3.466412E-02
      2085   7 -1.304586E+01  1.195546E+02  1.267290E+00  8.096931E+00  4.131633E+00 -1.177575E-02
      2085   8 -2.591396E+00  1.156682E+02  3.999811E+00  2.204501E+01  3.371096E+00 -1.565101E+00
      2086   1 -2.564938E+01  6.705010E+01 -4.246970E+00 -6.295131E+00 -2.981008E+00  1.836625E+00
      2086   2 -1.738415E+01  6.536082E+01 -1.822330E+00  8.917889E+00 -3.244944E+00  4.224360E-01
      2086   3 -2.688531E+01  7.176660E+01 -3.202383E+00 -7.156596E+00  3.121923E+00  8.745854E-01
      2086   4 -1.799152E+01  7.034321E+01 -5.051469E-01  7.990515E+00  2.734665E+00 -5.193200E-01
      2086   5 -1.054530E+01  1.094596E+02  1.993638E-01 -1.475776E+00 -2.258849E+00  1.536246E+00
      2086   6 -2.460866E+00  1.080063E+02  2.908176E+00  1.310024E+01 -2.604493E+00  1.317325E-01
      2086   7 -1.183205E+01  1.138994E+02  1.148483E+00 -2.191520E+00  3.827048E+00  4.680390E-01
      2086   8 -3.145677E+00  1.127006E+02  4.117762E+00  1.232135E+01  3.363550E+00 -9.168768E-01
      2087   1 -2.170479E+01  5.981871E+01 -4.466323E+00 -1.216718E+01 -3.011236E+00  1.597137E+00
      2087   2 -1.520320E+01  6.096006E+01 -1.685591E+00  3.512426E+00 -3.038432E+00  5.279824E-01
      2087   3 -2.270780E+01  6.313996E+01 -3.771040E+00 -1.346923E+01  2.923143E+00  1.132247E+00
      2087   4 -1.545804E+01  6.460034E+01 -6.699979E-01  2.159131E+00  2.787627E+00  7.134887E-02
      2087   5 -7.064466E+00  1.027045E+02  4.336952E-01 -9.415350E+00 -2.422441E+00  1.367302E+00
      2087   6 -6.872942E-01  1.039459E+02  3.442879E+00  5.607742E+00 -2.554520E+00  3.286049E-01
      2087   7 -8.158619E+00  1.057307E+02  1.014168E+00 -1.053390E+01  3.505232E+00  8.097705E-01
      2087   8 -1.065037E+00  1.072773E+02  4.329223E+00  4.440094E+00  3.269742E+00 -2.209702E-01
      2088   1 -1.973395E+01 -1.927530E+01 -2.097918E+00  2.765562E+00  2.733597E+00  7.895878E-01
      2088   2 -2.635741E+01 -2.002650E+01 -4.079566E+00  1.971689E+01  2.778849E+00  9.316196E-01
      2088   3 -1.954468E+01 -1.868273E+01 -1.862352E+00  2.780681E+00 -3.242482E+00  6.544231E-01
      2088   4 -2.615387E+01 -1.944299E+01 -3.839580E+00  1.965897E+01 -3.379606E+00  7.895080E-01
      2088   5 -2.551112E+00  3.013113E+01  5.452103E+00  3.689634E-01  2.716011E+00  6.486472E-01
      2088   6 -9.082903E+00  2.920649E+01  3.076109E+00  1.655501E+01  2.767781E+00  7.893376E-01
      2088   7 -2.377473E+00  3.068827E+01  5.671879E+00  3.831688E-01 -3.257043E+00  3.394048E-01
      2088   8 -8.896295E+00  2.975432E+01  3.298553E+00  1.649947E+01 -3.379383E+00  4.734825E-01
      2089   1 -2.460354E+01 -1.904593E+01 -2.989200E+00  1.862178E+00  2.700751E+00  9.078667E-01
      2089   2 -3.311463E+01 -1.628510E+01 -4.202108E+00  1.897624E+01  2.843732E+00  1.088048E+00
      2089   3 -2.438145E+01 -1.834693E+01 -2.710130E+00  1.864021E+00 -3.559170E+00  3.799026E-01
      2089   4 -3.285565E+01 -1.561844E+01 -3.913590E+00  1.890425E+01 -3.597186E+00  5.383233E-01
      2089   5 -6.005376E+00  3.220579E+01  4.903079E+00 -3.086305E+00  2.684175E+00  7.674336E-01
      2089   6 -1.432484E+01  3.464939E+01  3.295517E+00  1.325515E+01  2.843446E+00  9.461722E-01
      2089   7 -5.808917E+00  3.285797E+01  5.157561E+00 -3.073097E+00 -3.558329E+00  6.600453E-02
      2089   8 -1.409354E+01  3.527029E+01  3.558114E+00  1.319786E+01 -3.571799E+00  2.239942E-01
      2090   1 -2.825968E+01 -2.054937E+01 -3.608954E+00  4.800403E-01  2.675204E+00  1.023418E+00
      2090   2 -3.875636E+01 -1.417946E+01 -4.209798E+00  1.731135E+01  2.903275E+00  1.260205E+00
      2090   3 -2.799767E+01 -1.973863E+01 -3.281429E+00  4.408178E-01 -3.819204E+00 -1.690648E-02
      2090   4 -3.843449E+01 -1.342615E+01 -3.868426E+00  1.720326E+01 -3.772016E+00  1.829814E-01
      2090   5 -7.839513E+00  3.211541E+01  4.635388E+00 -7.122664E+00  2.661260E+00  8.833109E-01
      2090   6 -1.805152E+01  3.800854E+01  3.620188E+00  8.948790E+00  2.915517E+00  1.120248E+00
      2090   7 -7.616807E+00  3.287200E+01  4.929634E+00 -7.137434E+00 -3.800862E+00 -3.310123E-01
      2090   8 -1.777179E+01  3.871016E+01  3.927348E+00  8.868265E+00 -3.719186E+00 -1.292620E-01
      2091   1 -3.041455E+01 -2.301281E+01 -3.892913E+00 -9.223111E-01  2.634999E+00  1.143626E+00
      2091   2 -4.344082E+01 -1.320212E+01 -4.203659E+00  1.513132E+01  2.951394E+00  1.457533E+00
      2091   3 -3.011009E+01 -2.208972E+01 -3.516764E+00 -1.011538E+00 -4.034982E+00 -5.004095E-01
      2091   4 -4.304788E+01 -1.236003E+01 -3.807133E+00  1.498408E+01 -3.896011E+00 -2.380499E-01
      2091   5 -7.581623E+00  3.072726E+01  4.779408E+00 -1.136823E+01  2.622197E+00  1.005495E+00
      2091   6 -2.020885E+01  3.990601E+01  4.041584E+00  3.960648E+00  2.976490E+00  1.322270E+00
      2091   7 -7.337136E+00  3.158949E+01  5.111646E+00 -1.141850E+01 -4.000784E+00 -8.098479E-01
      2091   8 -1.987975E+01  4.069103E+01  4.393591E+00  3.854973E+00 -3.815710E+00 -5.422231E-01
      2092   1 -3.153706E+01 -2.582614E+01 -3.967521E+00 -2.083690E+00  2.581531E+00  1.279554E+00
      2092   2 -4.740036E+01 -1.279662E+01 -4.203371E+00  1.259367E+01  2.984723E+00  1.687791E+00
      2092   3 -3.118350E+01 -2.480988E+01 -3.547978E+00 -2.233431E+00 -4.195836E+00 -1.027986E+00
      2092   4 -4.692981E+01 -1.188195E+01 -3.755902E+00  1.240491E+01 -3.962307E+00 -6.844337E-01
      2092   5 -5.696841E+00  2.845244E+01  5.150682E+00 -1.542680E+01  2.569041E+00  1.143827E+00
      2092   6 -2.103194E+01  4.070577E+01  4.486936E+00 -1.412051E+00  3.022286E+00  1.560176E+00
      2092   7 -5.428354E+00  2.940802E+01  5.516528E+00 -1.552449E+01 -4.147734E+00 -1.328088E+00
      2092   8 -2.065132E+01  4.156474E+01  4.880425E+00 -1.546999E+00 -3.856237E+00 -9.733949E-01
      2093   1 -3.206356E+01 -2.875337E+01 -3.976971E+00 -2.944925E+00  2.512393E+00  1.433150E+00
      2093   2 -5.073109E+01 -1.276225E+01 -4.224367E+00  9.735623E+00  2.997260E+00  1.951496E+00
      2093   3 -3.165262E+01 -2.767206E+01 -3.521292E+00 -3.161258E+00 -4.297718E+00 -1.571478E+00
      2093   4 -5.017918E+01 -1.179916E+01 -3.733086E+00  9.506670E+00 -3.971283E+00 -1.128826E+00
      2093   5 -2.662829E+00  2.543568E+01  5.572793E+00 -1.906197E+01  2.499883E+00  1.299941E+00
      2093   6 -2.067210E+01  4.052037E+01  4.906071E+00 -6.953900E+00  3.046566E+00  1.834044E+00
      2093   7 -2.365736E+00  2.646270E+01  5.965958E+00 -1.921657E+01 -4.237787E+00 -1.858613E+00
      2093   8 -2.023966E+01  4.143529E+01  5.334953E+00 -7.120543E+00 -3.842072E+00 -1.396630E+00
      2094   1 -3.223235E+01 -3.171988E+01 -3.996573E+00 -3.486098E+00  2.424850E+00  1.599302E+00
      2094   2 -5.342633E+01 -1.310193E+01 -4.272760E+00  6.607059E+00  2.982828E+00  2.243443E+00
      2094   3 -3.175558E+01 -3.060334E+01 -3.512058E+00 -3.770981E+00 -4.339211E+00 -2.117393E+00
      2094   4 -5.279174E+01 -1.211426E+01 -3.744982E+00  6.342280E+00 -3.926058E+00 -1.557553E+00
      2094   5  1.222507E+00  2.174145E+01  5.957718E+00 -2.210053E+01  2.412013E+00  1.468105E+00
      2094   6 -1.919336E+01  3.934020E+01  5.277060E+00 -1.246302E+01  3.042685E+00  2.138071E+00
      2094   7  1.554303E+00  2.281592E+01  6.372196E+00 -2.231893E+01 -4.269820E+00 -2.389523E+00
      2094   8 -1.870980E+01  4.029265E+01  5.735363E+00 -1.266223E+01 -3.777072E+00 -1.799836E+00
      2095   1 -3.216984E+01 -3.468852E+01 -4.050895E+00 -3.681813E+00  2.317147E+00  1.770129E+00
      2095   2 -5.544613E+01 -1.387865E+01 -4.346263E+00  3.296430E+00  2.936388E+00  2.555751E+00
      2095   3 -3.161857E+01 -3.356465E+01 -3.543875E+00 -4.033298E+00 -4.319518E+00 -2.659878E+00
      2095   4 -5.472867E+01 -1.288648E+01 -3.788184E+00  3.002503E+00 -3.830013E+00 -1.964646E+00
      2095   5  5.760426E+00  1.744777E+01  6.278285E+00 -2.438944E+01  2.303715E+00  1.640044E+00
      2095   6 -1.663579E+01  3.714742E+01  5.597804E+00 -1.772625E+01  3.005275E+00  2.463990E+00
      2095   7  6.134691E+00  1.854645E+01  6.709214E+00 -2.467583E+01 -4.243163E+00 -2.916149E+00
      2095   8 -1.610138E+01  3.812182E+01  6.080865E+00 -1.795768E+01 -3.665072E+00 -2.178224E+00
      2096   1 -3.196326E+01 -3.760799E+01 -4.138676E+00 -3.502651E+00  2.189026E+00  1.937610E+00
      2096   2 -5.675717E+01 -1.514334E+01 -4.437230E+00 -7.966803E-02  2.854364E+00  2.879999E+00
      2096   3 -3.132888E+01 -3.650154E+01 -3.614345E+00 -3.915550E+00 -4.237615E+00 -3.195610E+00
      2096   4 -5.595747E+01 -1.416189E+01 -3.853655E+00 -3.946989E-01 -3.686081E+00 -2.347112E+00
      2096   5  1.077471E+01  1.267705E+01  6.535922E+00 -2.579198E+01  2.174647E+00  1.807518E+00
      2096   6 -1.306103E+01  3.396640E+01  5.874873E+00 -2.252352E+01  2.930369E+00  2.803103E+00
      2096   7  1.120051E+01  1.377845E+01  6.979538E+00 -2.614806E+01 -4.156992E+00 -3.435941E+00
      2096   8 -1.247552E+01  3.495032E+01  6.379345E+00 -2.278616E+01 -3.509489E+00 -2.529636E+00
      2097   1 -3.169448E+01 -4.040386E+01 -4.249472E+00 -2.928615E+00  2.041383E+00  2.094845E+00
      2097   2 -5.735079E+01 -1.691243E+01 -4.536851E+00 -3.393184E+00  2.734432E+00  3.208091E+00
      2097   3 -3.096843E+01 -3.933610E+01 -3.711917E+00 -3.394659E+00 -4.092602E+00 -3.720950E+00
      2097   4 -5.647047E+01 -1.595258E+01 -3.931537E+00 -3.720527E+00 -3.497087E+00 -2.702461E+00
      2097   5  1.607570E+01  7.596582E+00  6.741024E+00 -2.619988E+01  2.025787E+00  1.963544E+00
      2097   6 -8.572401E+00  2.987738E+01  6.116539E+00 -2.664345E+01  2.815285E+00  3.147037E+00
      2097   7  1.656399E+01  8.680894E+00  7.194762E+00 -2.662485E+01 -4.010444E+00 -3.945773E+00
      2097   8 -7.934564E+00  3.086091E+01  6.640209E+00 -2.693599E+01 -3.313602E+00 -2.852295E+00
      2098   1 -3.144816E+01 -4.298509E+01 -4.371582E+00 -1.958321E+00  1.876141E+00  2.236411E+00
      2098   2 -5.724650E+01 -1.916527E+01 -4.637171E+00 -6.516313E+00  2.575542E+00  3.532620E+00
      2098   3 -3.062297E+01 -4.197417E+01 -3.824266E+00 -2.466251E+00 -3.883988E+00 -4.230924E+00
      2098   4 -5.628812E+01 -1.823429E+01 -4.013166E+00 -6.846792E+00 -3.265942E+00 -3.027680E+00
      2098   5  2.145323E+01  2.407719E+00  6.904583E+00 -2.554463E+01  1.859215E+00  2.102695E+00
      2098   6 -3.318017E+00  2.501457E+01  6.329913E+00 -2.989686E+01  2.658760E+00  3.488110E+00
      2098   7  2.201575E+01  3.456271E+00  7.366521E+00 -2.603473E+01 -3.802972E+00 -4.441052E+00
      2098   8 -2.625649E+00  2.598949E+01  6.871285E+00 -3.021752E+01 -3.080622E+00 -3.143839E+00
      2099   1 -3.131033E+01 -4.525452E+01 -4.495493E+00 -6.133331E-01  1.695882E+00  2.358317E+00
      2099   2 -5.649078E+01 -2.184826E+01 -4.731670E+00 -9.330716E+00  2.377572E+00  3.846840E+00
      2099   3 -3.038016E+01 -4.431539E+01 -3.941486E+00 -1.149309E+00 -3.612227E+00 -4.719131E+00
      2099   4 -5.545856E+01 -2.095098E+01 -4.091881E+00 -9.655217E+00 -2.996237E+00 -3.319169E+00
      2099   5  2.668231E+01 -2.668024E+00  7.035212E+00 -2.380538E+01  1.677714E+00  2.220992E+00
      2099   6  2.514537E+00  1.955747E+01  6.520093E+00 -3.212924E+01  2.460451E+00  3.819163E+00
      2099   7  2.733145E+01 -1.672689E+00  7.503916E+00 -2.435386E+01 -3.534886E+00 -4.915758E+00
      2099   8  3.264171E+00  2.051587E+01  7.077905E+00 -3.247575E+01 -2.814397E+00 -3.401475E+00
      2100   1 -3.136332E+01 -4.711780E+01 -4.614403E+00  1.061514E+00  1.503638E+00  2.457700E+00
      2100   2 -5.515524E+01 -2.488075E+01 -4.815962E+00 -1.173301E+01  2.141406E+00  4.144537E+00
      2100   3 -3.032452E+01 -4.626195E+01 -4.056424E+00  5.135450E-01 -3.278940E+00 -5.178316E+00
      2100   4 -5.405457E+01 -2.401961E+01 -4.162969E+00 -1.204265E+01 -2.692149E+00 -3.573127E+00
      2100   5  3.153343E+01 -7.403402E+00  7.138409E+00 -2.101207E+01  1.484586E+00  2.315631E+00
      2100   6  8.705878E+00  1.372001E+01  6.689958E+00 -3.322896E+01  2.221229E+00  4.133632E+00
      2100   7  3.228109E+01 -6.477339E+00  7.612737E+00 -2.160889E+01 -3.207537E+00 -5.362965E+00
      2100   8  9.516150E+00  1.465467E+01  7.263253E+00 -3.359822E+01 -2.519097E+00 -3.622135E+00
      2101   1 -3.167954E+01 -4.848981E+01 -4.723607E+00  3.000127E+00  1.302894E+00  2.532871E+00
      2101   2 -5.333227E+01 -2.816047E+01 -4.886969E+00 -1.363941E+01  1.868788E+00  4.420075E+00
      2101   3 -3.053159E+01 -4.772561E+01 -4.164365E+00  2.457895E+00 -2.887014E+00 -5.600510E+00
      2101   4 -5.216980E+01 -2.733628E+01 -4.223375E+00 -1.392604E+01 -2.358695E+00 -3.785703E+00
      2101   5  3.578532E+01 -1.157780E+01  7.217566E+00 -1.724493E+01  1.283507E+00  2.384958E+00
      2101   6  1.501574E+01  7.739390E+00  6.841230E+00 -3.313331E+01  1.942767E+00  4.425408E+00
      2101   7  3.664189E+01 -1.073553E+01  7.696360E+00 -1.787697E+01 -2.823551E+00 -5.775062E+00
      2101   8  1.589015E+01  8.642919E+00  7.428939E+00 -3.352129E+01 -2.199730E+00 -3.802835E+00
      2102   1 -3.231728E+01 -4.930195E+01 -4.820337E+00  5.117606E+00  1.097128E+00  2.582996E+00
      2102   2 -5.113040E+01 -3.156981E+01 -4.942787E+00 -1.499012E+01  1.562194E+00  4.668363E+00
      2102   3 -3.106324E+01 -4.863418E+01 -4.262618E+00  4.599939E+00 -2.440839E+00 -5.977736E+00
      2102   4 -4.991435E+01 -3.078220E+01 -4.271387E+00 -1.524629E+01 -2.001631E+00 -3.953416E+00
      2102   5  3.923571E+01 -1.499014E+01  7.274378E+00 -1.263263E+01  1.078207E+00  2.428247E+00
      2102   6  2.119334E+01  1.862887E+00  6.974116E+00 -3.183258E+01  1.627642E+00  4.688962E+00
      2102   7  4.020946E+01 -1.424390E+01  7.756478E+00 -1.328378E+01 -2.386949E+00 -6.144349E+00
      2102   8  2.213527E+01  2.728010E+00  7.575082E+00 -3.223405E+01 -1.861815E+00 -3.940904E+00
      2103   1 -3.331610E+01 -4.950538E+01 -4.902847E+00  7.314239E+00  8.898957E-01  2.608130E+00
      2103   2 -4.867027E+01 -3.498376E+01 -4.983365E+00 -1.575213E+01  1.224852E+00  4.884800E+00
      2103   3 -3.196254E+01 -4.893496E+01 -4.349316E+00  6.840422E+00 -1.946128E+00 -6.302228E+00
      2103   4 -4.740972E+01 -3.423105E+01 -4.306867E+00 -1.597128E+01 -1.627314E+00 -4.073437E+00
      2103   5  4.171289E+01 -1.746926E+01  7.309569E+00 -7.346262E+00  8.724395E-01  2.445708E+00
      2103   6  2.698981E+01 -3.665323E+00  7.087769E+00 -2.937129E+01  1.279180E+00  4.919293E+00
      2103   7  4.280959E+01 -1.682812E+01  7.794033E+00 -7.997756E+00 -1.903080E+00 -6.463265E+00
      2103   8  2.800253E+01 -2.845272E+00  7.700995E+00 -2.977961E+01 -1.511432E+00 -4.034263E+00
      2104   1 -3.469353E+01 -4.907849E+01 -4.971094E+00  9.477752E+00  6.845496E-01  2.609048E+00
      2104   2 -4.607892E+01 -3.828367E+01 -5.012080E+00 -1.592402E+01  8.605900E-01  5.065363E+00
      2104   3 -3.325081E+01 -4.860203E+01 -4.424210E+00  9.066974E+00 -1.410019E+00 -6.566810E+00
      2104   4 -4.478331E+01 -3.756213E+01 -4.332702E+00 -1.610023E+01 -1.242675E+00 -4.143710E+00
      2104   5  4.308659E+01 -1.888628E+01  7.323265E+00 -1.593425E+00  6.696901E-01  2.438252E+00
      2104   6  3.216988E+01 -8.624044E+00  7.178668E+00 -2.584839E+01  9.014780E-01  5.112059E+00
      2104   7  4.430815E+01 -1.835545E+01  7.809253E+00 -2.224287E+00 -1.378724E+00 -6.724820E+00
      2104   8  3.325623E+01 -7.853918E+00  7.803536E+00 -2.625527E+01 -1.155005E+00 -4.081487E+00
      2105   1 -3.644106E+01 -4.803580E+01 -5.027484E+00  1.148417E+01  4.840661E-01  2.587357E+00
      2105   2 -4.348311E+01 -4.136841E+01 -5.037000E+00 -1.554317E+01  4.737840E-01  5.206833E+00
      2105   3 -3.492291E+01 -4.764431E+01 -4.488993E+00  1.115516E+01 -8.409612E-01 -6.764913E+00
      2105   4 -4.216168E+01 -4.067097E+01 -4.355918E+00 -1.567056E+01 -8.549453E-01 -4.162600E+00
      2105   5  4.329055E+01 -1.916074E+01  7.320861E+00  4.385458E+00  4.727654E-01  2.407873E+00
      2105   6  3.653925E+01 -1.282164E+01  7.247957E+00 -2.142175E+01  4.991218E-01  5.264024E+00
      2105   7  4.463370E+01 -1.874022E+01  7.807607E+00  3.798062E+00 -8.224318E-01 -6.922303E+00
      2105   8  3.770036E+01 -1.210323E+01  7.884245E+00 -2.181663E+01 -7.994765E-01 -4.081199E+00
      2106   1 -3.849066E+01 -4.642004E+01 -5.064914E+00  1.323371E+01  2.904906E-01  2.544582E+00
      2106   2 -4.094450E+01 -4.411801E+01 -5.041601E+00 -1.462815E+01  6.889134E-02  5.310885E+00
      2106   3 -3.691564E+01 -4.609881E+01 -4.536368E+00  1.299677E+01 -2.484018E-01 -6.891205E+00
      2106   4 -3.961095E+01 -4.344022E+01 -4.362211E+00 -1.471064E+01 -4.714415E-01 -4.126111E+00
      2106   5  4.227809E+01 -1.828988E+01  7.290038E+00  1.035363E+01  2.855604E-01  2.356909E+00
      2106   6  3.992443E+01 -1.610231E+01  7.287808E+00 -1.625038E+01  7.720446E-02  5.376229E+00
      2106   7  4.374000E+01 -1.797105E+01  7.779119E+00  9.827711E+00 -2.406053E-01 -7.050076E+00
      2106   8  4.116193E+01 -1.543686E+01  7.935273E+00 -1.662882E+01 -4.503246E-01 -4.030482E+00
      2107   1 -4.072640E+01 -4.413959E+01 -5.023097E+00  1.395709E+01  1.129511E-01  2.517997E+00
      2107   2 -3.871787E+01 -4.607302E+01 -4.973412E+00 -1.261512E+01 -3.232063E-01  5.171473E+00
      2107   3 -3.914424E+01 -4.389300E+01 -4.521934E+00  1.390304E+01  3.534117E-01 -6.930787E+00
      2107   4 -3.736865E+01 -4.546754E+01 -4.323796E+00 -1.277056E+01 -8.127244E-02 -4.282384E+00
      2107   5  4.018470E+01 -1.612918E+01  7.311334E+00  1.531624E+01  1.145119E-01  2.326177E+00
      2107   6  4.210924E+01 -1.796864E+01  7.374394E+00 -1.005636E+01 -3.321817E-01  5.226217E+00
      2107   7  4.171882E+01 -1.592334E+01  7.784734E+00  1.495972E+01  3.493174E-01 -7.091532E+00
      2107   8  4.342682E+01 -1.741421E+01  8.003269E+00 -1.050969E+01 -9.585786E-02 -4.197657E+00
      2108   1 -4.301323E+01 -4.179055E+01 -5.038893E+00  1.486099E+01 -8.206934E-02  2.652823E+00
      2108   2 -3.680262E+01 -4.764281E+01 -4.936448E+00 -1.102370E+01 -7.048372E-01  5.091090E+00
      2108   3 -4.145794E+01 -4.152910E+01 -4.543169E+00  1.496063E+01  9.241246E-01 -6.771709E+00
      2108   4 -3.545172E+01 -4.707290E+01 -4.304689E+00 -1.107064E+01  3.014984E-01 -4.322424E+00
      2108   5  3.715849E+01 -1.333625E+01  7.234167E+00  2.027058E+01 -7.482621E-02  2.475981E+00
      2108   6  4.311227E+01 -1.890081E+01  7.386756E+00 -4.445536E+00 -7.294192E-01  5.140969E+00
      2108   7  3.872927E+01 -1.314838E+01  7.715035E+00  2.009087E+01  9.080304E-01 -6.923042E+00
      2108   8  4.449330E+01 -1.841293E+01  8.010342E+00 -4.765202E+00  2.537936E-01 -4.248748E+00
      2109   1 -4.543450E+01 -3.905726E+01 -5.033486E+00  1.534589E+01 -2.828166E-01  2.723373E+00
      2109   2 -3.521725E+01 -4.865474E+01 -4.889309E+00 -9.180302E+00 -1.067455E+00  4.954404E+00
      2109   3 -4.392272E+01 -3.877817E+01 -4.547333E+00  1.556140E+01  1.482757E+00 -6.585060E+00
      2109   4 -3.386957E+01 -4.811032E+01 -4.273886E+00 -9.146261E+00  6.944770E-01 -4.327571E+00
      2109   5  3.320959E+01 -9.605552E+00  7.160415E+00  2.463783E+01 -2.722751E-01  2.554647E+00
      2109   6  4.300513E+01 -1.873015E+01  7.390561E+00  1.218877E+00 -1.106481E+00  4.995018E+00
      2109   7  3.478814E+01 -9.429655E+00  7.641460E+00  2.460042E+01  1.453538E+00 -6.735662E+00
      2109   8  4.443215E+01 -1.829576E+01  8.006992E+00  1.008195E+00  6.161690E-01 -4.271146E+00
      2110   1 -4.784624E+01 -3.604484E+01 -5.001046E+00  1.531969E+01 -4.938322E-01  2.766656E+00
      2110   2 -3.394399E+01 -4.909490E+01 -4.823927E+00 -7.209617E+00 -1.409192E+00  4.777893E+00
      2110   3 -4.640344E+01 -3.572815E+01 -4.525439E+00  1.564133E+01  2.012228E+00 -6.339104E+00
      2110   4 -3.261971E+01 -4.856038E+01 -4.225848E+00 -7.094755E+00  1.087108E+00 -4.286943E+00
      2110   5  2.847646E+01 -5.106864E+00  7.073530E+00  2.820316E+01 -4.802374E-01  2.605400E+00
      2110   6  4.180647E+01 -1.751237E+01  7.371936E+00  6.690938E+00 -1.460463E+00  4.806953E+00
      2110   7  3.003063E+01 -4.915598E+00  7.553496E+00  2.830426E+01  1.971087E+00 -6.491795E+00
      2110   8  4.325220E+01 -1.710839E+01  7.979865E+00  6.594591E+00  9.819328E-01 -4.252177E+00
      2111   1 -5.015505E+01 -3.287783E+01 -4.950615E+00  1.477129E+01 -7.111070E-01  2.782040E+00
      2111   2 -3.299333E+01 -4.897160E+01 -4.744759E+00 -5.199586E+00 -1.725779E+00  4.565769E+00
      2111   3 -4.880061E+01 -3.250537E+01 -4.485309E+00  1.518433E+01  2.505243E+00 -6.038103E+00
      2111   4 -3.171025E+01 -4.843077E+01 -4.163958E+00 -5.007722E+00  1.472499E+00 -4.200142E+00
      2111   5  2.314356E+01 -2.126179E-02  6.973612E+00  3.084432E+01 -6.959269E-01  2.627569E+00
      2111   6  3.960147E+01 -1.531755E+01  7.335582E+00  1.177507E+01 -1.787350E+00  4.581608E+00
      2111   7  2.464303E+01  2.099509E-01  7.450985E+00  3.107283E+01  2.452371E+00 -6.195505E+00
      2111   8  4.103707E+01 -1.492127E+01  7.933314E+00  1.179236E+01  1.344143E+00 -4.190584E+00
      2112   1 -5.226321E+01 -2.967461E+01 -4.886862E+00  1.370062E+01 -9.308601E-01  2.769592E+00
      2112   2 -3.235608E+01 -4.830401E+01 -4.653046E+00 -3.241985E+00 -2.013485E+00  4.322606E+00
      2112   3 -5.101278E+01 -2.923127E+01 -4.431357E+00  1.418764E+01  2.955389E+00 -5.686803E+00
      2112   4 -3.113029E+01 -4.774174E+01 -4.089290E+00 -2.979962E+00  1.844403E+00 -4.067753E+00
      2112   5  1.740233E+01  5.448246E+00  6.857664E+00  3.246592E+01 -9.151306E-01  2.621342E+00
      2112   6  3.649658E+01 -1.225427E+01  7.281325E+00  1.628818E+01 -2.083119E+00  4.324033E+00
      2112   7  1.882093E+01  5.741548E+00  7.331479E+00  3.280620E+01  2.891659E+00 -5.851162E+00
      2112   8  3.789560E+01 -1.184347E+01  7.867649E+00  1.641362E+01  1.697086E+00 -4.086203E+00
      2113   1 -5.407086E+01 -2.654388E+01 -4.810803E+00  1.212726E+01 -1.149445E+00  2.729647E+00
      2113   2 -3.200528E+01 -4.712943E+01 -4.550668E+00 -1.423553E+00 -2.269264E+00  4.053171E+00
      2113   3 -5.293594E+01 -2.601887E+01 -4.364775E+00  1.266853E+01  3.357072E+00 -5.291004E+00
      2113   4 -3.085111E+01 -4.653248E+01 -4.003784E+00 -1.101266E+00  2.196906E+00 -3.891461E+00
      2113   5  1.146080E+01  1.109329E+01  6.725754E+00  3.301360E+01 -1.133980E+00  2.586872E+00
      2113   6  3.263049E+01 -8.462644E+00  7.208219E+00  2.007451E+01 -2.344570E+00  4.039378E+00
      2113   7  1.277693E+01  1.146627E+01  7.194876E+00  3.344572E+01  3.283826E+00 -5.464416E+00
      2113   8  3.396848E+01 -8.017479E+00  7.781834E+00  2.029752E+01  2.035232E+00 -3.939997E+00
      2114   1 -5.548413E+01 -2.358835E+01 -4.724155E+00  1.009205E+01 -1.363190E+00  2.662783E+00
      2114   2 -3.189623E+01 -4.550182E+01 -4.439745E+00  1.797695E-01 -2.490871E+00  3.762573E+00
      2114   3 -5.447153E+01 -2.297546E+01 -4.287268E+00  1.066645E+01  3.705776E+00 -4.857436E+00
      2114   4 -3.082545E+01 -4.485984E+01 -3.909572E+00  5.497801E-01  2.524375E+00 -3.673703E+00
      2114   5  5.532345E+00  1.670080E+01  6.577051E+00  3.247660E+01 -1.348527E+00  2.524614E+00
      2114   6  2.816954E+01 -4.109192E+00  7.114949E+00  2.301184E+01 -2.569333E+00  3.733088E+00
      2114   7  6.729803E+00  1.716581E+01  7.040416E+00  3.297748E+01  3.624780E+00 -5.041787E+00
      2114   8  2.942568E+01 -3.613277E+00  7.674661E+00  2.331757E+01  2.353210E+00 -3.753723E+00
      2115   1 -5.641876E+01 -2.090000E+01 -4.628856E+00  7.655888E+00 -1.568557E+00  2.570271E+00
      2115   2 -3.197150E+01 -4.348942E+01 -4.323589E+00  1.506207E+00 -2.676673E+00  3.456095E+00
      2115   3 -5.553120E+01 -2.019814E+01 -4.201096E+00  8.241716E+00  3.998079E+00 -4.393105E+00
      2115   4 -3.099268E+01 -4.279517E+01 -3.810047E+00  1.909409E+00  2.821834E+00 -3.417672E+00
      2115   5 -1.716283E-01  2.206328E+01  6.411004E+00  3.088824E+01 -1.555035E+00  2.435748E+00
      2115   6  2.329897E+01  6.206981E-01  6.998906E+00  2.501618E+01 -2.755776E+00  3.410847E+00
      2115   7  8.962351E-01  2.262661E+01  6.867288E+00  3.143277E+01  3.911409E+00 -4.590007E+00
      2115   8  2.445668E+01  1.179462E+00  7.543438E+00  2.538632E+01  2.646140E+00 -3.529803E+00
      2116   1 -5.680529E+01 -1.855633E+01 -4.527980E+00  4.897903E+00 -1.762242E+00  2.454010E+00
      2116   2 -3.216345E+01 -4.117047E+01 -4.207079E+00  2.511442E+00 -2.825959E+00  3.139489E+00
      2116   3 -5.604100E+01 -1.776960E+01 -4.109709E+00  5.473928E+00  4.231768E+00 -3.905041E+00
      2116   4 -3.128228E+01 -4.042114E+01 -3.710539E+00  2.931850E+00  3.084830E+00 -3.126656E+00
      2116   5 -5.453229E+00  2.698636E+01  6.225382E+00  2.832411E+01 -1.749958E+00  2.322151E+00
      2116   6  1.821523E+01  5.532304E+00  6.856294E+00  2.604542E+01 -2.903250E+00  3.078749E+00
      2116   7 -4.520014E+00  2.764791E+01  6.672977E+00  2.888649E+01  4.141774E+00 -4.115781E+00
      2116   8  1.926239E+01  6.160498E+00  7.384071E+00  2.645921E+01  2.909525E+00 -3.270831E+00
      2117   1 -5.659289E+01 -1.661556E+01 -4.426242E+00  1.911234E+00 -1.941138E+00  2.316778E+00
      2117   2 -3.239943E+01 -3.862727E+01 -4.096686E+00  3.169428E+00 -2.938608E+00  2.818795E+00
      2117   3 -5.594663E+01 -1.575358E+01 -4.018468E+00  2.457494E+00  4.405875E+00 -3.399791E+00
      2117   4 -3.161818E+01 -3.782469E+01 -3.618006E+00  3.590600E+00  3.309779E+00 -2.804003E+00
      2117   5 -1.013590E+01  3.129938E+01  6.016743E+00  2.489759E+01 -1.930028E+00  2.186590E+00
      2117   6  1.311528E+01  1.043128E+01  6.681316E+00  2.609896E+01 -3.011774E+00  2.743159E+00
      2117   7 -9.337370E+00  3.205226E+01  6.453463E+00  2.545257E+01  4.315060E+00 -3.625321E+00
      2117   8  1.404468E+01  1.112942E+01  7.190305E+00  2.653451E+01  3.139616E+00 -2.979483E+00
      2118   1 -5.575114E+01 -1.511157E+01 -4.329407E+00 -1.199828E+00 -2.102810E+00  2.162371E+00
      2118   2 -3.260685E+01 -3.594136E+01 -4.001818E+00  3.473642E+00 -3.015633E+00  2.500790E+00
      2118   3 -5.521386E+01 -1.418931E+01 -3.933738E+00 -7.009078E-01  4.520208E+00 -2.883041E+00
      2118   4 -3.192494E+01 -3.509286E+01 -3.542591E+00  3.879448E+00  3.493406E+00 -2.452420E+00
      2118   5 -1.407206E+01  3.486359E+01  5.779872E+00  2.075502E+01 -2.092649E+00  2.032898E+00
      2118   6  8.187145E+00  1.513397E+01  6.465372E+00  2.521753E+01 -3.082584E+00  2.411115E+00
      2118   7 -1.340277E+01  3.569434E+01  6.203099E+00  2.127938E+01  4.431172E+00 -3.123935E+00
      2118   8  8.996141E+00  1.589592E+01  6.953013E+00  2.565299E+01  3.332838E+00 -2.657868E+00
      2119   1 -5.427260E+01 -1.405035E+01 -4.245060E+00 -4.326684E+00 -2.245153E+00  1.995604E+00
      2119   2 -3.271531E+01 -3.318440E+01 -3.932379E+00  3.434947E+00 -3.058780E+00  2.192740E+00
      2119   3 -5.383306E+01 -1.308825E+01 -3.864020E+00 -3.889434E+00  4.575567E+00 -2.359510E+00
      2119   4 -3.212904E+01 -3.230284E+01 -3.494901E+00  3.810771E+00  3.633064E+00 -2.074151E+00
      2119   5 -1.714890E+01  3.758108E+01  5.507868E+00  1.606675E+01 -2.235577E+00  1.865891E+00
      2119   6  3.603147E+00  1.947881E+01  6.198403E+00  2.347796E+01 -3.117705E+00  2.090111E+00
      2119   7 -1.659938E+01  3.846964E+01  5.914317E+00  1.654059E+01  4.490965E+00 -2.615990E+00
      2119   8  4.293998E+00  2.029166E+01  6.661655E+00  2.389314E+01  3.486164E+00 -2.307649E+00
      2120   1 -5.217215E+01 -1.340741E+01 -4.180774E+00 -7.362765E+00 -2.367176E+00  1.822591E+00
      2120   2 -3.265703E+01 -3.041183E+01 -3.896191E+00  3.076809E+00 -3.071009E+00  1.902524E+00
      2120   3 -5.181773E+01 -1.243097E+01 -3.817984E+00 -6.997518E+00  4.572842E+00 -1.832855E+00
      2120   4 -3.216058E+01 -2.951563E+01 -3.483765E+00  3.410465E+00  3.726144E+00 -1.671031E+00
      2120   5 -1.929008E+01  3.939891E+01  5.193305E+00  1.101830E+01 -2.357751E+00  1.691790E+00
      2120   6 -4.812792E-01  2.333682E+01  5.872655E+00  2.098658E+01 -3.120446E+00  1.788255E+00
      2120   7 -1.884812E+01  4.031884E+01  5.578661E+00  1.142598E+01  4.495301E+00 -2.104632E+00
      2120   8  9.723867E-02  2.418104E+01  6.307558E+00  2.136410E+01  3.596522E+00 -1.930036E+00
      2121   1 -4.948107E+01 -1.313326E+01 -4.142397E+00 -1.021516E+01 -2.469010E+00  1.650242E+00
      2121   2 -3.235433E+01 -2.765994E+01 -3.890551E+00  2.426660E+00 -3.056478E+00  1.638030E+00
      2121   3 -4.919814E+01 -1.217123E+01 -3.802014E+00 -9.927361E+00  4.512743E+00 -1.306909E+00
      2121   4 -3.194041E+01 -2.677201E+01 -3.507161E+00  2.709402E+00  3.769930E+00 -1.245851E+00
      2121   5 -2.044982E+01  4.030893E+01  4.831685E+00  5.797797E+00 -2.459360E+00  1.517704E+00
      2121   6 -3.916815E+00  2.661754E+01  5.490918E+00  1.786889E+01 -3.095334E+00  1.513715E+00
      2121   7 -2.010111E+01  4.122948E+01  5.191080E+00  6.129053E+00  4.444749E+00 -1.592950E+00
      2121   8 -3.442419E+00  2.746793E+01  5.892816E+00  1.819531E+01  3.660718E+00 -1.526995E+00
      2122   1 -4.622857E+01 -1.317989E+01 -4.130580E+00 -1.281752E+01 -2.551935E+00  1.485387E+00
      2122   2 -3.168488E+01 -2.496021E+01 -3.886841E+00  1.505460E+00 -3.020374E+00  1.405885E+00
      2122   3 -4.600326E+01 -1.226085E+01 -3.816269E+00 -1.260726E+01  4.395760E+00 -7.881522E-01
      2122   4 -3.134495E+01 -2.410442E+01 -3.536039E+00  1.732772E+00  3.761823E+00 -8.051683E-01
      2122   5 -2.059130E+01  4.032989E+01  4.427733E+00  5.853689E-01 -2.541767E+00  1.350833E+00
      2122   6 -6.522107E+00  2.926348E+01  5.085342E+00  1.426173E+01 -3.047914E+00  1.273581E+00
      2122   7 -2.032059E+01  4.121915E+01  4.756657E+00  8.358313E-01  4.339593E+00 -1.086302E+00
      2122   8 -6.141595E+00  3.009272E+01  5.449900E+00  1.452848E+01  3.675634E+00 -1.103876E+00
      2123   1 -4.240288E+01 -1.357059E+01 -4.137852E+00 -1.513407E+01 -2.618370E+00  1.333005E+00
      2123   2 -3.041676E+01 -2.239326E+01 -3.810377E+00  3.322557E-01 -2.968302E+00  1.209240E+00
      2123   3 -4.222136E+01 -1.271770E+01 -3.851286E+00 -1.499671E+01  4.222661E+00 -2.896883E-01
      2123   4 -3.014083E+01 -2.158913E+01 -3.493699E+00  5.033909E-01  3.700342E+00 -3.636311E-01
      2123   5 -1.964397E+01  3.945767E+01  4.005466E+00 -4.445725E+00 -2.607509E+00  1.196646E+00
      2123   6 -8.016257E+00  3.121600E+01  4.744489E+00  1.032237E+01 -2.984210E+00  1.071536E+00
      2123   7 -1.943531E+01  4.028805E+01  4.301336E+00 -4.274816E+00  4.180207E+00 -5.964188E-01
      2123   8 -7.717374E+00  3.199986E+01  5.069295E+00  1.052553E+01  3.639055E+00 -6.739248E-01
      2124   1 -3.789184E+01 -1.452476E+01 -4.147964E+00 -1.712846E+01 -2.670657E+00  1.193194E+00
      2124   2 -2.814412E+01 -2.019954E+01 -3.529116E+00 -1.029027E+00 -2.904885E+00  1.044869E+00
      2124   3 -3.773951E+01 -1.374971E+01 -3.886983E+00 -1.705633E+01  3.996740E+00  1.634223E-01
      2124   4 -2.791882E+01 -1.945671E+01 -3.243994E+00 -9.120789E-01  3.587147E+00  5.096499E-02
      2124   5 -1.745284E+01  3.756343E+01  3.613875E+00 -9.102087E+00 -2.658822E+00  1.055651E+00
      2124   6 -7.962442E+00  3.232760E+01  4.631199E+00  6.270511E+00 -2.909235E+00  9.044199E-01
      2124   7 -1.728845E+01  3.831896E+01  3.878436E+00 -9.005122E+00  3.969426E+00 -1.473603E-01
      2124   8 -7.728529E+00  3.305223E+01  4.918449E+00  6.410278E+00  3.551663E+00 -2.643035E-01
      2125   1 -3.246708E+01 -1.656427E+01 -4.137198E+00 -1.864544E+01 -2.709147E+00  1.059314E+00
      2125   2 -2.446281E+01 -1.894593E+01 -2.933456E+00 -2.333250E+00 -2.831717E+00  9.032148E-01
      2125   3 -3.232756E+01 -1.586917E+01 -3.896725E+00 -1.863077E+01  3.727468E+00  5.343468E-01
      2125   4 -2.426830E+01 -1.826424E+01 -2.673151E+00 -2.268500E+00  3.429805E+00  3.997522E-01
      2125   5 -1.380330E+01  3.428526E+01  3.315905E+00 -1.311680E+01 -2.695467E+00  9.211008E-01
      2125   6 -5.974742E+00  3.219676E+01  4.898448E+00  2.458980E+00 -2.824875E+00  7.626083E-01
      2125   7 -1.366366E+01  3.495857E+01  3.553586E+00 -1.308614E+01  3.716433E+00  2.232572E-01
      2125   8 -5.782995E+00  3.285686E+01  5.154161E+00  2.537454E+00  3.419881E+00  8.533614E-02
      2126   1 -2.599987E+01 -2.014703E+01 -4.014210E+00 -1.930132E+01 -2.734097E+00  9.208662E-01
      2126   2 -1.968396E+01 -1.933725E+01 -2.097273E+00 -3.156014E+00 -2.763656E+00  7.748889E-01
      2126   3 -2.585487E+01 -1.954043E+01 -3.792287E+00 -1.932096E+01  3.428153E+00  7.870140E-01
      2126   4 -1.949981E+01 -1.872570E+01 -1.859498E+00 -3.123831E+00  3.223149E+00  6.485152E-01
      2126   5 -8.760577E+00  2.905646E+01  3.116445E+00 -1.620105E+01 -2.716976E+00  7.820673E-01
      2126   6 -2.531473E+00  3.002802E+01  5.409597E+00 -7.846313E-01 -2.745870E+00  6.348856E-01
      2126   7 -8.623035E+00  2.963915E+01  3.330627E+00 -1.621266E+01  3.434450E+00  4.750280E-01
      2126   8 -2.357183E+00  3.061481E+01  5.637434E+00 -7.467704E-01  3.238036E+00  3.350163E-01
      2127   1 -1.968457E+01 -1.819892E+01 -2.453137E+00  2.854812E+00  2.279074E+00  1.906388E+00
      2127   2 -2.629847E+01 -1.897320E+01 -4.434545E+00  1.967333E+01  2.229972E+00  2.343242E+00
      2127   3 -1.915804E+01 -1.636778E+01 -1.744816E+00  3.043647E+00 -3.719538E+00  1.775020E+00
      2127   4 -2.579804E+01 -1.717026E+01 -3.739646E+00  1.977192E+01 -3.945942E+00  2.206366E+00
      2127   5 -2.564803E+00  3.109821E+01  4.996845E+00  4.527913E-01  2.216309E+00  1.388954E+00
      2127   6 -9.083555E+00  3.015544E+01  2.630182E+00  1.651202E+01  2.189350E+00  1.826128E+00
      2127   7 -2.077507E+00  3.283759E+01  5.665406E+00  6.301672E-01 -3.779346E+00  1.085313E+00
      2127   8 -8.621842E+00  3.186723E+01  3.284394E+00  1.660323E+01 -3.975526E+00  1.517304E+00
      2128   1 -2.448356E+01 -1.771079E+01 -3.253926E+00  1.885784E+00  2.115475E+00  1.896466E+00
      2128   2 -3.296598E+01 -1.503325E+01 -4.497594E+00  1.886306E+01  2.104380E+00  2.408301E+00
      2128   3 -2.386823E+01 -1.555056E+01 -2.418600E+00  1.944470E+00 -4.160386E+00  1.368834E+00
      2128   4 -3.236530E+01 -1.293510E+01 -3.677255E+00  1.882358E+01 -4.352615E+00  1.860536E+00
      2128   5 -5.961201E+00  3.341152E+01  4.535263E+00 -3.046957E+00  2.079327E+00  1.380046E+00
      2128   6 -1.425637E+01  3.577251E+01  2.891140E+00  1.316389E+01  2.095437E+00  1.891399E+00
      2128   7 -5.399839E+00  3.545020E+01  5.315039E+00 -2.987744E+00 -4.179071E+00  6.759610E-01
      2128   8 -1.370939E+01  3.775151E+01  3.655663E+00  1.312935E+01 -4.335815E+00  1.168181E+00
      2129   1 -2.808520E+01 -1.897399E+01 -3.840883E+00  3.934143E-01  1.945900E+00  1.785624E+00
      2129   2 -3.853014E+01 -1.275088E+01 -4.507360E+00  1.709514E+01  1.981920E+00  2.394411E+00
      2129   3 -2.737369E+01 -1.647714E+01 -2.873128E+00  3.039851E-01 -4.564830E+00  7.403077E-01
      2129   4 -3.780643E+01 -1.034649E+01 -3.550717E+00  1.690869E+01 -4.710051E+00  1.314222E+00
      2129   5 -7.768446E+00  3.354206E+01  4.276544E+00 -7.169254E+00  1.932260E+00  1.267371E+00
      2129   6 -1.793544E+01  3.929063E+01  3.188455E+00  8.778467E+00  2.005264E+00  1.878911E+00
      2129   7 -7.126554E+00  3.590064E+01  5.176578E+00 -7.240617E+00 -4.546093E+00  4.497103E-02
      2129   8 -1.728206E+01  4.156076E+01  4.077516E+00  8.614468E+00 -4.645998E+00  6.233376E-01
      2130   1 -3.020149E+01 -2.123205E+01 -4.157383E+00 -1.141333E+00  1.794612E+00  1.637435E+00
      2130   2 -4.313247E+01 -1.162001E+01 -4.543515E+00  1.480038E+01  1.880688E+00  2.360283E+00
      2130   3 -2.936996E+01 -1.841928E+01 -3.057034E+00 -1.406122E+00 -4.894296E+00 -9.341139E-03
      2130   4 -4.225141E+01 -8.928184E+00 -3.446649E+00  1.444634E+01 -4.985676E+00  6.645246E-01
      2130   5 -7.513866E+00  3.233941E+01  4.357698E+00 -1.151967E+01  1.801724E+00  1.125375E+00
      2130   6 -2.005418E+01  4.132439E+01  3.538370E+00  3.702335E+00  1.937164E+00  1.854830E+00
      2130   7 -6.777290E+00  3.499651E+01  5.375064E+00 -1.174524E+01 -4.840165E+00 -6.953064E-01
      2130   8 -1.927021E+01  4.386613E+01  4.552669E+00  3.391550E+00 -4.873964E+00 -1.245898E-02
      2131   1 -3.127830E+01 -2.390436E+01 -4.305177E+00 -2.458507E+00  1.667172E+00  1.507611E+00
      2131   2 -4.699172E+01 -1.111012E+01 -4.600145E+00  1.213917E+01  1.800940E+00  2.352054E+00
      2131   3 -3.029893E+01 -2.084688E+01 -3.086327E+00 -2.923445E+00 -5.134922E+00 -7.918929E-01
      2131   4 -4.592305E+01 -8.199730E+00 -3.375466E+00  1.160211E+01 -5.170551E+00 -8.989450E-03
      2131   5 -5.633319E+00  3.019816E+01  4.628081E+00 -1.570838E+01  1.693860E+00  1.009219E+00
      2131   6 -2.082803E+01  4.222409E+01  3.901524E+00 -1.769720E+00  1.889967E+00  1.865939E+00
      2131   7 -4.781489E+00  3.308910E+01  5.748595E+00 -1.611285E+01 -5.047765E+00 -1.456728E+00
      2131   8 -1.989053E+01  4.497505E+01  5.028554E+00 -2.243041E+00 -5.013142E+00 -6.585586E-01
      2132   1 -3.173255E+01 -2.675800E+01 -4.395792E+00 -3.488156E+00  1.558305E+00  1.419433E+00
      2132   2 -5.019885E+01 -1.102727E+01 -4.674597E+00  9.158469E+00  1.733081E+00  2.389874E+00
      2132   3 -3.057388E+01 -2.354535E+01 -3.076715E+00 -4.165129E+00 -5.285387E+00 -1.562594E+00
      2132   4 -4.891634E+01 -7.984503E+00 -3.340634E+00  8.435869E+00 -5.268997E+00 -6.643264E-01
      2132   5 -2.582486E+00  2.726059E+01  4.946129E+00 -1.949219E+01  1.603348E+00  9.395516E-01
      2132   6 -2.040106E+01  4.209522E+01  4.246014E+00 -7.416503E+00  1.852542E+00  1.930097E+00
      2132   7 -1.588643E+00  3.030486E+01  6.153011E+00 -2.009078E+01 -5.168052E+00 -2.198373E+00
      2132   8 -1.928824E+01  4.497795E+01  5.468799E+00 -8.058671E+00 -5.069775E+00 -1.276481E+00
      2133   1 -3.179513E+01 -2.971370E+01 -4.487948E+00 -4.199505E+00  1.460405E+00  1.372640E+00
      2133   2 -5.274806E+01 -1.136979E+01 -4.765165E+00  5.917153E+00  1.666254E+00  2.473509E+00
      2133   3 -3.042543E+01 -2.643582E+01 -3.086654E+00 -5.086130E+00 -5.349162E+00 -2.306666E+00
      2133   4 -5.122818E+01 -8.278881E+00 -3.340310E+00  5.019638E+00 -5.288687E+00 -1.286471E+00
      2133   5  1.350056E+00  2.359470E+01  5.239670E+00 -2.268991E+01  1.521883E+00  9.137939E-01
      2133   6 -1.883614E+01  4.093125E+01  4.556894E+00 -1.302996E+01  1.812829E+00  2.044930E+00
      2133   7  2.514894E+00  2.671150E+01  6.517128E+00 -2.348575E+01 -5.205461E+00 -2.908641E+00
      2133   8 -1.752684E+01  4.387062E+01  5.859355E+00 -1.383619E+01 -5.052962E+00 -1.854208E+00
      2134   1 -3.159131E+01 -3.272699E+01 -4.600727E+00 -4.557311E+00  1.367789E+00  1.356222E+00
      2134   2 -5.460253E+01 -1.219172E+01 -4.868320E+00  2.510745E+00  1.592010E+00  2.593264E+00
      2134   3 -2.998029E+01 -2.946468E+01 -3.132649E+00 -5.638864E+00 -5.329106E+00 -3.023644E+00
      2134   4 -5.282442E+01 -9.124853E+00 -3.367925E+00  1.459657E+00 -5.235902E+00 -1.873476E+00
      2134   5  5.968542E+00  1.928325E+01  5.485809E+00 -2.514080E+01  1.442777E+00  9.193521E-01
      2134   6 -1.617429E+01  3.872099E+01  4.832481E+00 -1.839186E+01  1.761191E+00  2.199236E+00
      2134   7  7.333288E+00  2.239986E+01  6.820703E+00 -2.612607E+01 -5.164055E+00 -3.589216E+00
      2134   8 -1.464855E+01  4.165243E+01  6.201600E+00 -1.934804E+01 -4.970341E+00 -2.391883E+00
      2135   1 -3.121072E+01 -3.573924E+01 -4.733774E+00 -4.523753E+00  1.277357E+00  1.357186E+00
      2135   2 -5.573341E+01 -1.353425E+01 -4.978344E+00 -9.391493E-01  1.504829E+00  2.737113E+00
      2135   3 -2.933015E+01 -3.256089E+01 -3.211137E+00 -5.774645E+00 -5.226641E+00 -3.716235E+00
      2135   4 -5.367938E+01 -1.054920E+01 -3.414344E+00 -2.113871E+00 -5.114975E+00 -2.426953E+00
      2135   5  1.109653E+01  1.445295E+01  5.684208E+00 -2.670123E+01  1.362349E+00  9.423651E-01
      2135   6 -1.247933E+01  3.549529E+01  5.076771E+00 -2.327846E+01  1.691245E+00  2.379992E+00
      2135   7  1.268983E+01  1.750708E+01  7.066616E+00 -2.785846E+01 -5.046020E+00 -4.244099E+00
      2135   8 -1.071857E+01  3.836665E+01  6.502947E+00 -2.436296E+01 -4.827271E+00 -2.892540E+00
      2136   1 -3.073907E+01 -3.866896E+01 -4.879661E+00 -4.071299E+00  1.188350E+00  1.364648E+00
      2136   2 -5.613725E+01 -1.540498E+01 -5.089233E+00 -4.301054E+00  1.401646E+00  2.894226E+00
      2136   3 -2.856454E+01 -3.563012E+01 -3.311959E+00 -5.456835E+00 -5.042144E+00 -4.385184E+00
      2136   4 -5.379391E+01 -1.254532E+01 -3.470584E+00 -5.562875E+00 -4.929011E+00 -2.947494E+00
      2136   5  1.654358E+01  9.274656E+00  5.841922E+00 -2.725639E+01  1.279458E+00  9.713602E-01
      2136   6 -7.856591E+00  3.133976E+01  5.295131E+00 -2.747575E+01  1.599331E+00  2.575581E+00
      2136   7  1.839184E+01  1.221437E+01  7.264422E+00 -2.855961E+01 -4.852275E+00 -4.874988E+00
      2136   8 -5.844913E+00  3.411062E+01  6.771503E+00 -2.866084E+01 -4.627596E+00 -3.357926E+00
      2137   1 -3.026669E+01 -4.141837E+01 -5.030044E+00 -3.191792E+00  1.101547E+00  1.371033E+00
      2137   2 -5.583889E+01 -1.777538E+01 -5.195547E+00 -7.444964E+00  1.281152E+00  3.056109E+00
      2137   3 -2.777931E+01 -3.856194E+01 -3.424611E+00 -4.669929E+00 -4.775873E+00 -5.027843E+00
      2137   4 -5.319886E+01 -1.507173E+01 -3.529098E+00 -8.752778E+00 -4.680784E+00 -3.433322E+00
      2137   5  2.209713E+01  3.952803E+00  5.966506E+00 -2.673112E+01  1.194754E+00  9.982263E-01
      2137   6 -2.456172E+00  2.639286E+01  5.492096E+00 -3.079229E+01  1.483673E+00  2.776664E+00
      2137   7  2.422316E+01  6.736272E+00  7.423664E+00 -2.814724E+01 -4.583318E+00 -5.480151E+00
      2137   8 -1.817023E-01  2.903311E+01  7.013735E+00 -3.204578E+01 -4.374647E+00 -3.787499E+00
      2138   1 -2.988634E+01 -4.388316E+01 -5.178047E+00 -1.901083E+00  1.018414E+00  1.371803E+00
      2138   2 -5.489085E+01 -2.058526E+01 -5.292672E+00 -1.025159E+01  1.142983E+00  3.216423E+00
      2138   3 -2.707539E+01 -4.124040E+01 -3.541169E+00 -3.423750E+00 -4.428988E+00 -5.638478E+00
      2138   4 -5.195409E+01 -1.805636E+01 -3.584132E+00 -1.156139E+01 -4.373688E+00 -3.880529E+00
      2138   5  2.752933E+01 -1.287592E+00  6.064036E+00 -2.509818E+01  1.109825E+00  1.017907E+00
      2138   6  3.532045E+00  2.083690E+01  5.670908E+00 -3.307168E+01  1.343768E+00  2.976006E+00
      2138   7  2.994993E+01  1.306934E+00  7.551392E+00 -2.658777E+01 -4.240254E+00 -6.054753E+00
      2138   8  6.075873E+00  2.332580E+01  7.233910E+00 -3.435801E+01 -4.072011E+00 -4.178623E+00
      2139   1 -2.968751E+01 -4.596084E+01 -5.318228E+00 -2.396111E-01  9.406660E-01  1.364882E+00
      2139   2 -5.337049E+01 -2.374777E+01 -5.377561E+00 -1.261747E+01  9.873211E-01  3.370413E+00
      2139   3 -2.655106E+01 -4.355117E+01 -3.655424E+00 -1.754952E+00 -4.004019E+00 -6.209124E+00
      2139   4 -5.014604E+01 -2.140218E+01 -3.632271E+00 -1.388416E+01 -4.012207E+00 -4.283937E+00
      2139   5  3.260665E+01 -6.214833E+00  6.138557E+00 -2.238134E+01  1.026710E+00  1.027780E+00
      2139   6  9.886285E+00  1.488885E+01  5.833270E+00 -3.420039E+01  1.179793E+00  3.167825E+00
      2139   7  3.533202E+01 -3.832530E+00  7.652362E+00 -2.390028E+01 -3.825295E+00 -6.591780E+00
      2139   8  1.269923E+01  1.721352E+01  7.434097E+00 -3.548191E+01 -3.724163E+00 -4.527553E+00
      2140   1 -2.975136E+01 -4.755844E+01 -5.447204E+00  1.729454E+00  8.700544E-01  1.350201E+00
      2140   2 -5.137524E+01 -2.715505E+01 -5.447675E+00 -1.446020E+01  8.148540E-01  3.514797E+00
      2140   3 -2.629798E+01 -4.538969E+01 -3.763536E+00  2.750292E-01 -3.505013E+00 -6.730351E+00
      2140   4 -4.788037E+01 -2.499122E+01 -3.670489E+00 -1.563968E+01 -3.601839E+00 -4.637482E+00
      2140   5  3.710213E+01 -1.060328E+01  6.192305E+00 -1.865546E+01  9.475833E-01  1.027227E+00
      2140   6  1.636383E+01  8.788345E+00  5.980182E+00 -3.411427E+01  9.926592E-01  3.347806E+00
      2140   7  4.013398E+01 -8.446958E+00  7.729272E+00 -2.015652E+01 -3.342000E+00 -7.082751E+00
      2140   8  1.943929E+01  1.094395E+01  7.615751E+00 -3.535279E+01 -3.336295E+00 -4.829651E+00
      2141   1 -3.014525E+01 -4.859857E+01 -5.562684E+00  3.922549E+00  8.078980E-01  1.328789E+00
      2141   2 -4.901912E+01 -3.068473E+01 -5.501631E+00 -1.572194E+01  6.264016E-01  3.647121E+00
      2141   3 -2.639463E+01 -4.666759E+01 -3.863333E+00  2.582255E+00 -2.937922E+00 -7.192391E+00
      2141   4 -4.528019E+01 -2.869246E+01 -3.697678E+00 -1.677281E+01 -3.149392E+00 -4.935117E+00
      2141   5  4.080702E+01 -1.424549E+01  6.226496E+00 -1.404459E+01  8.743119E-01  1.016818E+00
      2141   6  2.271092E+01  2.785307E+00  6.111401E+00 -3.280222E+01  7.835942E-01  3.512492E+00
      2141   7  4.413785E+01 -1.231951E+01  7.783338E+00 -1.547897E+01 -2.795658E+00 -7.518748E+00
      2141   8  2.603494E+01  4.774202E+00  7.778461E+00 -3.396021E+01 -2.914679E+00 -5.080254E+00
      2142   1 -3.091754E+01 -4.902324E+01 -5.662905E+00  6.239559E+00  7.550780E-01  1.302855E+00
      2142   2 -4.642707E+01 -3.420720E+01 -5.539463E+00 -1.637250E+01  4.229700E-01  3.765841E+00
      2142   3 -2.690004E+01 -4.731614E+01 -3.953087E+00  5.063838E+00 -2.310488E+00 -7.585335E+00
      2142   4 -4.247864E+01 -3.236829E+01 -3.713954E+00 -1.725769E+01 -2.662790E+00 -5.170949E+00
      2142   5  4.354253E+01 -1.696263E+01  6.241937E+00 -8.716367E+00  8.083680E-01  9.983557E-01
      2142   6  2.867593E+01 -2.872723E+00  6.226194E+00 -3.030760E+01  5.541214E-01  3.659445E+00
      2142   7  4.715501E+01 -1.526191E+01  7.815196E+00 -1.003572E+01 -2.193254E+00 -7.890622E+00
      2142   8  3.222743E+01 -1.041223E+00  7.921331E+00 -3.134957E+01 -2.466541E+00 -5.274711E+00
      2143   1 -3.209473E+01 -4.880130E+01 -5.747780E+00  8.566326E+00  7.119212E-01  1.275495E+00
      2143   2 -4.372915E+01 -3.759817E+01 -5.564273E+00 -1.641343E+01  2.056331E-01  3.869962E+00
      2143   3 -2.785075E+01 -4.729381E+01 -4.032568E+00  7.600880E+00 -1.632011E+00 -7.899674E+00
      2143   4 -3.961200E+01 -3.588587E+01 -3.721763E+00 -1.710151E+01 -2.150852E+00 -5.339868E+00
      2143   5  4.516954E+01 -1.861697E+01  6.238686E+00 -2.876300E+00  7.505995E-01  9.746889E-01
      2143   6  3.402035E+01 -7.959533E+00  6.320908E+00 -2.672829E+01  3.059454E-01  3.787147E+00
      2143   7  4.903694E+01 -1.712651E+01  7.825037E+00 -4.034802E+00 -1.543342E+00 -8.189420E+00
      2143   8  3.777206E+01 -6.268133E+00  8.041254E+00 -2.762197E+01 -1.999833E+00 -5.408727E+00
      2144   1 -3.367648E+01 -4.793612E+01 -5.819509E+00  1.077653E+01  6.780023E-01  1.249833E+00
      2144   2 -4.105394E+01 -4.074914E+01 -5.583743E+00 -1.588367E+01 -2.444824E-02  3.957780E+00
      2144   3 -2.925517E+01 -4.659332E+01 -4.103439E+00  1.006242E+01 -9.133269E-01 -8.127420E+00
      2144   4 -3.681284E+01 -3.912729E+01 -3.727359E+00 -1.634736E+01 -1.623047E+00 -5.439133E+00
      2144   5  4.561008E+01 -1.911812E+01  6.220506E+00  3.236859E+00  7.007598E-01  9.493709E-01
      2144   6  3.854380E+01 -1.227760E+01  6.394169E+00 -2.221978E+01  4.118905E-02  3.894088E+00
      2144   7  4.969480E+01 -1.781319E+01  7.816315E+00  2.282731E+00 -8.562111E-01 -8.406987E+00
      2144   8  4.246192E+01 -1.070056E+01  8.137357E+00 -2.293476E+01 -1.522679E+00 -5.479621E+00
      2145   1 -3.560686E+01 -4.645959E+01 -5.872772E+00  1.275544E+01  6.530276E-01  1.226445E+00
      2145   2 -3.847427E+01 -4.354268E+01 -5.586601E+00 -1.481945E+01 -2.637106E-01  4.025549E+00
      2145   3 -3.107043E+01 -4.523632E+01 -4.161335E+00  1.232436E+01 -1.656150E-01 -8.264381E+00
      2145   4 -3.416624E+01 -4.197073E+01 -3.721786E+00 -1.504301E+01 -1.086834E+00 -5.469100E+00
      2145   5  4.481474E+01 -1.844761E+01  6.176818E+00  9.377401E+00  6.626403E-01  9.239540E-01
      2145   6  4.207271E+01 -1.566642E+01  6.440693E+00 -1.695260E+01 -2.341796E-01  3.976726E+00
      2145   7  4.907245E+01 -1.729027E+01  7.780383E+00  8.664765E+00 -1.389884E-01 -8.538436E+00
      2145   8  4.611864E+01 -1.416991E+01  8.205161E+00 -1.746709E+01 -1.040168E+00 -5.487810E+00
      2146   1 -3.780651E+01 -4.430452E+01 -5.863763E+00  1.387826E+01  6.271064E-01  1.213089E+00
      2146   2 -3.619606E+01 -4.560746E+01 -5.538370E+00 -1.285043E+01 -4.916056E-01  3.858113E+00
      2146   3 -3.323673E+01 -4.317041E+01 -4.175133E+00  1.385614E+01  5.860488E-01 -8.325779E+00
      2146   4 -3.186532E+01 -4.411178E+01 -3.701453E+00 -1.292162E+01 -5.285576E-01 -5.688853E+00
      2146   5  4.286249E+01 -1.648570E+01  6.168553E+00  1.471360E+01  6.225635E-01  9.081621E-01
      2146   6  4.441336E+01 -1.771669E+01  6.509904E+00 -1.080841E+01 -5.006130E-01  3.799296E+00
      2146   7  4.721911E+01 -1.545447E+01  7.761506E+00  1.438961E+01  5.803485E-01 -8.599783E+00
      2146   8  4.854765E+01 -1.633428E+01  8.258315E+00 -1.117925E+01 -5.387073E-01 -5.717635E+00
      2147   1 -4.013565E+01 -4.191560E+01 -5.861572E+00  1.510399E+01  5.785852E-01  1.364891E+00
      2147   2 -3.427649E+01 -4.721860E+01 -5.507230E+00 -1.101660E+01 -7.297198E-01  3.775236E+00
      2147   3 -3.561595E+01 -4.076517E+01 -4.187771E+00  1.538749E+01  1.327215E+00 -8.175098E+00
      2147   4 -2.996982E+01 -4.573503E+01 -3.691561E+00 -1.083047E+01  2.216488E-02 -5.755900E+00
      2147   5  3.989807E+01 -1.371733E+01  6.115737E+00  2.002535E+01  5.589501E-01  1.069437E+00
      2147   6  4.552259E+01 -1.875104E+01  6.523809E+00 -4.916022E+00 -7.757648E-01  3.708975E+00
      2147   7  4.427067E+01 -1.270427E+01  7.707056E+00  2.001789E+01  1.288128E+00 -8.444131E+00
      2147   8  4.969744E+01 -1.741428E+01  8.263601E+00 -5.016438E+00 -4.316891E-02 -5.797299E+00
      2148   1 -4.264547E+01 -3.912108E+01 -5.849439E+00  1.585768E+01  5.169366E-01  1.517257E+00
      2148   2 -3.271181E+01 -4.824100E+01 -5.463680E+00 -8.966228E+00 -9.482670E-01  3.667315E+00
      2148   3 -3.823429E+01 -3.790097E+01 -4.191167E+00  1.644311E+01  2.050148E+00 -7.931762E+00
      2148   4 -2.848043E+01 -4.672445E+01 -3.670702E+00 -8.516773E+00  5.847280E-01 -5.756518E+00
      2148   5  3.594498E+01 -9.983386E+00  6.052439E+00  2.470449E+01  4.806025E-01  1.226082E+00
      2148   6  4.547629E+01 -1.864546E+01  6.528414E+00  1.001265E+00 -1.028672E+00  3.585758E+00
      2148   7  4.026365E+01 -8.933027E+00  7.638114E+00  2.501811E+01  1.977443E+00 -8.203577E+00
      2148   8  4.962846E+01 -1.730687E+01  8.254791E+00  1.185045E+00  4.683606E-01 -5.820900E+00
      2149   1 -4.520243E+01 -3.600310E+01 -5.810842E+00  1.607805E+01  4.360321E-01  1.656407E+00
      2149   2 -3.150590E+01 -4.865359E+01 -5.401744E+00 -6.794827E+00 -1.150376E+00  3.534577E+00
      2149   3 -4.096250E+01 -3.466958E+01 -4.173249E+00  1.694126E+01  2.737216E+00 -7.610234E+00
      2149   4 -2.740516E+01 -4.706138E+01 -3.634813E+00 -6.098345E+00  1.144589E+00 -5.691380E+00
      2149   5  3.114151E+01 -5.423563E+00  5.978047E+00  2.856964E+01  3.845452E-01  1.363488E+00
      2149   6  4.428178E+01 -1.744087E+01  6.513522E+00  6.729364E+00 -1.261105E+00  3.431174E+00
      2149   7  3.533892E+01 -4.286174E+00  7.552935E+00  2.918569E+01  2.633716E+00 -7.893034E+00
      2149   8  4.835109E+01 -1.605167E+01  8.223058E+00  7.186225E+00  9.825990E-01 -5.787435E+00
      2150   1 -4.770206E+01 -3.268899E+01 -5.752388E+00  1.574278E+01  3.354554E-01  1.780402E+00
      2150   2 -3.066490E+01 -4.846492E+01 -5.324803E+00 -4.599137E+00 -1.335066E+00  3.380719E+00
      2150   3 -4.368874E+01 -3.119929E+01 -4.138508E+00  1.684765E+01  3.376039E+00 -7.215728E+00
      2150   4 -2.674654E+01 -4.675655E+01 -3.586680E+00 -3.682314E+00  1.690924E+00 -5.560407E+00
      2150   5  2.567597E+01 -2.230802E-01  5.892908E+00  3.148386E+01  2.693114E-01  1.481533E+00
      2150   6  4.202162E+01 -1.520914E+01  6.482398E+00  1.206028E+01 -1.472217E+00  3.250513E+00
      2150   7  2.968808E+01  1.049668E+00  7.452600E+00  3.237087E+01  3.243868E+00 -7.515766E+00
      2150   8  4.594741E+01 -1.372324E+01  8.170918E+00  1.276772E+01  1.488932E+00 -5.695080E+00
      2151   1 -5.003816E+01 -2.930416E+01 -5.678780E+00  1.484500E+01  2.172220E-01  1.888051E+00
      2151   2 -3.017482E+01 -4.769794E+01 -5.234041E+00 -2.478135E+00 -1.500660E+00  3.209841E+00
      2151   3 -4.629683E+01 -2.762233E+01 -4.090688E+00  1.614673E+01  3.957523E+00 -6.754241E+00
      2151   4 -2.648342E+01 -4.583877E+01 -3.527052E+00 -1.376092E+00  2.214546E+00 -5.364724E+00
      2151   5  1.974850E+01  5.408992E+00  5.794190E+00  3.334184E+01  1.376398E-01  1.579779E+00
      2151   6  3.880782E+01 -1.206166E+01  6.435255E+00  1.680075E+01 -1.659527E+00  3.048905E+00
      2151   7  2.352058E+01  6.859075E+00  7.335194E+00  3.445812E+01  3.799873E+00 -7.076749E+00
      2151   8  4.253616E+01 -1.043831E+01  8.099030E+00  1.772635E+01  1.979307E+00 -5.543649E+00
      2152   1 -5.210138E+01 -2.596689E+01 -5.591267E+00  1.339881E+01  8.371360E-02  1.978234E+00
      2152   2 -3.000305E+01 -4.639545E+01 -5.131094E+00 -5.251922E-01 -1.645811E+00  3.025845E+00
      2152   3 -4.866685E+01 -2.406704E+01 -4.030910E+00  1.484626E+01  4.473848E+00 -6.233277E+00
      2152   4 -2.657476E+01 -4.435923E+01 -3.457540E+00  7.201934E-01  2.706877E+00 -5.107106E+00
      2152   5  1.357719E+01  1.125439E+01  5.681661E+00  3.408042E+01 -7.263052E-03  1.657456E+00
      2152   6  3.478504E+01 -8.144734E+00  6.371284E+00  2.078499E+01 -1.820944E+00  2.831053E+00
      2152   7  1.706495E+01  1.291386E+01  7.200585E+00  3.537622E+01  4.294942E+00 -6.582831E+00
      2152   8  3.827044E+01 -6.351457E+00  8.006592E+00  2.188786E+01  2.446087E+00 -5.334799E+00
      2153   1 -5.378701E+01 -2.279021E+01 -5.491099E+00  1.144161E+01 -6.249780E-02  2.050049E+00
      2153   2 -3.009763E+01 -4.461856E+01 -5.017456E+00  1.178303E+00 -1.769741E+00  2.832723E+00
      2153   3 -5.068272E+01 -2.065815E+01 -3.960577E+00  1.297939E+01  4.918543E+00 -5.661382E+00
      2153   4 -2.695917E+01 -4.238851E+01 -3.379651E+00  2.520078E+00  3.159995E+00 -4.791503E+00
      2153   5  7.387379E+00  1.708872E+01  5.554966E+00  3.368240E+01 -1.621848E-01  1.714013E+00
      2153   6  3.012840E+01 -3.633059E+00  6.289703E+00  2.388247E+01 -1.955267E+00  2.601847E+00
      2153   7  1.055877E+01  1.897786E+01  7.048474E+00  3.510208E+01  4.723448E+00 -6.041836E+00
      2153   8  3.333553E+01 -1.647256E+00  7.892984E+00  2.511496E+01  2.881960E+00 -5.071195E+00
      2154   1 -5.500059E+01 -1.987731E+01 -5.379942E+00  9.032918E+00 -2.185415E-01  2.102929E+00
      2154   2 -3.039258E+01 -4.244334E+01 -4.895504E+00  2.566780E+00 -1.872234E+00  2.634702E+00
      2154   3 -5.223812E+01 -1.751119E+01 -3.881570E+00  1.060399E+01  5.286810E+00 -5.047839E+00
      2154   4 -2.756039E+01 -4.001379E+01 -3.296003E+00  3.955049E+00  3.566799E+00 -4.422573E+00
      2154   5  1.402497E+00  2.269167E+01  5.413679E+00  3.217717E+01 -3.236853E-01  1.749299E+00
      2154   6  2.503355E+01  1.278366E+00  6.188912E+00  2.600293E+01 -2.061915E+00  2.366388E+00
      2154   7  4.237908E+00  2.481765E+01  6.878250E+00  3.366190E+01  5.081240E+00 -5.462283E+00
      2154   8  2.793830E+01  3.467680E+00  7.756458E+00  2.731313E+01  3.280256E+00 -4.756274E+00
      2155   1 -5.566175E+01 -1.731690E+01 -5.260111E+00  6.252714E+00 -3.814409E-01  2.137505E+00
      2155   2 -3.081167E+01 -3.995751E+01 -4.768902E+00  3.593665E+00 -1.953362E+00  2.436668E+00
      2155   3 -5.324151E+01 -1.472798E+01 -3.796822E+00  7.800545E+00  5.575329E+00 -4.401597E+00
      2155   4 -2.829197E+01 -3.733458E+01 -3.210791E+00  4.977720E+00  3.921333E+00 -4.005182E+00
      2155   5 -4.166384E+00  2.785573E+01  5.256517E+00  2.963918E+01 -4.884129E-01  1.764458E+00
      2155   6  1.970793E+01  6.383418E+00  6.066375E+00  2.710021E+01 -2.140913E+00  2.130466E+00
      2155   7 -1.674297E+00  3.021192E+01  6.688074E+00  3.112954E+01  5.365470E+00 -4.852209E+00
      2155   8  2.229734E+01  8.774468E+00  7.593963E+00  2.843420E+01  3.635144E+00 -4.393591E+00
      2156   1 -5.570994E+01 -1.517865E+01 -5.135161E+00  3.197013E+00 -5.481859E-01  2.155918E+00
      2156   2 -3.127289E+01 -3.725322E+01 -4.642321E+00  4.232770E+00 -2.014002E+00  2.244962E+00
      2156   3 -5.362127E+01 -1.239162E+01 -3.710700E+00  4.668212E+00  5.782480E+00 -3.730595E+00
      2156   4 -2.906223E+01 -3.445581E+01 -3.129543E+00  5.563248E+00  4.218478E+00 -3.543134E+00
      2156   5 -9.130392E+00  3.239666E+01  5.081172E+00  2.618339E+01 -6.531163E-01  1.762150E+00
      2156   6  1.436042E+01  1.147560E+01  5.918036E+00  2.717238E+01 -2.193278E+00  1.901278E+00
      2156   7 -6.976355E+00  3.496225E+01  6.475121E+00  2.762227E+01  5.574736E+00 -4.218665E+00
      2156   8  1.663292E+01  1.405309E+01  7.400925E+00  2.847689E+01  3.941321E+00 -3.985723E+00
      2157   1 -5.510501E+01 -1.350755E+01 -5.009080E+00 -2.466852E-02 -7.158593E-01  2.162272E+00
      2157   2 -3.169464E+01 -3.442276E+01 -4.522684E+00  4.479434E+00 -2.055441E+00  2.067403E+00
      2157   3 -5.332897E+01 -1.056128E+01 -3.628944E+00  1.321781E+00  5.908102E+00 -3.041136E+00
      2157   4 -2.978041E+01 -3.148345E+01 -3.060648E+00  5.710791E+00  4.454304E+00 -3.039035E+00
      2157   5 -1.332943E+01  3.616259E+01  4.884299E+00  2.196075E+01 -8.147421E-01  1.746958E+00
      2157   6  9.190871E+00  1.635844E+01  5.737833E+00  2.626154E+01 -2.220664E+00  1.687381E+00
      2157   7 -1.149810E+01  3.890183E+01  6.234640E+00  2.329589E+01  5.708958E+00 -3.567103E+00
      2157   8  1.115572E+01  1.909255E+01  7.170110E+00  2.748676E+01  4.194425E+00 -3.534168E+00
      2158   1 -5.383207E+01 -1.232045E+01 -4.887128E+00 -3.296554E+00 -8.827085E-01  2.163489E+00
      2158   2 -3.199783E+01 -3.154873E+01 -4.417044E+00  4.348757E+00 -2.080595E+00  1.914254E+00
      2158   3 -5.234245E+01 -9.268262E+00 -3.559128E+00 -2.115435E+00  5.952532E+00 -2.336674E+00
      2158   4 -3.036072E+01 -2.851477E+01 -3.013571E+00  5.441419E+00  4.624871E+00 -2.492955E+00
      2158   5 -1.664037E+01  3.904276E+01  4.661458E+00  1.714878E+01 -9.716193E-01  1.726363E+00
      2158   6  4.383263E+00  2.085763E+01  5.518968E+00  2.444892E+01 -2.226488E+00  1.499722E+00
      2158   7 -1.510793E+01  4.190458E+01  5.960002E+00  1.833522E+01  5.768294E+00 -2.900061E+00
      2158   8  6.057803E+00  2.370334E+01  6.892511E+00  2.555090E+01  4.389904E+00 -3.037956E+00
      2159   1 -5.190031E+01 -1.160305E+01 -4.774791E+00 -6.503065E+00 -1.048235E+00  2.168758E+00
      2159   2 -3.210797E+01 -2.869783E+01 -4.331462E+00  3.870596E+00 -2.093812E+00  1.797757E+00
      2159   3 -5.066599E+01 -8.512590E+00 -3.509545E+00 -5.518201E+00  5.916246E+00 -1.618375E+00
      2159   4 -3.072316E+01 -2.563138E+01 -2.997110E+00  4.793344E+00  4.726245E+00 -1.902903E+00
      2159   5 -1.897868E+01  4.097222E+01  4.407648E+00  1.194243E+01 -1.123590E+00  1.710164E+00
      2159   6  1.021985E-01  2.483122E+01  5.255777E+00  2.184778E+01 -2.215925E+00  1.351215E+00
      2159   7 -1.771486E+01  4.389093E+01  5.643746E+00  1.294500E+01  5.752745E+00 -2.217726E+00
      2159   8  1.510643E+00  2.772798E+01  6.560018E+00  2.279103E+01  4.522840E+00 -2.494063E+00
      2160   1 -4.933742E+01 -1.131373E+01 -4.676671E+00 -9.540287E+00 -1.214311E+00  2.188796E+00
      2160   2 -3.194376E+01 -2.591688E+01 -4.264413E+00  3.080933E+00 -2.101807E+00  1.730986E+00
      2160   3 -4.832482E+01 -8.265666E+00 -3.487850E+00 -8.770786E+00  5.798590E+00 -8.861419E-01
      2160   4 -3.078270E+01 -2.289294E+01 -3.012388E+00  3.813064E+00  4.753406E+00 -1.266309E+00
      2160   5 -2.029292E+01  4.193330E+01  4.119946E+00  6.541608E+00 -1.273029E+00  1.709954E+00
      2160   6 -3.497263E+00  2.817667E+01  4.950544E+00  1.859303E+01 -2.196752E+00  1.255961E+00
      2160   7 -1.926352E+01  4.482951E+01  5.280211E+00  7.337283E+00  5.660991E+00 -1.518714E+00
      2160   8 -2.325464E+00  3.105047E+01  6.172592E+00  1.935303E+01  4.586965E+00 -1.898488E+00
      2161   1 -4.617291E+01 -1.140792E+01 -4.595543E+00 -1.232957E+01 -1.385500E+00  2.232234E+00
      2161   2 -3.138357E+01 -2.324481E+01 -4.194729E+00  2.011127E+00 -2.113568E+00  1.723426E+00
      2161   3 -4.534768E+01 -8.490527E+00 -3.498723E+00 -1.178092E+01  5.597276E+00 -1.432976E-01
      2161   4 -3.041562E+01 -2.034644E+01 -3.039874E+00  2.544556E+00  4.700304E+00 -5.854947E-01
      2161   5 -2.054504E+01  4.193936E+01  3.801468E+00  1.139614E+00 -1.425236E+00  1.735772E+00
      2161   6 -6.232823E+00  3.082742E+01  4.628769E+00  1.483290E+01 -2.179139E+00  1.225018E+00
      2161   7 -1.971448E+01  4.472473E+01  4.870425E+00  1.719335E+00  5.489859E+00 -8.043453E-01
      2161   8 -5.265675E+00  3.359491E+01  5.753893E+00  1.539809E+01  4.574882E+00 -1.251388E+00
      2162   1 -4.239982E+01 -1.190514E+01 -4.532694E+00 -1.482345E+01 -1.568433E+00  2.298950E+00
      2162   2 -3.020152E+01 -2.076366E+01 -4.064242E+00  6.902153E-01 -2.139141E+00  1.773328E+00
      2162   3 -4.172624E+01 -9.202352E+00 -3.541446E+00 -1.448688E+01  5.309035E+00  5.942423E-01
      2162   4 -2.939464E+01 -1.807075E+01 -3.019697E+00  1.030097E+00  4.561215E+00  1.222090E-01
      2162   5 -1.966800E+01  4.098821E+01  3.468103E+00 -4.077402E+00 -1.587945E+00  1.789547E+00
      2162   6 -7.828736E+00  3.272122E+01  4.362641E+00  1.073590E+01 -2.174358E+00  1.258838E+00
      2162   7 -1.899975E+01  4.357671E+01  4.431604E+00 -3.708401E+00  5.234795E+00 -8.759743E-02
      2162   8 -7.033138E+00  3.530038E+01  5.377179E+00  1.110804E+01  4.479413E+00 -5.670185E-01
      2163   1 -3.791539E+01 -1.301240E+01 -4.489883E+00 -1.697715E+01 -1.768212E+00  2.370464E+00
      2163   2 -2.800154E+01 -1.870791E+01 -3.767541E+00 -8.101247E-01 -2.185321E+00  1.857012E+00
      2163   3 -3.735608E+01 -1.058676E+01 -3.610573E+00 -1.683211E+01  4.934380E+00  1.285543E+00
      2163   4 -2.732254E+01 -1.628050E+01 -2.839994E+00 -6.476651E-01  4.336278E+00  8.110676E-01
      2163   5 -1.751524E+01  3.896248E+01  3.150678E+00 -8.905801E+00 -1.767157E+00  1.854871E+00
      2163   6 -7.858005E+00  3.371506E+01  4.285955E+00  6.531354E+00 -2.189871E+00  1.335904E+00
      2163   7 -1.697171E+01  4.128698E+01  4.000878E+00 -8.730603E+00  4.895089E+00  5.939103E-01
      2163   8 -7.200366E+00  3.604107E+01  5.181802E+00  6.723179E+00  4.299638E+00  1.122746E-01
      2164   1 -3.250236E+01 -1.523752E+01 -4.468957E+00 -1.863369E+01 -1.981333E+00  2.403616E+00
      2164   2 -2.438040E+01 -1.762711E+01 -3.210444E+00 -2.243364E+00 -2.248727E+00  1.921612E+00
      2164   3 -3.201642E+01 -1.310868E+01 -3.694198E+00 -1.865526E+01  4.486012E+00  1.853693E+00
      2164   4 -2.379249E+01 -1.548425E+01 -2.393561E+00 -2.238366E+00  4.037714E+00  1.395441E+00
      2164   5 -1.388490E+01  3.551070E+01  2.882367E+00 -1.307409E+01 -1.958784E+00  1.888346E+00
      2164   6 -5.937855E+00  3.342073E+01  4.531494E+00  2.576290E+00 -2.221499E+00  1.402811E+00
      2164   7 -1.342498E+01  3.754522E+01  3.624818E+00 -1.307082E+01  4.483091E+00  1.162660E+00
      2164   8 -5.380954E+00  3.546826E+01  5.313231E+00  2.604930E+00  4.047663E+00  6.999035E-01
      2165   1 -2.603777E+01 -1.904690E+01 -4.393200E+00 -1.938978E+01 -2.187791E+00  2.342418E+00
      2165   2 -1.964364E+01 -1.822503E+01 -2.449599E+00 -3.161315E+00 -2.312252E+00  1.907898E+00
      2165   3 -2.559549E+01 -1.722208E+01 -3.716648E+00 -1.955679E+01  3.998311E+00  2.204122E+00
      2165   4 -1.912593E+01 -1.637778E+01 -1.741053E+00 -3.294539E+00  3.695790E+00  1.778352E+00
      2165   5 -8.847269E+00  3.006620E+01  2.651494E+00 -1.627240E+01 -2.140065E+00  1.827833E+00
      2165   6 -2.542634E+00  3.105016E+01  4.972079E+00 -7.765850E-01 -2.248244E+00  1.391389E+00
      2165   7 -8.436098E+00  3.180782E+01  3.295407E+00 -1.642267E+01  4.035111E+00  1.516739E+00
      2165   8 -2.060074E+00  3.281254E+01  5.645066E+00 -8.945844E-01  3.756870E+00  1.088728E+00
      2166   1 -1.953948E+01 -1.535099E+01 -2.867953E+00  3.397700E+00  2.235558E+00  2.150316E+00
      2166   2 -2.628706E+01 -1.622593E+01 -4.952981E+00  2.004769E+01  2.147035E+00  2.897188E+00
      2166   3 -1.903319E+01 -1.232520E+01 -1.807352E+00  4.177950E+00 -3.788691E+00  2.004420E+00
      2166   4 -2.598830E+01 -1.330962E+01 -3.984738E+00  2.070434E+01 -4.055462E+00  2.746995E+00
      2166   5 -2.534864E+00  3.371715E+01  4.423195E+00  9.579388E-01  2.033531E+00  1.542288E+00
      2166   6 -9.186855E+00  3.267267E+01  1.944544E+00  1.685625E+01  1.952779E+00  2.280092E+00
      2166   7 -2.110643E+00  3.654560E+01  5.399493E+00  1.677595E+00 -3.987767E+00  1.219923E+00
      2166   8 -8.961474E+00  3.539589E+01  2.831062E+00  1.745788E+01 -4.238701E+00  1.953716E+00
      2167   1 -2.425806E+01 -1.419569E+01 -3.528050E+00  2.154473E+00  2.043792E+00  2.038828E+00
      2167   2 -3.288355E+01 -1.171121E+01 -4.951609E+00  1.894636E+01  1.954007E+00  2.940658E+00
      2167   3 -2.372675E+01 -1.043734E+01 -2.239087E+00  2.671245E+00 -4.257493E+00  1.479169E+00
      2167   4 -3.254206E+01 -8.102219E+00 -3.756665E+00  1.932304E+01 -4.526903E+00  2.362767E+00
      2167   5 -5.879571E+00  3.663667E+01  4.061809E+00 -2.793102E+00  1.844524E+00  1.408576E+00
      2167   6 -1.431635E+01  3.880831E+01  2.234235E+00  1.324071E+01  1.768518E+00  2.302709E+00
      2167   7 -5.439088E+00  4.015694E+01  5.249140E+00 -2.319061E+00 -4.439568E+00  6.705878E-01
      2167   8 -1.405756E+01  4.218554E+01  3.330790E+00  1.358100E+01 -4.687041E+00  1.547437E+00
      2168   1 -2.780805E+01 -1.484276E+01 -4.087412E+00  3.408790E-01  1.858502E+00  1.798186E+00
      2168   2 -3.836628E+01 -8.891520E+00 -4.983816E+00  1.685575E+01  1.770982E+00  2.870831E+00
      2168   3 -2.721505E+01 -1.037652E+01 -2.565988E+00  5.327409E-01 -4.674632E+00  7.094631E-01
      2168   4 -3.791287E+01 -4.607436E+00 -3.546371E+00  1.689921E+01 -4.942971E+00  1.749517E+00
      2168   5 -7.667255E+00  3.734255E+01  3.797370E+00 -7.201681E+00  1.661081E+00  1.148596E+00
      2168   6 -1.795052E+01  4.282341E+01  2.470866E+00  8.567620E+00  1.601607E+00  2.216480E+00
      2168   7 -7.183129E+00  4.153278E+01  5.197808E+00 -7.022509E+00 -4.839934E+00 -1.201481E-01
      2168   8 -1.759986E+01  4.683952E+01  3.790673E+00  8.605093E+00 -5.071951E+00  9.167796E-01
      2169   1 -2.985907E+01 -1.660285E+01 -4.471051E+00 -1.575459E+00  1.706374E+00  1.542781E+00
      2169   2 -4.283148E+01 -7.317187E+00 -5.079474E+00  1.418981E+01  1.618880E+00  2.775139E+00
      2169   3 -2.915855E+01 -1.157690E+01 -2.748317E+00 -1.771822E+00 -5.007536E+00 -1.408467E-01
      2169   4 -4.220370E+01 -2.506105E+00 -3.425480E+00  1.384450E+01 -5.271511E+00  1.045416E+00
      2169   5 -7.402107E+00  3.659084E+01  3.764352E+00 -1.189108E+01  1.516587E+00  8.855207E-01
      2169   6 -1.998900E+01  4.525717E+01  2.716386E+00  3.162448E+00  1.475076E+00  2.114100E+00
      2169   7 -6.846063E+00  4.129642E+01  5.339617E+00 -1.206263E+01 -5.150743E+00 -9.744151E-01
      2169   8 -1.950233E+01  4.975766E+01  4.226204E+00  2.848669E+00 -5.360574E+00  2.103452E-01
      2170   1 -3.080967E+01 -1.894269E+01 -4.723388E+00 -3.324983E+00  1.587972E+00  1.332013E+00
      2170   2 -4.647974E+01 -6.516507E+00 -5.207428E+00  1.112431E+01  1.496870E+00  2.709879E+00
      2170   3 -2.993228E+01 -1.353687E+01 -2.833052E+00 -3.955823E+00 -5.245120E+00 -9.896067E-01
      2170   4 -4.560956E+01 -1.359409E+00 -3.371019E+00  1.035723E+01 -5.504584E+00  3.300778E-01
      2170   5 -5.461815E+00  3.474994E+01  3.886589E+00 -1.646939E+01  1.412282E+00  6.749578E-01
      2170   6 -2.062065E+01  4.641899E+01  2.966642E+00 -2.672407E+00  1.384512E+00  2.052060E+00
      2170   7 -4.773183E+00  3.980384E+01  5.604381E+00 -1.703789E+01 -5.360870E+00 -1.815423E+00
      2170   8 -1.993851E+01  5.123573E+01  4.633825E+00 -3.371000E+00 -5.549130E+00 -4.936404E-01
      2171   1 -3.105305E+01 -2.163834E+01 -4.923985E+00 -4.809849E+00  1.495567E+00  1.184509E+00
      2171   2 -4.939640E+01 -6.306948E+00 -5.347330E+00  7.734091E+00  1.393580E+00  2.696690E+00
      2171   3 -2.992104E+01 -1.603133E+01 -2.896596E+00 -5.893385E+00 -5.389069E+00 -1.801213E+00
      2171   4 -4.821508E+01 -9.810678E-01 -3.360972E+00  6.540260E+00 -5.648760E+00 -3.575776E-01
      2171   5 -2.273700E+00  3.195772E+01  4.057117E+00 -2.067180E+01  1.338295E+00  5.316253E-01
      2171   6 -1.997881E+01  4.640703E+01  3.209778E+00 -8.694169E+00  1.314996E+00  2.048924E+00
      2171   7 -1.379729E+00  3.719766E+01  5.890539E+00 -2.165971E+01 -5.474519E+00 -2.612588E+00
      2171   8 -1.903705E+01  5.137928E+01  5.005676E+00 -9.787399E+00 -5.648061E+00 -1.160453E+00
      2172   1 -3.081220E+01 -2.459751E+01 -5.112016E+00 -5.970118E+00  1.420068E+00  1.093440E+00
      2172   2 -5.157741E+01 -6.674046E+00 -5.489429E+00  4.105138E+00  1.296910E+00  2.733644E+00
      2172   3 -2.934716E+01 -1.895085E+01 -2.972614E+00 -7.498163E+00 -5.443728E+00 -2.571967E+00
      2172   4 -5.001745E+01 -1.335387E+00 -3.379399E+00  2.504532E+00 -5.712263E+00 -1.008785E+00
      2172   5  1.884356E+00  2.829457E+01  4.223256E+00 -2.429174E+01  1.282777E+00  4.463028E-01
      2172   6 -1.812532E+01  4.522699E+01  3.438487E+00 -1.467132E+01  1.251591E+00  2.100485E+00
      2172   7  3.058621E+00  3.357458E+01  6.151142E+00 -2.569750E+01 -5.498988E+00 -3.365384E+00
      2172   8 -1.685935E+01  5.021394E+01  5.340799E+00 -1.614636E+01 -5.668588E+00 -1.784396E+00
      2173   1 -3.021545E+01 -2.775566E+01 -5.301475E+00 -6.745100E+00  1.354902E+00  1.042778E+00
      2173   2 -5.299304E+01 -7.648537E+00 -5.629215E+00  3.554236E-01  1.197908E+00  2.808647E+00
      2173   3 -2.834139E+01 -2.220960E+01 -3.069346E+00 -8.686039E+00 -5.412238E+00 -3.308759E+00
      2173   4 -5.098965E+01 -2.427849E+00 -3.415009E+00 -1.610654E+00 -5.701015E+00 -1.626275E+00
      2173   5  6.815128E+00  2.386032E+01  4.365745E+00 -2.714559E+01  1.237205E+00  4.018422E-01
      2173   6 -1.510636E+01  4.288750E+01  3.650898E+00 -2.036564E+01  1.183551E+00  2.193440E+00
      2173   7  8.343200E+00  2.905309E+01  6.372266E+00 -2.894584E+01 -5.439624E+00 -4.082147E+00
      2173   8 -1.345337E+01  4.777101E+01  5.643654E+00 -2.218989E+01 -5.618664E+00 -2.369742E+00
      2174   1 -2.936075E+01 -3.103276E+01 -5.493816E+00 -7.074563E+00  1.296713E+00  1.016670E+00
      2174   2 -5.362494E+01 -9.246940E+00 -5.763412E+00 -3.375023E+00  1.091245E+00  2.908112E+00
      2174   3 -2.700735E+01 -2.570615E+01 -3.183518E+00 -9.376101E+00 -5.295715E+00 -4.018004E+00
      2174   4 -5.111948E+01 -4.250619E+00 -3.459057E+00 -5.647023E+00 -5.618438E+00 -2.213964E+00
      2174   5  1.233634E+01  1.879891E+01  4.481449E+00 -2.906942E+01  1.196984E+00  3.819265E-01
      2174   6 -1.099360E+01  3.944006E+01  3.847984E+00 -2.553690E+01  1.104335E+00  2.313554E+00
      2174   7  1.428705E+01  2.379553E+01  6.554925E+00 -3.122145E+01 -5.299036E+00 -4.770019E+00
      2174   8 -8.895855E+00  4.412315E+01  5.920060E+00 -2.766073E+01 -5.503163E+00 -2.921330E+00
      2175   1 -2.834655E+01 -3.432610E+01 -5.685923E+00 -6.911810E+00  1.244368E+00  1.002913E+00
      2175   2 -5.348302E+01 -1.145266E+01 -5.889153E+00 -6.940060E+00  9.742241E-01  3.020561E+00
      2175   3 -2.545314E+01 -2.931684E+01 -3.308613E+00 -9.503288E+00 -5.094424E+00 -4.701894E+00
      2175   4 -5.042724E+01 -6.764045E+00 -3.504952E+00 -9.442994E+00 -5.466759E+00 -2.773186E+00
      2175   5  1.824751E+01  1.329786E+01  4.572483E+00 -2.993051E+01  1.160338E+00  3.741094E-01
      2175   6 -5.902932E+00  3.498987E+01  4.031386E+00 -2.995746E+01  1.010415E+00  2.448863E+00
      2175   7  2.068178E+01  1.800732E+01  6.704274E+00 -3.237439E+01 -5.078322E+00 -5.431773E+00
      2175   8 -3.311373E+00  3.939538E+01  6.174990E+00 -3.231679E+01 -5.325314E+00 -3.441325E+00
      2176   1 -2.727907E+01 -3.751615E+01 -5.873520E+00 -6.232918E+00  1.198160E+00  9.934648E-01
      2176   2 -5.260847E+01 -1.421415E+01 -6.003826E+00 -1.019892E+01  8.458130E-01  3.137327E+00
      2176   3 -2.379854E+01 -3.290090E+01 -3.438087E+00 -9.027993E+00 -4.808781E+00 -5.358116E+00
      2176   4 -4.896865E+01 -9.894469E+00 -3.547852E+00 -1.284541E+01 -5.248141E+00 -3.302200E+00
      2176   5  2.432371E+01  7.578657E+00  4.642021E+00 -2.963848E+01  1.127391E+00  3.701657E-01
      2176   6  2.866440E-03  2.969373E+01  4.202641E+00 -3.342545E+01  9.002460E-01  2.590167E+00
      2176   7  2.729126E+01  1.192799E+01  6.825567E+00 -3.229927E+01 -4.778208E+00 -6.065647E+00
      2176   8  3.125186E+00  3.376352E+01  6.412030E+00 -3.594437E+01 -5.087919E+00 -3.928888E+00
      2177   1 -2.627100E+01 -4.047708E+01 -6.053305E+00 -5.041154E+00  1.159057E+00  9.839848E-01
      2177   2 -5.107209E+01 -1.744869E+01 -6.104866E+00 -1.302526E+01  7.058216E-01  3.252465E+00
      2177   3 -2.217365E+01 -3.631063E+01 -3.567279E+00 -7.941610E+00 -4.440073E+00 -5.980730E+00
      2177   4 -4.683216E+01 -1.353722E+01 -3.583906E+00 -1.571946E+01 -4.965454E+00 -3.796686E+00
      2177   5  3.032107E+01  1.883369E+00  4.692513E+00 -2.815312E+01  1.099066E+00  3.654159E-01
      2177   6  6.519327E+00  2.375182E+01  4.362698E+00 -3.577674E+01  7.733111E-01  2.730785E+00
      2177   7  3.385675E+01  5.818380E+00  6.922452E+00 -3.094410E+01 -4.400097E+00 -6.666432E+00
      2177   8  1.019422E+01  2.744643E+01  6.633245E+00 -3.837076E+01 -4.794230E+00 -4.380835E+00
      2178   1 -2.543276E+01 -4.308330E+01 -6.221755E+00 -3.368803E+00  1.128125E+00  9.727487E-01
      2178   2 -4.897194E+01 -2.104857E+01 -6.190975E+00 -1.531244E+01  5.547453E-01  3.362025E+00
      2178   3 -2.070960E+01 -3.939787E+01 -3.692064E+00 -6.268210E+00 -3.991118E+00 -6.561367E+00
      2178   4 -4.413572E+01 -1.756273E+01 -3.611312E+00 -1.795394E+01 -4.622514E+00 -4.250593E+00
      2178   5  3.598912E+01 -3.537667E+00  4.726013E+00 -2.548859E+01  1.076738E+00  3.578252E-01
      2178   6  1.340823E+01  1.739789E+01  4.511737E+00 -3.689305E+01  6.300476E-01  2.866019E+00
      2178   7  4.010980E+01 -5.175448E-02  6.997491E+00 -2.831418E+01 -3.946510E+00 -7.226484E+00
      2178   8  1.764050E+01  2.069683E+01  6.839243E+00 -3.947240E+01 -4.448110E+00 -4.792270E+00
      2179   1 -2.486896E+01 -4.521846E+01 -6.376853E+00 -1.275476E+00  1.106161E+00  9.598543E-01
      2179   2 -4.642508E+01 -2.488476E+01 -6.260129E+00 -1.697949E+01  3.929594E-01  3.463333E+00
      2179   3 -1.953346E+01 -4.202340E+01 -3.810386E+00 -4.064081E+00 -3.466450E+00 -7.090481E+00
      2179   4 -4.101795E+01 -2.182070E+01 -3.628226E+00 -1.946786E+01 -4.224667E+00 -4.657338E+00
      2179   5  4.108132E+01 -8.439158E+00  4.743563E+00 -2.171385E+01  1.061476E+00  3.471383E-01
      2179   6  2.041055E+01  1.088874E+01  4.649971E+00 -3.670893E+01  4.708818E-01  2.992309E+00
      2179   7  4.578425E+01 -5.416881E+00  7.051774E+00 -2.447395E+01 -3.421648E+00 -7.737013E+00
      2179   8  2.518586E+01  1.378993E+01  7.030016E+00 -3.918234E+01 -4.054782E+00 -5.157897E+00
      2180   1 -2.467078E+01 -4.678190E+01 -6.517005E+00  1.154173E+00  1.093581E+00  9.468109E-01
      2180   2 -4.356579E+01 -2.881574E+01 -6.311686E+00 -1.797389E+01  2.210906E-01  3.554893E+00
      2180   3 -1.875917E+01 -4.406326E+01 -3.920468E+00 -1.415422E+00 -2.872381E+00 -7.557901E+00
      2180   4 -3.763406E+01 -2.614912E+01 -3.634111E+00 -2.021315E+01 -3.778370E+00 -5.009959E+00
      2180   5  4.536852E+01 -1.259355E+01  4.745677E+00 -1.695066E+01  1.054199E+00  3.345704E-01
      2180   6  2.725573E+01  4.490757E+00  4.776712E+00 -3.521514E+01  2.967263E-01  3.107280E+00
      2180   7  5.063059E+01 -1.002863E+01  7.086078E+00 -1.954471E+01 -2.831229E+00 -8.188530E+00
      2180   8  3.254152E+01  7.010499E+00  7.204923E+00 -3.749380E+01 -3.620308E+00 -5.472010E+00
      2181   1 -2.490953E+01 -4.769307E+01 -6.640681E+00  3.813802E+00  1.090300E+00  9.361050E-01
      2181   2 -4.053719E+01 -3.269382E+01 -6.345648E+00 -1.827470E+01  3.972140E-02  3.636168E+00
      2181   3 -1.848095E+01 -4.541520E+01 -4.021095E+00  1.564856E+00 -2.216995E+00 -7.953452E+00
      2181   4 -3.414663E+01 -3.038109E+01 -3.629191E+00 -2.017795E+01 -3.291358E+00 -5.301598E+00
      2181   5  4.865089E+01 -1.580180E+01  4.732853E+00 -1.136884E+01  1.055177E+00  3.223035E-01
      2181   6  3.367594E+01 -1.532563E+00  4.891098E+00 -3.246018E+01  1.084107E-01  3.209596E+00
      2181   7  5.442819E+01 -1.366794E+01  7.100652E+00 -1.370049E+01 -2.182800E+00 -8.571528E+00
      2181   8  3.942180E+01  6.394762E-01  7.362865E+00 -3.446172E+01 -3.151982E+00 -5.728910E+00
      2182   1 -2.563293E+01 -4.789897E+01 -6.747393E+00  6.578717E+00  1.095579E+00  9.309248E-01
      2182   2 -3.748411E+01 -3.637638E+01 -6.363864E+00 -1.789580E+01 -1.506325E-01  3.707285E+00
      2182   3 -1.876728E+01 -4.600560E+01 -4.111933E+00  4.741043E+00 -1.510050E+00 -8.267486E+00
      2182   4 -3.071799E+01 -3.435619E+01 -3.615280E+00 -1.938864E+01 -2.772389E+00 -5.526008E+00
      2182   5  5.076941E+01 -1.790541E+01  4.705455E+00 -5.180386E+00  1.064102E+00  3.134443E-01
      2182   6  3.941830E+01 -6.937923E+00  4.990280E+00 -2.854997E+01 -9.302498E-02  3.298902E+00
      2182   7  5.699842E+01 -1.615692E+01  7.095741E+00 -7.161525E+00 -1.485471E+00 -8.876757E+00
      2182   8  4.555757E+01 -5.063003E+00  7.501095E+00 -3.020182E+01 -2.657808E+00 -5.923131E+00
      2183   1 -2.685962E+01 -4.738134E+01 -6.838619E+00  9.310822E+00  1.108642E+00  9.352977E-01
      2183   2 -3.454608E+01 -3.973578E+01 -6.372673E+00 -1.688715E+01 -3.483179E-01  3.769713E+00
      2183   3 -1.965599E+01 -4.579681E+01 -4.194498E+00  7.960269E+00 -7.615217E-01 -8.490962E+00
      2183   4 -2.750136E+01 -3.792815E+01 -3.597405E+00 -1.790968E+01 -2.229204E+00 -5.677030E+00
      2183   5  5.162292E+01 -1.879453E+01  4.665864E+00  1.368296E+00  1.080462E+00  3.125827E-01
      2183   6  4.426676E+01 -1.151074E+01  5.072143E+00 -2.364693E+01 -3.047644E-01  3.377310E+00
      2183   7  5.821785E+01 -1.736826E+01  7.072117E+00 -1.864310E-01 -7.486133E-01 -9.094825E+00
      2183   8  5.071587E+01 -9.865590E+00  7.617189E+00 -2.488847E+01 -2.144011E+00 -6.048071E+00
      2184   1 -2.855864E+01 -4.615327E+01 -6.912506E+00  1.187812E+01  1.129432E+00  9.506742E-01
      2184   2 -3.181984E+01 -4.264685E+01 -6.368130E+00 -1.530622E+01 -5.503588E-01  3.815627E+00
      2184   3 -2.113356E+01 -4.478665E+01 -4.267701E+00  1.107845E+01  1.859386E-02 -8.619189E+00
      2184   4 -2.460945E+01 -4.096344E+01 -3.574077E+00 -1.581355E+01 -1.668909E+00 -5.759541E+00
      2184   5  5.114848E+01 -1.842688E+01  4.604932E+00  8.019551E+00  1.107603E+00  3.223474E-01
      2184   6  4.803667E+01 -1.507668E+01  5.129475E+00 -1.793755E+01 -5.222321E-01  3.436908E+00
      2184   7  5.801415E+01 -1.724157E+01  7.023092E+00  6.958493E+00  2.115054E-02 -9.220199E+00
      2184   8  5.470363E+01 -1.358264E+01  7.704705E+00 -1.871946E+01 -1.616123E+00 -6.109023E+00
      2185   1 -3.067151E+01 -4.416584E+01 -6.939177E+00  1.381266E+01  1.133565E+00  9.619129E-01
      2185   2 -2.947024E+01 -4.483534E+01 -6.340624E+00 -1.296886E+01 -7.556702E-01  3.647382E+00
      2185   3 -2.316311E+01 -4.293929E+01 -4.316656E+00  1.370503E+01  8.010399E-01 -8.689392E+00
      2185   4 -2.220465E+01 -4.324592E+01 -3.569216E+00 -1.303766E+01 -1.081285E+00 -6.014068E+00
      2185   5  4.938662E+01 -1.670410E+01  4.563384E+00  1.412615E+01  1.117790E+00  3.273893E-01
      2185   6  5.055321E+01 -1.732380E+01  5.180605E+00 -1.144630E+01 -7.460094E-01  3.260758E+00
      2185   7  5.639800E+01 -1.569355E+01  6.971235E+00  1.372003E+01  7.915580E-01 -9.293045E+00
      2185   8  5.733880E+01 -1.596072E+01  7.744703E+00 -1.181535E+01 -1.065430E+00 -6.370453E+00
      2186   1 -3.308216E+01 -4.173199E+01 -6.934386E+00  1.567566E+01  1.111916E+00  1.160922E+00
      2186   2 -2.758811E+01 -4.643933E+01 -6.311511E+00 -1.058250E+01 -9.705380E-01  3.546278E+00
      2186   3 -2.564307E+01 -4.048153E+01 -4.332144E+00  1.616824E+01  1.592372E+00 -8.523396E+00
      2186   4 -2.037407E+01 -4.482853E+01 -3.561702E+00 -1.010225E+01 -4.836959E-01 -6.130600E+00
      2186   5  4.644901E+01 -1.395811E+01  4.519648E+00  2.008780E+01  1.100663E+00  5.353582E-01
      2186   6  5.173138E+01 -1.841661E+01  5.199099E+00 -4.984909E+00 -9.789348E-01  3.154077E+00
      2186   7  5.345981E+01 -1.295929E+01  6.920876E+00  2.027574E+01  1.568657E+00 -9.121568E+00
      2186   8  5.853280E+01 -1.706813E+01  7.754390E+00 -4.808773E+00 -5.045410E-01 -6.496745E+00
      2187   1 -3.579521E+01 -3.877741E+01 -6.914575E+00  1.705439E+01  1.070171E+00  1.359196E+00
      2187   2 -2.617019E+01 -4.735422E+01 -6.266863E+00 -7.976374E+00 -1.165381E+00  3.423085E+00
      2187   3 -2.854867E+01 -3.739617E+01 -4.336916E+00  1.812797E+01  2.362516E+00 -8.260986E+00
      2187   4 -1.912308E+01 -4.562379E+01 -3.543384E+00 -6.960211E+00  1.300388E-01 -6.172407E+00
      2187   5  4.238370E+01 -1.012777E+01  4.467387E+00  2.541911E+01  1.062404E+00  7.391737E-01
      2187   6  5.162699E+01 -1.826458E+01  5.209074E+00  1.518371E+00 -1.188947E+00  3.019594E+00
      2187   7  4.926319E+01 -9.034644E+00  6.854820E+00  2.619070E+01  2.324523E+00 -8.859771E+00
      2187   8  5.832137E+01 -1.683275E+01  7.748006E+00  2.235147E+00  7.648228E-02 -6.556683E+00
      2188   1 -3.868327E+01 -3.540096E+01 -6.871163E+00  1.785049E+01  1.002766E+00  1.549019E+00
      2188   2 -2.522560E+01 -4.756381E+01 -6.203684E+00 -5.285976E+00 -1.342322E+00  3.278864E+00
      2188   3 -3.175258E+01 -3.379101E+01 -4.324923E+00  1.946088E+01  3.092958E+00 -7.910596E+00
      2188   4 -1.846003E+01 -4.561989E+01 -3.512176E+00 -3.773168E+00  7.449067E-01 -6.139493E+00
      2188   5  3.733507E+01 -5.362074E+00  4.404958E+00  2.989737E+01  9.995423E-01  9.310992E-01
      2188   6  5.025434E+01 -1.690667E+01  5.203647E+00  7.805419E+00 -1.377717E+00  2.859571E+00
      2188   7  4.395915E+01 -4.073055E+00  6.772137E+00  3.121589E+01  3.042802E+00 -8.515880E+00
      2188   8  5.672553E+01 -1.529396E+01  7.720835E+00  9.030737E+00  6.631475E-01 -6.548819E+00
      2189   1 -4.162678E+01 -3.173465E+01 -6.807204E+00  1.801617E+01  9.092403E-01  1.724981E+00
      2189   2 -2.475142E+01 -4.708311E+01 -6.124296E+00 -2.630721E+00 -1.501102E+00  3.116527E+00
      2189   3 -3.512164E+01 -2.980725E+01 -4.297851E+00  2.009416E+01  3.770431E+00 -7.480304E+00
      2189   4 -1.837076E+01 -4.484143E+01 -3.469883E+00 -6.837628E-01  1.348579E+00 -6.032257E+00
      2189   5  3.149952E+01  1.485629E-01  4.334222E+00  3.335875E+01  9.106696E-01  1.106817E+00
      2189   6  4.769803E+01 -1.442198E+01  5.184672E+00  1.364396E+01 -1.545121E+00  2.678179E+00
      2189   7  3.775308E+01  1.725551E+00  6.674635E+00  3.516171E+01  3.709918E+00 -8.096655E+00
      2189   8  5.383723E+01 -1.254043E+01  7.673948E+00  1.532183E+01  1.243617E+00 -6.472047E+00
      2190   1 -4.449893E+01 -2.791872E+01 -6.725736E+00  1.752583E+01  7.914103E-01  1.884739E+00
      2190   2 -2.471830E+01 -4.594891E+01 -6.029550E+00 -1.276347E-01 -1.640413E+00  2.940015E+00
      2190   3 -3.850997E+01 -2.559999E+01 -4.257504E+00  1.998338E+01  4.384688E+00 -6.977350E+00
      2190   4 -1.881031E+01 -4.334047E+01 -3.417080E+00  2.173080E+00  1.930521E+00 -5.851960E+00
      2190   5  2.509617E+01  6.181171E+00  4.253570E+00  3.567680E+01  7.980550E-01  1.264737E+00
      2190   6  4.408410E+01 -1.093471E+01  5.152484E+00  1.882029E+01 -1.689207E+00  2.480219E+00
      2190   7  3.088183E+01  8.124522E+00  6.561788E+00  3.788209E+01  4.316342E+00 -7.608353E+00
      2190   8  4.979653E+01 -8.710673E+00  7.607819E+00  2.087585E+01  1.808253E+00 -6.326520E+00
      2191   1 -4.716828E+01 -2.409281E+01 -6.627971E+00  1.637989E+01  6.518978E-01  2.026149E+00
      2191   2 -2.507465E+01 -4.422206E+01 -5.920658E+00  2.115756E+00 -1.759299E+00  2.753255E+00
      2191   3 -4.176486E+01 -2.132943E+01 -4.204779E+00  1.911513E+01  4.927176E+00 -6.410356E+00
      2191   4 -1.970693E+01 -4.119630E+01 -3.354452E+00  4.676269E+00  2.480827E+00 -5.601521E+00
      2191   5  1.836491E+01  1.249657E+01  4.162744E+00  3.677178E+01  6.649398E-01  1.402870E+00
      2191   6  3.957614E+01 -6.608901E+00  5.106595E+00  2.315160E+01 -1.808486E+00  2.270339E+00
      2191   7  2.360630E+01  1.486500E+01  6.433922E+00  3.928200E+01  4.854401E+00 -7.059094E+00
      2191   8  4.478704E+01 -3.986342E+00  7.522737E+00  2.549496E+01  2.347930E+00 -6.114080E+00
      2192   1 -4.950588E+01 -2.039410E+01 -6.514967E+00  1.460668E+01  4.935721E-01  2.147485E+00
      2192   2 -2.574756E+01 -4.198419E+01 -5.798563E+00  4.007814E+00 -1.857316E+00  2.560042E+00
      2192   3 -4.473412E+01 -1.715555E+01 -4.140707E+00  1.750877E+01  5.390787E+00 -5.789059E+00
      2192   4 -2.096634E+01 -3.851180E+01 -3.282949E+00  6.725040E+00  2.990308E+00 -5.285429E+00
      2192   5  1.155632E+01  1.884614E+01  4.061693E+00  3.661467E+01  5.147319E-01  1.519770E+00
      2192   6  3.437108E+01 -1.640219E+00  5.046861E+00  2.649428E+01 -1.902089E+00  2.053098E+00
      2192   7  1.619998E+01  2.167592E+01  6.291042E+00  3.932194E+01  5.317718E+00 -6.457977E+00
      2192   8  3.902692E+01  1.415964E+00  7.418614E+00  2.902501E+01  2.854065E+00 -5.838080E+00
      2193   1 -5.139166E+01 -1.695125E+01 -6.387846E+00  1.226204E+01  3.196753E-01  2.247555E+00
      2193   2 -2.664816E+01 -3.933452E+01 -5.664798E+00  5.477343E+00 -1.934584E+00  2.364648E+00
      2193   3 -4.727288E+01 -1.323137E+01 -4.066322E+00  1.521622E+01  5.770121E+00 -5.123910E+00
      2193   4 -2.247681E+01 -3.540938E+01 -3.204111E+00  8.243764E+00  3.450593E+00 -4.908903E+00
      2193   5  4.920069E+00  2.498308E+01  3.950451E+00  3.522855E+01  3.510495E-01  1.614519E+00
      2193   6  2.868877E+01  3.752586E+00  4.972762E+00  2.875016E+01 -1.969981E+00  1.833450E+00
      2193   7  8.937128E+00  2.828610E+01  6.133190E+00  3.801968E+01  5.701437E+00 -5.814782E+00
      2193   8  3.275883E+01  7.254435E+00  7.294881E+00  3.136204E+01  3.318595E+00 -5.502655E+00
      2194   1 -5.272050E+01 -1.387930E+01 -6.248260E+00  9.427078E+00  1.337034E-01  2.326342E+00
      2194   2 -2.767677E+01 -3.638433E+01 -5.521369E+00  6.476827E+00 -1.991546E+00  2.171906E+00
      2194   3 -4.925187E+01 -9.696962E+00 -3.983533E+00  1.231962E+01  6.061603E+00 -4.425196E+00
      2194   4 -2.411557E+01 -3.202367E+01 -3.120066E+00  9.185308E+00  3.854596E+00 -4.477541E+00
      2194   5 -1.306217E+00  3.067261E+01  3.828624E+00  3.268701E+01  1.775879E-01  1.687491E+00
      2194   6  2.276143E+01  9.338200E+00  4.883201E+00  2.986999E+01 -2.012676E+00  1.617044E+00
      2194   7  2.080170E+00  3.443585E+01  5.959908E+00  3.544862E+01  6.002266E+00 -5.138998E+00
      2194   8  2.623860E+01  1.327403E+01  7.150445E+00  3.245584E+01  3.734414E+00 -5.112170E+00
      2195   1 -5.340719E+01 -1.127412E+01 -6.098210E+00  6.204539E+00 -6.060140E-02  2.385638E+00
      2195   2 -2.872878E+01 -3.325065E+01 -5.370790E+00  6.983986E+00 -2.029194E+00  1.988049E+00
      2195   3 -5.056335E+01 -6.673198E+00 -3.895179E+00  8.928372E+00  6.263556E+00 -3.702234E+00
      2195   4 -2.575664E+01 -2.849621E+01 -3.034252E+00  9.533003E+00  4.196367E+00 -3.996326E+00
      2195   5 -6.906822E+00  3.570297E+01  3.695544E+00  2.911022E+01 -1.673746E-03  1.740698E+00
      2195   6  1.682314E+01  1.488421E+01  4.776618E+00  2.985448E+01 -2.031256E+00  1.410646E+00
      2195   7 -4.132054E+00  3.988797E+01  5.769815E+00  3.173442E+01  6.218795E+00 -4.439286E+00
      2195   8  1.972241E+01  1.921783E+01  6.983021E+00  3.231177E+01  4.095517E+00 -4.670638E+00
      2196   1 -5.339101E+01 -9.207105E+00 -5.940047E+00  2.715056E+00 -2.599180E-01  2.429592E+00
      2196   2 -2.970053E+01 -3.005053E+01 -5.216519E+00  7.002956E+00 -2.049242E+00  1.821294E+00
      2196   3 -5.112650E+01 -4.255951E+00 -3.804942E+00  5.173819E+00  6.375739E+00 -2.962387E+00
      2196   4 -2.727717E+01 -2.496770E+01 -2.951479E+00  9.300772E+00  4.471091E+00 -3.468576E+00
      2196   5 -1.169837E+01  3.989483E+01  3.549924E+00  2.465938E+01 -1.835153E-01  1.778686E+00
      2196   6  1.109821E+01  2.016796E+01  4.650566E+00  2.875369E+01 -2.027935E+00  1.223049E+00
      2196   7 -9.495074E+00  4.443881E+01  5.560614E+00  2.704820E+01  6.350655E+00 -3.722192E+00
      2196   8  1.345480E+01  2.483931E+01  6.789101E+00  3.098883E+01  4.396523E+00 -4.180382E+00
      2197   1 -5.263854E+01 -7.720815E+00 -5.776409E+00 -9.096706E-01 -4.614807E-01  2.465474E+00
      2197   2 -3.049479E+01 -2.689203E+01 -5.062117E+00  6.562176E+00 -2.054528E+00  1.682773E+00
      2197   3 -5.089222E+01 -2.512093E+00 -3.718133E+00  1.202974E+00  6.399184E+00 -2.210043E+00
      2197   4 -2.856433E+01 -2.157005E+01 -2.877783E+00  8.531173E+00  4.674646E+00 -2.894757E+00
      2197   5 -1.553714E+01  4.311035E+01  3.389963E+00  1.952738E+01 -3.652871E-01  1.808908E+00
      2197   6  5.791254E+00  2.498896E+01  4.502148E+00  2.666190E+01 -2.006204E+00  1.065745E+00
      2197   7 -1.384793E+01  4.792617E+01  5.328366E+00  2.159764E+01  6.398633E+00 -2.991526E+00
      2197   8  7.657520E+00  2.991414E+01  6.563850E+00  2.859498E+01  4.632516E+00 -3.641114E+00
      2198   1 -5.114480E+01 -6.825777E+00 -5.609886E+00 -4.534048E+00 -6.642001E-01  2.503905E+00
      2198   2 -3.102167E+01 -2.386711E+01 -4.910157E+00  5.709382E+00 -2.049663E+00  1.586844E+00
      2198   3 -4.984476E+01 -1.476137E+00 -3.641337E+00 -2.829921E+00  6.335108E+00 -1.445957E+00
      2198   4 -2.951674E+01 -1.841872E+01 -2.819363E+00  7.289622E+00  4.802970E+00 -2.271756E+00
      2198   5 -1.832172E+01  4.525943E+01  3.214224E+00  1.392931E+01 -5.463489E-01  1.842273E+00
      2198   6  1.084664E+00  2.917918E+01  4.329721E+00  2.371031E+01 -1.971752E+00  9.534359E-01
      2198   7 -1.707692E+01  5.023612E+01  5.068172E+00  1.561619E+01  6.363319E+00 -2.247386E+00
      2198   8  2.526065E+00  3.425105E+01  6.302542E+00  2.527890E+01  4.798163E+00 -3.049018E+00
      2199   1 -4.892863E+01 -6.503499E+00 -5.443274E+00 -8.030084E+00 -8.696296E-01  2.557867E+00
      2199   2 -3.118958E+01 -2.104611E+01 -4.758283E+00  4.502598E+00 -2.041663E+00  1.550229E+00
      2199   3 -4.799734E+01 -1.153619E+00 -3.582957E+00 -6.775184E+00  6.183785E+00 -6.679676E-01
      2199   4 -3.003588E+01 -1.560766E+01 -2.778941E+00  5.655116E+00  4.851251E+00 -1.593467E+00
      2199   5 -1.998929E+01  4.630056E+01  3.022274E+00  8.089590E+00 -7.291181E-01  1.892278E+00
      2199   6 -2.853488E+00  3.261207E+01  4.137385E+00  2.005648E+01 -1.933133E+00  9.033279E-01
      2199   7 -1.911202E+01  5.130365E+01  4.774629E+00  9.349977E+00  6.243890E+00 -1.486779E+00
      2199   8 -1.763271E+00  3.770031E+01  6.004786E+00  2.121909E+01  4.886871E+00 -2.397192E+00
      2200   1 -4.601643E+01 -6.726669E+00 -5.280779E+00 -1.129161E+01 -1.082727E+00  2.639222E+00
      2200   2 -3.087384E+01 -1.848807E+01 -4.592057E+00  2.999045E+00 -2.040463E+00  1.588738E+00
      2200   3 -4.537474E+01 -1.540005E+00 -3.553560E+00 -1.050226E+01  5.943400E+00  1.252772E-01
      2200   4 -2.999362E+01 -1.321790E+01 -2.747569E+00  3.708467E+00  4.813124E+00 -8.543832E-01
      2200   5 -2.049706E+01  4.622844E+01  2.816455E+00  2.229558E+00 -9.201831E-01  1.972002E+00
      2200   6 -5.836221E+00  3.519986E+01  3.945068E+00  1.587506E+01 -1.902733E+00  9.324300E-01
      2200   7 -1.990751E+01  5.110116E+01  4.444313E+00  3.044857E+00  6.036670E+00 -7.067680E-01
      2200   8 -5.018617E+00  4.015264E+01  5.685613E+00  1.661404E+01  4.889570E+00 -1.678578E+00
      2201   1 -4.240383E+01 -7.518788E+00 -5.131800E+00 -1.424181E+01 -1.311461E+00  2.750719E+00
      2201   2 -2.985506E+01 -1.628503E+01 -4.372852E+00  1.255515E+00 -2.057926E+00  1.708346E+00
      2201   3 -4.197428E+01 -2.675510E+00 -3.567922E+00 -1.390743E+01  5.610134E+00  9.243833E-01
      2201   4 -2.916973E+01 -1.135688E+01 -2.690891E+00  1.532898E+00  4.681833E+00 -6.054135E-02
      2201   5 -1.978051E+01  4.503428E+01  2.604694E+00 -3.435239E+00 -1.129955E+00  2.086290E+00
      2201   6 -7.594436E+00  3.686760E+01  3.804985E+00  1.136245E+01 -1.895573E+00  1.049029E+00
      2201   7 -1.940033E+01  4.960215E+01  4.079553E+00 -3.056663E+00  5.735280E+00  8.623274E-02
      2201   8 -6.970002E+00  4.151654E+01  5.392670E+00  1.168660E+01  4.796193E+00 -8.960219E-01
      2202   1 -3.799842E+01 -9.069475E+00 -5.016105E+00 -1.680968E+01 -1.563193E+00  2.873129E+00
      2202   2 -2.775285E+01 -1.466031E+01 -4.023702E+00 -6.315017E-01 -2.103958E+00  1.890626E+00
      2202   3 -3.770550E+01 -4.749323E+00 -3.645971E+00 -1.689184E+01  5.181961E+00  1.690623E+00
      2202   4 -2.718763E+01 -1.024798E+01 -2.532808E+00 -7.482256E-01  4.454173E+00  7.504211E-01
      2202   5 -1.770511E+01  4.261329E+01  2.398013E+00 -8.675476E+00 -1.368833E+00  2.218980E+00
      2202   6 -7.718700E+00  3.747826E+01  3.820168E+00  6.772321E+00 -1.924276E+00  1.238306E+00
      2202   7 -1.746015E+01  4.669831E+01  3.689417E+00 -8.698652E+00  5.334426E+00  8.578499E-01
      2202   8 -7.213946E+00  4.165111E+01  5.226392E+00  6.716130E+00  4.600526E+00 -8.227912E-02
      2203   1 -3.260055E+01 -1.183773E+01 -4.961938E+00 -1.882402E+01 -1.835546E+00  2.953101E+00
      2203   2 -2.419401E+01 -1.412736E+01 -3.499942E+00 -2.403217E+00 -2.180210E+00  2.077900E+00
      2203   3 -3.237389E+01 -8.191059E+00 -3.808659E+00 -1.926180E+01  4.670937E+00  2.343900E+00
      2203   4 -2.368945E+01 -1.037892E+01 -2.225687E+00 -2.856919E+00  4.139823E+00  1.494761E+00
      2203   5 -1.409047E+01  3.865391E+01  2.197336E+00 -1.320601E+01 -1.635976E+00  2.317140E+00
      2203   6 -5.862772E+00  3.666831E+01  4.061546E+00  2.473474E+00 -1.989418E+00  1.445561E+00
      2203   7 -1.391881E+01  4.209322E+01  3.275800E+00 -1.357717E+01  4.844083E+00  1.530032E+00
      2203   8 -5.426176E+00  4.020436E+01  5.254533E+00  2.087130E+00  4.312685E+00  6.834663E-01
      2204   1 -2.612519E+01 -1.625464E+01 -4.940329E+00 -1.988477E+01 -2.106372E+00  2.903723E+00
      2204   2 -1.951614E+01 -1.534624E+01 -2.870503E+00 -3.609904E+00 -2.268472E+00  2.156682E+00
      2204   3 -2.588596E+01 -1.331172E+01 -3.989098E+00 -2.061204E+01  4.111741E+00  2.742763E+00
      2204   4 -1.902051E+01 -1.229985E+01 -1.808792E+00 -4.336509E+00  3.763872E+00  2.005972E+00
      2204   5 -9.038985E+00  3.263956E+01  1.944561E+00 -1.672079E+01 -1.904403E+00  2.288321E+00
      2204   6 -2.520539E+00  3.371471E+01  4.405731E+00 -1.180653E+00 -2.064242E+00  1.548134E+00
      2204   7 -8.864768E+00  3.539906E+01  2.822972E+00 -1.738345E+01  4.302233E+00  1.950255E+00
      2204   8 -2.102159E+00  3.657235E+01  5.388099E+00 -1.842694E+00  3.965028E+00  1.219953E+00
      2205   1 -1.979180E+01 -1.053503E+01 -2.921183E+00  5.221980E+00  2.846167E+00  8.955410E-01
      2205   2 -2.714178E+01 -1.173651E+01 -5.372977E+00  2.163632E+01  2.834381E+00  1.998732E+00
      2205   3 -2.012280E+01 -6.417596E+00 -1.784403E+00  7.296721E+00 -3.177997E+00  7.092448E-01
      2205   4 -2.819792E+01 -7.956415E+00 -4.552541E+00  2.352858E+01 -3.359382E+00  1.809844E+00
      2205   5 -2.956220E+00  3.812463E+01  4.193286E+00  2.625326E+00  2.290350E+00  6.429186E-01
      2205   6 -1.018103E+01  3.677073E+01  1.369990E+00  1.829863E+01  2.200570E+00  1.712277E+00
      2205   7 -3.439071E+00  4.186568E+01  5.171126E+00  4.496827E+00 -3.731117E+00  2.846814E-01
      2205   8 -1.135696E+01  4.018899E+01  2.044182E+00  1.999589E+01 -3.983127E+00  1.351617E+00
      2206   1 -2.471449E+01 -7.939798E+00 -3.413567E+00  3.448831E+00  2.838813E+00  7.580222E-01
      2206   2 -3.395868E+01 -5.916865E+00 -5.360491E+00  1.996742E+01  2.810793E+00  2.205477E+00
      2206   3 -2.537286E+01 -2.296351E+00 -1.917542E+00  5.059417E+00 -3.446079E+00  1.130286E-01
      2206   4 -3.526410E+01 -6.420409E-01 -4.162222E+00  2.135427E+01 -3.650353E+00  1.544716E+00
      2206   5 -6.509340E+00  4.240626E+01  3.982432E+00 -1.615653E+00  2.143307E+00  4.333596E-01
      2206   6 -1.554693E+01  4.412716E+01  1.631689E+00  1.415722E+01  2.058334E+00  1.846961E+00
      2206   7 -7.317290E+00  4.759393E+01  5.293808E+00 -1.656396E-01 -4.125232E+00 -3.909025E-01
      2206   8 -1.697319E+01  4.896237E+01  2.657644E+00  1.539359E+01 -4.378686E+00  1.007737E+00
      2207   1 -2.848998E+01 -7.415388E+00 -4.045667E+00  9.478221E-01  2.870378E+00  6.536303E-01
      2207   2 -3.952581E+01 -1.961352E+00 -5.401152E+00  1.716645E+01  2.773266E+00  2.370443E+00
      2207   3 -2.942829E+01 -6.453759E-01 -2.294867E+00  1.893015E+00 -3.644362E+00 -4.943476E-01
      2207   4 -4.095141E+01  4.426876E+00 -3.899219E+00  1.785621E+01 -3.913686E+00  1.194102E+00
      2207   5 -8.563303E+00  4.419107E+01  3.594163E+00 -6.643782E+00  2.064258E+00  2.562676E-01
      2207   6 -1.930440E+01  4.919536E+01  1.825092E+00  8.842651E+00  1.948752E+00  1.932092E+00
      2207   7 -9.684885E+00  5.040413E+01  5.117410E+00 -5.785698E+00 -4.420475E+00 -1.067919E+00
      2207   8 -2.089148E+01  5.504368E+01  3.110229E+00  9.456831E+00 -4.700433E+00  5.809242E-01
      2208   1 -3.061917E+01 -8.323653E+00 -4.513322E+00 -1.786637E+00  2.896728E+00  6.114869E-01
      2208   2 -4.390923E+01  4.224959E-01 -5.515302E+00  1.367688E+01  2.722462E+00  2.527651E+00
      2208   3 -3.167138E+01 -8.131830E-01 -2.573827E+00 -1.627677E+00 -3.793326E+00 -1.104347E+00
      2208   4 -4.529511E+01  7.523933E+00 -3.781679E+00  1.356738E+01 -4.136868E+00  7.705207E-01
      2208   5 -8.439522E+00  4.420330E+01  3.437250E+00 -1.207188E+01  2.025292E+00  1.413761E-01
      2208   6 -2.133135E+01  5.235285E+01  2.009700E+00  2.693513E+00  1.869508E+00  2.009344E+00
      2208   7 -9.730314E+00  5.106664E+01  5.103040E+00 -1.192287E+01 -4.620528E+00 -1.748682E+00
      2208   8 -2.294069E+01  5.882569E+01  3.479062E+00  2.586187E+00 -4.937793E+00  7.995480E-02
      2209   1 -3.146169E+01 -1.015916E+01 -4.859074E+00 -4.441080E+00  2.914048E+00  6.360610E-01
      2209   2 -4.729953E+01  1.681726E+00 -5.668037E+00  9.726701E+00  2.662610E+00  2.703523E+00
      2209   3 -3.244082E+01 -2.249490E+00 -2.777136E+00 -5.132943E+00 -3.896593E+00 -1.687505E+00
      2209   4 -4.849178E+01  9.139410E+00 -3.763290E+00  8.774199E+00 -4.310590E+00  3.268456E-01
      2209   5 -6.469662E+00  4.280638E+01  3.427699E+00 -1.747860E+01  2.012396E+00  9.251416E-02
      2209   6 -2.178974E+01  5.391546E+01  2.195050E+00 -3.950426E+00  1.808370E+00  2.108924E+00
      2209   7 -7.748259E+00  5.001003E+01  5.197662E+00 -1.811134E+01 -4.740632E+00 -2.399469E+00
      2209   8 -2.327148E+01  6.068788E+01  3.796669E+00 -4.832033E+00 -5.099587E+00 -4.336534E-01
      2210   1 -3.139800E+01 -1.267037E+01 -5.141830E+00 -6.862324E+00  2.921474E+00  7.177607E-01
      2210   2 -4.978228E+01  2.028556E+00 -5.830834E+00  5.445345E+00  2.589499E+00  2.910772E+00
      2210   3 -3.212622E+01 -4.643962E+00 -2.948701E+00 -8.423089E+00 -3.947720E+00 -2.241481E+00
      2210   4 -5.062819E+01  9.554975E+00 -3.794891E+00  3.650642E+00 -4.433041E+00 -1.119208E-01
      2210   5 -3.062316E+00  4.017021E+01  3.482746E+00 -2.254994E+01  2.010992E+00  9.822162E-02
      2210   6 -2.080716E+01  5.401502E+01  2.380267E+00 -1.079791E+01  1.749733E+00  2.242001E+00
      2210   7 -4.154323E+00  4.746115E+01  5.333651E+00 -2.399141E+01 -4.788416E+00 -3.020954E+00
      2210   8 -2.201084E+01  6.082922E+01  4.082692E+00 -1.246277E+01 -5.195688E+00 -9.376039E-01
      2211   1 -3.065602E+01 -1.572825E+01 -5.396447E+00 -8.940211E+00  2.917383E+00  8.402242E-01
      2211   2 -5.135891E+01  1.521951E+00 -5.989778E+00  9.662574E-01  2.496712E+00  3.146782E+00
      2211   3 -3.096270E+01 -7.822504E+00 -3.111950E+00 -1.134938E+01 -3.942776E+00 -2.773768E+00
      2211   4 -5.170362E+01  8.884361E+00 -3.845481E+00 -1.633389E+00 -4.505600E+00 -5.391589E-01
      2211   5  1.500853E+00  3.640834E+01  3.553157E+00 -2.703220E+01  2.011519E+00  1.416588E-01
      2211   6 -1.844940E+01  5.269777E+01  2.561992E+00 -1.757294E+01  1.681936E+00  2.404982E+00
      2211   7  7.602925E-01  4.357234E+01  5.470658E+00 -2.927043E+01 -4.768208E+00 -3.621522E+00
      2211   8 -1.922522E+01  5.934402E+01  4.348060E+00 -1.999306E+01 -5.233014E+00 -1.426680E+00
      2212   1 -2.937488E+01 -1.923296E+01 -5.638135E+00 -1.056868E+01  2.899911E+00  9.883270E-01
      2212   2 -5.200968E+01  1.741915E-01 -6.139258E+00 -3.550828E+00  2.378890E+00  3.402702E+00
      2212   3 -2.909603E+01 -1.165448E+01 -3.274887E+00 -1.376931E+01 -3.879237E+00 -3.290793E+00
      2212   4 -5.170156E+01  7.177096E+00 -3.899286E+00 -6.883733E+00 -4.529725E+00 -9.547479E-01
      2212   5  7.013030E+00  3.165094E+01  3.618009E+00 -3.069905E+01  2.008822E+00  2.082125E-01
      2212   6 -1.477165E+01  5.001021E+01  2.738712E+00 -2.399804E+01  1.597579E+00  2.589250E+00
      2212   7  6.780843E+00  3.849988E+01  5.593213E+00 -3.368671E+01 -4.681027E+00 -4.207472E+00
      2212   8 -1.497447E+01  5.631096E+01  4.599516E+00 -2.711199E+01 -5.215287E+00 -1.900922E+00
      2213   1 -2.766947E+01 -2.307096E+01 -5.871887E+00 -1.164608E+01  2.867728E+00  1.150090E+00
      2213   2 -5.173337E+01 -1.991421E+00 -6.276730E+00 -7.928710E+00  2.232651E+00  3.668500E+00
      2213   3 -2.665274E+01 -1.600132E+01 -3.438507E+00 -1.554527E+01 -3.755625E+00 -3.795055E+00
      2213   4 -5.063277E+01  4.486099E+00 -3.948541E+00 -1.188977E+01 -4.506408E+00 -1.359023E+00
      2213   5  1.327679E+01  2.607029E+01  3.670018E+00 -3.334770E+01  2.000568E+00  2.869586E-01
      2213   6 -9.860842E+00  4.603812E+01  2.909864E+00 -2.979817E+01  1.492466E+00  2.785659E+00
      2213   7  1.369896E+01  3.243749E+01  5.697233E+00 -3.700356E+01 -4.526638E+00 -4.780557E+00
      2213   8 -9.356769E+00  5.184176E+01  4.840872E+00 -3.351309E+01 -5.144536E+00 -2.360100E+00
      2214   1 -2.566231E+01 -2.710519E+01 -6.098207E+00 -1.208819E+01  2.820413E+00  1.316760E+00
      2214   2 -5.056511E+01 -4.919306E+00 -6.400805E+00 -1.198892E+01  2.056314E+00  3.935037E+00
      2214   3 -2.377445E+01 -2.069993E+01 -3.601235E+00 -1.655911E+01 -3.571135E+00 -4.285264E+00
      2214   4 -4.855357E+01  8.960045E-01 -3.989500E+00 -1.644234E+01 -4.436541E+00 -1.750946E+00
      2214   5  2.007091E+01  1.988293E+01  3.707347E+00 -3.481028E+01  1.986159E+00  3.703976E-01
      2214   6 -3.854790E+00  4.092001E+01  3.075117E+00 -3.471546E+01  1.364409E+00  2.986145E+00
      2214   7  2.127654E+01  2.562444E+01  5.782655E+00 -3.902137E+01 -4.304617E+00 -5.338572E+00
      2214   8 -2.528836E+00  4.610045E+01  5.073827E+00 -3.890985E+01 -5.022352E+00 -2.802446E+00
      2215   1 -2.349093E+01 -3.117888E+01 -6.315657E+00 -1.183869E+01  2.758299E+00  1.482197E+00
      2215   2 -4.857859E+01 -8.517972E+00 -6.510176E+00 -1.556429E+01  1.849601E+00  4.194648E+00
      2215   3 -2.062623E+01 -2.556372E+01 -3.760897E+00 -1.672454E+01 -3.325815E+00 -4.757272E+00
      2215   4 -4.556680E+01 -3.469748E+00 -4.020086E+00 -2.034843E+01 -4.321259E+00 -2.127860E+00
      2215   5  2.714363E+01  1.334202E+01  3.730142E+00 -3.496557E+01  1.965952E+00  4.537233E-01
      2215   6  3.055744E+00  3.484709E+01  3.234450E+00 -3.852299E+01  1.212640E+00  3.184067E+00
      2215   7  2.923763E+01  1.834016E+01  5.850342E+00 -3.959073E+01 -4.015118E+00 -5.876426E+00
      2215   8  5.292827E+00  3.930652E+01  5.299089E+00 -4.305103E+01 -4.850466E+00 -3.224674E+00
      2216   1 -2.130600E+01 -3.512510E+01 -6.522838E+00 -1.087595E+01  2.682138E+00  1.642142E+00
      2216   2 -4.588315E+01 -1.266293E+01 -6.603452E+00 -1.850984E+01  1.613186E+00  4.440982E+00
      2216   3 -1.739300E+01 -3.039099E+01 -3.915966E+00 -1.599614E+01 -3.020839E+00 -5.205204E+00
      2216   4 -4.181770E+01 -8.451257E+00 -4.039040E+00 -2.344365E+01 -4.162248E+00 -2.486012E+00
      2216   5  3.421797E+01  6.725011E+00  3.738771E+00 -3.374892E+01  1.940698E+00  5.339794E-01
      2216   6  1.063271E+01  2.805545E+01  3.387498E+00 -4.103812E+01  1.037273E+00  3.374005E+00
      2216   7  3.727481E+01  1.089293E+01  5.900769E+00 -3.862415E+01 -3.659417E+00 -6.387317E+00
      2216   8  1.383825E+01  3.172764E+01  5.516185E+00 -4.573539E+01 -4.631211E+00 -3.622479E+00
      2217   1 -1.926173E+01 -3.877418E+01 -6.717650E+00 -9.215161E+00  2.593102E+00  1.793901E+00
      2217   2 -4.261902E+01 -1.720290E+01 -6.679900E+00 -2.070858E+01  1.348427E+00  4.668809E+00
      2217   3 -1.426868E+01 -3.497334E+01 -4.064585E+00 -1.437307E+01 -2.658439E+00 -5.621980E+00
      2217   4 -3.748612E+01 -1.385858E+01 -4.045995E+00 -2.559972E+01 -3.961990E+00 -2.820973E+00
      2217   5  4.100499E+01  3.206585E-01  3.733821E+00 -3.115658E+01  1.911406E+00  6.097463E-01
      2217   6  1.860109E+01  2.081699E+01  3.533789E+00 -4.213116E+01  8.390019E-01  3.551517E+00
      2217   7  4.506374E+01  3.606408E+00  5.934442E+00 -3.610191E+01 -3.239931E+00 -6.863286E+00
      2217   8  2.279686E+01  2.367032E+01  5.724373E+00 -4.682175E+01 -4.367740E+00 -3.991036E+00
      2218   1 -1.750937E+01 -4.196359E+01 -6.898794E+00 -6.908766E+00  2.492454E+00  1.935644E+00
      2218   2 -3.894834E+01 -2.196529E+01 -6.738381E+00 -2.207854E+01  1.057288E+00  4.873717E+00
      2218   3 -1.144733E+01 -3.910678E+01 -4.205891E+00 -1.190046E+01 -2.242100E+00 -6.000268E+00
      2218   4 -3.277630E+01 -1.947908E+01 -4.040449E+00 -2.673194E+01 -3.723649E+00 -3.128153E+00
      2218   5  4.721685E+01 -5.584602E+00  3.715696E+00 -2.724832E+01  1.879094E+00  6.803885E-01
      2218   6  2.666173E+01  1.342684E+01  3.672714E+00 -4.173327E+01  6.191237E-01  3.712847E+00
      2218   7  5.227774E+01 -3.195489E+00  5.951375E+00 -3.207552E+01 -2.760386E+00 -7.296174E+00
      2218   8  3.183168E+01  1.546609E+01  5.922526E+00 -4.623746E+01 -4.063869E+00 -4.325463E+00
      2219   1 -1.618729E+01 -4.454530E+01 -7.064788E+00 -4.044378E+00  2.381550E+00  2.066390E+00
      2219   2 -3.504927E+01 -2.676580E+01 -6.778542E+00 -2.257573E+01  7.421976E-01  5.052023E+00
      2219   3 -9.110959E+00 -4.260064E+01 -4.338666E+00 -8.668119E+00 -1.776569E+00 -6.332600E+00
      2219   4 -2.790813E+01 -2.508815E+01 -4.022489E+00 -2.680282E+01 -3.451265E+00 -3.403033E+00
      2219   5  5.258190E+01 -1.072059E+01  3.684868E+00 -2.214545E+01  1.844622E+00  7.460992E-01
      2219   6  3.450509E+01  6.189900E+00  3.803417E+00 -3.984019E+01  3.792292E-01  3.854875E+00
      2219   7  5.860532E+01 -9.203594E+00  5.951762E+00 -2.666663E+01 -2.225938E+00 -7.677723E+00
      2219   8  4.059485E+01  7.456397E+00  6.109287E+00 -4.398262E+01 -3.724368E+00 -4.621059E+00
      2220   1 -1.541362E+01 -4.639378E+01 -7.214390E+00 -7.415704E-01  2.261674E+00  2.185804E+00
      2220   2 -3.110568E+01 -3.141629E+01 -6.800259E+00 -2.219723E+01  4.059430E-01  5.200860E+00
      2220   3 -7.420228E+00 -4.528781E+01 -4.461935E+00 -4.807123E+00 -1.267717E+00 -6.611870E+00
      2220   4 -2.310486E+01 -3.045959E+01 -3.992483E+00 -2.582473E+01 -3.149515E+00 -3.641334E+00
      2220   5  5.685759E+01 -1.484679E+01  3.641640E+00 -1.602676E+01  1.808658E+00  8.076736E-01
      2220   6  4.182597E+01 -5.934680E-01  3.925015E+00 -3.651381E+01  1.212504E-01  3.975145E+00
      2220   7  6.376476E+01 -1.413901E+01  5.935726E+00 -2.006271E+01 -1.642936E+00 -8.000058E+00
      2220   8  4.874512E+01 -2.332424E-02  6.283377E+00 -4.013147E+01 -3.354621E+00 -4.873487E+00
      2221   1 -1.527830E+01 -4.741339E+01 -7.346600E+00  2.852337E+00  2.133999E+00  2.294132E+00
      2221   2 -2.729880E+01 -3.573672E+01 -6.804692E+00 -2.098262E+01  5.162313E-02  5.318208E+00
      2221   3 -6.503970E+00 -4.703395E+01 -4.574794E+00 -4.853579E-01 -7.226563E-01 -6.831434E+00
      2221   4 -1.858269E+01 -3.537826E+01 -3.951588E+00 -2.386060E+01 -2.823837E+00 -3.839018E+00
      2221   5  5.984498E+01 -1.776467E+01  3.586720E+00 -9.121872E+00  1.771553E+00  8.663760E-01
      2221   6  4.833757E+01 -6.644658E+00  4.035432E+00 -3.188076E+01 -1.526274E-01  4.072099E+00
      2221   7  6.752054E+01 -1.776700E+01  5.903801E+00 -1.251062E+01 -1.019125E+00 -8.255834E+00
      2221   8  5.596302E+01 -6.661607E+00  6.442662E+00 -3.483056E+01 -2.960781E+00 -5.078550E+00
      2222   1 -1.583765E+01 -4.754629E+01 -7.461524E+00  6.568592E+00  2.000618E+00  2.392295E+00
      2222   2 -2.379595E+01 -3.956229E+01 -6.793271E+00 -1.901263E+01 -3.164311E-01  5.403282E+00
      2222   3 -6.451263E+00 -4.774688E+01 -4.676865E+00  4.099977E+00 -1.483887E-01 -6.985240E+00
      2222   4 -1.453743E+01 -3.965101E+01 -3.901333E+00 -2.102095E+01 -2.479174E+00 -3.992081E+00
      2222   5  6.140077E+01 -1.932855E+01  3.521309E+00 -1.702682E+00  1.734160E+00  9.242187E-01
      2222   6  5.379113E+01 -1.171560E+01  4.134669E+00 -2.612903E+01 -4.387252E-01  4.144989E+00
      2222   7  6.969588E+01 -1.991049E+01  5.856533E+00 -4.306216E+00 -3.624799E-01 -8.438228E+00
      2222   8  6.196990E+01 -1.218493E+01  6.585860E+00 -2.829304E+01 -2.548159E+00 -5.232522E+00
      2223   1 -1.709888E+01 -4.677386E+01 -7.557695E+00  1.023828E+01  1.865633E+00  2.487224E+00
      2223   2 -2.072955E+01 -4.274790E+01 -6.768053E+00 -1.638645E+01 -6.874351E-01  5.477246E+00
      2223   3 -7.311357E+00 -4.738052E+01 -4.771517E+00  8.724256E+00  4.518720E-01 -7.060529E+00
      2223   4 -1.113801E+01 -4.310740E+01 -3.847734E+00 -1.746298E+01 -2.112146E+00 -4.073432E+00
      2223   5  6.143729E+01 -1.945967E+01  3.441442E+00  5.942094E+00  1.701752E+00  9.891353E-01
      2223   6  5.797942E+01 -1.560669E+01  4.215769E+00 -1.948067E+01 -7.261017E-01  4.216935E+00
      2223   7  7.016751E+01 -2.046099E+01  5.787895E+00  4.209223E+00  3.246784E-01 -8.533513E+00
      2223   8  6.652868E+01 -1.636580E+01  6.704841E+00 -2.079579E+01 -2.113503E+00 -5.306389E+00
      2224   1 -1.902214E+01 -4.506451E+01 -7.622235E+00  1.354073E+01  1.704458E+00  2.566083E+00
      2224   2 -1.823688E+01 -4.510421E+01 -6.751234E+00 -1.311653E+01 -1.089941E+00  5.337940E+00
      2224   3 -9.058501E+00 -4.592439E+01 -4.864162E+00  1.318226E+01  1.062671E+00 -7.097290E+00
      2224   4 -8.519616E+00 -4.561604E+01 -3.849599E+00 -1.328045E+01 -1.721611E+00 -4.334434E+00
      2224   5  5.996080E+01 -1.808142E+01  3.365306E+00  1.334145E+01  1.645896E+00  1.048224E+00
      2224   6  6.073715E+01 -1.809280E+01  4.258884E+00 -1.211235E+01 -1.045880E+00  4.068155E+00
      2224   7  6.891955E+01 -1.936682E+01  5.693819E+00  1.269717E+01  1.023285E+00 -8.584741E+00
      2224   8  6.946670E+01 -1.903981E+01  6.738611E+00 -1.257086E+01 -1.658745E+00 -5.574045E+00
      2225   1 -2.154292E+01 -4.257580E+01 -7.622198E+00  1.663124E+01  1.503474E+00  2.826589E+00
      2225   2 -1.643646E+01 -4.663621E+01 -6.718510E+00 -9.592333E+00 -1.491953E+00  5.197652E+00
      2225   3 -1.165551E+01 -4.341678E+01 -4.889871E+00  1.738612E+01  1.690014E+00 -6.906463E+00
      2225   4 -6.792020E+00 -4.708071E+01 -3.832901E+00 -8.696726E+00 -1.295900E+00 -4.526464E+00
      2225   5  5.702589E+01 -1.534954E+01  3.325035E+00  2.050835E+01  1.550641E+00  1.317812E+00
      2225   6  6.194464E+01 -1.918373E+01  4.288143E+00 -4.531364E+00 -1.365385E+00  3.930713E+00
      2225   7  6.597792E+01 -1.665313E+01  5.641193E+00  2.093965E+01  1.737119E+00 -8.386579E+00
      2225   8  7.067036E+01 -2.010305E+01  6.763908E+00 -3.965687E+00 -1.169708E+00 -5.765741E+00
      2226   1 -2.461527E+01 -3.934009E+01 -7.604609E+00  1.919062E+01  1.276097E+00  3.036355E+00
      2226   2 -1.533474E+01 -4.726730E+01 -6.668329E+00 -5.887462E+00 -1.868867E+00  5.003961E+00
      2226   3 -1.503806E+01 -3.995509E+01 -4.905414E+00  2.100342E+01  2.294212E+00 -6.663232E+00
      2226   4 -5.985864E+00 -4.744415E+01 -3.805070E+00 -3.989269E+00 -8.447187E-01 -4.668859E+00
      2226   5  5.270549E+01 -1.130958E+01  3.275866E+00  2.701348E+01  1.427298E+00  1.545621E+00
      2226   6  6.162677E+01 -1.881924E+01  4.309079E+00  3.067570E+00 -1.659303E+00  3.747930E+00
      2226   7  6.141960E+01 -1.242986E+01  5.571097E+00  2.847414E+01  2.426508E+00 -8.129771E+00
      2226   8  7.012815E+01 -1.951585E+01  6.773285E+00  4.609770E+00 -6.541943E-01 -5.902458E+00
      2227   1 -2.810915E+01 -3.547180E+01 -7.564971E+00  2.107687E+01  1.022052E+00  3.213612E+00
      2227   2 -1.493737E+01 -4.699196E+01 -6.599872E+00 -2.182565E+00 -2.217584E+00  4.767918E+00
      2227   3 -1.906822E+01 -3.566256E+01 -4.906479E+00  2.386584E+01  2.861131E+00 -6.351381E+00
      2227   4 -6.100084E+00 -4.671365E+01 -3.766944E+00  6.352071E-01 -3.787528E-01 -4.753234E+00
      2227   5  4.715779E+01 -6.117731E+00  3.218856E+00  3.258931E+01  1.274919E+00  1.751551E+00
      2227   6  5.981086E+01 -1.704183E+01  4.317759E+00  1.037991E+01 -1.926186E+00  3.531182E+00
      2227   7  5.541436E+01 -6.857620E+00  5.486744E+00  3.500863E+01  3.077179E+00 -7.796499E+00
      2227   8  6.787790E+01 -1.732893E+01  6.763578E+00  1.282675E+01 -1.240007E-01 -5.975521E+00
      2228   1 -3.187679E+01 -3.112361E+01 -7.504268E+00  2.219213E+01  7.456513E-01  3.355404E+00
      2228   2 -1.521679E+01 -4.584638E+01 -6.514705E+00  1.356390E+00 -2.534122E+00  4.494343E+00
      2228   3 -2.357159E+01 -3.071356E+01 -4.892510E+00  2.583208E+01  3.381403E+00 -5.976413E+00
      2228   4 -7.081148E+00 -4.494683E+01 -3.718636E+00  4.970052E+00  9.251435E-02 -4.777915E+00
      2228   5  4.059909E+01  1.462433E-02  3.155109E+00  3.702097E+01  1.095726E+00  1.932111E+00
      2228   6  5.659897E+01 -1.395150E+01  4.314554E+00  1.712588E+01 -2.163293E+00  3.285163E+00
      2228   7  4.820019E+01 -1.686749E-01  5.389496E+00  4.028489E+01  3.678315E+00 -7.392554E+00
      2228   8  6.404257E+01 -1.366297E+01  6.735322E+00  2.036468E+01  4.107722E-01 -5.983102E+00
      2229   1 -3.575312E+01 -2.646758E+01 -7.424055E+00  2.247202E+01  4.524142E-01  3.459455E+00
      2229   2 -1.611043E+01 -4.389969E+01 -6.413651E+00  4.575493E+00 -2.814341E+00  4.188733E+00
      2229   3 -2.834931E+01 -2.531097E+01 -4.864143E+00  2.680179E+01  3.847493E+00 -5.545359E+00
      2229   4 -8.833581E+00 -4.224348E+01 -3.660251E+00  8.827228E+00  5.604276E-01 -4.742529E+00
      2229   5  3.328417E+01  6.835073E+00  3.084383E+00  4.014204E+01  8.941504E-01  2.084407E+00
      2229   6  5.214739E+01 -9.702762E+00  4.299475E+00  2.305347E+01 -2.367383E+00  3.015046E+00
      2229   7  4.006332E+01  7.355723E+00  5.279959E+00  4.410031E+01  4.221632E+00 -6.925301E+00
      2229   8  5.880934E+01 -8.701042E+00  6.689219E+00  2.693722E+01  9.409026E-01 -5.924858E+00
      2230   1 -3.956315E+01 -2.168559E+01 -7.325450E+00  2.188799E+01  1.478726E-01  3.524502E+00
      2230   2 -1.752523E+01 -4.125175E+01 -6.297485E+00  7.339184E+00 -3.055053E+00  3.857053E+00
      2230   3 -3.318582E+01 -1.967454E+01 -4.821714E+00  2.671881E+01  4.252898E+00 -5.066000E+00
      2230   4 -1.122542E+01 -3.874058E+01 -3.591884E+00  1.204511E+01  1.016423E+00 -4.647936E+00
      2230   5  2.549527E+01  1.406398E+01  3.006589E+00  4.184158E+01  6.747838E-01  2.206335E+00
      2230   6  4.666013E+01 -4.496997E+00  4.272596E+00  2.794956E+01 -2.536118E+00  2.726353E+00
      2230   7  3.132457E+01  1.539992E+01  5.158745E+00  4.631568E+01  4.699972E+00 -6.403039E+00
      2230   8  5.241902E+01 -2.679903E+00  6.625944E+00  3.230439E+01  1.457243E+00 -5.801750E+00
      2231   1 -4.312994E+01 -1.696178E+01 -7.209651E+00  2.044949E+01 -1.622063E-01  3.549884E+00
      2231   2 -1.934321E+01 -3.802861E+01 -6.167175E+00  9.537249E+00 -3.253930E+00  3.505467E+00
      2231   3 -3.785951E+01 -1.403118E+01 -4.765758E+00  2.557438E+01  4.592487E+00 -4.547108E+00
      2231   4 -1.409513E+01 -3.460593E+01 -3.513919E+00  1.449662E+01  1.452290E+00 -4.496361E+00
      2231   5  1.752973E+01  2.140680E+01  2.921501E+00  4.206929E+01  4.426115E-01  2.296276E+00
      2231   6  4.037842E+01  1.426861E+00  4.233987E+00  3.164965E+01 -2.667912E+00  2.424642E+00
      2231   7  2.232402E+01  2.362826E+01  5.026225E+00  4.686148E+01  5.107661E+00 -5.835131E+00
      2231   8  4.515461E+01  4.121437E+00  6.546100E+00  3.628382E+01  1.951073E+00 -5.616234E+00
      2232   1 -4.628236E+01 -1.247470E+01 -7.077551E+00  1.820409E+01 -4.721889E-01  3.536068E+00
      2232   2 -2.142758E+01 -3.437706E+01 -6.023860E+00  1.108988E+01 -3.409596E+00  3.140502E+00
      2232   3 -4.215219E+01 -8.604827E+00 -4.696686E+00  2.340794E+01  4.862310E+00 -3.997844E+00
      2232   4 -1.726045E+01 -3.003012E+01 -3.426965E+00  1.609484E+01  1.860247E+00 -4.291188E+00
      2232   5  9.687614E+00  2.856746E+01  2.829463E+00  4.083758E+01  2.025349E-01  2.353614E+00
      2232   6  3.356944E+01  7.803076E+00  4.183445E+00  3.404459E+01 -2.762185E+00  2.115764E+00
      2232   7  1.340751E+01  3.170079E+01  4.883273E+00  4.574071E+01  5.440259E+00 -5.231380E+00
      2232   8  3.732741E+01  1.139470E+01  6.450043E+00  3.875781E+01  2.414023E+00 -5.371913E+00
      2233   1 -4.886489E+01 -8.390052E+00 -6.930450E+00  1.523521E+01 -7.764396E-01  3.484623E+00
      2233   2 -2.363002E+01 -3.045601E+01 -5.868419E+00  1.195121E+01 -3.521671E+00  2.769086E+00
      2233   3 -4.586123E+01 -3.606805E+00 -4.615404E+00  2.030521E+01  5.060161E+00 -3.427483E+00
      2233   4 -2.052770E+01 -2.521644E+01 -3.331587E+00  1.679687E+01  2.233260E+00 -4.036481E+00
      2233   5  2.257404E+00  3.526105E+01  2.730567E+00  3.822014E+01 -4.032902E-02  2.378729E+00
      2233   6  2.651436E+01  1.435259E+01  4.120964E+00  3.508442E+01 -2.819137E+00  1.805798E+00
      2233   7  4.909553E+00  3.928812E+01  4.730481E+00  4.302794E+01  5.695135E+00 -4.601824E+00
      2233   8  2.926307E+01  1.881772E+01  6.338214E+00  3.967799E+01  2.838567E+00 -5.073267E+00
      2234   1 -5.074438E+01 -4.853086E+00 -6.769750E+00  1.165918E+01 -1.069670E+00  3.398547E+00
      2234   2 -2.580010E+01 -2.643054E+01 -5.702443E+00  1.211127E+01 -3.590707E+00  2.398757E+00
      2234   3 -4.880835E+01  7.740098E-01 -4.522870E+00  1.639482E+01  5.185135E+00 -2.844902E+00
      2234   4 -2.370330E+01 -2.037230E+01 -3.229080E+00  1.660542E+01  2.565080E+00 -3.736709E+00
      2234   5 -4.496890E+00  4.122608E+01  2.624745E+00  3.434855E+01 -2.810955E-01  2.373403E+00
      2234   6  1.949374E+01  2.079526E+01  4.046253E+00  3.478026E+01 -2.839881E+00  1.501312E+00
      2234   7 -2.861729E+00  4.608603E+01  4.568174E+00  3.886539E+01  5.871090E+00 -3.956062E+00
      2234   8  2.128441E+01  2.606889E+01  6.210596E+00  3.906651E+01  3.217980E+00 -4.725242E+00
      2235   1 -5.181680E+01 -1.982211E+00 -6.596943E+00  7.619105E+00 -1.347048E+00  3.282554E+00
      2235   2 -2.779213E+01 -2.246241E+01 -5.527212E+00  1.159544E+01 -3.618234E+00  2.037936E+00
      2235   3 -5.084944E+01  4.378830E+00 -4.420675E+00  1.184117E+01  5.237866E+00 -2.257947E+00
      2235   4 -2.660305E+01 -1.569829E+01 -3.120827E+00  1.556729E+01  2.850491E+00 -3.396045E+00
      2235   5 -1.034735E+01  4.623668E+01  2.512051E+00  2.940479E+01 -5.152371E-01  2.341020E+00
      2235   6  1.277512E+01  2.686346E+01  3.959131E+00  3.320160E+01 -2.826445E+00  1.209655E+00
      2235   7 -9.638605E+00  5.182902E+01  4.396446E+00  3.345469E+01  5.968453E+00 -3.302784E+00
      2235   8  1.369720E+01  3.284228E+01  6.067025E+00  3.701259E+01  3.546518E+00 -4.332589E+00
      2236   1 -5.201319E+01  1.359249E-01 -6.413617E+00  3.278285E+00 -1.604643E+00  3.143400E+00
      2236   2 -2.947337E+01 -1.870215E+01 -5.343682E+00  1.046205E+01 -3.606910E+00  1.696323E+00
      2236   3 -5.188261E+01  7.085236E+00 -4.311340E+00  6.836755E+00  5.220165E+00 -1.672789E+00
      2236   4 -2.906269E+01 -1.137947E+01 -3.008702E+00  1.376980E+01  3.085238E+00 -3.017662E+00
      2236   5 -1.511269E+01  5.011084E+01  2.392096E+00  2.361204E+01 -7.389126E-01  2.286953E+00
      2236   6  6.600650E+00  3.231430E+01  3.859712E+00  3.047146E+01 -2.781870E+00  9.393039E-01
      2236   7 -1.520675E+01  5.629979E+01  4.214201E+00  2.704658E+01  5.988868E+00 -2.649040E+00
      2236   8  6.775316E+00  3.886105E+01  5.906946E+00  3.366661E+01  3.819448E+00 -3.899206E+00
      2237   1 -5.130189E+01  1.449539E+00 -6.221278E+00 -1.189502E+00 -1.840006E+00  2.989923E+00
      2237   2 -3.072597E+01 -1.528102E+01 -5.151106E+00  8.795544E+00 -3.560680E+00  1.385525E+00
      2237   3 -5.185223E+01  8.809508E+00 -4.198823E+00  1.590113E+00  5.134536E+00 -1.093342E+00
      2237   4 -3.094154E+01 -7.577487E+00 -2.894260E+00  1.133174E+01  3.265929E+00 -2.602587E+00
      2237   5 -1.866267E+01  5.271754E+01  2.265012E+00  1.722266E+01 -9.498497E-01  2.218745E+00
      2237   6  1.182875E+00  3.694077E+01  3.750044E+00  2.675695E+01 -2.710664E+00  7.006512E-01
      2237   7 -1.941114E+01  5.933620E+01  4.019620E+00  1.992675E+01  5.934499E+00 -1.999564E+00
      2237   8  7.549682E-01  4.388842E+01  5.730590E+00  2.922859E+01  4.032629E+00 -3.426861E+00
      2238   1 -4.968512E+01  1.937377E+00 -6.022299E+00 -5.612677E+00 -2.052381E+00  2.832358E+00
      2238   2 -3.143886E+01 -1.230726E+01 -4.944365E+00  6.696294E+00 -3.484538E+00  1.119291E+00
      2238   3 -5.074784E+01  9.499471E+00 -4.091087E+00 -3.689029E+00  4.983953E+00 -5.214450E-01
      2238   4 -3.211417E+01 -4.429365E+00 -2.776800E+00  8.390912E+00  3.390242E+00 -2.148896E+00
      2238   5 -2.091516E+01  5.397639E+01  2.131425E+00  1.050440E+01 -1.147707E+00  2.145575E+00
      2238   6 -3.288346E+00  4.057913E+01  3.637435E+00  2.225766E+01 -2.619175E+00  5.064137E-01
      2238   7 -2.215482E+01  6.082814E+01  3.808811E+00  1.240035E+01  5.807627E+00 -1.356831E+00
      2238   8 -4.157492E+00  4.773304E+01  5.541887E+00  2.393493E+01  4.182086E+00 -2.914260E+00
      2239   1 -4.718138E+01  1.587167E+00 -5.821818E+00 -9.837436E+00 -2.243327E+00  2.680595E+00
      2239   2 -3.147502E+01 -9.877250E+00 -4.708147E+00  4.267865E+00 -3.384191E+00  9.137435E-01
      2239   3 -4.858588E+01  9.106095E+00 -4.003802E+00 -8.807671E+00  4.771000E+00  4.171430E-02
      2239   4 -3.243586E+01 -2.064574E+00 -2.648714E+00  5.089537E+00  3.457147E+00 -1.651317E+00
      2239   5 -2.181674E+01  5.384383E+01  1.993338E+00  3.726640E+00 -1.335723E+00  2.076950E+00
      2239   6 -6.611053E+00  4.310538E+01  3.542934E+00  1.719516E+01 -2.516655E+00  3.721263E-01
      2239   7 -2.337865E+01  6.069813E+01  3.575229E+00  4.776585E+00  5.608857E+00 -7.219148E-01
      2239   8 -7.749040E+00  5.024046E+01  5.356025E+00  1.804641E+01  4.262928E+00 -2.356229E+00
      2240   1 -4.378630E+01  3.373318E-01 -5.633204E+00 -1.373550E+01 -2.415630E+00  2.539024E+00
      2240   2 -3.060833E+01 -8.118446E+00 -4.407718E+00  1.617896E+00 -3.264933E+00  7.857613E-01
      2240   3 -4.536687E+01  7.515019E+00 -3.967676E+00 -1.359724E+01  4.498469E+00  5.893295E-01
      2240   4 -3.167231E+01 -6.568085E-01 -2.486687E+00  1.575607E+00  3.467523E+00 -1.103886E+00
      2240   5 -2.130116E+01  5.227309E+01  1.854562E+00 -2.842540E+00 -1.521553E+00  2.018116E+00
      2240   6 -8.507822E+00  4.440934E+01  3.515455E+00  1.181771E+01 -2.416737E+00  3.150106E-01
      2240   7 -2.301642E+01  5.885179E+01  3.308403E+00 -2.633511E+00  5.335744E+00 -1.002246E-01
      2240   8 -9.729787E+00  5.125919E+01  5.213311E+00  1.185434E+01  4.267316E+00 -1.745932E+00
      2241   1 -3.941075E+01 -2.026636E+00 -5.483978E+00 -1.718088E+01 -2.570255E+00  2.397878E+00
      2241   2 -2.846343E+01 -7.281491E+00 -3.983991E+00 -1.103042E+00 -3.130695E+00  7.463464E-01
      2241   3 -4.100375E+01  4.441952E+00 -4.031657E+00 -1.788543E+01  4.172097E+00  1.096434E+00
      2241   4 -2.943394E+01 -5.172771E-01 -2.245472E+00 -1.952813E+00  3.425614E+00 -5.105796E-01
      2241   5 -1.924009E+01  4.912997E+01  1.716239E+00 -8.919477E+00 -1.716915E+00  1.960824E+00
      2241   6 -8.577591E+00  4.432180E+01  3.637108E+00  6.432498E+00 -2.337994E+00  3.476516E-01
      2241   7 -2.094124E+01  5.508749E+01  2.988971E+00 -9.497112E+00  4.983065E+00  4.862049E-01
      2241   8 -9.684572E+00  5.056136E+01  5.182597E+00  5.716215E+00  4.184584E+00 -1.084368E+00
      2242   1 -3.386422E+01 -5.947216E+00 -5.407980E+00 -1.994960E+01 -2.700647E+00  2.233221E+00
      2242   2 -2.469011E+01 -7.863197E+00 -3.391864E+00 -3.588045E+00 -2.988498E+00  7.936127E-01
      2242   3 -3.529895E+01 -6.068730E-01 -4.242650E+00 -2.138803E+01  3.804788E+00  1.507611E+00
      2242   4 -2.537980E+01 -2.196577E+00 -1.898796E+00 -5.128990E+00  3.326030E+00  9.660049E-02
      2242   5 -1.547490E+01  4.409668E+01  1.567411E+00 -1.417390E+01 -1.930344E+00  1.877930E+00
      2242   6 -6.500919E+00  4.248120E+01  3.991910E+00  1.449031E+00 -2.298689E+00  4.681386E-01
      2242   7 -1.700210E+01  4.902053E+01  2.584077E+00 -1.543078E+01  4.547313E+00  9.742242E-01
      2242   8 -7.317184E+00  4.771613E+01  5.320426E+00  9.425590E-02  3.996981E+00 -4.081581E-01
      2243   1 -2.708535E+01 -1.171083E+01 -5.386678E+00 -2.160284E+01 -2.800593E+00  2.010263E+00
      2243   2 -1.978814E+01 -1.048822E+01 -2.926382E+00 -5.348756E+00 -2.876327E+00  8.953836E-01
      2243   3 -2.821573E+01 -7.898834E+00 -4.585174E+00 -2.357986E+01  3.416814E+00  1.801588E+00
      2243   4 -2.013005E+01 -6.338636E+00 -1.784863E+00 -7.385044E+00  3.156713E+00  6.982053E-01
      2243   5 -1.012809E+01  3.680464E+01  1.349113E+00 -1.827459E+01 -2.157126E+00  1.726305E+00
      2243   6 -2.952630E+00  3.817974E+01  4.182928E+00 -2.754312E+00 -2.317600E+00  6.424098E-01
      2243   7 -1.136810E+01  4.026700E+01  2.014519E+00 -2.004465E+01  4.048489E+00  1.345707E+00
      2243   8 -3.440427E+00  4.196379E+01  5.171477E+00 -4.580964E+00  3.712280E+00  2.728500E-01
      2244   1 -2.190581E+01 -1.015656E+02 -5.612069E+00  9.093593E+00  2.733755E+00  1.087219E+00
      2244   2 -2.753723E+01 -1.015716E+02 -6.428017E+00  2.696266E+01  2.766863E+00  1.233754E+00
      2244   3 -2.171451E+01 -1.009113E+02 -5.356529E+00  9.075911E+00 -3.354172E+00  1.293712E+00
      2244   4 -2.733895E+01 -1.009299E+02 -6.169040E+00  2.686522E+01 -3.521257E+00  1.432589E+00
      2244   5 -1.389618E+00 -4.421361E+01  5.101487E+00  6.642926E+00  2.709700E+00  9.056640E-01
      2244   6 -6.935552E+00 -4.440966E+01  3.881450E+00  2.363686E+01  2.748738E+00  1.049166E+00
      2244   7 -1.220078E+00 -4.360923E+01  5.335037E+00  6.622628E+00 -3.374627E+00  9.049232E-01
      2244   8 -6.759967E+00 -4.381787E+01  4.116866E+00  2.354070E+01 -3.525950E+00  1.041160E+00
      2245   1 -2.876015E+01 -1.068690E+02 -7.642903E+00  1.320700E+01  2.698284E+00  1.204480E+00
      2245   2 -3.625057E+01 -1.029099E+02 -7.547900E+00  3.187778E+01  2.804599E+00  1.386574E+00
      2245   3 -2.853647E+01 -1.061113E+02 -7.340682E+00  1.314426E+01 -3.707373E+00  1.018019E+00
      2245   4 -3.598769E+01 -1.021876E+02 -7.234422E+00  3.173424E+01 -3.807312E+00  1.175257E+00
      2245   5 -5.730530E+00 -4.521453E+01  4.469061E+00  7.785734E+00  2.675621E+00  1.021100E+00
      2245   6 -1.303752E+01 -4.163278E+01  4.131427E+00  2.554211E+01  2.799524E+00  1.201656E+00
      2245   7 -5.537048E+00 -4.451270E+01  4.742505E+00  7.737485E+00 -3.708546E+00  6.204202E-01
      2245   8 -1.280711E+01 -4.096483E+01  4.414764E+00  2.541702E+01 -3.780709E+00  7.773711E-01
      2246   1 -3.506668E+01 -1.123597E+02 -9.141195E+00  1.834133E+01  2.662614E+00  1.310251E+00
      2246   2 -4.487511E+01 -1.042634E+02 -8.375383E+00  3.719205E+01  2.835304E+00  1.547825E+00
      2246   3 -3.477694E+01 -1.114775E+02 -8.774546E+00  1.820637E+01 -4.020787E+00  6.006026E-01
      2246   4 -4.452565E+01 -1.034494E+02 -7.996458E+00  3.697745E+01 -4.054345E+00  7.960522E-01
      2246   5 -9.178001E+00 -4.731843E+01  4.195631E+00  9.610151E+00  2.644224E+00  1.130823E+00
      2246   6 -1.868601E+01 -3.979860E+01  4.504100E+00  2.753767E+01  2.843527E+00  1.366713E+00
      2246   7 -8.937370E+00 -4.650848E+01  4.520376E+00  9.504945E+00 -3.999385E+00  2.062528E-01
      2246   8 -1.838866E+01 -3.905360E+01  4.840320E+00  2.735671E+01 -3.996097E+00  4.021268E-01
      2247   1 -4.104893E+01 -1.164192E+02 -9.941946E+00  2.458161E+01  2.618617E+00  1.420671E+00
      2247   2 -5.390388E+01 -1.044313E+02 -8.913136E+00  4.276462E+01  2.856946E+00  1.728594E+00
      2247   3 -4.068457E+01 -1.154370E+02 -9.516602E+00  2.435616E+01 -4.280043E+00  8.373836E-02
      2247   4 -5.344561E+01 -1.035437E+02 -8.468492E+00  4.247209E+01 -4.241185E+00  3.336743E-01
      2247   5 -1.195252E+01 -4.937160E+01  4.312048E+00  1.227181E+01  2.600929E+00  1.244452E+00
      2247   6 -2.435439E+01 -3.814725E+01  4.878661E+00  2.956431E+01  2.877989E+00  1.554149E+00
      2247   7 -1.166054E+01 -4.846560E+01  4.684909E+00  1.209435E+01 -4.240685E+00 -3.010013E-01
      2247   8 -2.397291E+01 -3.733103E+01  5.270333E+00  2.932306E+01 -4.153138E+00 -4.637779E-02
      2248   1 -4.755606E+01 -1.187332E+02 -1.038626E+01  3.132269E+01  2.564223E+00  1.546948E+00
      2248   2 -6.373765E+01 -1.031226E+02 -9.320758E+00  4.803456E+01  2.865927E+00  1.937984E+00
      2248   3 -4.709415E+01 -1.176834E+02 -9.906752E+00  3.100173E+01 -4.473055E+00 -4.845036E-01
      2248   4 -6.314913E+01 -1.021908E+02 -8.814359E+00  4.766813E+01 -4.360194E+00 -1.654804E-01
      2248   5 -1.471364E+01 -5.079073E+01  4.623291E+00  1.540895E+01  2.546991E+00  1.373910E+00
      2248   6 -3.027599E+01 -3.611793E+01  5.232348E+00  3.130236E+01  2.899749E+00  1.772329E+00
      2248   7 -1.435354E+01 -4.981465E+01  5.039964E+00  1.515214E+01 -4.417580E+00 -8.555261E-01
      2248   8 -2.979497E+01 -3.525354E+01  5.675756E+00  3.100230E+01 -4.244170E+00 -5.254813E-01
      2249   1 -5.501576E+01 -1.193257E+02 -1.070296E+01  3.803712E+01  2.495973E+00  1.691688E+00
      2249   2 -7.445602E+01 -1.003960E+02 -9.696343E+00  5.253819E+01  2.856276E+00  2.177190E+00
      2249   3 -5.443514E+01 -1.182489E+02 -1.017678E+01  3.762423E+01 -4.597428E+00 -1.072976E+00
      2249   4 -7.372143E+01 -9.945624E+01 -9.135738E+00  5.210959E+01 -4.412572E+00 -6.712965E-01
      2249   5 -1.781216E+01 -5.140129E+01  4.987920E+00  1.869202E+01  2.479169E+00  1.521592E+00
      2249   6 -3.646938E+01 -3.356773E+01  5.550817E+00  3.248290E+01  2.902483E+00  2.022194E+00
      2249   7 -1.736797E+01 -5.038956E+01  5.441400E+00  1.835533E+01 -4.527892E+00 -1.427443E+00
      2249   8 -3.587796E+01 -3.268549E+01  6.038948E+00  3.213128E+01 -4.271130E+00 -1.006398E+00
      2250   1 -6.355866E+01 -1.183055E+02 -1.099996E+01  4.433338E+01  2.410480E+00  1.850636E+00
      2250   2 -8.594116E+01 -9.643756E+01 -1.007700E+01  5.594839E+01  2.822247E+00  2.441494E+00
      2250   3 -6.284146E+01 -1.172437E+02 -1.043566E+01  4.383992E+01 -4.653475E+00 -1.665748E+00
      2250   4 -8.505054E+01 -9.552532E+01 -9.470864E+00  5.547608E+01 -4.401851E+00 -1.168093E+00
      2250   5 -2.139561E+01 -5.120473E+01  5.330180E+00  2.189838E+01  2.394076E+00  1.682800E+00
      2250   6 -4.284530E+01 -3.057111E+01  5.826754E+00  3.294454E+01  2.879984E+00  2.298836E+00
      2250   7 -2.085290E+01 -5.019292E+01  5.813054E+00  2.148726E+01 -4.572203E+00 -2.002092E+00
      2250   8 -4.213647E+01 -2.970029E+01  6.352160E+00  3.255353E+01 -4.238242E+00 -1.474475E+00
      2251   1 -7.314440E+01 -1.157964E+02 -1.130902E+01  4.990887E+01  2.305809E+00  2.016343E+00
      2251   2 -9.797724E+01 -9.148155E+01 -1.046741E+01  5.803806E+01  2.759422E+00  2.723314E+00
      2251   3 -7.227666E+01 -1.147879E+02 -1.071495E+01  4.935314E+01 -4.641245E+00 -2.255569E+00
      2251   4 -9.692602E+01 -9.062594E+01 -9.823913E+00  5.754583E+01 -4.331178E+00 -1.648588E+00
      2251   5 -2.549538E+01 -5.024861E+01  5.624366E+00  2.487409E+01  2.289613E+00  1.849844E+00
      2251   6 -4.926819E+01 -2.728070E+01  6.060371E+00  3.260516E+01  2.827282E+00  2.594573E+00
      2251   7 -2.484155E+01 -4.926907E+01  6.129920E+00  2.439936E+01 -4.550946E+00 -2.573028E+00
      2251   8 -4.843835E+01 -2.644514E+01  6.616516E+00  3.219082E+01 -4.149397E+00 -1.923103E+00
      2252   1 -8.363934E+01 -1.119399E+02 -1.162841E+01  5.450877E+01  2.181486E+00  2.180983E+00
      2252   2 -1.102967E+02 -8.578666E+01 -1.085949E+01  5.864883E+01  2.664981E+00  3.014549E+00
      2252   3 -8.261130E+01 -1.110156E+02 -1.101191E+01  5.391505E+01 -4.560094E+00 -2.838178E+00
      2252   4 -1.090860E+02 -8.500821E+01 -1.018578E+01  5.816425E+01 -4.202745E+00 -2.108658E+00
      2252   5 -3.008517E+01 -4.858973E+01  5.869752E+00  2.749566E+01  2.165265E+00  2.014807E+00
      2252   6 -5.558450E+01 -2.386494E+01  6.256844E+00  3.143298E+01  2.741069E+00  2.901150E+00
      2252   7 -2.930968E+01 -4.766935E+01  6.392483E+00  2.697294E+01 -4.463721E+00 -3.136530E+00
      2252   8 -5.463340E+01 -2.308136E+01  6.838474E+00  3.101406E+01 -4.007453E+00 -2.348766E+00
      2253   1 -9.484882E+01 -1.069076E+02 -1.194580E+01  5.791161E+01  2.038378E+00  2.337731E+00
      2253   2 -1.226004E+02 -7.963033E+01 -1.124248E+01  5.767991E+01  2.537384E+00  3.307599E+00
      2253   3 -9.365596E+01 -1.060902E+02 -1.131319E+01  5.730856E+01 -4.409048E+00 -3.409151E+00
      2253   4 -1.212372E+02 -7.893978E+01 -1.054456E+01  5.723226E+01 -4.018414E+00 -2.544543E+00
      2253   5 -3.510529E+01 -4.629225E+01  6.074556E+00  2.965248E+01  2.021818E+00  2.170810E+00
      2253   6 -6.163511E+01 -2.048813E+01  6.422814E+00  2.943208E+01  2.619329E+00  3.210715E+00
      2253   7 -3.420067E+01 -4.545175E+01  6.609950E+00  2.910119E+01 -4.309814E+00 -3.688626E+00
      2253   8 -6.056620E+01 -1.976604E+01  7.025749E+00  2.902859E+01 -3.814912E+00 -2.748364E+00
      2254   1 -1.065317E+02 -1.009090E+02 -1.224850E+01  5.993062E+01  1.878090E+00  2.481176E+00
      2254   2 -1.345701E+02 -7.330298E+01 -1.160662E+01  5.508671E+01  2.376081E+00  3.595658E+00
      2254   3 -1.051757E+02 -1.002122E+02 -1.160539E+01  5.934999E+01 -4.187750E+00 -3.962709E+00
      2254   4 -1.330678E+02 -7.270192E+01 -1.088979E+01  5.470547E+01 -3.780426E+00 -2.951812E+00
      2254   5 -4.047089E+01 -4.343315E+01  6.248105E+00  3.124255E+01  1.860997E+00  2.312440E+00
      2254   6 -6.726230E+01 -1.730538E+01  6.564031E+00  2.663588E+01  2.461250E+00  3.516167E+00
      2254   7 -3.943361E+01 -4.268708E+01  6.792302E+00  3.068518E+01 -4.088887E+00 -4.223958E+00
      2254   8 -6.608311E+01 -1.664758E+01  7.184780E+00  2.626811E+01 -3.574390E+00 -3.118183E+00
      2255   1 -1.184089E+02 -9.418835E+01 -1.252582E+01  6.042247E+01  1.702937E+00  2.607367E+00
      2255   2 -1.458799E+02 -6.710065E+01 -1.194421E+01  5.088476E+01  2.181428E+00  3.872789E+00
      2255   3 -1.168986E+02 -9.361721E+01 -1.187745E+01  5.989733E+01 -3.896818E+00 -4.491540E+00
      2255   4 -1.442585E+02 -6.658238E+01 -1.121341E+01  5.059768E+01 -3.491802E+00 -3.325155E+00
      2255   5 -4.607545E+01 -4.010627E+01  6.397870E+00  3.217687E+01  1.685250E+00  2.435736E+00
      2255   6 -7.231503E+01 -1.445916E+01  6.685100E+00  2.310627E+01  2.266940E+00  3.811165E+00
      2255   7 -4.490680E+01 -3.946292E+01  6.947347E+00  3.163778E+01 -3.801489E+00 -4.735674E+00
      2255   8 -7.103745E+01 -1.386283E+01  7.320422E+00  2.279356E+01 -3.289205E+00 -3.453764E+00
      2256   1 -1.301734E+02 -8.702025E+01 -1.277026E+01  5.929528E+01  1.515508E+00  2.713436E+00
      2256   2 -1.562079E+02 -6.131388E+01 -1.224919E+01  4.515094E+01  1.954428E+00  4.133691E+00
      2256   3 -1.285254E+02 -8.657136E+01 -1.212170E+01  5.885814E+01 -3.538313E+00 -4.987454E+00
      2256   4 -1.544944E+02 -6.086466E+01 -1.150943E+01  4.498227E+01 -3.156639E+00 -3.658917E+00
      2256   5 -5.179485E+01 -3.642275E+01  6.528699E+00  3.238346E+01  1.497365E+00  2.537816E+00
      2256   6 -7.665529E+01 -1.207626E+01  6.788963E+00  1.893187E+01  2.037263E+00  4.089899E+00
      2256   7 -5.050099E+01 -3.588418E+01  7.080283E+00  3.188761E+01 -3.449487E+00 -5.216061E+00
      2256   8 -7.529544E+01 -1.153380E+01  7.435736E+00  1.869139E+01 -2.963577E+00 -3.750426E+00
      2257   1 -1.415013E+02 -7.969704E+01 -1.297623E+01  5.651570E+01  1.318674E+00  2.797592E+00
      2257   2 -1.652520E+02 -5.621612E+01 -1.251737E+01  3.802295E+01  1.696851E+00  4.373675E+00
      2257   3 -1.397397E+02 -7.935896E+01 -1.233247E+01  5.619677E+01 -3.115888E+00 -5.441617E+00
      2257   4 -1.634788E+02 -5.581617E+01 -1.177363E+01  3.799211E+01 -2.780129E+00 -3.947349E+00
      2257   5 -5.749009E+01 -3.250787E+01  6.643584E+00  3.181262E+01  1.300507E+00  2.616933E+00
      2257   6 -8.016451E+01 -1.026382E+01  6.877257E+00  1.422557E+01  1.774025E+00  4.347215E+00
      2257   7 -5.608283E+01 -3.207040E+01  7.194148E+00  3.138461E+01 -3.036156E+00 -5.656718E+00
      2257   8 -7.874206E+01 -9.763430E+00  7.532418E+00  1.407153E+01 -2.602557E+00 -4.003353E+00
      2258   1 -1.520655E+02 -7.251837E+01 -1.314016E+01  5.211265E+01  1.115591E+00  2.858946E+00
      2258   2 -1.727399E+02 -5.205140E+01 -1.274501E+01  2.969504E+01  1.411092E+00  4.588594E+00
      2258   3 -1.502216E+02 -7.227281E+01 -1.250632E+01  5.193799E+01 -2.634571E+00 -5.845183E+00
      2258   4 -1.709440E+02 -5.167643E+01 -1.200238E+01  2.981511E+01 -2.368459E+00 -4.185098E+00
      2258   5 -6.301342E+01 -2.849799E+01  6.743823E+00  3.044034E+01  1.098017E+00  2.672230E+00
      2258   6 -8.274751E+01 -9.105663E+00  6.950975E+00  9.120630E+00  1.479639E+00  4.578487E+00
      2258   7 -6.151010E+01 -2.815253E+01  7.290120E+00  3.010283E+01 -2.566187E+00 -6.049217E+00
      2258   8 -8.128533E+01 -8.632588E+00  7.611305E+00  9.063405E+00 -2.212143E+00 -4.208114E+00
      2259   1 -1.615489E+02 -6.577745E+01 -1.325948E+01  4.617789E+01  9.093905E-01  2.897231E+00
      2259   2 -1.784448E+02 -4.902453E+01 -1.293011E+01  2.041124E+01  1.100148E+00  4.774729E+00
      2259   3 -1.596605E+02 -6.560024E+01 -1.264093E+01  4.616795E+01 -2.100894E+00 -6.189802E+00
      2259   4 -1.766667E+02 -4.864743E+01 -1.219397E+01  2.068807E+01 -1.928646E+00 -4.367559E+00
      2259   5 -6.821312E+01 -2.453492E+01  6.829873E+00  2.827040E+01  8.932187E-01  2.703614E+00
      2259   6 -8.433871E+01 -8.659616E+00  7.009800E+00  3.765670E+00  1.157193E+00  4.779544E+00
      2259   7 -6.663604E+01 -2.426734E+01  7.368682E+00  2.804320E+01 -2.045735E+00 -6.385467E+00
      2259   8 -8.286173E+01 -8.197049E+00  7.671999E+00  3.811250E+00 -1.799059E+00 -4.360972E+00
      2260   1 -1.696620E+02 -5.974941E+01 -1.333442E+01  3.886238E+01  7.031864E-01  2.912876E+00
      2260   2 -1.821982E+02 -4.729066E+01 -1.307304E+01  1.045325E+01  7.675094E-01  4.928980E+00
      2260   3 -1.677704E+02 -5.961122E+01 -1.273608E+01  3.903049E+01 -1.522687E+00 -6.467771E+00
      2260   4 -1.804792E+02 -4.688321E+01 -1.234868E+01  1.088504E+01 -1.468436E+00 -4.490822E+00
      2260   5 -7.294002E+01 -2.075939E+01  6.901732E+00  2.533337E+01  6.893271E-01  2.711730E+00
      2260   6 -8.490323E+01 -8.951945E+00  7.054087E+00 -1.684477E+00  8.103233E-01  4.946832E+00
      2260   7 -7.131542E+01 -2.055119E+01  7.429964E+00  2.523245E+01 -1.482335E+00 -6.657934E+00
      2260   8 -8.343737E+01 -8.482242E+00  7.714814E+00 -1.534643E+00 -1.370697E+00 -4.458853E+00
      2261   1 -1.761642E+02 -5.468182E+01 -1.337107E+01  3.036550E+01  5.001599E-01  2.907186E+00
      2261   2 -1.839057E+02 -4.695283E+01 -1.317957E+01  1.217046E-01  4.169355E-01  5.048788E+00
      2261   3 -1.743124E+02 -5.455014E+01 -1.279724E+01  3.071733E+01 -9.089245E-01 -6.671988E+00
      2261   4 -1.822842E+02 -4.648672E+01 -1.247142E+01  6.991887E-01 -9.965020E-01 -4.552079E+00
      2261   5 -7.705477E+01 -1.730563E+01  6.958949E+00  2.168157E+01  4.893853E-01  2.697999E+00
      2261   6 -8.444249E+01 -9.980400E+00  7.082340E+00 -7.081013E+00  4.430751E-01  5.077284E+00
      2261   7 -7.541177E+01 -1.713505E+01  7.473719E+00  2.171829E+01 -8.847000E-01 -6.859797E+00
      2261   8 -8.301275E+01 -9.485941E+00  7.738484E+00 -6.829681E+00 -9.350289E-01 -4.499832E+00
      2262   1 -1.808701E+02 -5.081402E+01 -1.338762E+01  2.090863E+01  3.019406E-01  2.883459E+00
      2262   2 -1.835877E+02 -4.818353E+01 -1.330747E+01 -1.030611E+01  5.121841E-02  5.136381E+00
      2262   3 -1.790974E+02 -5.064919E+01 -1.283917E+01  2.143904E+01 -2.718412E-01 -6.795030E+00
      2262   4 -1.820918E+02 -4.761800E+01 -1.261289E+01 -9.600432E+00 -5.241561E-01 -4.546111E+00
      2262   5 -8.040002E+01 -1.431914E+01  7.003838E+00  1.739807E+01  2.947701E-01  2.664122E+00
      2262   6 -8.299361E+01 -1.182662E+01  7.058674E+00 -1.228793E+01  5.928194E-02  5.173119E+00
      2262   7 -7.877052E+01 -1.415836E+01  7.503303E+00  1.757342E+01 -2.640613E-01 -6.985363E+00
      2262   8 -8.162108E+01 -1.127851E+01  7.711720E+00 -1.194590E+01 -5.010528E-01 -4.478772E+00
      2263   1 -1.833516E+02 -4.814859E+01 -1.325643E+01  1.035612E+01  1.101608E-01  2.863476E+00
      2263   2 -1.811469E+02 -5.040018E+01 -1.325936E+01 -1.938894E+01 -3.035070E-01  5.018742E+00
      2263   3 -1.817462E+02 -4.793829E+01 -1.275791E+01  1.110497E+01  3.667924E-01 -6.832570E+00
      2263   4 -1.798101E+02 -4.979116E+01 -1.261821E+01 -1.875618E+01 -4.548826E-02 -4.680506E+00
      2263   5 -8.279830E+01 -1.183691E+01  7.077485E+00  1.203014E+01  1.131940E-01  2.641737E+00
      2263   6 -8.069579E+01 -1.397244E+01  7.088215E+00 -1.625817E+01 -3.123910E-01  5.045598E+00
      2263   7 -8.124219E+01 -1.167262E+01  7.546165E+00  1.240896E+01  3.637058E-01 -7.022982E+00
      2263   8 -7.938909E+01 -1.342297E+01  7.706501E+00 -1.598973E+01 -6.044136E-02 -4.623428E+00
      2264   1 -1.839533E+02 -4.720524E+01 -1.323418E+01  5.256138E-01 -8.649692E-02  2.967834E+00
      2264   2 -1.770867E+02 -5.391714E+01 -1.326357E+01 -2.846500E+01 -6.478096E-01  4.948185E+00
      2264   3 -1.825085E+02 -4.686627E+01 -1.275370E+01  1.366876E+00  9.860183E-01 -6.692274E+00
      2264   4 -1.758808E+02 -5.324065E+01 -1.265519E+01 -2.778741E+01  4.244077E-01 -4.697125E+00
      2264   5 -8.422677E+01 -1.031710E+01  7.050862E+00  7.134997E+00 -8.216138E-02  2.762767E+00
      2264   6 -7.767483E+01 -1.667861E+01  7.073548E+00 -2.043581E+01 -6.744011E-01  4.970715E+00
      2264   7 -8.276686E+01 -1.007011E+01  7.510921E+00  7.635637E+00  9.633296E-01 -6.872047E+00
      2264   8 -7.643649E+01 -1.610501E+01  7.668315E+00 -2.009083E+01  3.710228E-01 -4.651183E+00
      2265   1 -1.825461E+02 -4.741473E+01 -1.310289E+01 -9.333168E+00 -2.926533E-01  3.025107E+00
      2265   2 -1.712841E+02 -5.847996E+01 -1.320892E+01 -3.677671E+01 -9.786286E-01  4.832099E+00
      2265   3 -1.812779E+02 -4.696985E+01 -1.265106E+01 -8.442357E+00  1.586822E+00 -6.501561E+00
      2265   4 -1.702069E+02 -5.774239E+01 -1.263358E+01 -3.609070E+01  8.961426E-01 -4.662789E+00
      2265   5 -8.473029E+01 -9.315718E+00  7.053164E+00  2.029884E+00 -2.834377E-01  2.826392E+00
      2265   6 -7.398295E+01 -1.980219E+01  7.038206E+00 -2.406960E+01 -1.019463E+00  4.844197E+00
      2265   7 -8.337924E+01 -8.997947E+00  7.497624E+00  2.611656E+00  1.549399E+00 -6.683109E+00
      2265   8 -7.280827E+01 -1.920082E+01  7.612319E+00 -2.368258E+01  8.092081E-01 -4.636146E+00
      2266   1 -1.792337E+02 -4.889712E+01 -1.293175E+01 -1.889682E+01 -5.060095E-01  3.054436E+00
      2266   2 -1.639306E+02 -6.395947E+01 -1.311169E+01 -4.407485E+01 -1.292092E+00  4.679941E+00
      2266   3 -1.781392E+02 -4.833969E+01 -1.250414E+01 -1.798573E+01  2.157599E+00 -6.246216E+00
      2266   4 -1.629752E+02 -6.316317E+01 -1.256681E+01 -4.339714E+01  1.359929E+00 -4.573351E+00
      2266   5 -8.429181E+01 -8.984192E+00  7.039608E+00 -3.145595E+00 -4.938613E-01  2.862927E+00
      2266   6 -6.968715E+01 -2.325781E+01  6.987637E+00 -2.709053E+01 -1.345511E+00  4.679964E+00
      2266   7 -8.306024E+01 -8.581670E+00  7.470533E+00 -2.503572E+00  2.105583E+00 -6.431341E+00
      2266   8 -6.858309E+01 -2.262330E+01  7.541350E+00 -2.667047E+01  1.243296E+00 -4.570227E+00
      2267   1 -1.741235E+02 -5.157464E+01 -1.272610E+01 -2.788539E+01 -7.226728E-01  3.057277E+00
      2267   2 -1.552575E+02 -7.015605E+01 -1.297848E+01 -5.016430E+01 -1.584190E+00  4.495763E+00
      2267   3 -1.731951E+02 -5.090672E+01 -1.231977E+01 -2.697883E+01  2.691225E+00 -5.929330E+00
      2267   4 -1.544147E+02 -6.930573E+01 -1.246148E+01 -4.950726E+01  1.808842E+00 -4.429086E+00
      2267   5 -8.291984E+01 -9.322698E+00  7.009085E+00 -8.245830E+00 -7.091660E-01  2.872348E+00
      2267   6 -6.491262E+01 -2.692893E+01  6.921168E+00 -2.943367E+01 -1.648323E+00  4.481954E+00
      2267   7 -8.181327E+01 -8.829078E+00  7.427625E+00 -7.563740E+00  2.624813E+00 -6.121028E+00
      2267   8 -6.388315E+01 -2.625746E+01  7.455257E+00 -2.898889E+01  1.666254E+00 -4.453544E+00
      2268   1 -1.673622E+02 -5.531984E+01 -1.248881E+01 -3.604872E+01 -9.397370E-01  3.034047E+00
      2268   2 -1.455150E+02 -7.683921E+01 -1.281175E+01 -5.489922E+01 -1.851975E+00  4.283453E+00
      2268   3 -1.665884E+02 -5.454746E+01 -1.210075E+01 -3.516845E+01  3.179639E+00 -5.555770E+00
      2268   4 -1.447742E+02 -7.594060E+01 -1.231986E+01 -5.427254E+01  2.235099E+00 -4.231821E+00
      2268   5 -8.064472E+01 -1.030704E+01  6.961932E+00 -1.313483E+01 -9.259631E-01  2.854835E+00
      2268   6 -5.978834E+01 -3.069336E+01  6.839320E+00 -3.106208E+01 -1.924513E+00  4.254405E+00
      2268   7 -7.966505E+01 -9.719845E+00  7.369215E+00 -1.243244E+01  3.099901E+00 -5.756955E+00
      2268   8 -5.883603E+01 -2.998209E+01  7.354726E+00 -3.060086E+01  2.071114E+00 -4.287240E+00
      2269   1 -1.591366E+02 -5.996360E+01 -1.222138E+01 -4.316979E+01 -1.154250E+00  2.985290E+00
      2269   2 -1.349718E+02 -8.375871E+01 -1.261277E+01 -5.818325E+01 -2.092884E+00  4.046941E+00
      2269   3 -1.585036E+02 -5.909621E+01 -1.184893E+01 -4.233455E+01  3.615864E+00 -5.131811E+00
      2269   4 -1.343221E+02 -8.281818E+01 -1.214338E+01 -5.759444E+01  2.631650E+00 -3.984834E+00
      2269   5 -7.752052E+01 -1.189156E+01  6.898235E+00 -1.768607E+01 -1.140902E+00  2.810879E+00
      2269   6 -5.444681E+01 -3.442891E+01  6.741494E+00 -3.196421E+01 -2.171235E+00  4.001708E+00
      2269   7 -7.666637E+01 -1.121181E+01  7.295265E+00 -1.698247E+01  3.524602E+00 -5.345067E+00
      2269   8 -5.357316E+01 -3.367603E+01  7.239129E+00 -3.149500E+01  2.451428E+00 -4.073728E+00
      2270   1 -1.496720E+02 -6.530240E+01 -1.192597E+01 -4.907022E+01 -1.363177E+00  2.911752E+00
      2270   2 -1.239081E+02 -9.065536E+01 -1.238346E+01 -5.997114E+01 -2.305002E+00  3.790499E+00
      2270   3 -1.491632E+02 -6.435194E+01 -1.156645E+01 -4.829528E+01  3.994257E+00 -4.664834E+00
      2270   4 -1.233388E+02 -8.968010E+01 -1.193414E+01 -5.942582E+01  2.992094E+00 -3.692273E+00
      2270   5 -7.362432E+01 -1.400929E+01  6.817312E+00 -2.178423E+01 -1.350604E+00  2.741153E+00
      2270   6 -4.901737E+01 -3.801574E+01  6.627018E+00 -3.215130E+01 -2.386374E+00  3.728539E+00
      2270   7 -7.289060E+01 -1.324138E+01  7.205120E+00 -2.109723E+01  3.893858E+00 -4.892399E+00
      2270   8 -4.822288E+01 -3.722100E+01  7.107722E+00 -3.168267E+01  2.801219E+00 -3.816324E+00
      2271   1 -1.392213E+02 -7.110563E+01 -1.160497E+01 -5.361619E+01 -1.563421E+00  2.814696E+00
      2271   2 -1.126063E+02 -9.727194E+01 -1.212719E+01 -6.026903E+01 -2.486679E+00  3.518574E+00
      2271   3 -1.388195E+02 -7.008647E+01 -1.125625E+01 -5.291362E+01  4.310687E+00 -4.162728E+00
      2271   4 -1.121065E+02 -9.626912E+01 -1.169564E+01 -5.977116E+01  3.311231E+00 -3.359040E+00
      2271   5 -6.905265E+01 -1.657311E+01  6.718340E+00 -2.532894E+01 -1.551729E+00  2.646911E+00
      2271   6 -4.362432E+01 -4.134119E+01  6.494132E+00 -3.165597E+01 -2.568321E+00  3.439816E+00
      2271   7 -6.843209E+01 -1.572494E+01  7.097568E+00 -2.467490E+01  4.203896E+00 -4.406427E+00
      2271   8 -4.290785E+01 -4.050576E+01  6.958680E+00 -3.119660E+01  3.115347E+00 -3.519028E+00
      2272   1 -1.280568E+02 -7.712604E+01 -1.126208E+01 -5.672265E+01 -1.752140E+00  2.696071E+00
      2272   2 -1.013390E+02 -1.033623E+02 -1.184883E+01 -5.913234E+01 -2.637124E+00  3.236115E+00
      2272   3 -1.277437E+02 -7.605417E+01 -1.092242E+01 -5.610099E+01  4.562327E+00 -3.633349E+00
      2272   4 -1.008993E+02 -1.023400E+02 -1.143341E+01 -5.868458E+01  3.584589E+00 -2.990115E+00
      2272   5 -6.391839E+01 -1.947937E+01  6.599779E+00 -2.823833E+01 -1.741223E+00  2.530114E+00
      2272   6 -3.838137E+01 -4.430300E+01  6.339682E+00 -3.053001E+01 -2.716303E+00  3.140882E+00
      2272   7 -6.340110E+01 -1.856203E+01  6.970708E+00 -2.763150E+01  4.452173E+00 -3.894567E+00
      2272   8 -3.774130E+01 -4.343037E+01  6.788313E+00 -3.008856E+01  3.389369E+00 -3.185995E+00
      2273   1 -1.164601E+02 -8.310892E+01 -1.090284E+01 -5.835490E+01 -1.926582E+00  2.558518E+00
      2273   2 -9.036096E+01 -1.087001E+02 -1.155521E+01 -5.666176E+01 -2.755915E+00  2.948422E+00
      2273   3 -1.162183E+02 -8.200202E+01 -1.057134E+01 -5.781958E+01  4.747874E+00 -3.084248E+00
      2273   4 -8.997243E+01 -1.076671E+02 -1.115481E+01 -5.626570E+01  3.808938E+00 -2.590453E+00
      2273   5 -5.834757E+01 -2.261143E+01  6.458389E+00 -3.045146E+01 -1.916146E+00  2.393463E+00
      2273   6 -3.338904E+01 -4.681171E+01  6.159002E+00 -2.884123E+01 -2.830098E+00  2.837452E+00
      2273   7 -5.792257E+01 -2.163933E+01  6.820595E+00 -2.990384E+01  4.637558E+00 -3.363884E+00
      2273   8 -3.282240E+01 -4.590773E+01  6.591515E+00 -2.842605E+01  3.619830E+00 -2.821340E+00
      2274   1 -1.047100E+02 -8.879990E+01 -1.053383E+01 -5.852783E+01 -2.084528E+00  2.405734E+00
      2274   2 -7.990146E+01 -1.130861E+02 -1.125622E+01 -5.299764E+01 -2.843470E+00  2.661663E+00
      2274   3 -1.045231E+02 -8.767738E+01 -1.021053E+01 -5.808127E+01  4.867072E+00 -2.522005E+00
      2274   4 -7.955690E+01 -1.120527E+02 -1.087079E+01 -5.265419E+01  3.981766E+00 -2.164136E+00
      2274   5 -5.247287E+01 -2.584124E+01  6.290374E+00 -3.192943E+01 -2.074208E+00  2.240732E+00
      2274   6 -2.873305E+01 -4.879180E+01  5.944711E+00 -2.667010E+01 -2.910432E+00  2.535998E+00
      2274   7 -5.212773E+01 -2.483195E+01  6.642759E+00 -3.145038E+01  4.759778E+00 -2.820504E+00
      2274   8 -2.823630E+01 -4.786566E+01  6.360106E+00 -2.628912E+01  3.803797E+00 -2.428461E+00
      2275   1 -9.307502E+01 -9.395330E+01 -1.016398E+01 -5.730401E+01 -2.224113E+00  2.242505E+00
      2275   2 -7.015506E+01 -1.163511E+02 -1.096301E+01 -4.831246E+01 -2.901025E+00  2.382709E+00
      2275   3 -9.292830E+01 -9.283636E+01 -9.850038E+00 -5.694552E+01  4.920680E+00 -1.952096E+00
      2275   4 -6.984833E+01 -1.153301E+02 -1.059349E+01 -4.802141E+01  4.101106E+00 -1.714479E+00
      2275   5 -4.643120E+01 -2.903264E+01  6.089971E+00 -3.265676E+01 -2.213430E+00  2.076697E+00
      2275   6 -2.447989E+01 -5.017959E+01  5.689071E+00 -2.410556E+01 -2.958868E+00  2.243575E+00
      2275   7 -4.615340E+01 -2.800718E+01  6.430459E+00 -3.225248E+01  4.819568E+00 -2.269549E+00
      2275   8 -2.404858E+01 -4.924406E+01  6.085530E+00 -2.376542E+01  3.938826E+00 -2.010134E+00
      2276   1 -8.180260E+01 -9.833707E+01 -9.802139E+00 -5.479193E+01 -2.344427E+00  2.074790E+00
      2276   2 -6.127494E+01 -1.183555E+02 -1.068451E+01 -4.280659E+01 -2.930807E+00  2.119140E+00
      2276   3 -8.168377E+01 -9.724910E+01 -9.500083E+00 -5.451805E+01  4.909612E+00 -1.379002E+00
      2276   4 -6.100134E+01 -1.173624E+02 -1.033315E+01 -4.256665E+01  4.165114E+00 -1.244239E+00
      2276   5 -4.035699E+01 -3.204299E+01  5.851915E+00 -3.264344E+01 -2.332963E+00  1.907399E+00
      2276   6 -2.067465E+01 -5.092097E+01  5.386152E+00 -2.124508E+01 -2.978115E+00  1.967918E+00
      2276   7 -4.013445E+01 -3.102562E+01  6.177333E+00 -3.231687E+01  4.817627E+00 -1.715058E+00
      2276   8 -2.030391E+01 -4.999283E+01  5.760809E+00 -2.095079E+01  4.022419E+00 -1.568606E+00
      2277   1 -7.110973E+01 -1.017359E+02 -9.453198E+00 -5.114805E+01 -2.445608E+00  1.909312E+00
      2277   2 -5.335868E+01 -1.189813E+02 -1.041701E+01 -3.670978E+01 -2.936329E+00  1.878652E+00
      2277   3 -7.100852E+01 -1.007012E+02 -9.166371E+00 -5.095199E+01  4.834478E+00 -8.075143E-01
      2277   4 -5.311484E+01 -1.180340E+02 -1.008699E+01 -3.651784E+01  4.171467E+00 -7.571093E-01
      2277   5 -3.437729E+01 -3.473031E+01  5.572441E+00 -3.193080E+01 -2.433055E+00  1.739660E+00
      2277   6 -1.733076E+01 -5.096627E+01  5.040452E+00 -1.819964E+01 -2.972166E+00  1.716797E+00
      2277   7 -3.419835E+01 -3.374716E+01  5.879044E+00 -3.168086E+01  4.754294E+00 -1.161296E+00
      2277   8 -1.701546E+01 -5.006549E+01  5.389757E+00 -1.795361E+01  4.051596E+00 -1.107075E+00
      2278   1 -6.116263E+01 -1.039583E+02 -9.108170E+00 -4.659069E+01 -2.529048E+00  1.752488E+00
      2278   2 -4.641465E+01 -1.181234E+02 -1.012178E+01 -3.029829E+01 -2.922364E+00  1.667502E+00
      2278   3 -6.107073E+01 -1.029993E+02 -8.839614E+00 -4.646191E+01  4.695196E+00 -2.455815E-01
      2278   4 -4.619779E+01 -1.172390E+02 -9.816007E+00 -3.014854E+01  4.117311E+00 -2.610611E-01
      2278   5 -2.859904E+01 -3.697505E+01  5.252619E+00 -3.060708E+01 -2.515204E+00  1.580112E+00
      2278   6 -1.440498E+01 -5.027807E+01  4.681487E+00 -1.511260E+01 -2.946219E+00  1.496607E+00
      2278   7 -2.845269E+01 -3.605089E+01  5.537210E+00 -3.042807E+01  4.629231E+00 -6.154071E-01
      2278   8 -1.413939E+01 -4.942447E+01  5.002416E+00 -1.491365E+01  4.022893E+00 -6.327899E-01
      2279   1 -5.203011E+01 -1.048608E+02 -8.724917E+00 -4.142804E+01 -2.597380E+00  1.608384E+00
      2279   2 -4.028928E+01 -1.156937E+02 -9.687639E+00 -2.393231E+01 -2.894317E+00  1.488064E+00
      2279   3 -5.194041E+01 -1.039925E+02 -8.475582E+00 -4.135275E+01  4.491558E+00  2.911084E-01
      2279   4 -4.009649E+01 -1.148834E+02 -9.406966E+00 -2.381650E+01  4.000569E+00  2.267089E-01
      2279   5 -2.308036E+01 -3.874171E+01  4.900777E+00 -2.883198E+01 -2.582180E+00  1.433328E+00
      2279   6 -1.174358E+01 -4.887315E+01  4.384119E+00 -1.219312E+01 -2.906048E+00  1.310080E+00
      2279   7 -2.295593E+01 -3.789475E+01  5.162362E+00 -2.871406E+01  4.441909E+00 -9.164554E-02
      2279   8 -1.152097E+01 -4.808114E+01  4.675829E+00 -1.203667E+01  3.933643E+00 -1.616718E-01
      2280   1 -4.359429E+01 -1.044256E+02 -8.204771E+00 -3.608560E+01 -2.653546E+00  1.476011E+00
      2280   2 -3.455956E+01 -1.116960E+02 -8.896881E+00 -1.808976E+01 -2.856519E+00  1.336104E+00
      2280   3 -4.349989E+01 -1.036497E+02 -7.971512E+00 -3.604897E+01  4.225880E+00  7.741314E-01
      2280   4 -3.438589E+01 -1.109586E+02 -8.637800E+00 -1.799956E+01  3.823314E+00  6.749001E-01
      2280   5 -1.777428E+01 -4.020441E+01  4.531701E+00 -2.685619E+01 -2.636861E+00  1.298905E+00
      2280   6 -9.008509E+00 -4.694526E+01  4.278330E+00 -9.741679E+00 -2.856215E+00  1.153513E+00
      2280   7 -1.766083E+01 -3.944033E+01  4.773239E+00 -2.678743E+01  4.194349E+00  3.833432E-01
      2280   8 -8.819798E+00 -4.621787E+01  4.544158E+00 -9.621983E+00  3.785272E+00  2.766866E-01
      2281   1 -3.545661E+01 -1.029598E+02 -7.399073E+00 -3.105227E+01 -2.698941E+00  1.347905E+00
      2281   2 -2.846252E+01 -1.064649E+02 -7.453208E+00 -1.328882E+01 -2.810934E+00  1.201248E+00
      2281   3 -3.535090E+01 -1.022660E+02 -7.175898E+00 -3.104150E+01  3.908124E+00  1.162487E+00
      2281   4 -2.830391E+01 -1.057899E+02 -7.210517E+00 -1.321829E+01  3.596810E+00  1.040188E+00
      2281   5 -1.244046E+01 -4.190150E+01  4.171538E+00 -2.495804E+01 -2.679924E+00  1.169772E+00
      2281   6 -5.612201E+00 -4.505825E+01  4.532380E+00 -8.064558E+00 -2.797535E+00  1.016877E+00
      2281   7 -1.232796E+01 -4.121549E+01  4.398310E+00 -2.492819E+01  3.896668E+00  7.709323E-01
      2281   8 -5.449737E+00 -4.439042E+01  4.776901E+00 -7.977875E+00  3.589536E+00  6.412569E-01
      2282   1 -2.717211E+01 -1.015776E+02 -6.311658E+00 -2.641957E+01 -2.734630E+00  1.214493E+00
      2282   2 -2.178332E+01 -1.014643E+02 -5.500610E+00 -9.422273E+00 -2.765505E+00  1.071328E+00
      2282   3 -2.704336E+01 -1.009438E+02 -6.089394E+00 -2.641903E+01  3.558108E+00  1.421846E+00
      2282   4 -2.161357E+01 -1.008247E+02 -5.259540E+00 -9.366706E+00  3.333808E+00  1.286863E+00
      2282   5 -6.642358E+00 -4.452962E+01  3.932996E+00 -2.315978E+01 -2.710706E+00  1.035491E+00
      2282   6 -1.334530E+00 -4.423890E+01  5.131208E+00 -6.994928E+00 -2.740595E+00  8.905378E-01
      2282   7 -6.521595E+00 -4.392149E+01  4.146837E+00 -2.314945E+01  3.569089E+00  1.035716E+00
      2282   8 -1.175352E+00 -4.362589E+01  5.361589E+00 -6.932257E+00  3.355249E+00  8.985772E-01
      2283   1 -2.172048E+01 -1.002095E+02 -5.569549E+00  9.091722E+00  2.180298E+00  3.065816E+00
      2283   2 -2.733366E+01 -1.002201E+02 -6.325926E+00  2.681620E+01  2.081076E+00  3.502431E+00
      2283   3 -2.125790E+01 -9.827212E+01 -4.847620E+00  9.154165E+00 -3.997200E+00  3.302695E+00
      2283   4 -2.692059E+01 -9.832130E+01 -5.625058E+00  2.678126E+01 -4.314652E+00  3.732157E+00
      2283   5 -1.358724E+00 -4.307402E+01  4.845815E+00  6.630598E+00  2.088754E+00  2.346867E+00
      2283   6 -6.908333E+00 -4.329540E+01  3.633367E+00  2.348701E+01  2.011492E+00  2.783171E+00
      2283   7 -9.437190E-01 -4.124869E+01  5.519318E+00  6.674151E+00 -4.084808E+00  2.354194E+00
      2283   8 -6.541089E+00 -4.150747E+01  4.285253E+00  2.343795E+01 -4.369547E+00  2.783778E+00
      2284   1 -2.846685E+01 -1.052190E+02 -7.399845E+00  1.308242E+01  1.945485E+00  3.044745E+00
      2284   2 -3.589778E+01 -1.013216E+02 -7.271556E+00  3.160519E+01  1.852589E+00  3.549422E+00
      2284   3 -2.793893E+01 -1.029718E+02 -6.559159E+00  1.297742E+01 -4.579354E+00  2.873180E+00
      2284   4 -3.537951E+01 -9.913733E+01 -6.442317E+00  3.139737E+01 -4.893563E+00  3.352854E+00
      2284   5 -5.642736E+00 -4.383095E+01  4.317121E+00  7.682130E+00  1.884189E+00  2.316702E+00
      2284   6 -1.291180E+01 -4.032654E+01  3.967666E+00  2.529776E+01  1.824766E+00  2.824485E+00
      2284   7 -5.172605E+00 -4.171264E+01  5.098533E+00  7.580284E+00 -4.617553E+00  1.911794E+00
      2284   8 -1.245128E+01 -3.826847E+01  4.737207E+00  2.509814E+01 -4.887338E+00  2.395915E+00
      2285   1 -3.462939E+01 -1.104048E+02 -8.738652E+00  1.805169E+01  1.690506E+00  2.892680E+00
      2285   2 -4.436676E+01 -1.024547E+02 -7.997038E+00  3.675456E+01  1.628546E+00  3.489756E+00
      2285   3 -3.397334E+01 -1.078072E+02 -7.747440E+00  1.776503E+01 -5.133372E+00  2.172151E+00
      2285   4 -4.369621E+01 -9.995849E+01 -7.016890E+00  3.636120E+01 -5.411088E+00  2.727344E+00
      2285   5 -9.010541E+00 -4.569396E+01  4.108339E+00  9.369695E+00  1.661590E+00  2.173639E+00
      2285   6 -1.846487E+01 -3.832703E+01  4.361322E+00  2.715659E+01  1.641745E+00  2.774868E+00
      2285   7 -8.435583E+00 -4.325677E+01  5.021225E+00  9.106304E+00 -5.120629E+00  1.224960E+00
      2285   8 -1.787625E+01 -3.598641E+01  5.263377E+00  2.679172E+01 -5.345510E+00  1.786502E+00
      2286   1 -4.048240E+01 -1.142464E+02 -9.481140E+00  2.408653E+01  1.470531E+00  2.682829E+00
      2286   2 -5.321886E+01 -1.024674E+02 -8.498175E+00  4.214147E+01  1.441926E+00  3.387388E+00
      2286   3 -3.966162E+01 -1.113352E+02 -8.340467E+00  2.357599E+01 -5.581948E+00  1.318137E+00
      2286   4 -5.234192E+01 -9.969107E+01 -7.361395E+00  4.153140E+01 -5.815915E+00  1.965706E+00
      2286   5 -1.172040E+01 -4.756441E+01  4.212350E+00  1.186031E+01  1.468149E+00  1.982682E+00
      2286   6 -2.401991E+01 -3.654911E+01  4.711296E+00  2.903102E+01  1.493749E+00  2.694650E+00
      2286   7 -1.101274E+01 -4.483763E+01  5.255436E+00  1.139896E+01 -5.525594E+00  4.002251E-01
      2286   8 -2.325867E+01 -3.395043E+01  5.751068E+00  2.847502E+01 -5.695091E+00  1.058178E+00
      2287   1 -4.683251E+01 -1.164399E+02 -9.926748E+00  3.060614E+01  1.291793E+00  2.483315E+00
      2287   2 -6.283697E+01 -1.010837E+02 -8.898918E+00  4.722627E+01  1.290545E+00  3.299207E+00
      2287   3 -4.580021E+01 -1.133038E+02 -8.650592E+00  2.984660E+01 -5.910112E+00  4.179294E-01
      2287   4 -6.170381E+01 -9.811303E+01 -7.617458E+00  4.638571E+01 -6.104329E+00  1.163462E+00
      2287   5 -1.439452E+01 -4.888005E+01  4.466233E+00  1.480762E+01  1.314184E+00  1.805772E+00
      2287   6 -2.979597E+01 -3.445681E+01  5.021791E+00  3.061376E+01  1.380047E+00  2.634333E+00
      2287   7 -1.351583E+01 -4.594345E+01  5.625891E+00  1.412342E+01 -5.813474E+00 -4.647119E-01
      2287   8 -2.882089E+01 -3.167699E+01  6.187618E+00  2.985251E+01 -5.930867E+00  2.971660E-01
      2288   1 -5.409081E+01 -1.170095E+02 -1.026617E+01  3.710294E+01  1.143946E+00  2.322130E+00
      2288   2 -7.329752E+01 -9.836528E+01 -9.272956E+00  5.156377E+01  1.162385E+00  3.248754E+00
      2288   3 -5.280044E+01 -1.137598E+02 -8.875052E+00  3.609135E+01 -6.125284E+00 -4.769810E-01
      2288   4 -7.186660E+01 -9.530703E+01 -7.867245E+00  5.050081E+01 -6.286125E+00  3.677160E-01
      2288   5 -1.736734E+01 -4.946848E+01  4.761683E+00  1.789766E+01  1.190138E+00  1.669148E+00
      2288   6 -3.580833E+01 -3.191231E+01  5.298150E+00  3.165028E+01  1.287966E+00  2.616137E+00
      2288   7 -1.627690E+01 -4.642139E+01  6.019353E+00  1.698368E+01 -5.991037E+00 -1.320789E+00
      2288   8 -3.458337E+01 -2.904639E+01  6.571635E+00  3.068745E+01 -6.063393E+00 -4.514282E-01
      2289   1 -6.238366E+01 -1.160554E+02 -1.058507E+01  4.320358E+01  1.016958E+00  2.200974E+00
      2289   2 -8.448804E+01 -9.449022E+01 -9.646163E+00  5.484311E+01  1.046196E+00  3.237418E+00
      2289   3 -6.079291E+01 -1.128027E+02 -9.100447E+00  4.195759E+01 -6.235570E+00 -1.349613E+00
      2289   4 -8.272622E+01 -9.144795E+01 -8.137984E+00  5.358508E+01 -6.370636E+00 -4.045728E-01
      2289   5 -2.078096E+01 -4.932425E+01  5.041346E+00  2.092242E+01  1.085221E+00  1.573812E+00
      2289   6 -4.197082E+01 -2.898320E+01  5.542163E+00  3.199189E+01  1.204755E+00  2.640938E+00
      2289   7 -1.943958E+01 -4.626502E+01  6.378546E+00  1.978946E+01 -6.067494E+00 -2.151673E+00
      2289   8 -4.046558E+01 -2.612301E+01  6.904507E+00  3.084750E+01 -6.103857E+00 -1.171122E+00
      2290   1 -7.167500E+01 -1.136884E+02 -1.090699E+01  4.862126E+01  9.046825E-01  2.109776E+00
      2290   2 -9.620252E+01 -8.967804E+01 -1.002082E+01  5.685001E+01  9.346538E-01  3.256522E+00
      2290   3 -6.974681E+01 -1.105298E+02 -9.347697E+00  4.717572E+01 -6.244975E+00 -2.198247E+00
      2290   4 -9.408403E+01 -8.673942E+01 -8.429224E+00  5.543938E+01 -6.363172E+00 -1.149980E+00
      2290   5 -2.466850E+01 -4.848425E+01  5.286117E+00  2.374087E+01  9.921370E-01  1.509355E+00
      2290   6 -4.815467E+01 -2.580969E+01  5.755834E+00  3.156663E+01  1.121563E+00  2.699684E+00
      2290   7 -2.304027E+01 -4.549956E+01  6.687121E+00  2.241495E+01 -6.048357E+00 -2.956054E+00
      2290   8 -4.634388E+01 -2.303262E+01  7.191219E+00  3.027390E+01 -6.059448E+00 -1.858953E+00
      2291   1 -8.184051E+01 -1.100344E+02 -1.122990E+01  5.311427E+01  8.048335E-01  2.036242E+00
      2291   2 -1.081859E+02 -8.416983E+01 -1.039049E+01  5.743524E+01  8.239026E-01  3.295203E+00
      2291   3 -7.954490E+01 -1.070487E+02 -9.611323E+00  5.151761E+01 -6.154067E+00 -3.024256E+00
      2291   4 -1.056927E+02 -8.140131E+01 -8.730507E+00  5.592538E+01 -6.266149E+00 -1.868208E+00
      2291   5 -2.900977E+01 -4.699342E+01  5.494990E+00  2.624059E+01  9.074241E-01  1.463139E+00
      2291   6 -5.421521E+01 -2.254594E+01  5.942613E+00  3.034997E+01  1.033160E+00  2.781006E+00
      2291   7 -2.706417E+01 -4.415436E+01  6.947201E+00  2.476005E+01 -5.935677E+00 -3.735888E+00
      2291   8 -5.207973E+01 -1.991143E+01  7.438792E+00  2.895197E+01 -5.934250E+00 -2.515378E+00
      2292   1 -9.269835E+01 -1.052487E+02 -1.154429E+01  5.647101E+01  7.173461E-01  1.970458E+00
      2292   2 -1.201531E+02 -7.822438E+01 -1.074708E+01  5.650313E+01  7.123825E-01  3.344266E+00
      2292   3 -9.001442E+01 -1.024950E+02 -9.878740E+00  5.478229E+01 -5.962254E+00 -3.826511E+00
      2292   4 -1.172773E+02 -7.567163E+01 -9.030647E+00  5.495504E+01 -6.080852E+00 -2.557239E+00
      2292   5 -3.375409E+01 -4.490377E+01  5.673209E+00  2.831972E+01  8.302821E-01  1.424804E+00
      2292   6 -6.000351E+01 -1.934221E+01  6.106374E+00  2.835025E+01  9.369206E-01  2.874947E+00
      2292   7 -3.146745E+01 -4.226499E+01  7.166902E+00  2.673269E+01 -5.729838E+00 -4.490849E+00
      2292   8 -5.753197E+01 -1.689209E+01  7.654012E+00  2.689695E+01 -5.730836E+00 -3.139512E+00
      2293   1 -1.040222E+02 -9.952348E+01 -1.184072E+01  5.851166E+01  6.433344E-01  1.906151E+00
      2293   2 -1.318007E+02 -7.211424E+01 -1.108344E+01  5.401090E+01  5.997413E-01  3.397257E+00
      2293   3 -1.009403E+02 -9.704132E+01 -1.013797E+01  5.679734E+01 -5.669253E+00 -4.599949E+00
      2293   4 -1.285458E+02 -6.980304E+01 -9.320023E+00  5.248974E+01 -5.808912E+00 -3.212118E+00
      2293   5 -3.882739E+01 -4.228006E+01  5.826793E+00  2.988316E+01  7.614409E-01  1.387460E+00
      2293   6 -6.537262E+01 -1.634032E+01  6.250296E+00  2.560281E+01  8.318605E-01  2.974021E+00
      2293   7 -3.618486E+01 -3.987987E+01  7.354489E+00  2.824505E+01 -5.431089E+00 -5.216937E+00
      2293   8 -6.256278E+01 -1.409999E+01  7.842253E+00  2.414843E+01 -5.451597E+00 -3.727882E+00
      2294   1 -1.155494E+02 -9.308633E+01 -1.211142E+01  5.909630E+01  5.841007E-01  1.840348E+00
      2294   2 -1.428180E+02 -6.611865E+01 -1.139383E+01  4.997211E+01  4.860970E-01  3.450217E+00
      2294   3 -1.120735E+02 -9.089688E+01 -1.037999E+01  5.742738E+01 -5.276305E+00 -5.336099E+00
      2294   4 -1.392005E+02 -6.405634E+01 -9.591395E+00  4.854427E+01 -5.453213E+00 -3.825383E+00
      2294   5 -4.413551E+01 -3.920363E+01  5.960397E+00  3.084626E+01  7.022099E-01  1.347342E+00
      2294   6 -7.018245E+01 -1.367046E+01  6.377158E+00  2.216888E+01  7.178569E-01  3.073148E+00
      2294   7 -4.113373E+01 -3.706542E+01  7.515644E+00  2.921754E+01 -5.040731E+00 -5.906940E+00
      2294   8 -6.704265E+01 -1.164984E+01  8.007552E+00  2.076939E+01 -5.099702E+00 -4.274614E+00
      2295   1 -1.269898E+02 -8.619457E+01 -1.235072E+01  5.813263E+01  5.409177E-01  1.772705E+00
      2295   2 -1.528984E+02 -6.051330E+01 -1.167379E+01  4.445801E+01  3.716101E-01  3.501022E+00
      2295   3 -1.231387E+02 -8.430114E+01 -1.059821E+01  5.658098E+01 -4.786531E+00 -6.024054E+00
      2295   4 -1.489492E+02 -5.869095E+01 -9.839822E+00  4.318745E+01 -5.018455E+00 -4.388011E+00
      2295   5 -4.956626E+01 -3.577254E+01  6.077458E+00  3.113856E+01  6.540482E-01  1.303304E+00
      2295   6 -7.430595E+01 -1.144897E+01  6.488280E+00  1.813374E+01  5.949660E-01  3.168864E+00
      2295   7 -4.621372E+01 -3.390461E+01  7.654626E+00  2.958166E+01 -4.561690E+00 -6.551252E+00
      2295   8 -7.085640E+01 -9.644919E+00  8.151587E+00  1.684415E+01 -4.679929E+00 -4.772523E+00
      2296   1 -1.380362E+02 -7.912413E+01 -1.255409E+01  5.558321E+01  5.144216E-01  1.704787E+00
      2296   2 -1.617527E+02 -5.555839E+01 -1.191986E+01  3.759767E+01  2.563193E-01  3.549069E+00
      2296   3 -1.338441E+02 -7.751339E+01 -1.078778E+01  5.421824E+01 -4.205386E+00 -6.651544E+00
      2296   4 -1.575158E+02 -5.395241E+01 -1.006149E+01  3.654297E+01 -4.511131E+00 -4.890069E+00
      2296   5 -5.499382E+01 -3.209973E+01  6.179671E+00  3.070963E+01  6.180943E-01  1.256070E+00
      2296   6 -7.763364E+01 -9.773003E+00  6.584815E+00  1.360494E+01  4.635377E-01  3.259231E+00
      2296   7 -5.131215E+01 -3.049630E+01  7.773515E+00  2.928632E+01 -3.998831E+00 -7.138935E+00
      2296   8 -7.390527E+01 -8.169929E+00  8.275948E+00  1.247672E+01 -4.198346E+00 -5.213491E+00
      2297   1 -1.483772E+02 -7.216008E+01 -1.271883E+01  5.146921E+01  5.046616E-01  1.639138E+00
      2297   2 -1.691196E+02 -5.148731E+01 -1.212880E+01  2.957366E+01  1.400748E-01  3.594443E+00
      2297   3 -1.438936E+02 -7.080379E+01 -1.094620E+01  5.035461E+01 -3.540563E+00 -7.206144E+00
      2297   4 -1.646523E+02 -5.006150E+01 -1.025343E+01  2.878514E+01 -3.939530E+00 -5.321843E+00
      2297   5 -6.028301E+01 -2.830955E+01  6.267740E+00  2.953159E+01  5.950202E-01  1.207480E+00
      2297   6 -8.007880E+01 -8.718439E+00  6.667298E+00  8.708334E+00  3.238911E-01  3.343154E+00
      2297   7 -5.630709E+01 -2.695188E+01  7.872843E+00  2.830030E+01 -3.359072E+00 -7.658728E+00
      2297   8 -7.611357E+01 -7.289954E+00  8.380943E+00  7.787124E+00 -3.662605E+00 -5.589438E+00
      2298   1 -1.577095E+02 -6.558273E+01 -1.284285E+01  4.587132E+01  5.112212E-01  1.579256E+00
      2298   2 -1.747811E+02 -4.849722E+01 -1.229889E+01  2.061601E+01  2.268682E-02  3.637893E+00
      2298   3 -1.529982E+02 -6.443929E+01 -1.107160E+01  4.506157E+01 -2.801728E+00 -7.675590E+00
      2298   4 -1.701516E+02 -4.720536E+01 -1.041430E+01  2.013275E+01 -3.313445E+00 -5.674104E+00
      2298   5 -6.529330E+01 -2.453252E+01  6.342058E+00  2.760191E+01  5.849829E-01  1.160474E+00
      2298   6 -8.158220E+01 -8.337114E+00  6.735147E+00  3.583529E+00  1.762946E-01  3.420257E+00
      2298   7 -6.107002E+01 -2.338962E+01  7.953024E+00  2.661461E+01 -2.651305E+00 -8.099364E+00
      2298   8 -7.743161E+01 -7.047964E+00  8.465790E+00  2.906742E+00 -3.081823E+00 -5.892687E+00
      2299   1 -1.657528E+02 -5.965598E+01 -1.292546E+01  3.892638E+01  5.332273E-01  1.529115E+00
      2299   2 -1.785725E+02 -4.673907E+01 -1.243046E+01  1.099118E+01 -9.602211E-02  3.680572E+00
      2299   3 -1.608889E+02 -5.867269E+01 -1.116347E+01  3.846400E+01 -2.000164E+00 -8.048509E+00
      2299   4 -1.738569E+02 -4.552755E+01 -1.054466E+01  1.083932E+01 -2.643769E+00 -5.938655E+00
      2299   5 -6.988494E+01 -2.089971E+01  6.402637E+00  2.494275E+01  5.875579E-01  1.118676E+00
      2299   6 -8.211306E+01 -8.651818E+00  6.788201E+00 -1.624383E+00  2.107374E-02  3.490727E+00
      2299   7 -6.547201E+01 -1.993032E+01  8.013961E+00  2.424283E+01 -1.886084E+00 -8.450226E+00
      2299   8 -7.783568E+01 -7.459869E+00  8.530190E+00 -2.028973E+00 -2.466096E+00 -6.116397E+00
      2300   1 -1.722709E+02 -5.462003E+01 -1.297178E+01  3.081873E+01  5.688121E-01  1.492613E+00
      2300   2 -1.803962E+02 -4.631396E+01 -1.252754E+01  9.851195E-01 -2.175063E-01  3.722162E+00
      2300   3 -1.673356E+02 -5.373584E+01 -1.122620E+01  3.073376E+01 -1.149427E+00 -8.315283E+00
      2300   4 -1.756727E+02 -4.512452E+01 -1.064780E+01  1.178478E+00 -1.943915E+00 -6.110653E+00
      2300   5 -7.392567E+01 -1.753835E+01  6.448659E+00  2.159687E+01  6.015930E-01  1.085568E+00
      2300   6 -8.167325E+01 -9.659073E+00  6.824606E+00 -6.775611E+00 -1.419881E-01  3.553202E+00
      2300   7 -6.938895E+01 -1.669365E+01  8.054598E+00  2.121873E+01 -1.075698E+00 -8.702514E+00
      2300   8 -7.733171E+01 -8.518054E+00  8.572132E+00 -6.889067E+00 -1.827029E+00 -6.257148E+00
      2301   1 -1.770741E+02 -5.070043E+01 -1.299477E+01  2.175169E+01  6.128719E-01  1.471306E+00
      2301   2 -1.802566E+02 -4.736978E+01 -1.263822E+01 -9.138220E+00 -3.452947E-01  3.756324E+00
      2301   3 -1.721502E+02 -4.984275E+01 -1.126975E+01  2.206526E+01 -2.668346E-01 -8.470919E+00
      2301   4 -1.755938E+02 -4.611918E+01 -1.076146E+01 -8.591375E+00 -1.229780E+00 -6.193478E+00
      2301   5 -7.726640E+01 -1.458264E+01  6.482446E+00  1.762924E+01  6.240191E-01  1.061640E+00
      2301   6 -8.029624E+01 -1.141826E+01  6.814129E+00 -1.174784E+01 -3.122235E-01  3.603531E+00
      2301   7 -7.268235E+01 -1.380416E+01  8.076879E+00  1.759668E+01 -2.347659E-01 -8.852141E+00
      2301   8 -7.595413E+01 -1.025971E+01  8.567845E+00 -1.155854E+01 -1.175645E+00 -6.315938E+00
      2302   1 -1.798063E+02 -4.793836E+01 -1.290161E+01  1.166873E+01  6.473451E-01  1.460521E+00
      2302   2 -1.780539E+02 -4.948190E+01 -1.262159E+01 -1.825649E+01 -4.600434E-01  3.606411E+00
      2302   3 -1.750245E+02 -4.705294E+01 -1.122365E+01  1.245015E+01  6.145473E-01 -8.536868E+00
      2302   4 -1.735449E+02 -4.819011E+01 -1.079703E+01 -1.753402E+01 -4.887741E-01 -6.396958E+00
      2302   5 -7.976177E+01 -1.208478E+01  6.531005E+00  1.270156E+01  6.429205E-01  1.050498E+00
      2302   6 -7.808211E+01 -1.353961E+01  6.827906E+00 -1.575808E+01 -4.703405E-01  3.445260E+00
      2302   7 -7.522493E+01 -1.131860E+01  8.098683E+00  1.311261E+01  6.089138E-01 -8.915631E+00
      2302   8 -7.379849E+01 -1.238081E+01  8.549400E+00 -1.540308E+01 -5.002604E-01 -6.527713E+00
      2303   1 -1.806717E+02 -4.674337E+01 -1.285618E+01  2.064758E+00  6.720527E-01  1.592833E+00
      2303   2 -1.742114E+02 -5.285019E+01 -1.263442E+01 -2.718961E+01 -5.850526E-01  3.542563E+00
      2303   3 -1.760762E+02 -4.571903E+01 -1.120382E+01  3.120110E+00  1.497197E+00 -8.394572E+00
      2303   4 -1.698650E+02 -5.146357E+01 -1.084674E+01 -2.624387E+01  2.429867E-01 -6.431875E+00
      2303   5 -8.134775E+01 -1.040014E+01  6.529044E+00  8.079326E+00  6.425470E-01  1.193906E+00
      2303   6 -7.517491E+01 -1.617891E+01  6.807551E+00 -1.974231E+01 -6.398829E-01  3.372720E+00
      2303   7 -7.693043E+01 -9.543164E+00  8.080634E+00  8.781307E+00  1.444880E+00 -8.767291E+00
      2303   8 -7.098850E+01 -1.497156E+01  8.501374E+00 -1.914456E+01  1.655192E-01 -6.577205E+00
      2304   1 -1.795766E+02 -4.672798E+01 -1.273055E+01 -7.631646E+00  6.775789E-01  1.747397E+00
      2304   2 -1.686417E+02 -5.726416E+01 -1.259554E+01 -3.541144E+01 -7.001374E-01  3.475556E+00
      2304   3 -1.752282E+02 -4.554086E+01 -1.111310E+01 -6.317516E+00  2.352987E+00 -8.129633E+00
      2304   4 -1.645021E+02 -5.575245E+01 -1.084771E+01 -3.425148E+01  9.740347E-01 -6.370284E+00
      2304   5 -8.205026E+01 -9.241071E+00  6.536606E+00  3.188072E+00  6.277256E-01  1.348510E+00
      2304   6 -7.160646E+01 -1.921683E+01  6.768542E+00 -2.323118E+01 -7.938446E-01  3.286564E+00
      2304   7 -7.781007E+01 -8.260167E+00  8.065980E+00  4.171610E+00  2.259841E+00 -8.510094E+00
      2304   8 -6.755954E+01 -1.792190E+01  8.434447E+00 -2.239429E+01  8.374967E-01 -6.543332E+00
      2305   1 -1.765901E+02 -4.796602E+01 -1.256414E+01 -1.708835E+01  6.608955E-01  1.901963E+00
      2305   2 -1.615278E+02 -6.258991E+01 -1.251692E+01 -4.265448E+01 -8.074589E-01  3.398597E+00
      2305   3 -1.725315E+02 -4.658210E+01 -1.098297E+01 -1.555742E+01  3.166356E+00 -7.765209E+00
      2305   4 -1.576313E+02 -6.092364E+01 -1.080976E+01 -4.131265E+01  1.689820E+00 -6.220168E+00
      2305   5 -8.184386E+01 -8.717925E+00  6.530277E+00 -1.814680E+00  5.920177E-01  1.497852E+00
      2305   6 -6.745997E+01 -2.256630E+01  6.713627E+00 -2.612872E+01 -9.357413E-01  3.184031E+00
      2305   7 -7.783126E+01 -7.572193E+00  8.035415E+00 -5.838125E-01  3.035257E+00 -8.161465E+00
      2305   8 -6.359659E+01 -2.114709E+01  8.350190E+00 -2.507771E+01  1.500190E+00 -6.430096E+00
      2306   1 -1.718088E+02 -5.039444E+01 -1.236515E+01 -2.602194E+01  6.229930E-01  2.052368E+00
      2306   2 -1.530938E+02 -6.863323E+01 -1.240485E+01 -4.871967E+01 -9.062209E-01  3.313818E+00
      2306   3 -1.680689E+02 -4.878517E+01 -1.081876E+01 -2.432334E+01  3.925181E+00 -7.309348E+00
      2306   4 -1.494666E+02 -6.678848E+01 -1.073750E+01 -4.723382E+01  2.378231E+00 -5.983680E+00
      2306   5 -8.072692E+01 -8.843645E+00  6.507574E+00 -6.785592E+00  5.354563E-01  1.638346E+00
      2306   6 -6.285467E+01 -2.611529E+01  6.642383E+00 -2.837174E+01 -1.064933E+00  3.067805E+00
      2306   7 -7.698324E+01 -7.497891E+00  7.987730E+00 -5.350419E+00  3.758504E+00 -7.728647E+00
      2306   8 -5.921337E+01 -2.454093E+01  8.248266E+00 -2.713884E+01  2.141773E+00 -6.238849E+00
      2307   1 -1.653706E+02 -5.389486E+01 -1.213618E+01 -3.417909E+01  5.633705E-01  2.197054E+00
      2307   2 -1.435854E+02 -7.516717E+01 -1.226079E+01 -5.345847E+01 -9.971518E-01  3.223527E+00
      2307   3 -1.619698E+02 -5.204219E+01 -1.062366E+01 -3.236475E+01  4.616979E+00 -6.769280E+00
      2307   4 -1.402464E+02 -7.312675E+01 -1.063243E+01 -5.186917E+01  3.026812E+00 -5.664567E+00
      2307   5 -7.872172E+01 -9.603044E+00  6.468340E+00 -1.159004E+01  4.588652E-01  1.768589E+00
      2307   6 -5.791513E+01 -2.974529E+01  6.555600E+00 -2.992515E+01 -1.180879E+00  2.941142E+00
      2307   7 -7.527939E+01 -8.031768E+00  7.922539E+00 -9.998890E+00  4.418730E+00 -7.218365E+00
      2307   8 -5.452752E+01 -2.799134E+01  8.129625E+00 -2.854805E+01  2.751348E+00 -5.972020E+00
      2308   1 -1.574557E+02 -5.830617E+01 -1.187853E+01 -4.133904E+01  4.819419E-01  2.333925E+00
      2308   2 -1.332682E+02 -8.194509E+01 -1.208574E+01 -5.677226E+01 -1.081134E+00  3.129619E+00
      2308   3 -1.544047E+02 -5.620192E+01 -1.039922E+01 -3.946199E+01  5.230688E+00 -6.154353E+00
      2308   4 -1.302304E+02 -7.969998E+01 -1.049606E+01 -5.512207E+01  3.624019E+00 -5.268528E+00
      2308   5 -7.587409E+01 -1.095870E+01  6.412705E+00 -1.610174E+01  3.634856E-01  1.887033E+00
      2308   6 -5.276942E+01 -3.333816E+01  6.453059E+00 -3.077912E+01 -1.283298E+00  2.806999E+00
      2308   7 -7.275550E+01 -9.146061E+00  7.840035E+00 -1.440627E+01  5.006462E+00 -6.639043E+00
      2308   8 -4.965960E+01 -3.138786E+01  7.994037E+00 -2.929941E+01  3.318792E+00 -5.633864E+00
      2309   1 -1.482813E+02 -6.343160E+01 -1.159368E+01 -4.731852E+01  3.793927E-01  2.460851E+00
      2309   2 -1.224195E+02 -8.871140E+01 -1.188115E+01 -5.861339E+01 -1.158804E+00  3.033767E+00
      2309   3 -1.455816E+02 -6.107764E+01 -1.014705E+01 -4.543142E+01  5.757253E+00 -5.475368E+00
      2309   4 -1.196880E+02 -8.626025E+01 -1.032984E+01 -5.694539E+01  4.159851E+00 -4.802872E+00
      2309   5 -7.225211E+01 -1.285185E+01  6.340567E+00 -2.020425E+01  2.509408E-01  1.992201E+00
      2309   6 -4.754221E+01 -3.677892E+01  6.334712E+00 -3.094596E+01 -1.372139E+00  2.668222E+00
      2309   7 -6.946959E+01 -1.079250E+01  7.739949E+00 -1.845778E+01  5.513836E+00 -6.000400E+00
      2309   8 -4.472616E+01 -3.462383E+01  7.841373E+00 -2.940786E+01  3.835021E+00 -5.230069E+00
      2310   1 -1.380961E+02 -6.904721E+01 -1.128400E+01 -5.197858E+01  2.572439E-01  2.575820E+00
      2310   2 -1.113183E+02 -9.521137E+01 -1.164925E+01 -5.898555E+01 -1.230731E+00  2.937808E+00
      2310   3 -1.357399E+02 -6.645550E+01 -9.869907E+00 -5.013209E+01  6.190032E+00 -4.744120E+00
      2310   4 -1.088911E+02 -9.256141E+01 -1.013640E+01 -5.734240E+01  4.625998E+00 -4.275778E+00
      2310   5 -6.794519E+01 -1.520374E+01  6.251372E+00 -2.379510E+01  1.233738E-01  2.082785E+00
      2310   6 -4.235200E+01 -3.995975E+01  6.199836E+00 -3.045892E+01 -1.447619E+00  2.527817E+00
      2310   7 -6.550075E+01 -1.290311E+01  7.621507E+00 -2.205071E+01  5.934999E+00 -5.313077E+00
      2310   8 -3.983726E+01 -3.760080E+01  7.670656E+00 -2.890790E+01  4.292226E+00 -4.767189E+00
      2311   1 -1.271674E+02 -7.491086E+01 -1.095219E+01 -5.522814E+01  1.175721E-01  2.677807E+00
      2311   2 -1.002355E+02 -1.012022E+02 -1.139367E+01 -5.794179E+01 -1.297201E+00  2.844173E+00
      2311   3 -1.251394E+02 -7.210368E+01 -9.571447E+00 -5.346962E+01  6.524509E+00 -3.972394E+00
      2311   4 -9.810387E+01 -9.836926E+01 -9.920060E+00 -5.636451E+01  5.016032E+00 -3.695734E+00
      2311   5 -6.305859E+01 -1.791851E+01  6.144420E+00 -2.678882E+01 -1.669755E-02  2.158553E+00
      2311   6 -3.730770E+01 -4.278423E+01  6.046534E+00 -2.936957E+01 -1.509965E+00  2.389466E+00
      2311   7 -6.094518E+01 -1.539336E+01  7.483290E+00 -2.509767E+01  6.265952E+00 -4.587594E+00
      2311   8 -3.509324E+01 -4.023215E+01  7.479532E+00 -2.785080E+01  4.684093E+00 -4.251982E+00
      2312   1 -1.157742E+02 -8.077285E+01 -1.060264E+01 -5.702646E+01 -3.713648E-02  2.767338E+00
      2312   2 -8.942341E+01 -1.064608E+02 -1.111924E+01 -5.558030E+01 -1.358760E+00  2.756881E+00
      2312   3 -1.140522E+02 -7.778288E+01 -9.257186E+00 -5.539843E+01  6.758430E+00 -3.170892E+00
      2312   4 -8.757307E+01 -1.034706E+02 -9.686952E+00 -5.410712E+01  5.325110E+00 -3.070028E+00
      2312   5 -5.771255E+01 -2.088722E+01  6.017676E+00 -2.911997E+01 -1.665702E-01  2.220825E+00
      2312   6 -3.250415E+01 -4.516885E+01  5.872125E+00 -2.774462E+01 -1.559929E+00  2.258281E+00
      2312   7 -5.591413E+01 -1.816582E+01  7.322376E+00 -2.752931E+01  6.504666E+00 -3.833400E+00
      2312   8 -3.058157E+01 -4.244529E+01  7.264304E+00 -2.630126E+01  5.005560E+00 -3.690182E+00
      2313   1 -1.041931E+02 -8.638361E+01 -1.024023E+01 -5.738211E+01 -2.040392E-01  2.846963E+00
      2313   2 -7.910966E+01 -1.107922E+02 -1.083343E+01 -5.203889E+01 -1.416011E+00  2.681859E+00
      2313   3 -1.027501E+02 -8.325463E+01 -8.933954E+00 -5.592108E+01  6.891602E+00 -2.348609E+00
      2313   4 -7.752105E+01 -1.076816E+02 -9.446340E+00 -5.070372E+01  5.550063E+00 -2.404275E+00
      2313   5 -5.203394E+01 -2.398910E+01  5.869213E+00 -3.074401E+01 -3.234372E-01  2.272847E+00
      2313   6 -2.802181E+01 -4.704514E+01  5.671803E+00 -2.566250E+01 -1.598609E+00  2.141102E+00
      2313   7 -5.052813E+01 -2.111194E+01  7.135064E+00 -2.929565E+01  6.650853E+00 -3.058343E+00
      2313   8 -2.637578E+01 -4.418366E+01  7.018561E+00 -2.433383E+01  5.252891E+00 -3.086045E+00
      2314   1 -9.269210E+01 -9.150242E+01 -9.871576E+00 -5.635093E+01 -3.809320E-01  2.922198E+00
      2314   2 -6.948689E+01 -1.140325E+02 -1.054445E+01 -4.748669E+01 -1.470336E+00  2.627816E+00
      2314   3 -9.149819E+01 -8.829088E+01 -8.611460E+00 -5.508668E+01  6.925025E+00 -1.511448E+00
      2314   4 -6.813736E+01 -1.108507E+02 -9.209367E+00 -4.631846E+01  5.688729E+00 -1.701114E+00
      2314   5 -4.615565E+01 -2.709547E+01  5.695670E+00 -3.163867E+01 -4.855490E-01  2.320819E+00
      2314   6 -2.392193E+01 -4.835714E+01  5.440700E+00 -2.320854E+01 -1.628404E+00  2.047420E+00
      2314   7 -4.491478E+01 -2.411601E+01  6.915532E+00 -3.036759E+01  6.704917E+00 -2.267233E+00
      2314   8 -2.253168E+01 -4.540458E+01  6.735044E+00 -2.202879E+01  5.422735E+00 -2.441019E+00
      2315   1 -8.151920E+01 -9.590276E+01 -9.503534E+00 -5.403442E+01 -5.666611E-01  3.001298E+00
      2315   2 -6.070761E+01 -1.160493E+02 -1.025991E+01 -4.211993E+01 -1.524695E+00  2.606063E+00
      2315   3 -8.054346E+01 -9.267819E+01 -8.300281E+00 -5.298796E+01  6.860153E+00 -6.624246E-01
      2315   4 -5.957256E+01 -1.128594E+02 -8.987261E+00 -4.114029E+01  5.738814E+00 -9.603381E-01
      2315   5 -4.020949E+01 -3.007104E+01  5.493893E+00 -3.180611E+01 -6.522997E-01  2.373412E+00
      2315   6 -2.024570E+01 -4.905949E+01  5.174582E+00 -2.047513E+01 -1.653393E+00  1.988959E+00
      2315   7 -3.920261E+01 -2.705619E+01  6.657553E+00 -3.073814E+01  6.667535E+00 -1.462336E+00
      2315   8 -1.908631E+01 -4.607659E+01  6.406629E+00 -1.947071E+01  5.511446E+00 -1.754159E+00
      2316   1 -7.089290E+01 -9.937397E+01 -9.140500E+00 -5.058065E+01 -7.624189E-01  3.093994E+00
      2316   2 -5.287086E+01 -1.167327E+02 -9.978848E+00 -3.616237E+01 -1.584540E+00  2.628927E+00
      2316   3 -7.010437E+01 -9.621857E+01 -8.008566E+00 -4.976250E+01  6.697225E+00  1.968828E-01
      2316   4 -5.192448E+01 -1.136111E+02 -8.782620E+00 -3.538342E+01  5.696567E+00 -1.806989E-01
      2316   5 -3.432118E+01 -3.277958E+01  5.261203E+00 -3.127814E+01 -8.258279E-01  2.440773E+00
      2316   6 -1.700503E+01 -4.911145E+01  4.876271E+00 -1.756599E+01 -1.680485E+00  1.978306E+00
      2316   7 -3.351565E+01 -2.980865E+01  6.355320E+00 -3.042810E+01  6.537725E+00 -6.445871E-01
      2316   8 -1.604870E+01 -4.617194E+01  6.033169E+00 -1.675324E+01  5.513525E+00 -1.023742E+00
      2317   1 -6.098380E+01 -1.017263E+02 -8.777718E+00 -4.619806E+01 -9.725224E-01  3.207651E+00
      2317   2 -4.599010E+01 -1.159842E+02 -9.673632E+00 -2.988206E+01 -1.658518E+00  2.704944E+00
      2317   3 -6.035174E+01 -9.872979E+01 -7.733809E+00 -4.560575E+01  6.433935E+00  1.061443E+00
      2317   4 -4.520575E+01 -1.130156E+02 -8.569970E+00 -2.930352E+01  5.555483E+00  6.342268E-01
      2317   5 -2.859937E+01 -3.510357E+01  4.995993E+00 -3.013178E+01 -1.011596E+00  2.530796E+00
      2317   6 -1.415880E+01 -4.848209E+01  4.566773E+00 -1.461486E+01 -1.719836E+00  2.024322E+00
      2317   7 -2.796159E+01 -3.226324E+01  6.005420E+00 -2.950110E+01  6.311722E+00  1.816011E-01
      2317   8 -1.337576E+01 -4.566779E+01  5.633960E+00 -1.399727E+01  5.420643E+00 -2.529470E-01
      2318   1 -5.186908E+01 -1.028112E+02 -8.386176E+00 -4.118466E+01 -1.204518E+00  3.339819E+00
      2318   2 -3.992288E+01 -1.137173E+02 -9.256492E+00 -2.363040E+01 -1.758078E+00  2.829873E+00
      2318   3 -5.136135E+01 -1.000572E+02 -7.444501E+00 -4.080006E+01  6.064721E+00  1.912597E+00
      2318   4 -3.927314E+01 -1.109812E+02 -8.259562E+00 -2.323709E+01  5.306169E+00  1.464253E+00
      2318   5 -2.310808E+01 -3.700255E+01  4.696687E+00 -2.851547E+01 -1.218113E+00  2.642078E+00
      2318   6 -1.156109E+01 -4.718864E+01  4.302649E+00 -1.182093E+01 -1.783752E+00  2.123701E+00
      2318   7 -2.260308E+01 -3.437430E+01  5.608501E+00 -2.809016E+01  5.982727E+00  9.986319E-01
      2318   8 -1.092093E+01 -4.457727E+01  5.267270E+00 -1.138735E+01  5.222270E+00  5.389858E-01
      2319   1 -4.344460E+01 -1.025964E+02 -7.891744E+00 -3.595930E+01 -1.466108E+00  3.467478E+00
      2319   2 -3.426100E+01 -1.099265E+02 -8.542750E+00 -1.788047E+01 -1.892877E+00  2.974241E+00
      2319   3 -4.302624E+01 -1.001393E+02 -7.056718E+00 -3.574994E+01  5.584422E+00  2.702954E+00
      2319   4 -3.371715E+01 -1.074744E+02 -7.657797E+00 -1.764433E+01  4.942290E+00  2.255645E+00
      2319   5 -1.781149E+01 -3.863650E+01  4.358506E+00 -2.667211E+01 -1.453190E+00  2.753718E+00
      2319   6 -8.886136E+00 -4.541613E+01  4.186267E+00 -9.478690E+00 -1.881494E+00  2.249558E+00
      2319   7 -1.740328E+01 -3.627747E+01  5.167661E+00 -2.642487E+01  5.545423E+00  1.762033E+00
      2319   8 -8.358732E+00 -4.306199E+01  5.042537E+00 -9.205987E+00  4.912379E+00  1.301696E+00
      2320   1 -3.532850E+01 -1.013704E+02 -7.176664E+00 -3.101191E+01 -1.756650E+00  3.538907E+00
      2320   2 -2.825484E+01 -1.049275E+02 -7.257351E+00 -1.315294E+01 -2.057988E+00  3.074906E+00
      2320   3 -3.496120E+01 -9.921077E+01 -6.435695E+00 -3.094062E+01  5.000250E+00  3.341745E+00
      2320   4 -2.778718E+01 -1.027595E+02 -6.474249E+00 -1.304373E+01  4.478179E+00  2.906278E+00
      2320   5 -1.248518E+01 -4.052737E+01  3.980675E+00 -2.488091E+01 -1.714524E+00  2.818810E+00
      2320   6 -5.559678E+00 -4.371201E+01  4.366560E+00 -7.896584E+00 -2.005779E+00  2.344288E+00
      2320   7 -1.213647E+01 -3.844783E+01  4.696354E+00 -2.478044E+01  5.008719E+00  2.388832E+00
      2320   8 -5.115945E+00 -4.162495E+01  5.121338E+00 -7.760037E+00  4.507555E+00  1.941577E+00
      2321   1 -2.707385E+01 -1.002219E+02 -6.246318E+00 -2.643856E+01 -2.049057E+00  3.495628E+00
      2321   2 -2.163573E+01 -1.001306E+02 -5.489758E+00 -9.352620E+00 -2.213676E+00  3.067358E+00
      2321   3 -2.672254E+01 -9.832430E+01 -5.578510E+00 -2.649097E+01  4.357942E+00  3.726377E+00
      2321   4 -2.119069E+01 -9.820268E+01 -4.779688E+00 -9.368208E+00  3.974565E+00  3.308476E+00
      2321   5 -6.699882E+00 -4.337482E+01  3.663867E+00 -2.315649E+01 -1.973668E+00  2.780460E+00
      2321   6 -1.320833E+00 -4.308075E+01  4.866992E+00 -6.907331E+00 -2.121395E+00  2.348409E+00
      2321   7 -6.381008E+00 -4.156677E+01  4.296990E+00 -2.318465E+01  4.418741E+00  2.780554E+00
      2321   8 -9.134784E-01 -4.124450E+01  5.538769E+00 -6.900486E+00  4.062937E+00  2.358458E+00
      2322   1 -2.142672E+01 -9.690133E+01 -5.435102E+00  9.390177E+00  2.018910E+00  3.760705E+00
      2322   2 -2.712583E+01 -9.695319E+01 -6.139348E+00  2.693602E+01  1.823388E+00  4.512632E+00
      2322   3 -2.085041E+01 -9.358888E+01 -4.266398E+00  9.974683E+00 -4.280280E+00  4.045562E+00
      2322   4 -2.672691E+01 -9.373683E+01 -5.046919E+00  2.739592E+01 -4.736018E+00  4.789949E+00
      2322   5 -1.307170E+00 -4.014014E+01  4.541874E+00  6.882613E+00  1.806882E+00  2.723980E+00
      2322   6 -6.986826E+00 -4.044911E+01  3.266226E+00  2.356913E+01  1.639052E+00  3.472644E+00
      2322   7 -8.172786E-01 -3.703461E+01  5.621922E+00  7.410550E+00 -4.487617E+00  2.731126E+00
      2322   8 -6.666514E+00 -3.743585E+01  4.271707E+00  2.397857E+01 -4.902848E+00  3.472749E+00
      2323   1 -2.799532E+01 -1.011550E+02 -6.868925E+00  1.305058E+01  1.665117E+00  3.617494E+00
      2323   2 -3.550772E+01 -9.740241E+01 -6.803556E+00  3.138204E+01  1.452315E+00  4.509414E+00
      2323   3 -2.734273E+01 -9.709809E+01 -5.447852E+00  1.335755E+01 -5.044475E+00  3.438316E+00
      2323   4 -3.502118E+01 -9.348564E+01 -5.463833E+00  3.155007E+01 -5.504690E+00  4.303885E+00
      2323   5 -5.508868E+00 -4.025495E+01  4.204067E+00  7.640396E+00  1.490993E+00  2.565082E+00
      2323   6 -1.288978E+01 -3.692257E+01  3.714583E+00  2.507408E+01  1.310385E+00  3.459855E+00
      2323   7 -4.947948E+00 -3.643530E+01  5.522693E+00  7.908328E+00 -5.192857E+00  2.120961E+00
      2323   8 -1.248731E+01 -3.323676E+01  4.954578E+00  2.520987E+01 -5.608667E+00  2.990857E+00
      2324   1 -3.396375E+01 -1.056131E+02 -7.971041E+00  1.764211E+01  1.335731E+00  3.279870E+00
      2324   2 -4.378332E+01 -9.792343E+01 -7.398586E+00  3.614250E+01  1.122139E+00  4.338840E+00
      2324   3 -3.317674E+01 -1.007919E+02 -6.274369E+00  1.759485E+01 -5.706030E+00  2.499410E+00
      2324   4 -4.312934E+01 -9.328948E+01 -5.782933E+00  3.594029E+01 -6.146598E+00  3.516576E+00
      2324   5 -8.776446E+00 -4.150779E+01  4.074205E+00  8.988379E+00  1.190360E+00  2.245686E+00
      2324   6 -1.832938E+01 -3.440897E+01  4.118627E+00  2.658271E+01  1.017649E+00  3.307393E+00
      2324   7 -8.109174E+00 -3.698600E+01  5.638734E+00  8.931287E+00 -5.807715E+00  1.221191E+00
      2324   8 -1.778883E+01 -3.006550E+01  5.605641E+00  2.637827E+01 -6.196150E+00  2.243362E+00
      2325   1 -3.962196E+01 -1.089034E+02 -8.648981E+00  2.320758E+01  1.082625E+00  2.899846E+00
      2325   2 -5.237314E+01 -9.745968E+01 -7.854577E+00  4.106864E+01  8.576965E-01  4.118777E+00
      2325   3 -3.864998E+01 -1.034773E+02 -6.710246E+00  2.271320E+01 -6.201714E+00  1.451678E+00
      2325   4 -5.146529E+01 -9.226048E+01 -5.983245E+00  4.041607E+01 -6.636321E+00  2.615233E+00
      2325   5 -1.137960E+01 -4.290931E+01  4.139659E+00  1.106091E+01  9.601017E-01  1.894366E+00
      2325   6 -2.370583E+01 -3.222561E+01  4.429573E+00  2.804724E+01  7.918906E-01  3.115709E+00
      2325   7 -1.057332E+01 -3.784316E+01  5.911963E+00  1.060014E+01 -6.264414E+00  2.199704E-01
      2325   8 -2.296039E+01 -2.737506E+01  6.138103E+00  2.743600E+01 -6.631829E+00  1.388902E+00
      2326   1 -4.570129E+01 -1.107634E+02 -9.106995E+00  2.920548E+01  8.937464E-01  2.564259E+00
      2326   2 -6.162893E+01 -9.579414E+01 -8.240552E+00  4.566201E+01  6.444121E-01  3.923588E+00
      2326   3 -4.446077E+01 -1.049459E+02 -6.965816E+00  2.821466E+01 -6.548735E+00  4.091942E-01
      2326   4 -6.037961E+01 -9.024113E+01 -6.151053E+00  4.452659E+01 -6.994316E+00  1.700219E+00
      2326   5 -1.387471E+01 -4.394299E+01  4.306263E+00  1.353863E+01  7.981120E-01  1.584833E+00
      2326   6 -2.921335E+01 -2.989799E+01  4.684463E+00  2.918920E+01  6.222710E-01  2.949229E+00
      2326   7 -1.285553E+01 -3.852636E+01  6.249723E+00  1.262630E+01 -6.569017E+00 -7.825086E-01
      2326   8 -2.818532E+01 -2.473238E+01  6.579889E+00  2.813935E+01 -6.931219E+00  5.172258E-01
      2327   1 -5.258256E+01 -1.112199E+02 -9.478286E+00  3.517399E+01  7.482355E-01  2.294541E+00
      2327   2 -7.162318E+01 -9.299917E+01 -8.600928E+00  4.952252E+01  4.644406E-01  3.775670E+00
      2327   3 -5.098321E+01 -1.052248E+02 -7.172224E+00  3.368006E+01 -6.772527E+00 -5.943673E-01
      2327   4 -6.995164E+01 -8.730322E+01 -6.332456E+00  4.791339E+01 -7.239741E+00  8.065768E-01
      2327   5 -1.656970E+01 -4.444305E+01  4.505077E+00  1.614525E+01  6.837626E-01  1.339055E+00
      2327   6 -3.486196E+01 -2.729877E+01  4.909764E+00  2.979105E+01  4.885031E-01  2.831513E+00
      2327   7 -1.525219E+01 -3.886680E+01  6.587662E+00  1.476925E+01 -6.747138E+00 -1.748542E+00
      2327   8 -3.347499E+01 -2.200622E+01  6.958525E+00  2.830551E+01 -7.116497E+00 -3.319888E-01
      2328   1 -6.038741E+01 -1.103526E+02 -9.820939E+00  4.078043E+01  6.329483E-01  2.081877E+00
      2328   2 -8.225279E+01 -8.923436E+01 -8.951246E+00  5.237701E+01  3.055933E-01  3.671579E+00
      2328   3 -5.834114E+01 -1.043698E+02 -7.381054E+00  3.881046E+01 -6.884855E+00 -1.560099E+00
      2328   4 -8.008396E+01 -8.357910E+01 -6.536484E+00  5.033453E+01 -7.381698E+00 -6.066815E-02
      2328   5 -1.960043E+01 -4.438660E+01  4.701093E+00  1.870813E+01  6.008333E-01  1.150342E+00
      2328   6 -4.057156E+01 -2.447931E+01  5.116132E+00  2.973678E+01  3.748015E-01  2.760942E+00
      2328   7 -1.789971E+01 -3.882086E+01  6.896968E+00  1.688697E+01 -6.814382E+00 -2.675246E+00
      2328   8 -3.875307E+01 -1.922378E+01  7.290922E+00  2.784665E+01 -7.201213E+00 -1.150074E+00
      2329   1 -6.908881E+01 -1.082425E+02 -1.015135E+01  4.577138E+01  5.420032E-01  1.909054E+00
      2329   2 -9.332683E+01 -8.468787E+01 -9.293142E+00  5.404084E+01  1.612758E-01  3.598943E+00
      2329   3 -6.651395E+01 -1.024334E+02 -7.602051E+00  4.337953E+01 -6.888067E+00 -2.496458E+00
      2329   4 -9.059224E+01 -7.922371E+01 -6.756943E+00  5.162978E+01 -7.422875E+00 -9.045684E-01
      2329   5 -2.300635E+01 -4.378528E+01  4.881409E+00  2.111630E+01  5.403170E-01  1.002576E+00
      2329   6 -4.622481E+01 -2.155179E+01  5.306734E+00  2.898077E+01  2.715433E-01  2.725927E+00
      2329   7 -2.084296E+01 -3.837521E+01  7.170640E+00  1.889365E+01 -6.776840E+00 -3.569511E+00
      2329   8 -4.390793E+01 -1.646816E+01  7.587228E+00  2.673987E+01 -7.191723E+00 -1.938858E+00
      2330   1 -7.857966E+01 -1.049837E+02 -1.046976E+01  4.993216E+01  4.737436E-01  1.760477E+00
      2330   2 -1.046092E+02 -7.956459E+01 -9.622877E+00  5.438708E+01  2.881846E-02  3.545270E+00
      2330   3 -7.540441E+01 -9.948014E+01 -7.829705E+00  4.719569E+01 -6.780702E+00 -3.408655E+00
      2330   4 -1.012511E+02 -7.440977E+01 -6.983727E+00  5.169242E+01 -7.363059E+00 -1.726859E+00
      2330   5 -2.678126E+01 -4.265697E+01  5.043098E+00  2.328207E+01  4.984339E-01  8.803940E-01
      2330   6 -5.169284E+01 -1.863960E+01  5.482570E+00  2.751882E+01  1.738885E-01  2.713873E+00
      2330   7 -2.408424E+01 -3.752242E+01  7.410746E+00  2.072323E+01 -6.635602E+00 -4.436510E+00
      2330   8 -4.881988E+01 -1.383470E+01  7.854066E+00  2.499974E+01 -7.090396E+00 -2.700390E+00
      2331   1 -8.870052E+01 -1.006988E+02 -1.077156E+01  5.307283E+01  4.286155E-01  1.625288E+00
      2331   2 -1.158383E+02 -7.408763E+01 -9.936045E+00  5.333634E+01 -9.228432E-02  3.501250E+00
      2331   3 -8.486786E+01 -9.560369E+01 -8.055220E+00  5.008852E+01 -6.560741E+00 -4.296006E+00
      2331   4 -1.118139E+02 -6.932924E+01 -7.207747E+00  5.045910E+01 -7.201663E+00 -2.525125E+00
      2331   5 -3.089269E+01 -4.102629E+01  5.187007E+00  2.512369E+01  4.742714E-01  7.726142E-01
      2331   6 -5.684603E+01 -1.586298E+01  5.644093E+00  2.537426E+01  7.987595E-02  2.714778E+00
      2331   7 -2.760411E+01 -3.626253E+01  7.621596E+00  2.231239E+01 -6.390255E+00 -5.276347E+00
      2331   8 -5.337267E+01 -1.141696E+01  8.095786E+00  2.266478E+01 -6.898328E+00 -3.433423E+00
      2332   1 -9.925132E+01 -9.554625E+01 -1.105167E+01  5.502936E+01  4.076192E-01  1.497596E+00
      2332   2 -1.267371E+02 -6.849465E+01 -1.022836E+01  5.085586E+01 -2.018042E-01  3.461186E+00
      2332   3 -9.472393E+01 -9.093440E+01 -8.271070E+00  5.190954E+01 -6.227526E+00 -5.152357E+00
      2332   4 -1.220242E+02 -6.419053E+01 -7.422241E+00  4.790896E+01 -6.939334E+00 -3.292973E+00
      2332   5 -3.528827E+01 -3.893020E+01  5.314934E+00  2.656145E+01  4.682078E-01  6.726079E-01
      2332   6 -6.155923E+01 -1.333486E+01  5.791555E+00  2.259240E+01 -1.113771E-02  2.721812E+00
      2332   7 -3.136706E+01 -3.460812E+01  7.807190E+00  2.359631E+01 -6.040908E+00 -6.084136E+00
      2332   8 -5.745877E+01 -9.302591E+00  8.314847E+00  1.979172E+01 -6.617157E+00 -4.133231E+00
      2333   1 -1.099993E+02 -8.972078E+01 -1.130607E+01  5.567189E+01  4.116337E-01  1.375582E+00
      2333   2 -1.370230E+02 -6.303134E+01 -1.049635E+01  4.696339E+01 -2.993721E-01  3.422530E+00
      2333   3 -1.047631E+02 -8.563780E+01 -8.471504E+00  5.253949E+01 -5.782370E+00 -5.967535E+00
      2333   4 -1.316232E+02 -5.921072E+01 -7.622236E+00  4.406657E+01 -6.578428E+00 -4.020995E+00
      2333   5 -3.989941E+01 -3.642290E+01  5.427777E+00  2.752158E+01  4.810161E-01  5.776617E-01
      2333   6 -6.571619E+01 -1.115704E+01  5.925663E+00  1.923947E+01 -9.919380E-02  2.731045E+00
      2333   7 -3.532469E+01 -3.258829E+01  7.969883E+00  2.451198E+01 -5.589031E+00 -6.851150E+00
      2333   8 -6.098248E+01 -7.568548E+00  8.513241E+00  1.645392E+01 -6.249676E+00 -4.792339E+00
      2334   1 -1.206858E+02 -8.344650E+01 -1.153151E+01  5.491117E+01  4.410072E-01  1.260281E+00
      2334   2 -1.464198E+02 -5.794202E+01 -1.073725E+01  4.172728E+01 -3.849035E-01  3.384924E+00
      2334   3 -1.147532E+02 -7.990959E+01 -8.652652E+00  5.189414E+01 -5.229077E+00 -6.728797E+00
      2334   4 -1.403593E+02 -5.460602E+01 -7.804144E+00  3.900151E+01 -6.123501E+00 -4.697936E+00
      2334   5 -4.464021E+01 -3.357413E+01  5.526893E+00  2.793839E+01  5.131740E-01  4.876991E-01
      2334   6 -6.921529E+01 -9.420146E+00  6.045865E+00  1.540024E+01 -1.842196E-01  2.740641E+00
      2334   7 -3.941477E+01 -3.024777E+01  8.111479E+00  2.499958E+01 -5.038281E+00 -7.566279E+00
      2334   8 -6.386436E+01 -6.281007E+00  8.691010E+00  1.273844E+01 -5.800413E+00 -5.401490E+00
      2335   1 -1.310359E+02 -7.696707E+01 -1.172506E+01  5.270617E+01  4.950726E-01  1.154394E+00
      2335   2 -1.546663E+02 -5.345764E+01 -1.094839E+01  3.526767E+01 -4.589198E-01  3.349326E+00
      2335   3 -1.244475E+02 -7.396521E+01 -8.811674E+00  4.993204E+01 -4.574110E+00 -7.422391E+00
      2335   4 -1.479986E+02 -5.058108E+01 -7.965676E+00  3.282969E+01 -5.581339E+00 -5.312013E+00
      2335   5 -4.941266E+01 -3.046926E+01  5.612464E+00  2.776094E+01  5.646124E-01  4.044842E-01
      2335   6 -7.197079E+01 -8.196236E+00  6.152762E+00  1.117651E+01 -2.664562E-01  2.750077E+00
      2335   7 -4.356382E+01 -2.764687E+01  8.232244E+00  2.500931E+01 -4.394425E+00 -8.217231E+00
      2335   8 -6.604224E+01 -5.488716E+00  8.848540E+00  8.744585E+00 -5.275753E+00 -5.950895E+00
      2336   1 -1.407695E+02 -7.053743E+01 -1.188496E+01  4.906763E+01  5.724750E-01  1.061860E+00
      2336   2 -1.615289E+02 -4.978576E+01 -1.112754E+01  2.775208E+01 -5.223493E-01  3.317749E+00
      2336   3 -1.335930E+02 -6.803200E+01 -8.946740E+00  4.665672E+01 -3.826268E+00 -8.034258E+00
      2336   4 -1.543327E+02 -4.731911E+01 -8.104873E+00  2.570841E+01 -4.960726E+00 -5.851324E+00
      2336   5 -5.410893E+01 -2.720613E+01  5.684415E+00  2.695504E+01  6.345971E-01  3.310465E-01
      2336   6 -7.391952E+01 -7.538660E+00  6.246113E+00  6.683347E+00 -3.463592E-01  2.759890E+00
      2336   7 -4.768846E+01 -2.485864E+01  8.332174E+00  2.450221E+01 -3.665492E+00 -8.791340E+00
      2336   8 -6.747555E+01 -5.223272E+00  8.985379E+00  4.579780E+00 -4.683838E+00 -6.430604E+00
      2337   1 -1.496123E+02 -6.441069E+01 -1.200980E+01  4.405889E+01  6.710776E-01  9.873136E-01
      2337   2 -1.668126E+02 -4.710162E+01 -1.127318E+01  1.938947E+01 -5.764720E-01  3.292879E+00
      2337   3 -1.419419E+02 -6.233842E+01 -9.056834E+00  4.211860E+01 -2.996629E+00 -8.550715E+00
      2337   4 -1.591892E+02 -4.497343E+01 -8.220441E+00  1.783101E+01 -4.272253E+00 -6.304467E+00
      2337   5 -5.861370E+01 -2.389029E+01  5.742929E+00  2.550567E+01  7.216764E-01  2.712369E-01
      2337   6 -7.502249E+01 -7.479672E+00  6.325262E+00  2.044496E+00 -4.245938E-01  2.771505E+00
      2337   7 -5.169742E+01 -2.196599E+01  8.411125E+00  2.345332E+01 -2.861623E+00 -9.276163E+00
      2337   8 -6.814549E+01 -5.496888E+00  9.100676E+00  3.552514E-01 -4.034377E+00 -6.830919E+00
      2338   1 -1.573075E+02 -5.882742E+01 -1.209855E+01  3.779362E+01  7.881960E-01  9.358081E-01
      2338   2 -1.703702E+02 -4.553940E+01 -1.138514E+01  1.042110E+01 -6.227489E-01  3.277931E+00
      2338   3 -1.492600E+02 -5.710346E+01 -9.141310E+00  3.641288E+01 -2.098081E+00 -8.959048E+00
      2338   4 -1.624402E+02 -4.366131E+01 -8.313047E+00  9.418391E+00 -3.527894E+00 -6.660983E+00
      2338   5 -6.280955E+01 -2.063125E+01  5.788102E+00  2.341779E+01  8.237517E-01  2.295497E-01
      2338   6 -7.526507E+01 -8.026696E+00  6.390174E+00 -2.614204E+00 -5.021183E-01  2.786882E+00
      2338   7 -5.549435E+01 -1.905834E+01  8.468777E+00  2.185280E+01 -1.994788E+00 -9.659977E+00
      2338   8 -6.805576E+01 -6.301384E+00  9.193531E+00 -3.819709E+00 -3.338489E+00 -7.143052E+00
      2339   1 -1.636331E+02 -5.400974E+01 -1.215451E+01  3.043091E+01  9.201444E-01  9.125922E-01
      2339   2 -1.721113E+02 -4.518902E+01 -1.146683E+01  1.107821E+00 -6.639307E-01  3.275409E+00
      2339   3 -1.553419E+02 -5.253204E+01 -9.203382E+00  2.967615E+01 -1.145010E+00 -9.248131E+00
      2339   4 -1.640069E+02 -4.345856E+01 -8.385474E+00  7.088363E-01 -2.741338E+00 -6.912973E+00
      2339   5 -6.658177E+01 -1.753991E+01  5.818914E+00  2.071504E+01  9.382389E-01  2.106516E-01
      2339   6 -7.465979E+01 -9.166230E+00  6.437868E+00 -7.171932E+00 -5.798849E-01  2.807570E+00
      2339   7 -5.898233E+01 -1.623043E+01  8.503534E+00  1.970551E+01 -1.077793E+00 -9.932579E+00
      2339   8 -6.723192E+01 -7.610189E+00  9.260830E+00 -7.843107E+00 -2.607577E+00 -7.360374E+00
      2340   1 -1.684042E+02 -5.016187E+01 -1.218689E+01  2.215745E+01  1.060111E+00  9.185196E-01
      2340   2 -1.720265E+02 -4.615469E+01 -1.155118E+01 -8.297339E+00 -7.058620E-01  3.274137E+00
      2340   3 -1.600084E+02 -4.881129E+01 -9.248994E+00  2.208309E+01 -1.557984E-01 -9.413853E+00
      2340   4 -1.638746E+02 -4.444032E+01 -8.460459E+00 -8.053670E+00 -1.930160E+00 -7.068850E+00
      2340   5 -6.980191E+01 -1.473262E+01  5.835357E+00  1.744315E+01  1.061294E+00  2.152325E-01
      2340   6 -7.324423E+01 -1.091904E+01  6.446164E+00 -1.152011E+01 -6.586435E-01  2.825050E+00
      2340   7 -6.204802E+01 -1.358405E+01  8.515138E+00  1.704435E+01 -1.253983E-01 -1.008991E+01
      2340   8 -6.571570E+01 -9.417852E+00  9.286841E+00 -1.161645E+01 -1.853448E+00 -7.488502E+00
      2341   1 -1.713350E+02 -4.734871E+01 -1.213418E+01  1.299387E+01  1.177879E+00  9.319784E-01
      2341   2 -1.700419E+02 -4.817245E+01 -1.156473E+01 -1.700133E+01 -7.441887E-01  3.114749E+00
      2341   3 -1.630281E+02 -4.602193E+01 -9.242500E+00  1.368607E+01  8.360213E-01 -9.493587E+00
      2341   4 -1.620096E+02 -4.643445E+01 -8.521002E+00 -1.628028E+01 -1.079012E+00 -7.319572E+00
      2341   5 -7.234283E+01 -1.226191E+01  5.856415E+00  1.338620E+01  1.166115E+00  2.266730E-01
      2341   6 -7.109280E+01 -1.302498E+01  6.445439E+00 -1.513999E+01 -7.380223E-01  2.660483E+00
      2341   7 -6.458571E+01 -1.117440E+01  8.510526E+00  1.371143E+01  8.304626E-01 -1.016765E+01
      2341   8 -6.359029E+01 -1.153992E+01  9.259220E+00 -1.478732E+01 -1.066711E+00 -7.743179E+00
      2342   1 -1.725070E+02 -4.588306E+01 -1.207644E+01  3.977617E+00  1.281881E+00  1.116768E+00
      2342   2 -1.664680E+02 -5.133765E+01 -1.158316E+01 -2.543570E+01 -7.922612E-01  3.037211E+00
      2342   3 -1.644100E+02 -4.440706E+01 -9.216463E+00  5.252849E+00  1.848642E+00 -9.331629E+00
      2342   4 -1.586301E+02 -4.947060E+01 -8.578207E+00 -2.418552E+01 -2.192349E-01 -7.399638E+00
      2342   5 -7.412534E+01 -1.039736E+01  5.867370E+00  9.374598E+00  1.248044E+00  4.211943E-01
      2342   6 -6.834515E+01 -1.554795E+01  6.422418E+00 -1.859819E+01 -8.283580E-01  2.573805E+00
      2342   7 -6.650741E+01 -9.209828E+00  8.500224E+00  1.028207E+01  1.798263E+00 -1.000005E+01
      2342   8 -6.096772E+01 -1.398250E+01  9.207237E+00 -1.771455E+01 -2.718260E-01 -7.837368E+00
      2343   1 -1.718487E+02 -4.553662E+01 -1.195702E+01 -5.163115E+00  1.358632E+00  1.330044E+00
      2343   2 -1.612694E+02 -5.547779E+01 -1.155934E+01 -3.318144E+01 -8.312093E-01  2.965774E+00
      2343   3 -1.640887E+02 -4.383413E+01 -9.142442E+00 -3.335414E+00  2.830751E+00 -9.032292E+00
      2343   4 -1.537371E+02 -5.339758E+01 -8.600047E+00 -3.142978E+01  6.431436E-01 -7.365074E+00
      2343   5 -7.514556E+01 -8.980839E+00  5.880293E+00  5.072011E+00  1.307493E+00  6.326708E-01
      2343   6 -6.503133E+01 -1.838210E+01  6.382277E+00 -2.157412E+01 -9.038240E-01  2.482945E+00
      2343   7 -6.778809E+01 -7.610144E+00  8.481354E+00  6.537095E+00  2.741005E+00 -9.709537E+00
      2343   8 -5.788469E+01 -1.664653E+01  9.134112E+00 -2.018134E+01  5.322418E-01 -7.830135E+00
      2344   1 -1.693975E+02 -4.636623E+01 -1.180355E+01 -1.414496E+01  1.404471E+00  1.554235E+00
      2344   2 -1.546133E+02 -6.046143E+01 -1.150209E+01 -4.001349E+01 -8.634041E-01  2.895110E+00
      2344   3 -1.620803E+02 -4.434846E+01 -9.037781E+00 -1.182852E+01  3.763791E+00 -8.613830E+00
      2344   4 -1.474837E+02 -5.808670E+01 -8.591814E+00 -3.781715E+01  1.490996E+00 -7.222476E+00
      2344   5 -7.536471E+01 -8.109160E+00  5.878056E+00  5.912981E-01  1.337861E+00  8.497587E-01
      2344   6 -6.123570E+01 -2.144513E+01  6.325668E+00 -2.401035E+01 -9.676883E-01  2.385897E+00
      2344   7 -6.837769E+01 -6.462434E+00  8.443335E+00  2.560089E+00  3.637956E+00 -9.308368E+00
      2344   8 -5.442190E+01 -1.945373E+01  9.040511E+00 -2.215579E+01  1.328213E+00 -7.724939E+00
      2345   1 -1.652246E+02 -4.832191E+01 -1.162036E+01 -2.270149E+01  1.418831E+00  1.782154E+00
      2345   2 -1.467042E+02 -6.610684E+01 -1.141495E+01 -4.574694E+01 -8.897009E-01  2.826100E+00
      2345   3 -1.584381E+02 -4.591471E+01 -8.905817E+00 -1.997981E+01  4.632513E+00 -8.087106E+00
      2345   4 -1.400595E+02 -6.336977E+01 -8.556470E+00 -4.318091E+01  2.309032E+00 -6.975265E+00
      2345   5 -7.476342E+01 -7.808241E+00  5.859892E+00 -3.943960E+00  1.338079E+00  1.065429E+00
      2345   6 -5.706548E+01 -2.463762E+01  6.252381E+00 -2.586073E+01 -1.020838E+00  2.284176E+00
      2345   7 -6.824227E+01 -5.806466E+00  8.385647E+00 -1.546619E+00  4.473993E+00 -8.806923E+00
      2345   8 -5.067448E+01 -2.231737E+01  8.926140E+00 -2.361141E+01  2.101386E+00 -7.524214E+00
      2346   1 -1.594490E+02 -5.130602E+01 -1.141004E+01 -3.058803E+01  1.400604E+00  2.010221E+00
      2346   2 -1.377719E+02 -7.220205E+01 -1.129861E+01 -5.024154E+01 -9.121143E-01  2.760513E+00
      2346   3 -1.532606E+02 -4.845325E+01 -8.748478E+00 -2.755786E+01  5.422449E+00 -7.461640E+00
      2346   4 -1.316769E+02 -6.905130E+01 -8.494366E+00 -4.739323E+01  3.082156E+00 -6.627990E+00
      2346   5 -7.334503E+01 -8.082355E+00  5.825629E+00 -8.411865E+00  1.308230E+00  1.276495E+00
      2346   6 -5.263018E+01 -2.785561E+01  6.163432E+00 -2.710281E+01 -1.063870E+00  2.180479E+00
      2346   7 -6.736679E+01 -5.663621E+00  8.308503E+00 -5.676149E+00  5.236197E+00 -8.213978E+00
      2346   8 -4.673652E+01 -2.514918E+01  8.792092E+00 -2.454006E+01  2.838423E+00 -7.231219E+00
      2347   1 -1.522297E+02 -5.517814E+01 -1.117355E+01 -3.758836E+01  1.349127E+00  2.234822E+00
      2347   2 -1.280661E+02 -7.851790E+01 -1.115417E+01 -5.340441E+01 -9.326182E-01  2.699492E+00
      2347   3 -1.466866E+02 -5.184422E+01 -8.566726E+00 -3.435489E+01  6.120653E+00 -6.748775E+00
      2347   4 -1.225669E+02 -7.492003E+01 -8.406265E+00 -5.036978E+01  3.796456E+00 -6.187600E+00
      2347   5 -7.113427E+01 -8.914539E+00  5.775574E+00 -1.269449E+01  1.249074E+00  1.479935E+00
      2347   6 -4.804049E+01 -3.099764E+01  6.059076E+00 -2.773595E+01 -1.097555E+00  2.077224E+00
      2347   7 -6.575594E+01 -6.036855E+00  8.212316E+00 -9.721067E+00  5.913338E+00 -7.539869E+00
      2347   8 -4.269989E+01 -2.786499E+01  8.639074E+00 -2.495161E+01  3.526896E+00 -6.851197E+00
      2348   1 -1.437633E+02 -5.976301E+01 -1.091216E+01 -4.352046E+01  1.264722E+00  2.452078E+00
      2348   2 -1.178463E+02 -8.481614E+01 -1.098224E+01 -5.519049E+01 -9.528315E-01  2.643634E+00
      2348   3 -1.388919E+02 -5.593422E+01 -8.362184E+00 -4.019369E+01  6.716535E+00 -5.961682E+00
      2348   4 -1.129694E+02 -8.075755E+01 -8.293068E+00 -5.207061E+01  4.439795E+00 -5.663092E+00
      2348   5 -6.817733E+01 -1.026791E+01  5.709875E+00 -1.668002E+01  1.161923E+00  1.672794E+00
      2348   6 -4.340251E+01 -3.396695E+01  5.939863E+00 -2.777853E+01 -1.122758E+00  1.976418E+00
      2348   7 -6.343427E+01 -6.910435E+00  8.097262E+00 -1.357606E+01  6.496038E+00 -6.796419E+00
      2348   8 -3.865088E+01 -3.038756E+01  8.467658E+00 -2.487136E+01  4.155621E+00 -6.391294E+00
      2349   1 -1.342769E+02 -6.485800E+01 -1.062751E+01 -4.824261E+01  1.148738E+00  2.658468E+00
      2349   2 -1.073736E+02 -9.086080E+01 -1.078433E+01 -5.560321E+01 -9.742381E-01  2.593878E+00
      2349   3 -1.300804E+02 -6.054253E+01 -8.136301E+00 -4.493252E+01  7.201959E+00 -5.114603E+00
      2349   4 -1.031257E+02 -8.634870E+01 -8.156345E+00 -5.250005E+01  5.001656E+00 -5.064519E+00
      2349   5 -6.454076E+01 -1.208617E+01  5.628663E+00 -2.026628E+01  1.048855E+00  1.852449E+00
      2349   6 -3.881518E+01 -3.667561E+01  5.805920E+00 -2.726641E+01 -1.140456E+00  1.880368E+00
      2349   7 -6.044535E+01 -8.250272E+00  7.963649E+00 -1.714072E+01  6.977110E+00 -5.996476E+00
      2349   8 -3.466795E+01 -3.264977E+01  8.278009E+00 -2.433767E+01  4.714789E+00 -5.859694E+00
      2350   1 -1.240195E+02 -7.024248E+01 -1.032200E+01 -5.165766E+01  1.003350E+00  2.851304E+00
      2350   2 -9.690128E+01 -9.642724E+01 -1.056230E+01 -5.469217E+01 -9.980292E-01  2.551636E+00
      2350   3 -1.204801E+02 -6.547080E+01 -7.891815E+00 -4.847005E+01  7.571449E+00 -4.222060E+00
      2350   4 -9.326864E+01 -9.148949E+01 -7.998149E+00 -5.170446E+01  5.473701E+00 -4.402504E+00
      2350   5 -6.030891E+01 -1.429654E+01  5.531750E+00 -2.336420E+01  9.125435E-01  2.017205E+00
      2350   6 -3.436703E+01 -3.904720E+01  5.657247E+00 -2.625010E+01 -1.151703E+00  1.791881E+00
      2350   7 -5.685212E+01 -1.000627E+01  7.810939E+00 -2.032333E+01  7.351720E+00 -5.153045E+00
      2350   8 -3.081896E+01 -3.459633E+01  8.069908E+00 -2.339932E+01  5.196324E+00 -5.265092E+00
      2351   1 -1.132520E+02 -7.568752E+01 -9.998553E+00 -5.371535E+01  8.315777E-01  3.029699E+00
      2351   2 -8.666567E+01 -1.013117E+02 -1.031879E+01 -5.254931E+01 -1.024909E+00  2.519779E+00
      2351   3 -1.103332E+02 -7.051218E+01 -7.632709E+00 -5.074815E+01  7.822250E+00 -3.297689E+00
      2351   4 -8.361693E+01 -9.599723E+01 -7.822140E+00 -4.976921E+01  5.849995E+00 -3.687043E+00
      2351   5 -5.558095E+01 -1.681255E+01  5.418808E+00 -2.590049E+01  7.561139E-01  2.167219E+00
      2351   6 -3.013423E+01 -4.101936E+01  5.493383E+00 -2.479156E+01 -1.157516E+00  1.715208E+00
      2351   7 -5.273354E+01 -1.211426E+01  7.638052E+00 -2.304389E+01  7.617280E+00 -4.278173E+00
      2351   8 -2.716108E+01 -3.618648E+01  7.842132E+00 -2.211289E+01  5.594010E+00 -4.615552E+00
      2352   1 -1.022365E+02 -8.096455E+01 -9.660126E+00 -5.441189E+01  6.369184E-01  3.195227E+00
      2352   2 -7.687870E+01 -1.053392E+02 -1.005758E+01 -4.930285E+01 -1.055555E+00  2.503586E+00
      2352   3 -9.988621E+01 -7.546032E+01 -7.364079E+00 -5.175163E+01  7.954239E+00 -2.353129E+00
      2352   4 -7.436715E+01 -9.971830E+01 -7.634061E+00 -4.681246E+01  6.126811E+00 -2.926114E+00
      2352   5 -5.046676E+01 -1.953631E+01  5.289676E+00 -2.781930E+01  5.828780E-01  2.304985E+00
      2352   6 -2.617879E+01 -4.254510E+01  5.313125E+00 -2.296049E+01 -1.159288E+00  1.656772E+00
      2352   7 -4.818215E+01 -1.449880E+01  7.443249E+00 -2.523593E+01  7.773453E+00 -3.382017E+00
      2352   8 -2.373906E+01 -3.739493E+01  7.592085E+00 -2.053866E+01  5.903344E+00 -3.917347E+00
      2353   1 -9.122936E+01 -8.585493E+01 -9.310829E+00 -5.378847E+01  4.226963E-01  3.353094E+00
      2353   2 -6.772051E+01 -1.083670E+02 -9.782793E+00 -4.511021E+01 -1.091249E+00  2.511964E+00
      2353   3 -8.938322E+01 -8.011888E+01 -7.093199E+00 -5.150684E+01  7.969273E+00 -1.396563E+00
      2353   4 -6.568761E+01 -1.025324E+02 -7.441174E+00 -4.297818E+01  6.301966E+00 -2.124155E+00
      2353   5 -4.508386E+01 -2.236199E+01  5.143813E+00 -2.908377E+01  3.956442E-01  2.436392E+00
      2353   6 -2.254610E+01 -4.359124E+01  5.115518E+00 -2.083051E+01 -1.159398E+00  1.626243E+00
      2353   7 -4.330160E+01 -1.707656E+01  7.223290E+00 -2.684819E+01  7.821470E+00 -2.471513E+00
      2353   8 -2.058479E+01 -3.821068E+01  7.316199E+00 -1.873719E+01  6.120924E+00 -3.173590E+00
      2354   1 -8.047027E+01 -9.015449E+01 -8.954598E+00 -5.192837E+01  1.913523E-01  3.512255E+00
      2354   2 -5.933346E+01 -1.102858E+02 -9.498254E+00 -4.015175E+01 -1.134245E+00  2.557876E+00
      2354   3 -7.905709E+01 -8.430754E+01 -6.829162E+00 -5.008006E+01  7.870563E+00 -4.320052E-01
      2354   4 -5.771246E+01 -1.043538E+02 -7.252033E+00 -3.843067E+01  6.374489E+00 -1.280986E+00
      2354   5 -3.955254E+01 -2.517734E+01  4.980998E+00 -2.967728E+01  1.957492E-01  2.570829E+00
      2354   6 -1.926401E+01 -4.413586E+01  4.900064E+00 -1.847743E+01 -1.161902E+00  1.636913E+00
      2354   7 -3.820301E+01 -1.975817E+01  6.973776E+00 -2.784699E+01  7.763206E+00 -1.549758E+00
      2354   8 -1.771581E+01 -3.863467E+01  7.010159E+00 -1.676813E+01  6.243718E+00 -2.383298E+00
      2355   1 -7.017267E+01 -9.367513E+01 -8.593714E+00 -4.895822E+01 -5.684474E-02  3.684895E+00
      2355   2 -5.181001E+01 -1.110099E+02 -9.202401E+00 -3.463132E+01 -1.189066E+00  2.658008E+00
      2355   3 -6.911894E+01 -8.786422E+01 -6.581568E+00 -4.757844E+01  7.661189E+00  5.408173E-01
      2355   4 -5.052996E+01 -1.051224E+02 -7.071709E+00 -3.335489E+01  6.342929E+00 -3.914811E-01
      2355   5 -3.399077E+01 -2.786826E+01  4.800630E+00 -2.960932E+01 -1.832357E-02  2.720462E+00
      2355   6 -1.633522E+01 -4.416188E+01  4.670233E+00 -1.598410E+01 -1.173929E+00  1.705143E+00
      2355   7 -3.299952E+01 -2.245375E+01  6.688181E+00 -2.822186E+01  7.599541E+00 -6.162760E-01
      2355   8 -1.512799E+01 -3.867381E+01  6.672182E+00 -1.469489E+01  6.267240E+00 -1.541467E+00
      2356   1 -6.050598E+01 -9.624520E+01 -8.225224E+00 -4.506027E+01 -3.254125E-01  3.883088E+00
      2356   2 -4.516358E+01 -1.104632E+02 -8.876766E+00 -2.879166E+01 -1.264482E+00  2.829288E+00
      2356   3 -5.973910E+01 -9.064360E+01 -6.355782E+00 -4.416119E+01  7.341639E+00  1.523499E+00
      2356   4 -4.415227E+01 -1.047883E+02 -6.889252E+00 -2.797064E+01  6.202154E+00  5.513510E-01
      2356   5 -2.850391E+01 -3.033449E+01  4.599688E+00 -2.892998E+01 -2.526307E-01  2.896686E+00
      2356   6 -1.371601E+01 -4.365930E+01  4.439450E+00 -1.345812E+01 -1.207541E+00  1.846665E+00
      2356   7 -2.779509E+01 -2.508673E+01  6.356721E+00 -2.799929E+01  7.327791E+00  3.294107E-01
      2356   8 -1.277437E+01 -3.834144E+01  6.309690E+00 -1.260170E+01  6.182465E+00 -6.427575E-01
      2357   1 -5.155136E+01 -9.772063E+01 -7.831657E+00 -4.050098E+01 -6.229231E-01  4.110117E+00
      2357   2 -3.926344E+01 -1.085720E+02 -8.462567E+00 -2.295335E+01 -1.375047E+00  3.079101E+00
      2357   3 -5.100016E+01 -9.252193E+01 -6.140886E+00 -4.006692E+01  6.906508E+00  2.509387E+00
      2357   4 -3.844917E+01 -1.032977E+02 -6.652034E+00 -2.256992E+01  5.939108E+00  1.545685E+00
      2357   5 -2.315867E+01 -3.253931E+01  4.367506E+00 -2.775663E+01 -5.189651E-01  3.101582E+00
      2357   6 -1.126924E+01 -4.265594E+01  4.241862E+00 -1.106840E+01 -1.280712E+00  2.067052E+00
      2357   7 -2.265700E+01 -2.763816E+01  5.963346E+00 -2.726928E+01  6.938554E+00  1.277650E+00
      2357   8 -1.051730E+01 -3.768275E+01  5.951809E+00 -1.062921E+01  5.972213E+00  3.073516E-01
      2358   1 -4.321898E+01 -9.804534E+01 -7.368180E+00 -3.566651E+01 -9.633746E-01  4.344857E+00
      2358   2 -3.373010E+01 -1.053189E+02 -7.828951E+00 -1.755916E+01 -1.541643E+00  3.385058E+00
      2358   3 -4.281054E+01 -9.343602E+01 -5.889186E+00 -3.564605E+01  6.340632E+00  3.462316E+00
      2358   4 -3.304704E+01 -1.006273E+02 -6.229030E+00 -1.756075E+01  5.528577E+00  2.554462E+00
      2358   5 -1.793244E+01 -3.462249E+01  4.078048E+00 -2.630225E+01 -8.331280E-01  3.313688E+00
      2358   6 -8.692220E+00 -4.132376E+01  4.143993E+00 -9.081704E+00 -1.414354E+00  2.344213E+00
      2358   7 -1.756483E+01 -3.024568E+01  5.482243E+00 -2.621281E+01  6.414424E+00  2.188551E+00
      2358   8 -8.063659E+00 -3.686893E+01  5.662671E+00 -9.013215E+00  5.610954E+00  1.268694E+00
      2359   1 -3.515791E+01 -9.744631E+01 -6.769537E+00 -3.102692E+01 -1.358563E+00  4.517895E+00
      2359   2 -2.786600E+01 -1.009737E+02 -6.782331E+00 -1.311555E+01 -1.778153E+00  3.663962E+00
      2359   3 -3.481940E+01 -9.354808E+01 -5.515802E+00 -3.133191E+01  5.626932E+00  4.283173E+00
      2359   4 -2.726937E+01 -9.698899E+01 -5.415478E+00 -1.341893E+01  4.952227E+00  3.463678E+00
      2359   5 -1.262753E+01 -3.705143E+01  3.696686E+00 -2.483032E+01 -1.202873E+00  3.472037E+00
      2359   6 -5.456283E+00 -4.016961E+01  4.236226E+00 -7.796141E+00 -1.613769E+00  2.607545E+00
      2359   7 -1.233270E+01 -3.333648E+01  4.887357E+00 -2.506522E+01  5.743659E+00  2.972287E+00
      2359   8 -4.916513E+00 -3.637295E+01  5.533225E+00 -8.029517E+00  5.090175E+00  2.140743E+00
      2360   1 -2.696554E+01 -9.694590E+01 -6.104548E+00 -2.671157E+01 -1.790267E+00  4.517580E+00
      2360   2 -2.137884E+01 -9.684141E+01 -5.395366E+00 -9.571798E+00 -2.050030E+00  3.772385E+00
      2360   3 -2.662636E+01 -9.372775E+01 -5.044721E+00 -2.725975E+01  4.786119E+00  4.786842E+00
      2360   4 -2.081836E+01 -9.353522E+01 -4.237318E+00 -1.011032E+01  4.258001E+00  4.055256E+00
      2360   5 -6.856605E+00 -4.048425E+01  3.272142E+00 -2.337424E+01 -1.600777E+00  3.478691E+00
      2360   6 -1.285340E+00 -4.012669E+01  4.549001E+00 -7.073905E+00 -1.837473E+00  2.732203E+00
      2360   7 -6.581470E+00 -3.744572E+01  4.261211E+00 -2.386214E+01  4.957712E+00  3.468913E+00
      2360   8 -8.005856E-01 -3.700528E+01  5.629531E+00 -7.552622E+00  4.465762E+00  2.735508E+00
      2361   1 -2.152230E+01 -9.146675E+01 -5.294795E+00  1.116060E+01  2.778216E+00  1.614547E+00
      2361   2 -2.783370E+01 -9.185063E+01 -6.371331E+00  2.846818E+01  2.721919E+00  2.756615E+00
      2361   3 -2.162121E+01 -8.666306E+01 -3.881405E+00  1.382044E+01 -3.504477E+00  1.858310E+00
      2361   4 -2.878751E+01 -8.743950E+01 -5.326733E+00  3.094212E+01 -3.815371E+00  2.994541E+00
      2361   5 -1.561556E+00 -3.511727E+01  4.540579E+00  8.481239E+00  2.217308E+00  1.118568E+00
      2361   6 -7.826827E+00 -3.574532E+01  2.903157E+00  2.494117E+01  2.086852E+00  2.236086E+00
      2361   7 -1.820633E+00 -3.071558E+01  5.784659E+00  1.088178E+01 -4.060924E+00  1.084392E+00
      2361   8 -8.899818E+00 -3.171784E+01  3.794437E+00  2.716492E+01 -4.433790E+00  2.196467E+00
      2362   1 -2.822708E+01 -9.413762E+01 -6.489280E+00  1.423506E+01  2.718070E+00  1.448146E+00
      2362   2 -3.634932E+01 -9.084298E+01 -6.916987E+00  3.227746E+01  2.617233E+00  2.959077E+00
      2362   3 -2.865788E+01 -8.746026E+01 -4.608395E+00  1.632994E+01 -3.965146E+00  1.193961E+00
      2362   4 -3.752589E+01 -8.459291E+01 -5.378190E+00  3.410126E+01 -4.313161E+00  2.680871E+00
      2362   5 -5.927748E+00 -3.377634E+01  4.387236E+00  8.699880E+00  2.025361E+00  9.055056E-01
      2362   6 -1.390315E+01 -3.089402E+01  3.394938E+00  2.585865E+01  1.876969E+00  2.365123E+00
      2362   7 -6.572511E+00 -2.773152E+01  6.010245E+00  1.059808E+01 -4.632704E+00  3.802286E-01
      2362   8 -1.525777E+01 -2.525618E+01  4.691195E+00  2.749905E+01 -5.016329E+00  1.817057E+00
      2363   1 -3.429056E+01 -9.724938E+01 -7.535651E+00  1.802057E+01  2.702508E+00  1.276989E+00
      2363   2 -4.460370E+01 -9.008779E+01 -7.432796E+00  3.619507E+01  2.512548E+00  3.071865E+00
      2363   3 -3.496244E+01 -8.922421E+01 -5.317718E+00  1.923514E+01 -4.315233E+00  4.374859E-01
      2363   4 -4.582958E+01 -8.250803E+01 -5.500254E+00  3.709766E+01 -4.726016E+00  2.194572E+00
      2363   5 -9.358009E+00 -3.382992E+01  4.224475E+00  9.317240E+00  1.906858E+00  6.886333E-01
      2363   6 -1.938661E+01 -2.723958E+01  3.807684E+00  2.660166E+01  1.709902E+00  2.421605E+00
      2363   7 -1.029304E+01 -2.657650E+01  6.125476E+00  1.043237E+01 -5.068962E+00 -3.948358E-01
      2363   8 -2.084873E+01 -2.040999E+01  5.436729E+00  2.742007E+01 -5.475915E+00  1.302250E+00
      2364   1 -3.989905E+01 -9.959382E+01 -8.228354E+00  2.260897E+01  2.703994E+00  1.170425E+00
      2364   2 -5.297730E+01 -8.873357E+01 -7.847630E+00  4.013890E+01  2.413127E+00  3.166593E+00
      2364   3 -4.061799E+01 -9.073307E+01 -5.769256E+00  2.282261E+01 -4.554113E+00 -3.122849E-01
      2364   4 -5.407482E+01 -8.034411E+01 -5.624212E+00  4.003832E+01 -5.046535E+00  1.633831E+00
      2364   5 -1.199106E+01 -3.439040E+01  4.216188E+00  1.050595E+01  1.850183E+00  5.243429E-01
      2364   6 -2.463029E+01 -2.426353E+01  4.108114E+00  2.717735E+01  1.588131E+00  2.460832E+00
      2364   7 -1.301977E+01 -2.636280E+01  6.323680E+00  1.071303E+01 -5.350845E+00 -1.182436E+00
      2364   8 -2.601894E+01 -1.668403E+01  5.991751E+00  2.708560E+01 -5.804408E+00  7.065490E-01
      2365   1 -4.571910E+01 -1.009252E+02 -8.734358E+00  2.755323E+01  2.711339E+00  1.141957E+00
      2365   2 -6.180893E+01 -8.658998E+01 -8.209534E+00  4.370362E+01  2.311895E+00  3.284696E+00
      2365   3 -4.627216E+01 -9.162021E+01 -6.087583E+00  2.674089E+01 -4.705989E+00 -1.014324E+00
      2365   4 -6.260773E+01 -7.779921E+01 -5.766238E+00  4.259456E+01 -5.294704E+00  1.065877E+00
      2365   5 -1.431890E+01 -3.495956E+01  4.292142E+00  1.202056E+01  1.835877E+00  4.296317E-01
      2365   6 -2.981246E+01 -2.151812E+01  4.343904E+00  2.737998E+01  1.492413E+00  2.517100E+00
      2365   7 -1.523838E+01 -2.652285E+01  6.557478E+00  1.128159E+01 -5.509061E+00 -1.938105E+00
      2365   8 -3.096516E+01 -1.357001E+01  6.416808E+00  2.635881E+01 -6.032227E+00  9.002825E-02
      2366   1 -5.211545E+01 -1.012309E+02 -9.150115E+00  3.246331E+01  2.714728E+00  1.176600E+00
      2366   2 -7.117679E+01 -8.369385E+01 -8.548751E+00  4.655795E+01  2.200564E+00  3.434876E+00
      2366   3 -5.230197E+01 -9.179419E+01 -6.349222E+00  3.063671E+01 -4.787983E+00 -1.680570E+00
      2366   4 -7.150402E+01 -7.482249E+01 -5.929562E+00  4.446758E+01 -5.480415E+00  5.032518E-01
      2366   5 -1.663300E+01 -3.533674E+01  4.410306E+00  1.364843E+01  1.838878E+00  3.949024E-01
      2366   6 -3.494531E+01 -1.884298E+01  4.551763E+00  2.705280E+01  1.402946E+00  2.602843E+00
      2366   7 -1.725578E+01 -2.678907E+01  6.800340E+00  1.196577E+01 -5.576623E+00 -2.662340E+00
      2366   8 -3.570109E+01 -1.083218E+01  6.770888E+00  2.511928E+01 -6.181685E+00 -5.250141E-01
      2367   1 -5.921674E+01 -1.005440E+02 -9.524179E+00  3.706380E+01  2.710299E+00  1.255543E+00
      2367   2 -8.098820E+01 -8.015233E+01 -8.875460E+00  4.848279E+01  2.073498E+00  3.611411E+00
      2367   3 -5.884316E+01 -9.124607E+01 -6.592431E+00  3.426508E+01 -4.802350E+00 -2.325620E+00
      2367   4 -8.066682E+01 -7.146798E+01 -6.107405E+00  4.546937E+01 -5.605134E+00 -5.450661E-02
      2367   5 -1.907497E+01 -3.545711E+01  4.542129E+00  1.527018E+01  1.846396E+00  4.024602E-01
      2367   6 -3.995682E+01 -1.624084E+01  4.746898E+00  2.612993E+01  1.307813E+00  2.714912E+00
      2367   7 -1.922002E+01 -2.705214E+01  7.035118E+00  1.267739E+01 -5.565689E+00 -3.365774E+00
      2367   8 -4.015033E+01 -8.418184E+00  7.086971E+00  2.333294E+01 -6.261623E+00 -1.133668E+00
      2368   1 -6.701267E+01 -9.890124E+01 -9.874059E+00  4.115198E+01  2.696627E+00  1.362945E+00
      2368   2 -9.106829E+01 -7.610045E+01 -9.190322E+00  4.934047E+01  1.927360E+00  3.804251E+00
      2368   3 -6.589258E+01 -8.998445E+01 -6.828585E+00  3.746065E+01 -4.745970E+00 -2.957591E+00
      2368   4 -8.992489E+01 -6.783401E+01 -6.290726E+00  4.549933E+01 -5.667068E+00 -6.089616E-01
      2368   5 -2.169896E+01 -3.529252E+01  4.673273E+00  1.682217E+01  1.853295E+00  4.369492E-01
      2368   6 -4.474364E+01 -1.377561E+01  4.933484E+00  2.460965E+01  1.200894E+00  2.844873E+00
      2368   7 -2.119087E+01 -2.725404E+01  7.254654E+00  1.338804E+01 -5.477615E+00 -4.055278E+00
      2368   8 -4.421179E+01 -6.354013E+00  7.379822E+00  2.103304E+01 -6.273821E+00 -1.735149E+00
      2369   1 -7.542072E+01 -9.635207E+01 -1.020386E+01  4.455992E+01  2.673207E+00  1.486882E+00
      2369   2 -1.012063E+02 -7.169179E+01 -9.490631E+00  4.904606E+01  1.760612E+00  4.003347E+00
      2369   3 -7.338267E+01 -8.803120E+01 -7.058164E+00  4.009680E+01 -4.615365E+00 -3.577930E+00
      2369   4 -9.908315E+01 -6.404056E+01 -6.471626E+00  4.451182E+01 -5.664096E+00 -1.159284E+00
      2369   5 -2.452019E+01 -3.482169E+01  4.797123E+00  1.826024E+01  1.857854E+00  4.871696E-01
      2369   6 -4.919888E+01 -1.152509E+01  5.111609E+00  2.252668E+01  1.079433E+00  2.983898E+00
      2369   7 -2.319611E+01 -2.734705E+01  7.456439E+00  1.409175E+01 -5.310594E+00 -4.731789E+00
      2369   8 -4.779184E+01 -4.685304E+00  7.655094E+00  1.829055E+01 -6.217817E+00 -2.327640E+00
      2370   1 -8.431537E+01 -9.297202E+01 -1.051286E+01  4.713904E+01  2.639958E+00  1.618972E+00
      2370   2 -1.111752E+02 -6.709715E+01 -9.773010E+00  4.755553E+01  1.573000E+00  4.200258E+00
      2370   3 -8.121315E+01 -8.542922E+01 -7.278309E+00  4.206522E+01 -4.408460E+00 -4.183245E+00
      2370   4 -1.079426E+02 -6.022219E+01 -6.644370E+00  4.249952E+01 -5.594926E+00 -1.702002E+00
      2370   5 -2.753599E+01 -3.402886E+01  4.910642E+00  1.954144E+01  1.859816E+00  5.457492E-01
      2370   6 -5.322343E+01 -9.564230E+00  5.280306E+00  1.993749E+01  9.424952E-01  3.124537E+00
      2370   7 -2.525474E+01 -2.728583E+01  7.639773E+00  1.478271E+01 -5.062967E+00 -5.391455E+00
      2370   8 -5.081575E+01 -3.453953E+00  7.914386E+00  1.519572E+01 -6.093215E+00 -2.907233E+00
      2371   1 -9.353949E+01 -8.886974E+01 -1.079909E+01  4.875928E+01  2.597215E+00  1.753639E+00
      2371   2 -1.207418E+02 -6.250122E+01 -1.003454E+01  4.486340E+01  1.365209E+00  4.388470E+00
      2371   3 -8.926252E+01 -8.224817E+01 -7.486058E+00  4.327052E+01 -4.124802E+00 -4.767059E+00
      2371   4 -1.163076E+02 -5.652210E+01 -6.804955E+00  3.948711E+01 -5.459353E+00 -2.231535E+00
      2371   5 -3.073143E+01 -3.290772E+01  5.012578E+00  2.061830E+01  1.859514E+00  6.081733E-01
      2371   6 -5.673062E+01 -7.959875E+00  5.438409E+00  1.691329E+01  7.902470E-01  3.261099E+00
      2371   7 -2.738359E+01 -2.702947E+01  7.804286E+00  1.544601E+01 -4.734429E+00 -6.027295E+00
      2371   8 -5.323042E+01 -2.689674E+00  8.157508E+00  1.184795E+01 -5.900452E+00 -3.468084E+00
      2372   1 -1.029099E+02 -8.418538E+01 -1.106022E+01  4.931484E+01  2.545535E+00  1.887406E+00
      2372   2 -1.296739E+02 -5.809505E+01 -1.027264E+01  4.100448E+01  1.138531E+00  4.563197E+00
      2372   3 -9.739168E+01 -7.858338E+01 -7.678852E+00  4.363313E+01 -3.765672E+00 -5.320930E+00
      2372   4 -1.239919E+02 -5.308561E+01 -6.950810E+00  3.553051E+01 -5.258518E+00 -2.740829E+00
      2372   5 -3.408158E+01 -3.146510E+01  5.101990E+00  2.144089E+01  1.857476E+00  6.719593E-01
      2372   6 -5.964850E+01 -6.766167E+00  5.585442E+00  1.353743E+01  6.233774E-01  3.389343E+00
      2372   7 -2.959694E+01 -2.654465E+01  7.949284E+00  1.605666E+01 -4.326326E+00 -6.630451E+00
      2372   8 -5.500476E+01 -2.405945E+00  8.383936E+00  8.350789E+00 -5.641276E+00 -4.003182E+00
      2373   1 -1.122236E+02 -7.908707E+01 -1.129447E+01  4.872929E+01  2.485211E+00  2.018170E+00
      2373   2 -1.377483E+02 -5.406714E+01 -1.048493E+01  3.605278E+01  8.944086E-01  4.720777E+00
      2373   3 -1.054474E+02 -7.455369E+01 -7.855120E+00  4.309301E+01 -3.334329E+00 -5.835586E+00
      2373   4 -1.308221E+02 -5.005216E+01 -7.079970E+00  3.071480E+01 -4.995020E+00 -3.222307E+00
      2373   5 -3.755029E+01 -2.972132E+01  5.178587E+00  2.195751E+01  1.853985E+00  7.360357E-01
      2373   6 -6.192279E+01 -6.024570E+00  5.720365E+00  9.901877E+00  4.428295E-01  3.506175E+00
      2373   7 -3.190355E+01 -2.580754E+01  8.074287E+00  1.657935E+01 -3.841947E+00 -7.191125E+00
      2373   8 -5.612950E+01 -2.599911E+00  8.592317E+00  4.807376E+00 -5.318794E+00 -4.504871E+00
      2374   1 -1.212639E+02 -7.376138E+01 -1.149995E+01  4.696275E+01  2.416801E+00  2.144904E+00
      2374   2 -1.447602E+02 -5.059420E+01 -1.066968E+01  3.012246E+01  6.346777E-01  4.858550E+00
      2374   3 -1.132663E+02 -7.029404E+01 -8.013475E+00  4.161503E+01 -2.835385E+00 -6.301354E+00
      2374   4 -1.366457E+02 -4.754824E+01 -7.191363E+00  2.515361E+01 -4.672668E+00 -3.668114E+00
      2374   5 -4.109099E+01 -2.771055E+01  5.241869E+00  2.212084E+01  1.849414E+00  8.002807E-01
      2374   6 -6.351744E+01 -5.758850E+00  5.842911E+00  6.105331E+00  2.497987E-01  3.609281E+00
      2374   7 -3.430497E+01 -2.480531E+01  8.178412E+00  1.697254E+01 -3.286025E+00 -7.699230E+00
      2374   8 -5.661589E+01 -3.250017E+00  8.781759E+00  1.317346E+00 -4.937361E+00 -4.965448E+00
      2375   1 -1.298074E+02 -6.840632E+01 -1.167494E+01  4.401346E+01  2.340596E+00  2.267004E+00
      2375   2 -1.505292E+02 -4.783243E+01 -1.082520E+01  2.336259E+01  3.613810E-01  4.974556E+00
      2375   3 -1.206788E+02 -6.595030E+01 -8.152673E+00  3.919044E+01 -2.275280E+00 -6.708925E+00
      2375   4 -1.413343E+02 -4.568103E+01 -7.284187E+00  1.898402E+01 -4.296559E+00 -4.070568E+00
      2375   5 -4.464712E+01 -2.547937E+01  5.291613E+00  2.188843E+01  1.843733E+00  8.650831E-01
      2375   6 -6.441721E+01 -5.976181E+00  5.952388E+00  2.248894E+00  4.561634E-02  3.696980E+00
      2375   7 -3.679317E+01 -2.353689E+01  8.261214E+00  1.718918E+01 -2.665208E+00 -8.144940E+00
      2375   8 -5.649536E+01 -4.318672E+00  8.950984E+00 -2.027633E+00 -4.502657E+00 -5.377415E+00
      2376   1 -1.376344E+02 -6.322309E+01 -1.181850E+01  3.992015E+01  2.256896E+00  2.384546E+00
      2376   2 -1.549083E+02 -4.591026E+01 -1.095012E+01  1.595232E+01  7.667194E-02  5.067651E+00
      2376   3 -1.275156E+02 -6.167392E+01 -8.272011E+00  3.583902E+01 -1.661722E+00 -7.049420E+00
      2376   4 -1.447878E+02 -4.453313E+01 -7.357502E+00  1.236211E+01 -3.872906E+00 -4.422354E+00
      2376   5 -4.815331E+01 -2.308556E+01  5.327633E+00  2.122601E+01  1.836742E+00  9.314023E-01
      2376   6 -6.462643E+01 -6.665750E+00  6.048284E+00 -1.567971E+00 -1.682779E-01  3.768339E+00
      2376   7 -3.934970E+01 -2.201443E+01  8.322126E+00  1.717955E+01 -1.987491E+00 -8.518944E+00
      2376   8 -5.581579E+01 -5.752911E+00  9.098974E+00 -5.147581E+00 -4.021388E+00 -5.733682E+00
      2377   1 -1.445355E+02 -5.840626E+01 -1.192954E+01  3.476027E+01  2.166144E+00  2.498186E+00
      2377   2 -1.577914E+02 -4.492361E+01 -1.104424E+01  8.092840E+00 -2.169715E-01  5.137441E+00
      2377   3 -1.336136E+02 -5.761528E+01 -8.370918E+00  3.160843E+01 -1.003702E+00 -7.314604E+00
      2377   4 -1.469415E+02 -4.416075E+01 -7.411673E+00  5.455744E+00 -3.408984E+00 -4.716729E+00
      2377   5 -5.153605E+01 -2.059567E+01  5.350193E+00  2.010886E+01  1.828059E+00  1.000670E+00
      2377   6 -6.416911E+01 -7.799844E+00  6.130050E+00 -5.252601E+00 -3.904134E-01  3.823017E+00
      2377   7 -4.194341E+01 -2.026295E+01  8.361158E+00  1.689331E+01 -1.262378E+00 -8.812649E+00
      2377   8 -5.463944E+01 -7.488200E+00  9.224712E+00 -7.978568E+00 -3.501498E+00 -6.027860E+00
      2378   1 -1.503239E+02 -5.413977E+01 -1.200917E+01  2.864708E+01  2.068858E+00  2.609046E+00
      2378   2 -1.591147E+02 -4.493144E+01 -1.110745E+01 -1.774457E-03 -5.171308E-01  5.185096E+00
      2378   3 -1.388219E+02 -5.392027E+01 -8.449967E+00  2.657082E+01 -3.110938E-01 -7.497190E+00
      2378   4 -1.477653E+02 -4.459446E+01 -7.448068E+00 -1.564331E+00 -2.912973E+00 -4.946828E+00
      2378   5 -5.471703E+01 -1.808506E+01  5.358962E+00  1.852215E+01  1.817803E+00  1.074406E+00
      2378   6 -6.308573E+01 -9.336067E+00  6.197151E+00 -8.723594E+00 -6.187921E-01  3.861059E+00
      2378   7 -4.453063E+01 -1.832264E+01  8.378143E+00  1.628079E+01 -4.997694E-01 -9.018813E+00
      2378   8 -5.303825E+01 -9.455688E+00  9.326128E+00 -1.047642E+01 -2.951211E+00 -6.254638E+00
      2379   1 -1.548325E+02 -5.059269E+01 -1.206094E+01  2.172879E+01  1.965215E+00  2.723094E+00
      2379   2 -1.588693E+02 -4.598519E+01 -1.116204E+01 -8.111680E+00 -8.207079E-01  5.225753E+00
      2379   3 -1.430022E+02 -5.072633E+01 -8.512468E+00  2.081425E+01  4.088506E-01 -7.585556E+00
      2379   4 -1.472640E+02 -4.584214E+01 -7.480953E+00 -8.535131E+00 -2.389259E+00 -5.091219E+00
      2379   5 -5.760230E+01 -1.563941E+01  5.354019E+00  1.647229E+01  1.806730E+00  1.158947E+00
      2379   6 -6.143053E+01 -1.124664E+01  6.234496E+00 -1.190673E+01 -8.466536E-01  3.901734E+00
      2379   7 -4.705768E+01 -1.625145E+01  8.368841E+00  1.528889E+01  2.932741E-01 -9.125103E+00
      2379   8 -5.109323E+01 -1.158884E+01  9.391014E+00 -1.262309E+01 -2.371620E+00 -6.388123E+00
      2380   1 -1.578483E+02 -4.785128E+01 -1.206051E+01  1.409471E+01  1.828915E+00  2.824054E+00
      2380   2 -1.570203E+02 -4.795612E+01 -1.119784E+01 -1.578249E+01 -1.149061E+00  5.093247E+00
      2380   3 -1.459876E+02 -4.814237E+01 -8.562026E+00  1.449940E+01  1.138477E+00 -7.615948E+00
      2380   4 -1.454399E+02 -4.785468E+01 -7.554464E+00 -1.516312E+01 -1.828719E+00 -5.355176E+00
      2380   5 -6.008268E+01 -1.331089E+01  5.341790E+00  1.385674E+01  1.768189E+00  1.241319E+00
      2380   6 -5.926694E+01 -1.338225E+01  6.228338E+00 -1.455722E+01 -1.102722E+00  3.761311E+00
      2380   7 -4.943141E+01 -1.411389E+01  8.323358E+00  1.391041E+01  1.098994E+00 -9.167998E+00
      2380   8 -4.887566E+01 -1.380547E+01  9.362815E+00 -1.429940E+01 -1.761524E+00 -6.656582E+00
      2381   1 -1.593655E+02 -4.610073E+01 -1.199999E+01  6.311507E+00  1.658635E+00  3.074643E+00
      2381   2 -1.537667E+02 -5.084297E+01 -1.121228E+01 -2.307866E+01 -1.477641E+00  4.964315E+00
      2381   3 -1.477308E+02 -4.624561E+01 -8.540794E+00  7.908611E+00  1.893521E+00 -7.429945E+00
      2381   4 -1.424104E+02 -5.054658E+01 -7.598542E+00 -2.132457E+01 -1.232754E+00 -5.528436E+00
      2381   5 -6.209398E+01 -1.125444E+01  5.357570E+00  1.106093E+01  1.690814E+00  1.501237E+00
      2381   6 -5.672541E+01 -1.572045E+01  6.209296E+00 -1.688986E+01 -1.359528E+00  3.634079E+00
      2381   7 -5.159585E+01 -1.196249E+01  8.310191E+00  1.226291E+01  1.924158E+00 -8.974463E+00
      2381   8 -4.648593E+01 -1.600276E+01  9.323069E+00 -1.553857E+01 -1.116519E+00 -6.830881E+00
      2382   1 -1.593184E+02 -4.528508E+01 -1.189204E+01 -1.665142E+00  1.456844E+00  3.287481E+00
      2382   2 -1.491280E+02 -5.451240E+01 -1.119201E+01 -2.975349E+01 -1.786882E+00  4.793923E+00
      2382   3 -1.481749E+02 -4.508049E+01 -8.489552E+00  1.051093E+00  2.620508E+00 -7.166832E+00
      2382   4 -1.382434E+02 -5.381582E+01 -7.619715E+00 -2.694429E+01 -6.173855E-01 -5.627740E+00
      2382   5 -6.359371E+01 -9.453736E+00  5.367347E+00  7.916474E+00  1.584530E+00  1.728808E+00
      2382   6 -5.384178E+01 -1.816868E+01  6.174114E+00 -1.879623E+01 -1.595519E+00  3.471912E+00
      2382   7 -5.349377E+01 -9.863486E+00  8.279415E+00  1.020218E+01  2.723140E+00 -8.701628E+00
      2382   8 -4.398243E+01 -1.810488E+01  9.260872E+00 -1.642211E+01 -4.511900E-01 -6.927955E+00
      2383   1 -1.577052E+02 -4.544692E+01 -1.175214E+01 -9.611964E+00  1.227223E+00  3.472050E+00
      2383   2 -1.432430E+02 -5.884270E+01 -1.114088E+01 -3.563431E+01 -2.073385E+00  4.589869E+00
      2383   3 -1.472831E+02 -4.468656E+01 -8.411932E+00 -5.890586E+00  3.305314E+00 -6.817934E+00
      2383   4 -1.330508E+02 -5.755572E+01 -7.617734E+00 -3.188424E+01  3.129662E-03 -5.647692E+00
      2383   5 -6.452163E+01 -7.993091E+00  5.362671E+00  4.483684E+00  1.448171E+00  1.938568E+00
      2383   6 -5.069139E+01 -2.065640E+01  6.122406E+00 -2.026425E+01 -1.809105E+00  3.283488E+00
      2383   7 -5.504572E+01 -7.900741E+00  8.228718E+00  7.753896E+00  3.479014E+00 -8.336146E+00
      2383   8 -4.142881E+01 -2.005796E+01  9.174639E+00 -1.696674E+01  2.204275E-01 -6.941813E+00
      2384   1 -1.545604E+02 -4.656756E+01 -1.158280E+01 -1.730428E+01  9.747789E-01  3.625819E+00
      2384   2 -1.362837E+02 -6.368073E+01 -1.106095E+01 -4.057488E+01 -2.333289E+00  4.356396E+00
      2384   3 -1.450582E+02 -4.507642E+01 -8.310149E+00 -1.273215E+01  3.937250E+00 -6.389481E+00
      2384   4 -1.269717E+02 -6.164076E+01 -7.593005E+00 -3.603619E+01  6.172314E-01 -5.588393E+00
      2384   5 -6.482793E+01 -6.928027E+00  5.343030E+00  8.420468E-01  1.284944E+00  2.126361E+00
      2384   6 -4.735426E+01 -2.311107E+01  6.053957E+00 -2.128886E+01 -1.997895E+00  3.072467E+00
      2384   7 -5.617328E+01 -6.158838E+00  8.157534E+00  4.956248E+00  4.179969E+00 -7.885467E+00
      2384   8 -3.887575E+01 -2.181518E+01  9.065340E+00 -1.720648E+01  8.859635E-01 -6.872701E+00
      2385   1 -1.499612E+02 -4.858754E+01 -1.138570E+01 -2.452786E+01  7.039989E-01  3.746524E+00
      2385   2 -1.284426E+02 -6.885057E+01 -1.095289E+01 -4.446364E+01 -2.563734E+00  4.098127E+00
      2385   3 -1.415384E+02 -4.622740E+01 -8.185302E+00 -1.929341E+01  4.506401E+00 -5.889614E+00
      2385   4 -1.201611E+02 -6.593124E+01 -7.545743E+00 -3.932074E+01  1.213658E+00 -5.451423E+00
      2385   5 -6.447775E+01 -6.298986E+00  5.308506E+00 -2.919632E+00  1.098603E+00  2.289177E+00
      2385   6 -4.390614E+01 -2.546273E+01  5.969484E+00 -2.187903E+01 -2.159624E+00  2.843173E+00
      2385   7 -5.680529E+01 -4.712576E+00  8.066509E+00  1.863468E+00  4.815693E+00 -7.358126E+00
      2385   8 -3.636377E+01 -2.334019E+01  8.934248E+00 -1.718301E+01  1.533892E+00 -6.722142E+00
      2386   1 -1.440229E+02 -5.141042E+01 -1.116218E+01 -3.108713E+01  4.193222E-01  3.832649E+00
      2386   2 -1.199282E+02 -7.416291E+01 -1.081760E+01 -4.722775E+01 -2.762705E+00  3.819843E+00
      2386   3 -1.367937E+02 -4.808558E+01 -8.037885E+00 -2.540375E+01  5.003865E+00 -5.327560E+00
      2386   4 -1.127841E+02 -7.027937E+01 -7.476102E+00 -4.168814E+01  1.781417E+00 -5.240073E+00
      2386   5 -6.345313E+01 -6.131211E+00  5.259229E+00 -6.707158E+00  8.929956E-01  2.424809E+00
      2386   6 -4.041733E+01 -2.764820E+01  5.869625E+00 -2.205726E+01 -2.292757E+00  2.600079E+00
      2386   7 -5.688116E+01 -3.627411E+00  7.956526E+00 -1.456063E+00  5.377054E+00 -6.763653E+00
      2386   8 -3.392227E+01 -2.460917E+01  8.782589E+00 -1.694290E+01  2.153077E+00 -6.493317E+00
      2387   1 -1.368955E+02 -5.490804E+01 -1.091415E+01 -3.681196E+01  1.254924E-01  3.883101E+00
      2387   2 -1.109562E+02 -7.942326E+01 -1.065592E+01 -4.883404E+01 -2.928803E+00  3.526366E+00
      2387   3 -1.309260E+02 -5.056952E+01 -7.869249E+00 -3.090775E+01  5.422348E+00 -4.713907E+00
      2387   4 -1.050091E+02 -7.453595E+01 -7.384338E+00 -4.311867E+01  2.310293E+00 -4.959346E+00
      2387   5 -6.175388E+01 -6.433237E+00  5.195226E+00 -1.042342E+01  6.723897E-01  2.531375E+00
      2387   6 -3.695038E+01 -2.961327E+01  5.754971E+00 -2.185677E+01 -2.396383E+00  2.347681E+00
      2387   7 -5.635433E+01 -2.956652E+00  7.828149E+00 -4.921316E+00  5.856604E+00 -6.112950E+00
      2387   8 -3.156865E+01 -2.561125E+01  8.611572E+00 -1.653422E+01  2.733123E+00 -6.191072E+00
      2388   1 -1.287567E+02 -5.892545E+01 -1.064281E+01 -4.156218E+01 -1.725617E-01  3.897680E+00
      2388   2 -1.017425E+02 -8.444103E+01 -1.046910E+01 -4.928828E+01 -3.061018E+00  3.222719E+00
      2388   3 -1.240632E+02 -5.357299E+01 -7.680399E+00 -3.566984E+01  5.756262E+00 -4.060013E+00
      2388   4 -9.700408E+01 -7.855729E+01 -7.271397E+00 -4.362146E+01  2.791249E+00 -4.615646E+00
      2388   5 -5.939749E+01 -7.196189E+00  5.116956E+00 -1.397081E+01  4.411982E-01  2.607916E+00
      2388   6 -3.355904E+01 -3.131486E+01  5.626064E+00 -2.131858E+01 -2.470126E+00  2.090602E+00
      2388   7 -5.519415E+01 -2.738123E+00  7.682262E+00 -8.440743E+00  6.248480E+00 -5.417635E+00
      2388   8 -2.930990E+01 -2.634853E+01  8.422189E+00 -1.600300E+01  3.264569E+00 -5.821694E+00
      2389   1 -1.198084E+02 -6.328971E+01 -1.035034E+01 -4.523253E+01 -4.697310E-01  3.877272E+00
      2389   2 -9.249516E+01 -8.903641E+01 -1.025808E+01 -4.863302E+01 -3.159213E+00  2.914428E+00
      2389   3 -1.163576E+02 -5.697090E+01 -7.473009E+00 -3.957821E+01  6.002092E+00 -3.377492E+00
      2389   4 -8.892984E+01 -8.221028E+01 -7.138055E+00 -4.323187E+01  3.216323E+00 -4.216183E+00
      2389   5 -5.642131E+01 -8.395084E+00  5.024462E+00 -1.725494E+01  2.041281E-01  2.654433E+00
      2389   6 -3.028642E+01 -3.272147E+01  5.483903E+00 -2.048886E+01 -2.514305E+00  1.833799E+00
      2389   7 -5.338971E+01 -2.993472E+00  7.519297E+00 -1.191534E+01  6.548987E+00 -4.689624E+00
      2389   8 -2.714333E+01 -2.683476E+01  8.215614E+00 -1.539002E+01  3.739202E+00 -5.392372E+00
      2390   1 -1.102681E+02 -6.781789E+01 -1.003935E+01 -4.775589E+01 -7.609591E-01  3.824141E+00
      2390   2 -8.340908E+01 -9.304922E+01 -1.002433E+01 -4.694496E+01 -3.223660E+00  2.607642E+00
      2390   3 -1.079805E+02 -6.062560E+01 -7.249500E+00 -4.254916E+01  6.158230E+00 -2.677770E+00
      2390   4 -8.093709E+01 -8.537821E+01 -6.985550E+00 -4.200966E+01  3.579153E+00 -3.768625E+00
      2390   5 -5.287964E+01 -9.989314E+00  4.918158E+00 -2.018794E+01 -3.413537E-02  2.672235E+00
      2390   6 -2.716596E+01 -3.381484E+01  5.329256E+00 -1.941673E+01 -2.529706E+00  1.582802E+00
      2390   7 -5.095016E+01 -3.726229E+00  7.339974E+00 -1.524261E+01  6.756253E+00 -3.940699E+00
      2390   8 -2.505896E+01 -2.709435E+01  7.992902E+00 -1.472954E+01  4.150218E+00 -4.910785E+00
      2391   1 -1.003610E+02 -7.232539E+01 -9.712539E+00 -4.910339E+01 -1.041478E+00  3.742369E+00
      2391   2 -7.465924E+01 -9.634616E+01 -9.769681E+00 -4.432910E+01 -3.255452E+00  2.309690E+00
      2391   3 -9.911670E+01 -6.439367E+01 -7.012857E+00 -4.452795E+01  6.225016E+00 -1.971315E+00
      2391   4 -7.316248E+01 -8.796750E+01 -6.816134E+00 -4.003388E+01  3.874883E+00 -3.280300E+00
      2391   5 -4.884294E+01 -1.192523E+01  4.798512E+00 -2.269074E+01 -2.689902E-01  2.664342E+00
      2391   6 -2.422036E+01 -3.458997E+01  5.163261E+00 -1.815028E+01 -2.517821E+00  1.344099E+00
      2391   7 -4.790611E+01 -4.923297E+00  7.144517E+00 -1.831972E+01  6.870533E+00 -3.181687E+00
      2391   8 -2.304159E+01 -2.716117E+01  7.754870E+00 -1.404573E+01  4.492420E+00 -4.384393E+00
      2392   1 -9.031205E+01 -7.663472E+01 -9.373009E+00 -4.928388E+01 -1.307062E+00  3.638174E+00
      2392   2 -6.639528E+01 -9.882445E+01 -9.495593E+00 -4.091247E+01 -3.256226E+00  2.029464E+00
      2392   3 -8.995946E+01 -6.813395E+01 -6.767608E+00 -4.549043E+01  6.204769E+00 -1.266912E+00
      2392   4 -6.572529E+01 -8.991010E+01 -6.632676E+00 -3.739876E+01  4.100670E+00 -2.757276E+00
      2392   5 -4.439573E+01 -1.413835E+01  4.666263E+00 -2.469545E+01 -4.964764E-01  2.635872E+00
      2392   6 -2.146252E+01 -3.505358E+01  4.987697E+00 -1.673401E+01 -2.480801E+00  1.125665E+00
      2392   7 -4.430999E+01 -6.555757E+00  6.932539E+00 -2.104775E+01  6.893831E+00 -2.421751E+00
      2392   8 -2.107354E+01 -2.707628E+01  7.502143E+00 -1.335235E+01  4.762354E+00 -3.819466E+00
      2393   1 -8.034013E+01 -8.058190E+01 -9.023916E+00 -4.834331E+01 -1.554607E+00  3.520253E+00
      2393   2 -5.873620E+01 -1.004130E+02 -9.202268E+00 -3.683969E+01 -3.228759E+00  1.778208E+00
      2393   3 -8.070576E+01 -7.171373E+01 -6.519937E+00 -4.544401E+01  6.101397E+00 -5.707084E-01
      2393   4 -5.872402E+01 -9.116421E+01 -6.438112E+00 -3.421126E+01  4.255220E+00 -2.203019E+00
      2393   5 -3.963427E+01 -1.655582E+01  4.522382E+00 -2.614877E+01 -7.137481E-01  2.594252E+00
      2393   6 -1.889428E+01 -3.522154E+01  4.805717E+00 -1.520855E+01 -2.422071E+00  9.377504E-01
      2393   7 -4.023571E+01 -8.582249E+00  6.702158E+00 -2.333681E+01  6.829598E+00 -1.667586E+00
      2393   8 -1.913536E+01 -2.688495E+01  7.235362E+00 -1.265418E+01  4.957859E+00 -3.219746E+00
      2394   1 -7.064692E+01 -8.401957E+01 -8.667377E+00 -4.636709E+01 -1.782430E+00  3.399240E+00
      2394   2 -5.175883E+01 -1.010646E+02 -8.884915E+00 -3.227467E+01 -3.176572E+00  1.569852E+00
      2394   3 -7.154849E+01 -7.501459E+01 -6.278197E+00 -4.443410E+01  5.920183E+00  1.142954E-01
      2394   4 -5.222496E+01 -9.170866E+01 -6.232483E+00 -3.059653E+01  4.339018E+00 -1.616806E+00
      2394   5 -3.466147E+01 -1.910277E+01  4.366899E+00 -2.701877E+01 -9.199245E-01  2.548745E+00
      2394   6 -1.649949E+01 -3.511414E+01  4.624161E+00 -1.361651E+01 -2.346739E+00  7.933981E-01
      2394   7 -3.577588E+01 -1.095766E+01  6.447409E+00 -2.511625E+01  6.681844E+00 -9.231333E-01
      2394   8 -1.719908E+01 -2.663456E+01  6.956665E+00 -1.195636E+01  5.077335E+00 -2.584986E+00
      2395   1 -6.139827E+01 -8.681791E+01 -8.301679E+00 -4.349243E+01 -1.990923E+00  3.286170E+00
      2395   2 -4.546831E+01 -1.007434E+02 -8.525138E+00 -2.741613E+01 -3.104293E+00  1.421465E+00
      2395   3 -6.265698E+01 -7.793938E+01 -6.051820E+00 -4.256086E+01  5.666383E+00  7.881736E-01
      2395   4 -4.623047E+01 -9.153509E+01 -6.005093E+00 -2.671858E+01  4.352545E+00 -9.917825E-01
      2395   5 -2.957599E+01 -2.171871E+01  4.196070E+00 -2.730971E+01 -1.117762E+00  2.508835E+00
      2395   6 -1.422315E+01 -3.475910E+01  4.457403E+00 -1.202076E+01 -2.263464E+00  7.090017E-01
      2395   7 -3.103055E+01 -1.365645E+01  6.153472E+00 -2.635311E+01  6.452573E+00 -1.903958E-01
      2395   8 -1.520509E+01 -2.638284E+01  6.672658E+00 -1.128672E+01  5.116383E+00 -1.909582E+00
      2396   1 -5.267740E+01 -8.887448E+01 -7.915059E+00 -3.993691E+01 -2.182810E+00  3.188078E+00
      2396   2 -3.973204E+01 -9.941671E+01 -8.073741E+00 -2.253562E+01 -3.018375E+00  1.352245E+00
      2396   3 -5.412627E+01 -8.043509E+01 -5.847685E+00 -4.001196E+01  5.342329E+00  1.450530E+00
      2396   4 -4.060439E+01 -9.065238E+01 -5.718340E+00 -2.282154E+01  4.291820E+00 -3.151705E-01
      2396   5 -2.444428E+01 -2.440577E+01  3.995262E+00 -2.708943E+01 -1.315774E+00  2.479344E+00
      2396   6 -1.192314E+01 -3.422188E+01  4.333827E+00 -1.054037E+01 -2.187879E+00  7.026381E-01
      2396   7 -2.607515E+01 -1.673212E+01  5.787499E+00 -2.708199E+01  6.137085E+00  5.253220E-01
      2396   8 -1.300564E+01 -2.623914E+01  6.400160E+00 -1.073347E+01  5.060731E+00 -1.184625E+00
      2397   1 -4.439842E+01 -9.015738E+01 -7.476223E+00 -3.602763E+01 -2.363465E+00  3.098244E+00
      2397   2 -3.418568E+01 -9.709921E+01 -7.434468E+00 -1.801732E+01 -2.929566E+00  1.377525E+00
      2397   3 -4.587925E+01 -8.255374E+01 -5.662389E+00 -3.708652E+01  4.941680E+00  2.088263E+00
      2397   4 -3.496915E+01 -8.915155E+01 -5.294992E+00 -1.925914E+01  4.139155E+00  4.227177E-01
      2397   5 -1.924876E+01 -2.732856E+01  3.728622E+00 -2.651443E+01 -1.530310E+00  2.450445E+00
      2397   6 -9.310226E+00 -3.370451E+01  4.295581E+00 -9.386155E+00 -2.146522E+00  7.850237E-01
      2397   7 -2.089545E+01 -2.042290E+01  5.290602E+00 -2.742441E+01  5.717067E+00  1.201498E+00
      2397   8 -1.029397E+01 -2.647191E+01  6.166677E+00 -1.047013E+01  4.876221E+00 -4.113882E-01
      2398   1 -3.622224E+01 -9.086077E+01 -6.938113E+00 -3.216035E+01 -2.537854E+00  2.979591E+00
      2398   2 -2.817494E+01 -9.403856E+01 -6.441515E+00 -1.429575E+01 -2.850222E+00  1.487809E+00
      2398   3 -3.756886E+01 -8.460088E+01 -5.479366E+00 -3.411436E+01  4.446369E+00  2.633645E+00
      2398   4 -2.867520E+01 -8.740023E+01 -4.606221E+00 -1.638363E+01  3.869177E+00  1.179711E+00
      2398   5 -1.380948E+01 -3.093215E+01  3.349443E+00 -2.578651E+01 -1.778561E+00  2.390814E+00
      2398   6 -5.902348E+00 -3.370034E+01  4.414239E+00 -8.796817E+00 -2.162410E+00  9.428951E-01
      2398   7 -1.529419E+01 -2.524060E+01  4.601492E+00 -2.751871E+01  5.164431E+00  1.775977E+00
      2398   8 -6.582727E+00 -2.764946E+01  6.023013E+00 -1.065632E+01  4.529005E+00  3.641284E-01
      2399   1 -2.777566E+01 -9.182652E+01 -6.372603E+00 -2.840762E+01 -2.700854E+00  2.764522E+00
      2399   2 -2.150892E+01 -9.141557E+01 -5.283723E+00 -1.127382E+01 -2.810143E+00  1.619091E+00
      2399   3 -2.881844E+01 -8.741922E+01 -5.370181E+00 -3.099117E+01  3.864696E+00  2.982806E+00
      2399   4 -2.163703E+01 -8.661696E+01 -3.884404E+00 -1.390977E+01  3.482473E+00  1.852582E+00
      2399   5 -7.778076E+00 -3.572740E+01  2.889732E+00 -2.489121E+01 -2.056364E+00  2.246160E+00
      2399   6 -1.554448E+00 -3.507279E+01  4.540820E+00 -8.596549E+00 -2.245693E+00  1.119911E+00
      2399   7 -8.923036E+00 -3.167669E+01  3.756875E+00 -2.721147E+01  4.490518E+00  2.186597E+00
      2399   8 -1.830394E+00 -3.065079E+01  5.783435E+00 -1.096664E+01  4.041921E+00  1.074932E+00
      2400   1 -2.096637E+01 -1.992470E+02 -1.289292E+01  7.379617E+00  2.825823E+00  1.475636E+00
      2400   2 -2.100273E+01 -1.964657E+02 -1.058150E+01  2.689822E+01  2.848687E+00  1.611724E+00
      2400   3 -2.087451E+01 -1.986280E+02 -1.267704E+01  7.307075E+00 -3.211498E+00  2.080001E+00
      2400   4 -2.091577E+01 -1.958633E+02 -1.036487E+01  2.675440E+01 -3.396031E+00  2.208099E+00
      2400   5  4.772693E+00 -1.296314E+02  3.186166E+00  6.321119E+00  2.779903E+00  1.240523E+00
      2400   6  4.583101E+00 -1.271540E+02  5.011788E+00  2.479520E+01  2.810603E+00  1.385588E+00
      2400   7  4.866050E+00 -1.290085E+02  3.403198E+00  6.247407E+00 -3.253343E+00  1.610360E+00
      2400   8  4.671346E+00 -1.265474E+02  5.228431E+00  2.465403E+01 -3.418907E+00  1.747926E+00
      2401   1 -2.719481E+01 -2.170645E+02 -1.741821E+01  1.974648E+01  2.795702E+00  1.576063E+00
      2401   2 -3.054919E+01 -2.100852E+02 -1.453473E+01  4.144518E+01  2.872460E+00  1.767909E+00
      2401   3 -2.703828E+01 -2.162322E+02 -1.710860E+01  1.961388E+01 -3.578804E+00  1.823124E+00
      2401   4 -3.038773E+01 -2.093125E+02 -1.422962E+01  4.121237E+01 -3.725996E+00  1.987979E+00
      2401   5  3.323387E+00 -1.375764E+02  2.444791E+00  1.452973E+01  2.751026E+00  1.355121E+00
      2401   6 -9.125868E-03 -1.311282E+02  4.806135E+00  3.506722E+01  2.841497E+00  1.541228E+00
      2401   7  3.438310E+00 -1.368318E+02  2.712661E+00  1.440918E+01 -3.598053E+00  1.348144E+00
      2401   8  1.102086E-01 -1.304403E+02  5.069141E+00  3.485183E+01 -3.719479E+00  1.508728E+00
      2402   1 -3.399394E+01 -2.279693E+02 -1.958310E+01  3.579041E+01  2.769696E+00  1.681860E+00
      2402   2 -4.138111E+01 -2.167308E+02 -1.652384E+01  5.787847E+01  2.889912E+00  1.930118E+00
      2402   3 -3.378175E+01 -2.270176E+02 -1.920965E+01  3.551797E+01 -3.911758E+00  1.404884E+00
      2402   4 -4.111874E+01 -2.158697E+02 -1.614637E+01  5.750689E+01 -4.009253E+00  1.608722E+00
      2402   5  2.833085E-01 -1.436264E+02  2.228711E+00  2.593214E+01  2.719757E+00  1.461739E+00
      2402   6 -6.855580E+00 -1.331363E+02  4.781137E+00  4.683816E+01  2.866441E+00  1.703881E+00
      2402   7  4.295567E-01 -1.427831E+02  2.544590E+00  2.569739E+01 -3.915904E+00  9.370470E-01
      2402   8 -6.661818E+00 -1.323788E+02  5.100875E+00  4.650957E+01 -3.975155E+00  1.137182E+00
      2403   1 -4.327711E+01 -2.337660E+02 -2.081817E+01  5.346056E+01  2.735784E+00  1.799922E+00
      2403   2 -5.483311E+01 -2.183022E+02 -1.774646E+01  7.480258E+01  2.895653E+00  2.112001E+00
      2403   3 -4.295959E+01 -2.327443E+02 -2.038186E+01  5.303095E+01 -4.180633E+00  8.914534E-01
      2403   4 -5.442246E+01 -2.174018E+02 -1.729832E+01  7.428827E+01 -4.229703E+00  1.142865E+00
      2403   5 -5.017380E+00 -1.468901E+02  2.333158E+00  3.887303E+01  2.683465E+00  1.576489E+00
      2403   6 -1.609714E+01 -1.323961E+02  4.908766E+00  5.907294E+01  2.882553E+00  1.885799E+00
      2403   7 -4.794384E+00 -1.459811E+02  2.699845E+00  3.850541E+01 -4.167859E+00  4.296010E-01
      2403   8 -1.578569E+01 -1.316015E+02  5.287371E+00  5.862516E+01 -4.166346E+00  6.815580E-01
      2404   1 -5.566195E+01 -2.352145E+02 -2.171331E+01  7.150189E+01  2.689551E+00  1.935949E+00
      2404   2 -7.137801E+01 -2.156817E+02 -1.873604E+01  9.118898E+01  2.885516E+00  2.319827E+00
      2404   3 -5.519058E+01 -2.341743E+02 -2.121692E+01  7.091667E+01 -4.381609E+00  3.257091E-01
      2404   4 -7.077255E+01 -2.147904E+02 -1.821959E+01  9.054410E+01 -4.383030E+00  6.344175E-01
      2404   5 -1.273399E+01 -1.471640E+02  2.590762E+00  5.225348E+01  2.636619E+00  1.708840E+00
      2404   6 -2.774820E+01 -1.288157E+02  5.083959E+00  7.088703E+01  2.885020E+00  2.095454E+00
      2404   7 -1.239424E+01 -1.462328E+02  3.005366E+00  5.175229E+01 -4.351825E+00 -1.272203E-01
      2404   8 -2.728094E+01 -1.280248E+02  5.518959E+00  7.032938E+01 -4.290007E+00  1.883540E-01
      2405   1 -7.133629E+01 -2.326310E+02 -2.251534E+01  8.897803E+01  2.626607E+00  2.091897E+00
      2405   2 -9.101704E+01 -2.092965E+02 -1.968137E+01  1.061787E+02  2.854211E+00  2.553727E+00
      2405   3 -7.066822E+01 -2.316330E+02 -2.196612E+01  8.825423E+01 -4.515003E+00 -2.609966E-01
      2405   4 -9.018044E+01 -2.084697E+02 -1.910408E+01  1.054301E+02 -4.471186E+00  1.131539E-01
      2405   5 -2.292850E+01 -1.444725E+02  2.880363E+00  6.530597E+01  2.574770E+00  1.861134E+00
      2405   6 -4.169251E+01 -1.225233E+02  5.244234E+00  8.158613E+01  2.867680E+00  2.333642E+00
      2405   7 -2.243580E+01 -1.435710E+02  3.336471E+00  6.468295E+01 -4.468507E+00 -7.024420E-01
      2405   8 -4.103938E+01 -1.217828E+02  5.729045E+00  8.093970E+01 -4.349251E+00 -3.127658E-01
      2406   1 -9.021720E+01 -2.262096E+02 -2.329819E+01  1.050881E+02  2.543670E+00  2.263298E+00
      2406   2 -1.134852E+02 -1.994825E+02 -2.062590E+01  1.190209E+02  2.797295E+00  2.808258E+00
      2406   3 -8.931824E+01 -2.253150E+02 -2.270590E+01  1.042570E+02 -4.582045E+00 -8.530189E-01
      2406   4 -1.123926E+02 -1.987735E+02 -1.999771E+01  1.182088E+02 -4.496974E+00 -4.060068E-01
      2406   5 -3.553885E+01 -1.389270E+02  3.148604E+00  7.741275E+01  2.494069E+00  2.028979E+00
      2406   6 -5.769468E+01 -1.137632E+02  5.367485E+00  9.059999E+01  2.824978E+00  2.595254E+00
      2406   7 -3.486316E+01 -1.381068E+02  3.638229E+00  7.669133E+01 -4.520022E+00 -1.280744E+00
      2406   8 -5.683448E+01 -1.131174E+02  5.893981E+00  8.989648E+01 -4.348301E+00 -8.069582E-01
      2407   1 -1.120340E+02 -2.161976E+02 -2.406776E+01  1.190967E+02  2.439210E+00  2.442388E+00
      2407   2 -1.383382E+02 -1.866423E+02 -2.156309E+01  1.290517E+02  2.712001E+00  3.075557E+00
      2407   3 -1.108795E+02 -2.154590E+02 -2.344230E+01  1.182022E+02 -4.582454E+00 -1.443827E+00
      2407   4 -1.369764E+02 -1.860930E+02 -2.089388E+01  1.282264E+02 -4.461619E+00 -9.163369E-01
      2407   5 -5.038987E+01 -1.307187E+02  3.380916E+00  8.802483E+01  2.392442E+00  2.204664E+00
      2407   6 -7.541483E+01 -1.028734E+02  5.452084E+00  9.744712E+01  2.753125E+00  2.872451E+00
      2407   7 -4.950842E+01 -1.300249E+02  3.896145E+00  8.723885E+01 -4.507020E+00 -1.855778E+00
      2407   8 -7.433554E+01 -1.023571E+02  6.012436E+00  9.672655E+01 -4.289773E+00 -1.287726E+00
      2408   1 -1.363561E+02 -2.029650E+02 -2.480896E+01  1.303316E+02  2.313367E+00  2.621212E+00
      2408   2 -1.649919E+02 -1.712952E+02 -2.247549E+01  1.357042E+02  2.597030E+00  3.347668E+00
      2408   3 -1.349324E+02 -2.024212E+02 -2.415936E+01  1.294268E+02 -4.514426E+00 -2.029480E+00
      2408   4 -1.633603E+02 -1.709319E+02 -2.177426E+01  1.349226E+02 -4.365072E+00 -1.413619E+00
      2408   5 -6.719165E+01 -1.201300E+02  3.580608E+00  9.664278E+01  2.269566E+00  2.380159E+00
      2408   6 -9.441719E+01 -9.027721E+01  5.504105E+00  1.017279E+02  2.649913E+00  3.157069E+00
      2408   7 -6.609008E+01 -1.195962E+02  4.114447E+00  9.583405E+01 -4.428531E+00 -2.423975E+00
      2408   8 -9.311686E+01 -8.991225E+01  6.091406E+00  1.010358E+02 -4.174881E+00 -1.751371E+00
      2409   1 -1.626112E+02 -1.870189E+02 -2.550430E+01  1.382048E+02  2.167356E+00  2.792898E+00
      2409   2 -1.927462E+02 -1.540772E+02 -2.334709E+01  1.385295E+02  2.452223E+00  3.617480E+00
      2409   3 -1.609176E+02 -1.866926E+02 -2.483869E+01  1.373492E+02 -4.375814E+00 -2.605451E+00
      2409   4 -1.908580E+02 -1.539089E+02 -2.262179E+01  1.378519E+02 -4.206956E+00 -1.893352E+00
      2409   5 -8.554603E+01 -1.075371E+02  3.756628E+00  1.028264E+02  2.126365E+00  2.548471E+00
      2409   6 -1.141830E+02 -7.647297E+01  5.530841E+00  1.031336E+02  2.514468E+00  3.441615E+00
      2409   7 -8.421989E+01 -1.071839E+02  4.303032E+00  1.020423E+02 -4.283012E+00 -2.981334E+00
      2409   8 -1.126703E+02 -7.626695E+01  6.139233E+00  1.025181E+02 -4.004260E+00 -2.194190E+00
      2410   1 -1.901049E+02 -1.689905E+02 -2.613893E+01  1.422416E+02  2.003019E+00  2.952125E+00
      2410   2 -2.208095E+02 -1.357180E+02 -2.416494E+01  1.372194E+02  2.278003E+00  3.879012E+00
      2410   3 -1.881546E+02 -1.688874E+02 -2.546469E+01  1.414973E+02 -4.165239E+00 -3.165393E+00
      2410   4 -2.186919E+02 -1.357362E+02 -2.342280E+01  1.367052E+02 -3.987790E+00 -2.349738E+00
      2410   5 -1.049609E+02 -9.340431E+01  3.917396E+00  1.062147E+02  1.964539E+00  2.704082E+00
      2410   6 -1.341283E+02 -6.201831E+01  5.538783E+00  1.014614E+02  2.346720E+00  3.719553E+00
      2410   7 -1.034169E+02 -9.323896E+01  4.470973E+00  1.055054E+02 -4.069432E+00 -3.522214E+00
      2410   8 -1.324232E+02 -6.196499E+01  6.163040E+00  1.009699E+02 -3.779108E+00 -2.611461E+00
      2411   1 -2.180462E+02 -1.496122E+02 -2.670194E+01  1.421061E+02  1.822453E+00  3.095065E+00
      2411   2 -2.483313E+02 -1.170119E+02 -2.491987E+01  1.316260E+02  2.075317E+00  4.127307E+00
      2411   3 -2.158674E+02 -1.497215E+02 -2.602601E+01  1.415346E+02 -3.882952E+00 -3.701160E+00
      2411   4 -2.460259E+02 -1.171921E+02 -2.416766E+01  1.313304E+02 -3.709519E+00 -2.775787E+00
      2411   5 -1.248682E+02 -7.826950E+01  4.069573E+00  1.065458E+02  1.786312E+00  2.842953E+00
      2411   6 -1.536284E+02 -4.750952E+01  5.532554E+00  9.662644E+01  2.147423E+00  3.985308E+00
      2411   7 -1.231249E+02 -7.828572E+01  4.625247E+00  1.059615E+02 -3.787986E+00 -4.039282E+00
      2411   8 -1.517621E+02 -4.758970E+01  6.167819E+00  9.630330E+01 -3.501597E+00 -2.997408E+00
      2412   1 -2.455795E+02 -1.296850E+02 -2.718512E+01  1.376230E+02  1.627988E+00  3.219005E+00
      2412   2 -2.744339E+02 -9.878041E+01 -2.560389E+01  1.217728E+02  1.845574E+00  4.358167E+00
      2412   3 -2.432155E+02 -1.299799E+02 -2.651444E+01  1.372813E+02 -3.530879E+00 -4.203683E+00
      2412   4 -2.719961E+02 -9.908378E+01 -2.484843E+01  1.217431E+02 -3.375502E+00 -3.164005E+00
      2412   5 -1.446479E+02 -6.272293E+01  4.217377E+00  1.036728E+02  1.594235E+00  2.962150E+00
      2412   6 -1.720432E+02 -3.355716E+01  5.515495E+00  8.867074E+01  1.917889E+00  4.234027E+00
      2412   7 -1.427360E+02 -6.290175E+01  4.770135E+00  1.032610E+02 -3.440364E+00 -4.524272E+00
      2412   8 -1.700578E+02 -3.374038E+01  6.156869E+00  8.855428E+01 -3.175147E+00 -3.345778E+00
      2413   1 -2.718168E+02 -1.100425E+02 -2.758124E+01  1.287898E+02  1.422031E+00  3.322100E+00
      2413   2 -2.982510E+02 -8.183676E+01 -2.621015E+01  1.078604E+02  1.590663E+00  4.567850E+00
      2413   3 -2.693256E+02 -1.104824E+02 -2.692296E+01  1.287271E+02 -3.112989E+00 -4.663387E+00
      2413   4 -2.957488E+02 -8.221251E+01 -2.545858E+01  1.081331E+02 -2.990746E+00 -3.506954E+00
      2413   5 -1.636525E+02 -4.738273E+01  4.363612E+00  9.757553E+01  1.391015E+00  3.059717E+00
      2413   6 -1.887458E+02 -2.076001E+01  5.489569E+00  7.776619E+01  1.659973E+00  4.461393E+00
      2413   7 -1.616143E+02 -4.769343E+01  4.908469E+00  9.737782E+01 -3.030092E+00 -4.968328E+00
      2413   8 -1.866930E+02 -2.100599E+01  6.132109E+00  7.788595E+01 -2.804629E+00 -3.650302E+00
      2414   1 -2.958802E+02 -9.151583E+01 -2.788516E+01  1.157843E+02  1.207330E+00  3.403133E+00
      2414   2 -3.189669E+02 -6.694751E+01 -2.673231E+01  9.026330E+01  1.312996E+00  4.753099E+00
      2414   3 -2.933326E+02 -9.204757E+01 -2.724659E+01  1.160380E+02 -2.634810E+00 -5.071027E+00
      2414   4 -3.164777E+02 -6.733547E+01 -2.599188E+01  9.086049E+01 -2.561587E+00 -3.797770E+00
      2414   5 -1.812376E+02 -3.286844E+01  4.509260E+00  8.836577E+01  1.179643E+00  3.134498E+00
      2414   6 -2.031505E+02 -9.676523E+00  5.456667E+00  6.421057E+01  1.376152E+00  4.663615E+00
      2414   7 -1.791256E+02 -3.326998E+01  5.041190E+00  8.841522E+01 -2.562170E+00 -5.362732E+00
      2414   8 -2.010894E+02 -9.937569E+00  6.095365E+00  6.458515E+01 -2.396005E+00 -3.905221E+00
      2415   1 -3.169383E+02 -7.489288E+01 -2.809188E+01  9.896028E+01  9.866776E-01  3.461372E+00
      2415   2 -3.358542E+02 -5.479628E+01 -2.716513E+01  6.951710E+01  1.015402E+00  4.911189E+00
      2415   3 -3.144143E+02 -7.545386E+01 -2.748041E+01  9.955329E+01 -2.103263E+00 -5.418225E+00
      2415   4 -3.334614E+02 -5.513049E+01 -2.644327E+01  7.044459E+01 -2.095267E+00 -4.030354E+00
      2415   5 -1.967889E+02 -1.977192E+01  4.654921E+00  7.628549E+01  9.631840E-01  3.185883E+00
      2415   6 -2.147416E+02 -7.998229E-01  5.417582E+00  4.841793E+01  1.069497E+00  4.837441E+00
      2415   7 -1.946645E+02 -2.021539E+01  5.168572E+00  7.660433E+01 -2.043017E+00 -5.699454E+00
      2415   8 -2.127363E+02 -1.023746E+00  6.047098E+00  4.905332E+01 -1.956026E+00 -4.105421E+00
      2416   1 -3.342410E+02 -6.087948E+01 -2.819598E+01  7.883591E+01  7.629649E-01  3.496791E+00
      2416   2 -3.483007E+02 -4.594610E+01 -2.750158E+01  4.629966E+01  7.013490E-01  5.039681E+00
      2416   3 -3.318278E+02 -6.140200E+01 -2.761957E+01  7.977441E+01 -1.526272E+00 -5.697276E+00
      2416   4 -3.460915E+02 -4.615982E+01 -2.680660E+01  4.754524E+01 -1.599420E+00 -4.199645E+00
      2416   5 -2.097541E+02 -8.630331E+00  4.799229E+00  6.169928E+01  7.447772E-01  3.213996E+00
      2416   6 -2.230978E+02  5.467641E+00  5.372048E+00  3.090423E+01  7.434459E-01  4.979961E+00
      2416   7 -2.076828E+02 -9.061243E+00  5.289549E+00  6.229673E+01 -1.480175E+00 -5.971053E+00
      2416   8 -2.212144E+02  5.334269E+00  5.986929E+00  3.179235E+01 -1.492209E+00 -4.246716E+00
      2417   1 -3.471463E+02 -5.006116E+01 -2.818796E+01  5.607249E+01  5.393493E-01  3.510077E+00
      2417   2 -3.558377E+02 -4.081555E+01 -2.773367E+01  2.140587E+01  3.751549E-01  5.137085E+00
      2417   3 -3.449351E+02 -5.047633E+01 -2.765542E+01  5.734374E+01 -9.126400E-01 -5.901000E+00
      2417   4 -3.538980E+02 -4.084455E+01 -2.707440E+01  2.293767E+01 -1.081956E+00 -4.300835E+00
      2417   5 -2.196748E+02  9.589337E-02  4.936073E+00  4.508147E+01  5.277115E-01  3.219688E+00
      2417   6 -2.279235E+02  8.824322E+00  5.313750E+00  1.227001E+01  4.019442E-01  5.089265E+00
      2417   7 -2.177244E+02 -2.651287E-01  5.398449E+00  4.595198E+01 -8.822354E-01 -6.170580E+00
      2417   8 -2.262241E+02  8.834566E+00  5.909424E+00  1.338712E+01 -1.012739E+00 -4.325109E+00
      2418   1 -3.551535E+02 -4.288481E+01 -2.805908E+01  3.144082E+01  3.199372E-01  3.504909E+00
      2418   2 -3.581693E+02 -3.966364E+01 -2.785904E+01 -4.291215E+00  4.354078E-02  5.206945E+00
      2418   3 -3.532406E+02 -4.312789E+01 -2.758223E+01  3.300835E+01 -2.700098E-01 -6.019996E+00
      2418   4 -3.565847E+02 -3.945142E+01 -2.724689E+01 -2.530380E+00 -5.480822E-01 -4.323524E+00
      2418   5 -2.262121E+02  6.038178E+00  5.052944E+00  2.698533E+01  3.145895E-01  3.207100E+00
      2418   6 -2.290728E+02  9.080600E+00  5.227395E+00 -6.834531E+00  4.851696E-02  5.168820E+00
      2418   7 -2.244456E+02  5.806496E+00  5.484810E+00  2.810367E+01 -2.599349E-01 -6.288469E+00
      2418   8 -2.276111E+02  9.285913E+00  5.801554E+00 -5.533220E+00 -5.276091E-01 -4.330632E+00
      2419   1 -3.589023E+02 -3.992123E+01 -2.817666E+01  5.633237E+00  1.272336E-01  3.494407E+00
      2419   2 -3.563883E+02 -4.255136E+01 -2.821973E+01 -2.860151E+01 -2.779573E-01  5.114655E+00
      2419   3 -3.572734E+02 -3.990750E+01 -2.772732E+01  7.464872E+00  3.890091E-01 -6.050509E+00
      2419   4 -3.550805E+02 -4.208289E+01 -2.763796E+01 -2.688900E+01 -1.480921E-02 -4.429934E+00
      2419   5 -2.291004E+02  9.088819E+00  5.196302E+00  7.747462E+00  1.112294E-01  3.192935E+00
      2419   6 -2.267148E+02  6.605542E+00  5.169794E+00 -2.465523E+01 -2.943655E-01  5.065903E+00
      2419   7 -2.275934E+02  9.018924E+00  5.582981E+00  9.109528E+00  3.664497E-01 -6.320153E+00
      2419   8 -2.255058E+02  6.971903E+00  5.695445E+00 -2.340591E+01 -3.775879E-02 -4.448043E+00
      2420   1 -3.567479E+02 -4.069798E+01 -2.789163E+01 -1.901060E+01 -1.141575E-01  3.568642E+00
      2420   2 -3.490452E+02 -4.878121E+01 -2.815315E+01 -5.228633E+01 -6.093145E-01  5.053626E+00
      2420   3 -3.555432E+02 -4.042224E+01 -2.750574E+01 -1.714105E+01  9.886622E-01 -5.928563E+00
      2420   4 -3.481196E+02 -4.811049E+01 -2.764466E+01 -5.060663E+01  4.927414E-01 -4.424836E+00
      2420   5 -2.283082E+02  8.924725E+00  5.284557E+00 -1.060300E+01 -1.063715E-01  3.282060E+00
      2420   6 -2.209985E+02  1.293118E+00  5.081356E+00 -4.209798E+01 -6.324190E-01  5.000546E+00
      2420   7 -2.270840E+02  9.081294E+00  5.643151E+00 -9.168489E+00  9.651369E-01 -6.189513E+00
      2420   8 -2.200330E+02  1.829011E+00  5.568778E+00 -4.084316E+01  4.385762E-01 -4.454364E+00
      2421   1 -3.499898E+02 -4.512750E+01 -2.755769E+01 -4.293444E+01 -3.440228E-01  3.604903E+00
      2421   2 -3.373641E+02 -5.842054E+01 -2.804159E+01 -7.437561E+01 -9.215006E-01  4.954263E+00
      2421   3 -3.491401E+02 -4.460186E+01 -2.721590E+01 -4.111071E+01  1.585204E+00 -5.746113E+00
      2421   4 -3.367401E+02 -5.755948E+01 -2.758356E+01 -7.279016E+01  1.002332E+00 -4.361665E+00
      2421   5 -2.240968E+02  5.999335E+00  5.384013E+00 -2.850984E+01 -3.280098E-01  3.327984E+00
      2421   6 -2.121171E+02 -6.552505E+00  4.995739E+00 -5.826849E+01 -9.565589E-01  4.892240E+00
      2421   7 -2.231390E+02  6.361657E+00  5.714650E+00 -2.707792E+01  1.549074E+00 -6.006296E+00
      2421   8 -2.113679E+02 -5.867634E+00  5.448324E+00 -5.706211E+01  9.157171E-01 -4.409816E+00
      2422   1 -3.388068E+02 -5.299957E+01 -2.716190E+01 -6.540784E+01 -5.727230E-01  3.613085E+00
      2422   2 -3.216777E+02 -7.108842E+01 -2.787068E+01 -9.418983E+01 -1.216749E+00  4.822920E+00
      2422   3 -3.382691E+02 -5.224837E+01 -2.685681E+01 -6.368141E+01  2.159960E+00 -5.497781E+00
      2422   4 -3.213059E+02 -7.006605E+01 -2.745546E+01 -9.273462E+01  1.503040E+00 -4.236075E+00
      2422   5 -2.166350E+02  4.224347E-01  5.477025E+00 -4.543494E+01 -5.531855E-01  3.344300E+00
      2422   6 -2.003800E+02 -1.665590E+01  4.905152E+00 -7.267662E+01 -1.264047E+00  4.749103E+00
      2422   7 -2.159221E+02  9.737237E-01  5.782929E+00 -4.404872E+01  2.106681E+00 -5.761923E+00
      2422   8 -1.998194E+02 -1.584323E+01  5.326335E+00 -7.154712E+01  1.383984E+00 -4.308914E+00
      2423   1 -3.235403E+02 -6.396587E+01 -2.670247E+01 -8.575103E+01 -8.009577E-01  3.595750E+00
      2423   2 -3.024671E+02 -8.628296E+01 -2.763171E+01 -1.111377E+02 -1.494383E+00  4.662879E+00
      2423   3 -3.232700E+02 -6.302052E+01 -2.642815E+01 -8.416005E+01  2.698928E+00 -5.183483E+00
      2423   4 -3.023011E+02 -8.513343E+01 -2.725373E+01 -1.098362E+02  1.982489E+00 -4.048862E+00
      2423   5 -2.061825E+02 -7.577392E+00  5.557368E+00 -6.087410E+01 -7.794270E-01  3.334100E+00
      2423   6 -1.861823E+02 -2.864549E+01  4.805550E+00 -8.490223E+01 -1.551825E+00  4.575191E+00
      2423   7 -2.056870E+02 -6.857759E+00  5.842151E+00 -5.956609E+01  2.628844E+00 -5.455469E+00
      2423   8 -1.857811E+02 -2.772824E+01  5.198608E+00 -8.386820E+01  1.835085E+00 -4.151287E+00
      2424   1 -3.046709E+02 -7.755484E+01 -2.617797E+01 -1.033630E+02 -1.027213E+00  3.553544E+00
      2424   2 -2.803368E+02 -1.034096E+02 -2.732191E+01 -1.247387E+02 -1.752396E+00  4.477025E+00
      2424   3 -3.046211E+02 -7.645171E+01 -2.592911E+01 -1.019349E+02  3.191575E+00 -4.808399E+00
      2424   4 -2.803307E+02 -1.021688E+02 -2.697606E+01 -1.236044E+02  2.430980E+00 -3.803706E+00
      2424   5 -1.930843E+02 -1.767020E+01  5.623873E+00 -7.437455E+01 -1.004307E+00  3.298016E+00
      2424   6 -1.699858E+02 -4.207477E+01  4.696686E+00 -9.460641E+01 -1.817254E+00  4.373894E+00
      2424   7 -1.927753E+02 -1.680695E+01  5.891085E+00 -7.316964E+01  3.106707E+00 -5.091673E+00
      2424   8 -1.697142E+02 -4.107721E+01  5.064962E+00 -9.367953E+01  2.260704E+00 -3.939614E+00
      2425   1 -2.827967E+02 -9.319769E+01 -2.559060E+01 -1.177494E+02 -1.248890E+00  3.487103E+00
      2425   2 -2.559789E+02 -1.218034E+02 -2.694163E+01 -1.346422E+02 -1.988674E+00  4.268330E+00
      2425   3 -2.829188E+02 -9.197511E+01 -2.536193E+01 -1.165012E+02  3.630105E+00 -4.379627E+00
      2425   4 -2.560873E+02 -1.205058E+02 -2.662261E+01 -1.336789E+02  2.840611E+00 -3.505765E+00
      2425   5 -1.777664E+02 -2.944806E+01  5.676053E+00 -8.555783E+01 -1.225015E+00  3.236656E+00
      2425   6 -1.523058E+02 -5.644505E+01  4.579301E+00 -1.015467E+02 -2.057951E+00  4.148728E+00
      2425   7 -1.776113E+02 -2.846863E+01  5.928975E+00 -8.447376E+01  3.533093E+00 -4.677176E+00
      2425   8 -1.521341E+02 -5.539096E+01  4.926086E+00 -1.007322E+02  2.653589E+00 -3.678008E+00
      2426   1 -2.585991E+02 -1.102496E+02 -2.494302E+01 -1.285433E+02 -1.463493E+00  3.397281E+00
      2426   2 -2.301378E+02 -1.407549E+02 -2.649278E+01 -1.406395E+02 -2.201348E+00  4.039940E+00
      2426   3 -2.588450E+02 -1.089453E+02 -2.472939E+01 -1.274821E+02  4.008216E+00 -3.905331E+00
      2426   4 -2.303197E+02 -1.394320E+02 -2.619561E+01 -1.398429E+02  3.204848E+00 -3.161175E+00
      2426   5 -1.607182E+02 -4.244342E+01  5.713311E+00 -9.413680E+01 -1.438750E+00  3.150927E+00
      2426   6 -1.336911E+02 -7.122736E+01  4.453467E+00 -1.055855E+02 -2.271904E+00  3.903427E+00
      2426   7 -1.606834E+02 -4.137568E+01  5.955204E+00 -9.318401E+01  3.902235E+00 -4.219587E+00
      2426   8 -1.335926E+02 -7.013892E+01  4.781846E+00 -1.048832E+02  3.007562E+00 -3.371501E+00
      2427   1 -2.328121E+02 -1.280164E+02 -2.423840E+01 -1.355171E+02 -1.668305E+00  3.285253E+00
      2427   2 -2.035783E+02 -1.595376E+02 -2.597775E+01 -1.426685E+02 -2.388860E+00  3.795335E+00
      2427   3 -2.331372E+02 -1.266661E+02 -2.403519E+01 -1.346411E+02  4.321386E+00 -3.394309E+00
      2427   4 -2.037969E+02 -1.582166E+02 -2.569762E+01 -1.420275E+02  3.518456E+00 -2.776638E+00
      2427   5 -1.424707E+02 -5.614793E+01  5.734988E+00 -9.992504E+01 -1.642456E+00  3.042101E+00
      2427   6 -1.147028E+02 -8.588390E+01  4.318362E+00 -1.066937E+02 -2.457451E+00  3.642077E+00
      2427   7 -1.425245E+02 -5.501970E+01  5.968629E+00 -9.910747E+01  4.210108E+00 -3.727071E+00
      2427   8 -1.146530E+02 -8.478061E+01  4.631353E+00 -1.060986E+02  3.317628E+00 -3.025648E+00
      2428   1 -2.061937E+02 -1.457847E+02 -2.348112E+01 -1.385880E+02 -1.860934E+00  3.152906E+00
      2428   2 -1.770566E+02 -1.774406E+02 -2.540157E+01 -1.408132E+02 -2.549983E+00  3.538481E+00
      2428   3 -2.065584E+02 -1.444207E+02 -2.328427E+01 -1.378878E+02  4.566534E+00 -2.855321E+00
      2428   4 -1.772825E+02 -1.761442E+02 -2.513446E+01 -1.403118E+02  3.777659E+00 -2.358961E+00
      2428   5 -1.235753E+02 -7.003488E+01  5.739509E+00 -1.028416E+02 -1.833543E+00  2.912262E+00
      2428   6 -9.589038E+01 -9.988969E+01  4.171984E+00 -1.049478E+02 -2.613531E+00  3.369195E+00
      2428   7 -1.236885E+02 -6.887218E+01  5.967232E+00 -1.021575E+02  4.453917E+00 -3.207640E+00
      2428   8 -9.586968E+01 -9.878847E+01  4.471900E+00 -1.044519E+02  3.579907E+00 -2.646146E+00
      2429   1 -1.794962E+02 -1.628529E+02 -2.267815E+01 -1.378185E+02 -2.038708E+00  3.002730E+00
      2429   2 -1.512895E+02 -1.937978E+02 -2.477162E+01 -1.352964E+02 -2.683732E+00  3.273813E+00
      2429   3 -1.798674E+02 -1.615034E+02 -2.248449E+01 -1.372793E+02  4.742654E+00 -2.296835E+00
      2429   4 -1.514993E+02 -1.925432E+02 -2.451403E+01 -1.349156E+02  3.980241E+00 -1.914716E+00
      2429   5 -1.045827E+02 -8.358009E+01  5.723827E+00 -1.029120E+02 -2.009245E+00  2.764048E+00
      2429   6 -7.777048E+01 -1.127539E+02  4.010697E+00 -1.005249E+02 -2.739423E+00  3.089762E+00
      2429   7 -1.047302E+02 -8.240728E+01  5.947167E+00 -1.023551E+02  4.632731E+00 -2.669071E+00
      2429   8 -7.776311E+01 -1.116689E+02  4.299385E+00 -1.001178E+02  3.791878E+00 -2.238479E+00
      2430   1 -1.534336E+02 -1.785578E+02 -2.183768E+01 -1.334086E+02 -2.199525E+00  2.838197E+00
      2430   2 -1.269271E+02 -2.080119E+02 -2.409818E+01 -1.264654E+02 -2.789805E+00  3.006514E+00
      2430   3 -1.537850E+02 -1.772465E+02 -2.164494E+01 -1.330116E+02  4.849988E+00 -1.726285E+00
      2430   4 -1.271055E+02 -2.068120E+02 -2.384765E+01 -1.261848E+02  4.125083E+00 -1.449564E+00
      2430   5 -8.601794E+01 -9.628165E+01  5.684278E+00 -1.002633E+02 -2.167391E+00  2.601191E+00
      2430   6 -6.080842E+01 -1.240379E+02  3.828260E+00 -9.369160E+01 -2.835102E+00  2.809585E+00
      2430   7 -8.617895E+01 -9.512109E+01  5.903827E+00 -9.982397E+01  4.746728E+00 -2.118039E+00
      2430   8 -6.080396E+01 -1.229811E+02  4.106529E+00 -9.336252E+01  3.951988E+00 -1.807190E+00
      2431   1 -1.286570E+02 -1.923011E+02 -2.097094E+01 -1.256825E+02 -2.341521E+00  2.663747E+00
      2431   2 -1.045293E+02 -2.195769E+02 -2.339404E+01 -1.147728E+02 -2.868289E+00  2.742892E+00
      2431   3 -1.289710E+02 -1.910485E+02 -2.077863E+01 -1.254072E+02  4.890041E+00 -1.149933E+00
      2431   4 -1.046683E+02 -2.184420E+02 -2.314971E+01 -1.145731E+02  4.212146E+00 -9.677677E-01
      2431   5 -6.836230E+01 -1.076792E+02  5.615223E+00 -9.511502E+01 -2.306089E+00  2.428463E+00
      2431   6 -4.539911E+01 -1.333687E+02  3.617351E+00 -8.478913E+01 -2.901230E+00  2.535399E+00
      2431   7 -6.852151E+01 -1.065517E+02  5.830382E+00 -9.478160E+01  4.797225E+00 -1.560042E+00
      2431   8 -4.539126E+01 -1.323512E+02  3.884993E+00 -8.452725E+01  4.059391E+00 -1.355687E+00
      2432   1 -1.057344E+02 -2.035718E+02 -2.009237E+01 -1.150727E+02 -2.463332E+00  2.485303E+00
      2432   2 -8.455024E+01 -2.280964E+02 -2.267466E+01 -1.007557E+02 -2.920048E+00  2.490301E+00
      2432   3 -1.060005E+02 -2.023962E+02 -1.990152E+01 -1.148981E+02  4.864997E+00 -5.724747E-01
      2432   4 -8.464751E+01 -2.270353E+02 -2.243703E+01 -1.006189E+02  4.241698E+00 -4.723695E-01
      2432   5 -5.203670E+01 -1.173672E+02  5.510575E+00 -8.776822E+01 -2.424263E+00  2.251926E+00
      2432   6 -3.185559E+01 -1.404487E+02  3.371245E+00 -7.421734E+01 -2.939453E+00  2.274798E+00
      2432   7 -5.218360E+01 -1.162931E+02  5.719439E+00 -8.752763E+01  4.785815E+00 -9.993121E-01
      2432   8 -3.184160E+01 -1.394818E+02  3.626909E+00 -7.401255E+01  4.113253E+00 -8.864645E-01
      2433   1 -8.513024E+01 -2.119588E+02 -1.921585E+01 -1.021017E+02 -2.564585E+00  2.309631E+00
      2433   2 -6.732154E+01 -2.332853E+02 -2.195013E+01 -8.501384E+01 -2.947135E+00  2.256585E+00
      2433   3 -8.534395E+01 -2.108765E+02 -1.902866E+01 -1.020070E+02  4.776575E+00  1.462784E-03
      2433   4 -6.737933E+01 -2.323064E+02 -2.172086E+01 -8.492393E+01  4.213275E+00  3.333988E-02
      2433   5 -3.738847E+01 -1.250064E+02  5.366330E+00 -7.859469E+01 -2.521952E+00  2.078449E+00
      2433   6 -2.039934E+01 -1.450582E+02  3.089745E+00 -6.242125E+01 -2.952741E+00  2.035663E+00
      2433   7 -3.751623E+01 -1.240048E+02  5.566280E+00 -7.843285E+01  4.713469E+00 -4.401396E-01
      2433   8 -2.037875E+01 -1.441537E+02  3.331372E+00 -6.226401E+01  4.111848E+00 -4.025536E-01
      2434   1 -6.718654E+01 -2.171423E+02 -1.834062E+01 -8.736656E+01 -2.646183E+00  2.143261E+00
      2434   2 -5.303887E+01 -2.349511E+02 -2.120634E+01 -6.819598E+01 -2.953009E+00  2.048600E+00
      2434   3 -6.734727E+01 -2.161665E+02 -1.815940E+01 -8.733115E+01  4.625239E+00  5.642030E-01
      2434   4 -5.306119E+01 -2.340615E+02 -2.098707E+01 -6.813816E+01  4.125070E+00  5.422483E-01
      2434   5 -2.468344E+01 -1.303299E+02  5.186899E+00 -6.803195E+01 -2.600548E+00  1.914601E+00
      2434   6 -1.115709E+01 -1.470499E+02  2.791369E+00 -4.988728E+01 -2.945546E+00  1.824614E+00
      2434   7 -2.478718E+01 -1.294169E+02  5.375905E+00 -6.793348E+01  4.579869E+00  1.101126E-01
      2434   8 -1.112930E+01 -1.462180E+02  3.017585E+00 -4.976758E+01  4.052068E+00  8.895858E-02
      2435   1 -5.208574E+01 -2.188394E+02 -1.741187E+01 -7.153644E+01 -2.710551E+00  1.990281E+00
      2435   2 -4.173312E+01 -2.329229E+02 -2.035814E+01 -5.101143E+01 -2.942330E+00  1.869383E+00
      2435   3 -5.219408E+01 -2.179763E+02 -1.723694E+01 -7.153990E+01  4.410234E+00  1.099774E+00
      2435   4 -4.172324E+01 -2.321245E+02 -2.014853E+01 -5.097126E+01  3.974608E+00  1.037526E+00
      2435   5 -1.409872E+01 -1.331509E+02  4.997515E+00 -5.659490E+01 -2.662941E+00  1.764525E+00
      2435   6 -4.161699E+00 -1.463424E+02  2.531851E+00 -3.716826E+01 -2.923366E+00  1.644300E+00
      2435   7 -1.417332E+01 -1.323348E+02  5.176203E+00 -5.654287E+01  4.383578E+00  6.360812E-01
      2435   8 -4.124168E+00 -1.455873E+02  2.743928E+00 -3.707494E+01  3.930361E+00  5.714013E-01
      2436   1 -3.976895E+01 -2.166532E+02 -1.623078E+01 -5.537642E+01 -2.760874E+00  1.849384E+00
      2436   2 -3.319195E+01 -2.268908E+02 -1.915335E+01 -3.429817E+01 -2.919522E+00  1.715461E+00
      2436   3 -3.982488E+01 -2.158981E+02 -1.605896E+01 -5.539902E+01  4.132188E+00  1.578191E+00
      2436   4 -3.315201E+01 -2.261767E+02 -1.895018E+01 -3.426182E+01  3.762187E+00  1.487252E+00
      2436   5 -5.709833E+00 -1.333854E+02  4.861170E+00 -4.490900E+01 -2.712712E+00  1.627099E+00
      2436   6  6.577799E-01 -1.429326E+02  2.427698E+00 -2.495875E+01 -2.891027E+00  1.490663E+00
      2436   7 -5.748549E+00 -1.326614E+02  5.034647E+00 -4.488620E+01  4.124606E+00  1.108989E+00
      2436   8  7.097989E-01 -1.422474E+02  2.630833E+00 -2.488016E+01  3.746349E+00  1.013281E+00
      2437   1 -2.975468E+01 -2.097567E+02 -1.428103E+01 -3.980777E+01 -2.799717E+00  1.714043E+00
      2437   2 -2.680400E+01 -2.161279E+02 -1.702232E+01 -1.918743E+01 -2.887985E+00  1.578927E+00
      2437   3 -2.976015E+01 -2.090994E+02 -1.410878E+01 -3.983146E+01  3.798003E+00  1.957966E+00
      2437   4 -2.673632E+01 -2.154869E+02 -1.682196E+01 -1.914225E+01  3.494397E+00  1.849069E+00
      2437   5  5.198299E-01 -1.311518E+02  4.876725E+00 -3.376561E+01 -2.752562E+00  1.495040E+00
      2437   6  3.463396E+00 -1.370313E+02  2.633985E+00 -1.424877E+01 -2.852257E+00  1.353888E+00
      2437   7  5.240082E-01 -1.305047E+02  5.052640E+00 -3.375528E+01  3.809152E+00  1.487187E+00
      2437   8  3.536550E+00 -1.363998E+02  2.835903E+00 -1.417324E+01  3.505700E+00  1.370904E+00
      2438   1 -2.080022E+01 -1.964079E+02 -1.045743E+01 -2.606932E+01 -2.830729E+00  1.572774E+00
      2438   2 -2.086305E+01 -1.989967E+02 -1.268232E+01 -7.491975E+00 -2.857731E+00  1.448187E+00
      2438   3 -2.076488E+01 -1.958421E+02 -1.028634E+01 -2.606029E+01  3.425311E+00  2.178541E+00
      2438   4 -2.080065E+01 -1.984334E+02 -1.249704E+01 -7.407701E+00  3.197572E+00  2.062358E+00
      2438   5  4.725448E+00 -1.271832E+02  5.066808E+00 -2.408451E+01 -2.784678E+00  1.358421E+00
      2438   6  4.815561E+00 -1.294839E+02  3.310022E+00 -6.501321E+00 -2.810801E+00  1.220960E+00
      2438   7  4.775919E+00 -1.265877E+02  5.252923E+00 -2.406164E+01  3.456686E+00  1.729273E+00
      2438   8  4.891201E+00 -1.288911E+02  3.508498E+00 -6.407229E+00  3.240569E+00  1.599839E+00
      2439   1 -2.072943E+01 -1.976461E+02 -1.221892E+01  7.251876E+00  2.548093E+00  4.598395E+00
      2439   2 -2.073099E+01 -1.948311E+02 -9.738639E+00  2.663973E+01  2.434060E+00  5.020511E+00
      2439   3 -2.060741E+01 -1.957602E+02 -1.161371E+01  7.175433E+00 -3.656741E+00  5.288909E+00
      2439   4 -2.070932E+01 -1.930047E+02 -9.173514E+00  2.647209E+01 -4.007559E+00  5.703077E+00
      2439   5  4.801403E+00 -1.282506E+02  3.384549E+00  6.180278E+00  2.370668E+00  3.670822E+00
      2439   6  4.616146E+00 -1.257700E+02  5.303276E+00  2.453061E+01  2.275871E+00  4.104668E+00
      2439   7  4.894634E+00 -1.264350E+02  3.959510E+00  6.072261E+00 -3.829508E+00  4.089355E+00
      2439   8  4.613818E+00 -1.240113E+02  5.838942E+00  2.433628E+01 -4.148369E+00  4.515814E+00
      2440   1 -2.672804E+01 -2.148944E+02 -1.627026E+01  1.946208E+01  2.300291E+00  4.611076E+00
      2440   2 -3.005705E+01 -2.079869E+02 -1.329554E+01  4.097525E+01  2.157916E+00  5.124892E+00
      2440   3 -2.655906E+01 -2.125878E+02 -1.551374E+01  1.918145E+01 -4.287406E+00  4.907268E+00
      2440   4 -2.997011E+01 -2.057869E+02 -1.258315E+01  4.056168E+01 -4.674975E+00  5.393251E+00
      2440   5  3.450627E+00 -1.358525E+02  2.914805E+00  1.425773E+01  2.146939E+00  3.668628E+00
      2440   6  1.205166E-01 -1.294939E+02  5.312081E+00  3.461961E+01  2.030665E+00  4.176181E+00
      2440   7  3.535736E+00 -1.337497E+02  3.581745E+00  1.396582E+01 -4.412924E+00  3.682456E+00
      2440   8  1.276492E-01 -1.274923E+02  5.936478E+00  3.420188E+01 -4.761191E+00  4.163763E+00
      2441   1 -3.334818E+01 -2.254400E+02 -1.812465E+01  3.520815E+01  2.020947E+00  4.460304E+00
      2441   2 -4.064945E+01 -2.143541E+02 -1.501852E+01  5.710923E+01  1.890109E+00  5.071299E+00
      2441   3 -3.310088E+01 -2.227992E+02 -1.723288E+01  3.463535E+01 -4.905750E+00  4.193720E+00
      2441   4 -4.041567E+01 -2.118528E+02 -1.415594E+01  5.639560E+01 -5.274784E+00  4.758379E+00
      2441   5  5.011028E-01 -1.416332E+02  2.879925E+00  2.541191E+01  1.884407E+00  3.523377E+00
      2441   6 -6.579719E+00 -1.313108E+02  5.422507E+00  4.614096E+01  1.796117E+00  4.126068E+00
      2441   7  6.267070E-01 -1.392513E+02  3.651598E+00  2.486784E+01 -4.992189E+00  2.981720E+00
      2441   8 -6.466963E+00 -1.290611E+02  6.166438E+00  4.546359E+01 -5.305779E+00  3.540677E+00
      2442   1 -4.238888E+01 -2.310151E+02 -1.914990E+01  5.253998E+01  1.782797E+00  4.257537E+00
      2442   2 -5.379908E+01 -2.157809E+02 -1.606794E+01  7.371839E+01  1.658181E+00  4.971155E+00
      2442   3 -4.195464E+01 -2.281106E+02 -1.811292E+01  5.162908E+01 -5.406461E+00  3.320579E+00
      2442   4 -5.331410E+01 -2.130513E+02 -1.504727E+01  7.267658E+01 -5.755587E+00  3.971845E+00
      2442   5 -4.652029E+00 -1.447319E+02  3.074442E+00  3.806202E+01  1.670653E+00  3.323845E+00
      2442   6 -1.561304E+01 -1.304744E+02  5.614829E+00  5.810708E+01  1.604168E+00  4.032665E+00
      2442   7 -4.381198E+00 -1.421144E+02  3.968043E+00  3.721905E+01 -5.448658E+00  2.126901E+00
      2442   8 -1.529392E+01 -1.280221E+02  6.493615E+00  5.714021E+01 -5.727422E+00  2.776876E+00
      2443   1 -5.446401E+01 -2.323887E+02 -1.992020E+01  7.023972E+01  1.582667E+00  4.066306E+00
      2443   2 -6.996420E+01 -2.131436E+02 -1.693582E+01  8.980625E+01  1.455617E+00  4.880336E+00
      2443   3 -5.374902E+01 -2.293385E+02 -1.874686E+01  6.897575E+01 -5.783266E+00  2.400616E+00
      2443   4 -6.913758E+01 -2.103015E+02 -1.576614E+01  8.843556E+01 -6.120003E+00  3.138197E+00
      2443   5 -1.216118E+01 -1.449633E+02  3.355706E+00  5.114445E+01  1.499774E+00  3.138469E+00
      2443   6 -2.698664E+01 -1.269028E+02  5.819298E+00  6.966390E+01  1.446115E+00  3.954132E+00
      2443   7 -1.166058E+01 -1.422123E+02  4.364516E+00  4.998528E+01 -5.778317E+00  1.229410E+00
      2443   8 -2.637978E+01 -1.243482E+02  6.826014E+00  6.840371E+01 -6.030165E+00  1.972943E+00
      2444   1 -6.975191E+01 -2.298762E+02 -2.063972E+01  8.740435E+01  1.407079E+00  3.913565E+00
      2444   2 -8.914965E+01 -2.068691E+02 -1.778064E+01  1.045459E+02  1.269974E+00  4.820798E+00
      2444   3 -6.867740E+01 -2.268230E+02 -1.935067E+01  8.580584E+01 -6.048591E+00  1.485662E+00
      2444   4 -8.791193E+01 -2.040526E+02 -1.648370E+01  1.028781E+02 -6.380136E+00  2.304095E+00
      2444   5 -2.207725E+01 -1.423511E+02  3.642300E+00  6.391934E+01  1.356787E+00  2.994773E+00
      2444   6 -4.058618E+01 -1.207245E+02  6.000113E+00  8.014354E+01  1.307041E+00  3.913004E+00
      2444   7 -2.127460E+01 -1.395925E+02  4.748940E+00  6.245581E+01 -5.994991E+00  3.408996E-01
      2444   8 -3.962815E+01 -1.181890E+02  7.116362E+00  7.861445E+01 -6.228438E+00  1.175380E+00
      2445   1 -8.817278E+01 -2.236566E+02 -2.135406E+01  1.032631E+02  1.246298E+00  3.798613E+00
      2445   2 -1.111043E+02 -1.972792E+02 -1.863081E+01  1.172143E+02  1.092583E+00  4.791499E+00
      2445   3 -8.667480E+01 -2.207397E+02 -1.997317E+01  1.013775E+02 -6.211173E+00  5.892456E-01
      2445   4 -1.094039E+02 -1.946190E+02 -1.723138E+01  1.153081E+02 -6.543246E+00  1.483000E+00
      2445   5 -3.433918E+01 -1.369935E+02  3.905488E+00  7.579432E+01  1.229464E+00  2.892796E+00
      2445   6 -5.618709E+01 -1.121712E+02  6.148019E+00  8.899892E+01  1.175246E+00  3.908927E+00
      2445   7 -3.317445E+01 -1.343507E+02  5.089860E+00  7.406395E+01 -6.110262E+00 -5.238459E-01
      2445   8 -5.482947E+01 -1.097700E+02  7.352910E+00  8.724907E+01 -6.332915E+00  3.988350E-01
      2446   1 -1.094690E+02 -2.139528E+02 -2.205675E+01  1.171059E+02  1.096665E+00  3.709188E+00
      2446   2 -1.354041E+02 -1.847504E+02 -1.947497E+01  1.271688E+02  9.200052E-01  4.782068E+00
      2446   3 -1.074974E+02 -2.112899E+02 -2.060557E+01  1.150030E+02 -6.272608E+00 -2.899499E-01
      2446   4 -1.332054E+02 -1.823528E+02 -1.799531E+01  1.251027E+02 -6.610495E+00  6.758848E-01
      2446   5 -4.878202E+01 -1.290621E+02  4.140541E+00  8.624196E+01  1.111511E+00  2.820711E+00
      2446   6 -7.346616E+01 -1.015594E+02  6.264552E+00  9.576640E+01  1.044278E+00  3.931760E+00
      2446   7 -4.720632E+01 -1.266398E+02  5.384845E+00  8.430240E+01 -6.128853E+00 -1.365403E+00
      2446   8 -7.167396E+01 -9.938667E+01  7.539638E+00  9.386163E+01 -6.348273E+00 -3.552056E-01
      2447   1 -1.332307E+02 -2.011055E+02 -2.273024E+01  1.282793E+02  9.589402E-01  3.631974E+00
      2447   2 -1.614892E+02 -1.697707E+02 -2.029603E+01  1.338567E+02  7.525763E-01  4.781489E+00
      2447   3 -1.307504E+02 -1.987856E+02 -2.122628E+01  1.260457E+02 -6.229968E+00 -1.154546E+00
      2447   4 -1.587726E+02 -1.677109E+02 -1.875387E+01  1.317224E+02 -6.579454E+00 -1.172119E-01
      2447   5 -6.513273E+01 -1.188155E+02  4.351720E+00  9.477937E+01  1.001454E+00  2.765006E+00
      2447   6 -9.200805E+01 -8.928671E+01  6.354423E+00  1.000583E+02  9.120389E-01  3.969899E+00
      2447   7 -6.311006E+01 -1.166943E+02  5.641615E+00  9.270364E+01 -6.050539E+00 -2.186632E+00
      2447   8 -8.975977E+01 -8.740964E+01  7.685229E+00  9.807654E+01 -6.274982E+00 -1.087354E+00
      2448   1 -1.589113E+02 -1.855907E+02 -2.335886E+01  1.362081E+02  8.360095E-01  3.557389E+00
      2448   2 -1.886868E+02 -1.529429E+02 -2.107990E+01  1.368359E+02  5.922412E-01  4.781862E+00
      2448   3 -1.559041E+02 -1.836726E+02 -2.181582E+01  1.339418E+02 -6.079118E+00 -2.002723E+00
      2448   4 -1.854500E+02 -1.512644E+02 -1.948891E+01  1.347331E+02 -6.447256E+00 -8.925363E-01
      2448   5 -8.301434E+01 -1.066051E+02  4.545302E+00  1.009778E+02  9.005905E-01  2.715234E+00
      2448   6 -1.113164E+02 -7.582449E+01  6.422312E+00  1.015721E+02  7.787759E-01  4.014119E+00
      2448   7 -8.052357E+01 -1.048400E+02  5.869521E+00  9.884967E+01 -5.873117E+00 -2.986920E+00
      2448   8 -1.086059E+02 -7.428361E+01  7.797618E+00  9.959866E+01 -6.112201E+00 -1.795540E+00
      2449   1 -1.858449E+02 -1.680079E+02 -2.393057E+01  1.404236E+02  7.309816E-01  3.480549E+00
      2449   2 -2.162339E+02 -1.349641E+02 -2.181584E+01  1.357985E+02  4.413035E-01  4.778894E+00
      2449   3 -1.823129E+02 -1.665219E+02 -2.235970E+01  1.382289E+02 -5.817272E+00 -2.827292E+00
      2449   4 -2.124951E+02 -1.336815E+02 -2.018727E+01  1.338296E+02 -6.212390E+00 -1.642189E+00
      2449   5 -1.019582E+02 -9.286975E+01  4.726410E+00  1.044826E+02  8.111898E-01  2.665126E+00
      2449   6 -1.308308E+02 -6.170410E+01  6.472001E+00  1.001051E+02  6.456485E-01  4.058447E+00
      2449   7 -9.899501E+01 -9.149083E+01  6.076051E+00  1.023922E+02 -5.594851E+00 -3.760979E+00
      2449   8 -1.276689E+02 -6.051472E+01  7.882987E+00  9.822827E+01 -5.859746E+00 -2.474065E+00
      2450   1 -2.132704E+02 -1.490580E+02 -2.443685E+01  1.405896E+02  6.462410E-01  3.400254E+00
      2450   2 -2.433081E+02 -1.165975E+02 -2.249619E+01  1.305897E+02  3.011394E-01  4.771373E+00
      2450   3 -2.092374E+02 -1.480063E+02 -2.284765E+01  1.385723E+02 -5.444218E+00 -3.617116E+00
      2450   4 -2.391057E+02 -1.156974E+02 -2.083921E+01  1.288544E+02 -5.876150E+00 -2.355029E+00
      2450   5 -1.214213E+02 -7.812200E+01  4.898716E+00  1.050326E+02  7.353284E-01  2.612004E+00
      2450   6 -1.499498E+02 -4.749685E+01  6.506146E+00  9.556779E+01  5.137029E-01  4.099686E+00
      2450   7 -1.180001E+02 -7.713574E+01  6.266224E+00  1.030724E+02 -5.215941E+00 -4.499718E+00
      2450   8 -1.463650E+02 -4.665085E+01  7.945492E+00  9.387460E+01 -5.519322E+00 -3.114351E+00
      2451   1 -2.403621E+02 -1.295122E+02 -2.487149E+01  1.365234E+02  5.829192E-01  3.318091E+00
      2451   2 -2.690593E+02 -9.863731E+01 -2.311450E+01  1.212200E+02  1.723422E-01  4.759996E+00
      2451   3 -2.358739E+02 -1.288713E+02 -2.327255E+01  1.347859E+02 -4.963104E+00 -4.358285E+00
      2451   4 -2.644534E+02 -9.808251E+01 -2.143775E+01  1.198117E+02 -5.442779E+00 -3.018184E+00
      2451   5 -1.408081E+02 -6.292764E+01  5.064408E+00  1.024766E+02  6.746134E-01  2.555893E+00
      2451   6 -1.680555E+02 -3.379097E+01  6.526619E+00  8.799208E+01  3.837999E-01  4.136563E+00
      2451   7 -1.369626E+02 -6.231832E+01  6.443024E+00  1.007374E+02 -4.738993E+00 -5.191438E+00
      2451   8 -1.640949E+02 -3.325936E+01  7.987653E+00  8.656447E+01 -5.094810E+00 -3.706128E+00
      2452   1 -2.662613E+02 -1.101770E+02 -2.522894E+01  1.282087E+02  5.411336E-01  3.237311E+00
      2452   2 -2.926466E+02 -8.187274E+01 -2.366516E+01  1.078706E+02  5.498732E-02  4.746576E+00
      2452   3 -2.613882E+02 -1.099007E+02 -2.362927E+01  1.268456E+02 -4.379981E+00 -5.035896E+00
      2452   4 -2.877189E+02 -8.160476E+01 -2.197740E+01  1.068709E+02 -4.918868E+00 -3.618380E+00
      2452   5 -1.594946E+02 -4.788172E+01  5.225179E+00  9.678407E+01  6.298555E-01  2.498639E+00
      2452   6 -1.845411E+02 -2.116530E+01  6.534536E+00  7.753440E+01  2.563377E-01  4.169205E+00
      2452   7 -1.552788E+02 -4.761291E+01  6.608330E+00  9.535058E+01 -4.169238E+00 -5.823230E+00
      2452   8 -1.802695E+02 -2.090017E+01  8.010865E+00  7.644483E+01 -4.592323E+00 -4.238392E+00
      2453   1 -2.901155E+02 -9.185907E+01 -2.550484E+01  1.158024E+02  5.201027E-01  3.161515E+00
      2453   2 -3.132741E+02 -6.705108E+01 -2.414268E+01  9.089052E+01 -5.180129E-02  4.733314E+00
      2453   3 -2.849484E+02 -9.187945E+01 -2.391331E+01  1.148944E+02 -3.703560E+00 -5.635572E+00
      2453   4 -3.081245E+02 -6.699283E+01 -2.245270E+01  9.036433E+01 -4.313656E+00 -4.142897E+00
      2453   5 -1.768579E+02 -3.358309E+01  5.381226E+00  8.805134E+01  6.010852E-01  2.442848E+00
      2453   6 -1.988370E+02 -1.016246E+01  6.531228E+00  6.447267E+01  1.312341E-01  4.198249E+00
      2453   7 -1.723441E+02 -3.359960E+01  6.762294E+00  8.699758E+01 -3.514392E+00 -6.382262E+00
      2453   8 -1.943351E+02 -1.009990E+01  8.016330E+00  6.378029E+01 -4.020102E+00 -4.700528E+00
      2454   1 -3.111132E+02 -7.532703E+01 -2.569490E+01  9.963172E+01  5.184590E-01  3.094705E+00
      2454   2 -3.302279E+02 -5.484291E+01 -2.454188E+01  7.078549E+01 -1.489065E-01  4.722665E+00
      2454   3 -3.057621E+02 -7.555881E+01 -2.412086E+01  9.924128E+01 -2.944881E+00 -6.143657E+00
      2454   4 -3.249712E+02 -5.490358E+01 -2.285895E+01  7.077735E+01 -3.638116E+00 -4.580009E+00
      2454   5 -1.923016E+02 -2.060714E+01  5.532490E+00  7.650016E+01  5.878459E-01  2.391781E+00
      2454   6 -2.104390E+02 -1.264800E+00  6.517324E+00  4.919759E+01  8.425999E-03  4.224870E+00
      2454   7 -1.875790E+02 -2.083793E+01  6.904588E+00  7.588562E+01 -2.784241E+00 -6.856164E+00
      2454   8 -2.058007E+02 -1.328599E+00  8.004346E+00  4.894492E+01 -3.387933E+00 -5.082616E+00
      2455   1 -3.285197E+02 -6.127519E+01 -2.579442E+01  8.018385E+01  5.349620E-01  3.040879E+00
      2455   2 -3.429057E+02 -4.580709E+01 -2.485688E+01  4.820002E+01 -2.361553E-01  4.717104E+00
      2455   3 -3.231115E+02 -6.162131E+01 -2.424882E+01  8.035149E+01 -2.115963E+00 -6.548090E+00
      2455   4 -3.376704E+02 -4.588836E+01 -2.319216E+01  4.873059E+01 -2.903162E+00 -4.919530E+00
      2455   5 -2.052841E+02 -9.478739E+00  5.678401E+00  6.247074E+01  5.895206E-01  2.349046E+00
      2455   6 -2.189318E+02  5.130092E+00  6.492462E+00  3.219855E+01 -1.117968E-01  4.250650E+00
      2455   7 -2.004553E+02 -9.840711E+00  7.034181E+00  6.233681E+01 -1.989920E+00 -7.233707E+00
      2455   8 -2.142610E+02  5.024402E+00  7.973965E+00  3.240810E+01 -2.706339E+00 -5.375786E+00
      2456   1 -3.417039E+02 -5.028522E+01 -2.579541E+01  5.808515E+01  5.690785E-01  3.004281E+00
      2456   2 -3.508402E+02 -4.036479E+01 -2.508094E+01  2.389220E+01 -3.122949E-01  4.718394E+00
      2456   3 -3.363799E+02 -5.064324E+01 -2.429200E+01  5.882652E+01 -1.228671E+00 -6.838151E+00
      2456   4 -3.457640E+02 -4.036642E+01 -2.344792E+01  2.495510E+01 -2.119051E+00 -5.153143E+00
      2456   5 -2.153523E+02 -6.512287E-01  5.813782E+00  4.640954E+01  6.050123E-01  2.318677E+00
      2456   6 -2.240157E+02  8.722216E+00  6.452321E+00  1.404638E+01 -2.299333E-01  4.276639E+00
      2456   7 -2.105273E+02 -1.052702E+00  7.146232E+00  4.677673E+01 -1.144173E+00 -7.504679E+00
      2456   8 -2.194192E+02  8.664050E+00  7.921401E+00  1.471788E+01 -1.987637E+00 -5.572742E+00
      2457   1 -3.501744E+02 -4.280877E+01 -2.569275E+01  3.406477E+01  6.224562E-01  2.988788E+00
      2457   2 -3.537344E+02 -3.878504E+01 -2.521128E+01 -1.309349E+00 -3.729519E-01  4.726922E+00
      2457   3 -3.450852E+02 -4.307567E+01 -2.424777E+01  3.537037E+01 -2.943982E-01 -7.004836E+00
      2457   4 -3.489587E+02 -3.861102E+01 -2.362577E+01  2.525842E-01 -1.294743E+00 -5.276102E+00
      2457   5 -2.221612E+02  5.511842E+00  5.929625E+00  2.883561E+01  6.310745E-01  2.304634E+00
      2457   6 -2.255316E+02  9.319496E+00  6.383659E+00 -4.645476E+00 -3.480427E-01  4.302140E+00
      2457   7 -2.174507E+02  5.167976E+00  7.233211E+00  2.970447E+01 -2.627590E-01 -7.660541E+00
      2457   8 -2.211114E+02  9.399375E+00  7.835222E+00 -3.534007E+00 -1.246681E+00 -5.670333E+00
      2458   1 -3.543483E+02 -3.936650E+01 -2.576910E+01  8.819923E+00  6.784984E-01  2.991188E+00
      2458   2 -3.523733E+02 -4.118824E+01 -2.553481E+01 -2.559612E+01 -4.372357E-01  4.605881E+00
      2458   3 -3.494902E+02 -3.939656E+01 -2.434203E+01  1.067749E+01  6.500901E-01 -7.061645E+00
      2458   4 -3.478428E+02 -4.076126E+01 -2.397198E+01 -2.378927E+01 -4.615105E-01 -5.448116E+00
      2458   5 -2.254510E+02  8.864078E+00  6.058242E+00  1.012152E+01  6.490897E-01  2.303411E+00
      2458   6 -2.235670E+02  7.154388E+00  6.313949E+00 -2.245277E+01 -4.572031E-01  4.169428E+00
      2458   7 -2.209705E+02  8.654380E+00  7.317464E+00  1.151198E+01  6.193654E-01 -7.717838E+00
      2458   8 -2.193904E+02  7.383457E+00  7.716023E+00 -2.111031E+01 -4.828260E-01 -5.853883E+00
      2459   1 -3.529022E+02 -3.964923E+01 -2.551636E+01 -1.567002E+01  6.781490E-01  3.106978E+00
      2459   2 -3.456717E+02 -4.702232E+01 -2.552294E+01 -4.924981E+01 -5.316681E-01  4.559294E+00
      2459   3 -3.484867E+02 -3.940193E+01 -2.415623E+01 -1.353359E+01  1.548540E+00 -6.923833E+00
      2459   4 -3.415495E+02 -4.635512E+01 -2.403245E+01 -4.723542E+01  3.412753E-01 -5.454209E+00
      2459   5 -2.251304E+02  9.124520E+00  6.161655E+00 -8.021755E+00  6.473751E-01  2.426035E+00
      2459   6 -2.182604E+02  2.172300E+00  6.216705E+00 -3.980452E+01 -5.817178E-01  4.112570E+00
      2459   7 -2.209599E+02  9.149226E+00  7.384212E+00 -6.335628E+00  1.492207E+00 -7.578166E+00
      2459   8 -2.143620E+02  2.600159E+00  7.576101E+00 -3.823392E+01  2.658286E-01 -5.876128E+00
      2460   1 -3.467686E+02 -4.359492E+01 -2.519970E+01 -3.957774E+01  6.713868E-01  3.248495E+00
      2460   2 -3.345308E+02 -5.628234E+01 -2.545270E+01 -7.140979E+01 -6.132785E-01  4.517532E+00
      2460   3 -3.428088E+02 -4.303657E+01 -2.389843E+01 -3.722603E+01  2.432565E+00 -6.656504E+00
      2460   4 -3.308177E+02 -5.535160E+01 -2.402624E+01 -6.923650E+01  1.145718E+00 -5.350618E+00
      2460   5 -2.213881E+02  6.602550E+00  6.263776E+00 -2.584206E+01  6.298621E-01  2.569042E+00
      2460   6 -2.097659E+02 -5.366542E+00  6.116352E+00 -5.597068E+01 -6.964481E-01  4.052098E+00
      2460   7 -2.175671E+02  6.895549E+00  7.449906E+00 -2.390965E+01  2.341015E+00 -7.318079E+00
      2460   8 -2.061730E+02 -4.715639E+00  7.433569E+00 -5.420712E+01  1.013028E+00 -5.800932E+00
      2461   1 -3.361586E+02 -5.101825E+01 -2.482933E+01 -6.213144E+01  6.554333E-01  3.394925E+00
      2461   2 -3.193204E+02 -6.861280E+01 -2.532706E+01 -9.136408E+01 -6.855099E-01  4.476612E+00
      2461   3 -3.326484E+02 -5.012794E+01 -2.357672E+01 -5.963546E+01  3.283641E+00 -6.279635E+00
      2461   4 -3.160039E+02 -6.740309E+01 -2.395425E+01 -8.908687E+01  1.932798E+00 -5.142617E+00
      2461   5 -2.143784E+02  1.409892E+00  6.354093E+00 -4.276221E+01  5.952469E-01  2.709585E+00
      2461   6 -1.983885E+02 -1.519048E+01  6.005599E+00 -7.043044E+01 -8.033170E-01  3.983787E+00
      2461   7 -2.109286E+02  1.993881E+00  7.505680E+00 -4.064520E+01  3.151091E+00 -6.959140E+00
      2461   8 -1.951172E+02 -1.429924E+01  7.282554E+00 -6.852051E+01  1.743610E+00 -5.633253E+00
      2462   1 -3.214087E+02 -6.158363E+01 -2.440143E+01 -8.263139E+01  6.204151E-01  3.544804E+00
      2462   2 -3.005254E+02 -8.352257E+01 -2.513926E+01 -1.085034E+02 -7.557407E-01  4.437807E+00
      2462   3 -3.183410E+02 -6.035510E+01 -2.319116E+01 -8.005742E+01  4.078670E+00 -5.798834E+00
      2462   4 -2.975955E+02 -8.203162E+01 -2.381416E+01 -1.061748E+02  2.682043E+00 -4.833408E+00
      2462   5 -2.043488E+02 -6.233355E+00  6.427045E+00 -5.826261E+01  5.418194E-01  2.847288E+00
      2462   6 -1.845178E+02 -2.693299E+01  5.881012E+00 -8.275010E+01 -9.035389E-01  3.910454E+00
      2462   7 -2.012807E+02 -5.344080E+00  7.547160E+00 -5.602029E+01  3.907521E+00 -6.505645E+00
      2462   8 -1.815756E+02 -2.579078E+01  7.120485E+00 -8.074002E+01  2.443285E+00 -5.374511E+00
      2463   1 -3.029935E+02 -7.483004E+01 -2.391467E+01 -1.004602E+02  5.614091E-01  3.695856E+00
      2463   2 -2.787490E+02 -1.004221E+02 -2.488647E+01 -1.223320E+02 -8.283003E-01  4.401134E+00
      2463   3 -3.003555E+02 -7.326903E+01 -2.274222E+01 -9.786983E+01  4.799876E+00 -5.222532E+00
      2463   4 -2.761913E+02 -9.865607E+01 -2.360444E+01 -1.200003E+02  3.376576E+00 -4.429712E+00
      2463   5 -1.916365E+02 -1.600622E+01  6.482014E+00 -7.187937E+01  4.676453E-01  2.980805E+00
      2463   6 -1.686117E+02 -4.015107E+01  5.743418E+00 -9.258074E+01 -9.990332E-01  3.833615E+00
      2463   7 -1.889526E+02 -1.480759E+01  7.573054E+00 -6.956915E+01  4.596058E+00 -5.964689E+00
      2463   8 -1.659998E+02 -3.875430E+01  6.947881E+00 -9.051536E+01  3.098112E+00 -5.029497E+00
      2464   1 -2.815054E+02 -9.019427E+01 -2.337054E+01 -1.151073E+02  4.761812E-01  3.844581E+00
      2464   2 -2.546822E+02 -1.186467E+02 -2.456863E+01 -1.324844E+02 -9.057969E-01  4.365680E+00
      2464   3 -2.792757E+02 -8.831523E+01 -2.223156E+01 -1.125564E+02  5.433425E+00 -4.562321E+00
      2464   4 -2.524781E+02 -1.166185E+02 -2.332563E+01 -1.301933E+02  4.002566E+00 -3.940955E+00
      2464   5 -1.766614E+02 -2.750736E+01  6.519007E+00 -8.322325E+01  3.718582E-01  3.107606E+00
      2464   6 -1.511841E+02 -5.434767E+01  5.593911E+00 -9.967045E+01 -1.091170E+00  3.753916E+00
      2464   7 -1.743556E+02 -2.600430E+01  7.583123E+00 -8.089971E+01  5.204656E+00 -5.346416E+00
      2464   8 -1.488988E+02 -5.269963E+01  6.765271E+00 -9.759274E+01  3.695898E+00 -4.605579E+00
      2465   1 -2.576239E+02 -1.070333E+02 -2.277153E+01 -1.261897E+02  3.642793E-01  3.987094E+00
      2465   2 -2.290731E+02 -1.374844E+02 -2.418708E+01 -1.387388E+02 -9.895545E-01  4.330389E+00
      2465   3 -2.557748E+02 -1.048587E+02 -2.166210E+01 -1.237279E+02  5.968719E+00 -3.831706E+00
      2465   4 -2.271992E+02 -1.352118E+02 -2.297919E+01 -1.365267E+02  4.548972E+00 -3.378154E+00
      2465   5 -1.599086E+02 -4.027262E+01  6.538042E+00 -9.199572E+01  2.549255E-01  3.224871E+00
      2465   6 -1.327850E+02 -6.899335E+01  5.433122E+00 -1.038732E+02 -1.180576E+00  3.671906E+00
      2465   7 -1.579670E+02 -3.847840E+01  7.577278E+00 -8.970978E+01  5.723927E+00 -4.662745E+00
      2465   8 -1.308166E+02 -6.710309E+01  6.573341E+00 -1.018237E+02  4.226569E+00 -4.111624E+00
      2466   1 -2.320855E+02 -1.246523E+02 -2.212059E+01 -1.334650E+02  2.263699E-01  4.119745E+00
      2466   2 -2.026911E+02 -1.562040E+02 -2.374367E+01 -1.410219E+02 -1.080298E+00  4.294402E+00
      2466   3 -2.305840E+02 -1.222109E+02 -2.103731E+01 -1.311347E+02  6.398102E+00 -3.045086E+00
      2466   4 -2.011215E+02 -1.537096E+02 -2.256766E+01 -1.389224E+02  5.007197E+00 -2.753117E+00
      2466   5 -1.419086E+02 -5.379594E+01  6.538608E+00 -9.799975E+01  1.182854E-01  3.330105E+00
      2466   6 -1.139763E+02 -8.354823E+01  5.261408E+00 -1.051523E+02 -1.267580E+00  3.588401E+00
      2466   7 -1.403105E+02 -5.173148E+01  7.554618E+00 -9.579745E+01  6.147145E+00 -3.926382E+00
      2466   8 -1.123107E+02 -8.143061E+01  6.372075E+00 -1.031683E+02  4.682059E+00 -3.557234E+00
      2467   1 -2.056531E+02 -1.423345E+02 -2.142184E+01 -1.368378E+02  6.431967E-02  4.239669E+00
      2467   2 -1.763004E+02 -1.740889E+02 -2.324245E+01 -1.394096E+02 -1.177728E+00  4.257413E+00
      2467   3 -2.044635E+02 -1.396611E+02 -2.036228E+01 -1.346750E+02  6.716729E+00 -2.217053E+00
      2467   4 -1.750066E+02 -1.713995E+02 -2.209568E+01 -1.374513E+02  5.371350E+00 -2.078071E+00
      2467   5 -1.232139E+02 -6.755010E+01  6.520037E+00 -1.011447E+02 -3.583942E-02  3.421752E+00
      2467   6 -9.531156E+01 -9.748489E+01  5.077979E+00 -1.035789E+02 -1.351916E+00  3.504848E+00
      2467   7 -1.219339E+02 -6.524382E+01  7.513561E+00 -9.906716E+01  6.469961E+00 -3.150028E+00
      2467   8 -9.393036E+01 -9.516076E+01  6.160014E+00 -1.016950E+02  5.056560E+00 -2.952281E+00
      2468   1 -1.790863E+02 -1.593736E+02 -2.068115E+01 -1.363606E+02 -1.191094E-01  4.345525E+00
      2468   2 -1.506249E+02 -1.904661E+02 -2.268879E+01 -1.341185E+02 -1.281093E+00  4.220688E+00
      2468   3 -1.781707E+02 -1.565082E+02 -1.964406E+01 -1.343941E+02  6.922756E+00 -1.361159E+00
      2468   4 -1.495786E+02 -1.876126E+02 -2.157002E+01 -1.323261E+02  5.638088E+00 -1.364042E+00
      2468   5 -1.043780E+02 -8.101014E+01  6.480545E+00 -1.014480E+02 -2.045894E-01  3.499849E+00
      2468   6 -7.731064E+01 -1.103097E+02  4.881355E+00 -9.932592E+01 -1.433138E+00  3.424315E+00
      2468   7 -1.033865E+02 -7.849773E+01  7.451192E+00 -9.953066E+01  6.690653E+00 -2.345267E+00
      2468   8 -7.619334E+01 -1.078063E+02  5.934383E+00 -9.757332E+01  5.346418E+00 -2.305402E+00
      2469   1 -1.531072E+02 -1.751010E+02 -1.990518E+01 -1.322257E+02 -3.200481E-01  4.438087E+00
      2469   2 -1.263236E+02 -2.047323E+02 -2.209057E+01 -1.254933E+02 -1.388725E+00  4.187986E+00
      2469   3 -1.524296E+02 -1.720906E+02 -1.889204E+01 -1.304786E+02  7.017362E+00 -4.890661E-01
      2469   4 -1.254970E+02 -2.017525E+02 -2.100086E+01 -1.238876E+02  5.806904E+00 -6.196843E-01
      2469   5 -8.592975E+01 -9.367281E+01  6.418186E+00 -9.902993E+01 -3.843002E-01  3.566534E+00
      2469   6 -6.044311E+01 -1.215820E+02  4.667888E+00 -9.265784E+01 -1.510460E+00  3.352181E+00
      2469   7 -8.519600E+01 -9.099823E+01  7.363463E+00 -9.730283E+01  6.810090E+00 -1.521849E+00
      2469   8 -5.956657E+01 -1.189347E+02  5.689829E+00 -9.106450E+01  5.550117E+00 -1.623082E+00
      2470   1 -1.283776E+02 -1.889153E+02 -1.910381E+01 -1.247531E+02 -5.344215E-01  4.521578E+00
      2470   2 -1.039649E+02 -2.163793E+02 -2.145868E+01 -1.139864E+02 -1.499032E+00  4.166434E+00
      2470   3 -1.279044E+02 -1.858156E+02 -1.811964E+01 -1.232432E+02  7.003957E+00  3.913188E-01
      2470   4 -1.033318E+02 -2.133200E+02 -2.040244E+01 -1.125851E+02  5.879151E+00  1.501409E-01
      2470   5 -6.835561E+01 -1.050772E+02  6.329644E+00 -9.410522E+01 -5.716925E-01  3.627239E+00
      2470   6 -4.510682E+01 -1.309290E+02  4.433308E+00 -8.391472E+01 -1.583724E+00  3.296916E+00
      2470   7 -6.784844E+01 -1.022945E+02  7.243927E+00 -9.259270E+01  6.830666E+00 -6.860207E-01
      2470   8 -4.444692E+01 -1.281831E+02  5.419178E+00 -8.250498E+01  5.667336E+00 -9.084012E-01
      2471   1 -1.054743E+02 -2.003044E+02 -1.829022E+01 -1.143726E+02 -7.585621E-01  4.603633E+00
      2471   2 -8.400972E+01 -2.250113E+02 -2.080793E+01 -1.001356E+02 -1.611145E+00  4.166968E+00
      2471   3 -1.051750E+02 -1.971824E+02 -1.734462E+01 -1.131125E+02  6.887138E+00  1.276028E+00
      2471   4 -8.354565E+01 -2.219315E+02 -1.979391E+01 -9.895320E+01  5.856926E+00  9.450125E-01
      2471   5 -5.208101E+01 -1.148189E+02  6.210971E+00 -8.697080E+01 -7.645122E-01  3.690457E+00
      2471   6 -3.161749E+01 -1.380560E+02  4.172395E+00 -7.349575E+01 -1.654185E+00  3.270260E+00
      2471   7 -5.176978E+01 -1.119938E+02  7.084830E+00 -8.569116E+01  6.755230E+00  1.594013E-01
      2471   8 -3.114923E+01 -1.352697E+02  5.113600E+00 -7.228961E+01  5.697701E+00 -1.606934E-01
      2472   1 -8.487002E+01 -2.088583E+02 -1.747940E+01 -1.016046E+02 -9.906459E-01  4.694537E+00
      2472   2 -6.679676E+01 -2.303488E+02 -2.015340E+01 -8.454154E+01 -1.726643E+00  4.203194E+00
      2472   3 -8.471723E+01 -2.057946E+02 -1.658698E+01 -1.006006E+02  6.670728E+00  2.164243E+00
      2472   4 -6.647797E+01 -2.273220E+02 -1.919496E+01 -8.358703E+01  5.740703E+00  1.767780E+00
      2472   5 -3.745719E+01 -1.225605E+02  6.058593E+00 -7.799423E+01 -9.628477E-01  3.766780E+00
      2472   6 -2.019924E+01 -1.427492E+02  3.882061E+00 -6.184424E+01 -1.726094E+00  3.285793E+00
      2472   7 -3.731147E+01 -1.197711E+02  6.878841E+00 -7.695802E+01  6.585245E+00  1.013900E+00
      2472   8 -1.989560E+01 -1.399939E+02  4.766639E+00 -6.085489E+01  5.638566E+00  6.228404E-01
      2473   1 -6.691477E+01 -2.142593E+02 -1.667813E+01 -8.704339E+01 -1.232484E+00  4.803158E+00
      2473   2 -5.252970E+01 -2.322078E+02 -1.949691E+01 -6.785112E+01 -1.851322E+00  4.286021E+00
      2473   3 -6.688099E+01 -2.113438E+02 -1.585630E+01 -8.629232E+01  6.355053E+00  3.053234E+00
      2473   4 -5.232995E+01 -2.293181E+02 -1.860987E+01 -6.712441E+01  5.526587E+00  2.618125E+00
      2473   5 -2.475398E+01 -1.280361E+02  5.872286E+00 -6.760735E+01 -1.170809E+00  3.864851E+00
      2473   6 -1.098253E+01 -1.448679E+02  3.568758E+00 -4.944213E+01 -1.808127E+00  3.353721E+00
      2473   7 -2.474141E+01 -1.253684E+02  6.623921E+00 -6.681448E+01  6.318292E+00  1.874187E+00
      2473   8 -1.081241E+01 -1.422241E+02  4.383252E+00 -4.867233E+01  5.482725E+00  1.440827E+00
      2474   1 -5.180024E+01 -2.162231E+02 -1.585071E+01 -7.135292E+01 -1.490697E+00  4.928226E+00
      2474   2 -4.125126E+01 -2.304244E+02 -1.878542E+01 -5.076912E+01 -1.996069E+00  4.413301E+00
      2474   3 -5.185176E+01 -2.135417E+02 -1.511361E+01 -7.083780E+01  5.934692E+00  3.926428E+00
      2474   4 -4.113726E+01 -2.277527E+02 -1.798237E+01 -5.025620E+01  5.204590E+00  3.478829E+00
      2474   5 -1.415405E+01 -1.310542E+02  5.662940E+00 -5.631760E+01 -1.397242E+00  3.983286E+00
      2474   6 -4.007885E+00 -1.443338E+02  3.262558E+00 -3.683532E+01 -1.913694E+00  3.471186E+00
      2474   7 -1.423554E+01 -1.285890E+02  6.334830E+00 -5.575340E+01  5.946462E+00  2.723165E+00
      2474   8 -3.932515E+00 -1.418776E+02  3.997350E+00 -3.627320E+01  5.217424E+00  2.274916E+00
      2475   1 -3.948081E+01 -2.143455E+02 -1.483221E+01 -5.529327E+01 -1.774688E+00  5.045589E+00
      2475   2 -3.276523E+01 -2.246879E+02 -1.780934E+01 -3.412817E+01 -2.173135E+00  4.554806E+00
      2475   3 -3.957156E+01 -2.119533E+02 -1.418090E+01 -5.498050E+01  5.400740E+00  4.733575E+00
      2475   4 -3.269219E+01 -2.222859E+02 -1.709048E+01 -3.379814E+01  4.763945E+00  4.293398E+00
      2475   5 -5.742627E+00 -1.315180E+02  5.466505E+00 -4.474414E+01 -1.653152E+00  4.098937E+00
      2475   6  7.827533E-01 -1.411378E+02  3.043480E+00 -2.471169E+01 -2.056412E+00  3.608306E+00
      2475   7 -5.867395E+00 -1.293052E+02  6.060453E+00 -4.437771E+01  5.459530E+00  3.512680E+00
      2475   8  8.129351E-01 -1.389157E+02  3.701175E+00 -2.432890E+01  4.830757E+00  3.070069E+00
      2476   1 -2.949178E+01 -2.077915E+02 -1.314187E+01 -3.978474E+01 -2.087952E+00  5.099808E+00
      2476   2 -2.646102E+01 -2.142524E+02 -1.600473E+01 -1.905771E+01 -2.382834E+00  4.645406E+00
      2476   3 -2.956396E+01 -2.056924E+02 -1.255844E+01 -3.963190E+01  4.754651E+00  5.369802E+00
      2476   4 -2.636986E+01 -2.121201E+02 -1.535074E+01 -1.887048E+01  4.214838E+00  4.946842E+00
      2476   5  5.039808E-01 -1.295295E+02  5.349968E+00 -3.367536E+01 -1.943302E+00  4.157783E+00
      2476   6  3.549030E+00 -1.354682E+02  3.052110E+00 -1.405754E+01 -2.238357E+00  3.699594E+00
      2476   7  4.009075E-01 -1.275623E+02  5.888922E+00 -3.346602E+01  4.858383E+00  4.145706E+00
      2476   8  3.600221E+00 -1.334699E+02  3.657067E+00 -1.381565E+01  4.331555E+00  3.717395E+00
      2477   1 -2.060465E+01 -1.948180E+02 -9.678635E+00 -2.604377E+01 -2.404524E+00  4.994567E+00
      2477   2 -2.068392E+01 -1.974945E+02 -1.209645E+01 -7.344174E+00 -2.567696E+00  4.586117E+00
      2477   3 -2.061474E+01 -1.930031E+02 -9.147279E+00 -2.600587E+01  4.047247E+00  5.680038E+00
      2477   4 -2.056623E+01 -1.956364E+02 -1.150638E+01 -7.253125E+00  3.647774E+00  5.282596E+00
      2477   5  4.710648E+00 -1.257979E+02  5.332570E+00 -2.402346E+01 -2.239647E+00  4.090089E+00
      2477   6  4.815023E+00 -1.281518E+02  3.462769E+00 -6.324556E+00 -2.392608E+00  3.667934E+00
      2477   7  4.686334E+00 -1.240359E+02  5.845671E+00 -2.394039E+01  4.194861E+00  4.503218E+00
      2477   8  4.911098E+00 -1.263494E+02  4.030133E+00 -6.191181E+00  3.818236E+00  4.091616E+00
      2478   1 -2.036276E+01 -1.937636E+02 -1.077735E+01  7.124499E+00  2.458736E+00  6.592902E+00
      2478   2 -2.038264E+01 -1.908717E+02 -7.920511E+00  2.634795E+01  2.216451E+00  7.322498E+00
      2478   3 -2.006731E+01 -1.904402E+02 -9.688325E+00  7.064281E+00 -4.107657E+00  7.485269E+00
      2478   4 -2.030626E+01 -1.876599E+02 -6.921324E+00  2.617892E+01 -4.676766E+00  8.204624E+00
      2478   5  4.678417E+00 -1.249439E+02  3.759663E+00  5.984047E+00  2.172557E+00  4.793654E+00
      2478   6  4.387071E+00 -1.224793E+02  5.827720E+00  2.417878E+01  1.963989E+00  5.541231E+00
      2478   7  4.918966E+00 -1.217560E+02  4.790807E+00  5.853355E+00 -4.387404E+00  5.306133E+00
      2478   8  4.419363E+00 -1.193979E+02  6.771711E+00  2.394509E+01 -4.905224E+00  6.044243E+00
      2479   1 -2.597725E+01 -2.098648E+02 -1.380655E+01  1.894908E+01  2.033174E+00  6.470590E+00
      2479   2 -2.937349E+01 -2.030462E+02 -1.065936E+01  4.022573E+01  1.731463E+00  7.348515E+00
      2479   3 -2.566255E+01 -2.058305E+02 -1.248626E+01  1.859726E+01 -5.056114E+00  6.848831E+00
      2479   4 -2.924718E+01 -1.991679E+02 -9.428622E+00  3.972382E+01 -5.673361E+00  7.692308E+00
      2479   5  3.457621E+00 -1.317886E+02  3.830349E+00  1.371313E+01  1.797939E+00  4.658363E+00
      2479   6 -1.058709E-02 -1.255886E+02  6.217094E+00  3.385114E+01  1.538904E+00  5.545571E+00
      2479   7  3.675324E+00 -1.280104E+02  5.040276E+00  1.331687E+01 -5.255508E+00  4.668727E+00
      2479   8  2.821346E-02 -1.219586E+02  7.340889E+00  3.331284E+01 -5.813077E+00  5.523576E+00
      2480   1 -3.227127E+01 -2.195178E+02 -1.499388E+01  3.413566E+01  1.619449E+00  6.052441E+00
      2480   2 -3.960941E+01 -2.086738E+02 -1.190810E+01  5.578048E+01  1.302805E+00  7.108746E+00
      2480   3 -3.180063E+01 -2.147328E+02 -1.339100E+01  3.334530E+01 -5.899586E+00  5.724974E+00
      2480   4 -3.924249E+01 -2.040823E+02 -1.037662E+01  5.481564E+01 -6.494165E+00  6.729458E+00
      2480   5  6.339792E-01 -1.369210E+02  4.104536E+00  2.438150E+01  1.427165E+00  4.290768E+00
      2480   6 -6.529470E+00 -1.268753E+02  6.516499E+00  4.486801E+01  1.170581E+00  5.349848E+00
      2480   7  9.483746E-01 -1.325072E+02  5.541971E+00  2.359876E+01 -6.033387E+00  3.637961E+00
      2480   8 -6.313434E+00 -1.226449E+02  7.885937E+00  4.392012E+01 -6.552844E+00  4.648271E+00
      2481   1 -4.092764E+01 -2.245060E+02 -1.567600E+01  5.080513E+01  1.300481E+00  5.601882E+00
      2481   2 -5.229003E+01 -2.096143E+02 -1.267749E+01  7.174006E+01  9.453632E-01  6.822113E+00
      2481   3 -4.015817E+01 -2.191531E+02 -1.380398E+01  4.946642E+01 -6.528052E+00  4.514363E+00
      2481   4 -5.152917E+01 -2.044944E+02 -1.085579E+01  7.022471E+01 -7.133313E+00  5.668106E+00
      2481   5 -4.295675E+00 -1.395803E+02  4.409046E+00  3.644451E+01  1.158893E+00  3.884366E+00
      2481   6 -1.524571E+01 -1.256812E+02  6.790458E+00  5.625912E+01  8.828877E-01  5.106078E+00
      2481   7 -3.751089E+00 -1.346818E+02  6.067695E+00  3.517279E+01 -6.591656E+00  2.503109E+00
      2481   8 -1.470908E+01 -1.210031E+02  8.401962E+00  5.482021E+01 -7.104155E+00  3.662218E+00
      2482   1 -5.249843E+01 -2.256045E+02 -1.625536E+01  6.780984E+01  1.044253E+00  5.215491E+00
      2482   2 -6.783942E+01 -2.067655E+02 -1.333901E+01  8.717333E+01  6.335062E-01  6.569611E+00
      2482   3 -5.130744E+01 -2.199513E+02 -1.415843E+01  6.588922E+01 -6.991645E+00  3.341373E+00
      2482   4 -6.656946E+01 -2.013844E+02 -1.127302E+01  8.509626E+01 -7.633277E+00  4.614870E+00
      2482   5 -1.145324E+01 -1.396258E+02  4.706794E+00  4.890268E+01  9.633482E-01  3.533553E+00
      2482   6 -2.615679E+01 -1.219785E+02  7.038809E+00  6.722994E+01  6.494095E-01  4.893777E+00
      2482   7 -1.055974E+01 -1.344704E+02  6.553197E+00  4.710485E+01 -6.975828E+00  1.387823E+00
      2482   8 -2.518799E+01 -1.170799E+02  8.857276E+00  6.528405E+01 -7.507968E+00  2.672134E+00
      2483   1 -6.713685E+01 -2.231094E+02 -1.683327E+01  8.431435E+01  8.251950E-01  4.904643E+00
      2483   2 -8.626906E+01 -2.005507E+02 -1.399806E+01  1.013181E+02  3.493870E-01  6.364119E+00
      2483   3 -6.541731E+01 -2.174175E+02 -1.455849E+01  8.183798E+01 -7.326050E+00  2.220113E+00
      2483   4 -8.439886E+01 -1.951661E+02 -1.173808E+01  9.872394E+01 -8.016333E+00  3.585693E+00
      2483   5 -2.087458E+01 -1.370770E+02  4.986301E+00  6.107546E+01  8.113776E-01  3.256606E+00
      2483   6 -3.915821E+01 -1.159008E+02  7.260857E+00  7.716931E+01  4.472072E-01  4.731615E+00
      2483   7 -1.952717E+01 -1.318924E+02  6.983049E+00  5.876781E+01 -7.225447E+00  3.196528E-01
      2483   8 -3.766725E+01 -1.110061E+02  9.245814E+00  7.475012E+01 -7.792235E+00  1.706268E+00
      2484   1 -8.476905E+01 -2.171618E+02 -1.741247E+01  9.960227E+01  6.328149E-01  4.649671E+00
      2484   2 -1.073501E+02 -1.912583E+02 -1.466642E+01  1.135018E+02  8.609636E-02  6.192657E+00
      2484   3 -8.242710E+01 -2.116550E+02 -1.499964E+01  9.663701E+01 -7.541753E+00  1.133268E+00
      2484   4 -1.048036E+02 -1.860855E+02 -1.225471E+01  1.104721E+02 -8.286275E+00  2.570860E+00
      2484   5 -3.250557E+01 -1.320031E+02  5.250261E+00  7.241933E+01  6.865527E-01  3.039807E+00
      2484   6 -5.404553E+01 -1.076531E+02  7.458958E+00  8.557502E+01  2.631336E-01  4.611634E+00
      2484   7 -3.061115E+01 -1.269861E+02  7.365617E+00  6.965558E+01 -7.357942E+00 -7.091328E-01
      2484   8 -5.195617E+01 -1.029509E+02  9.576398E+00  8.275026E+01 -7.968165E+00  7.635114E-01
      2485   1 -1.051593E+02 -2.079364E+02 -1.797557E+01  1.130050E+02  4.666717E-01  4.426550E+00
      2485   2 -1.306879E+02 -1.792157E+02 -1.533137E+01  1.231181E+02 -1.560073E-01  6.037824E+00
      2485   3 -1.021145E+02 -2.027926E+02 -1.545498E+01  1.096473E+02 -7.635418E+00  6.392968E-02
      2485   4 -1.274022E+02 -1.744198E+02 -1.279941E+01  1.197600E+02 -8.437877E+00  1.560881E+00
      2485   5 -4.620029E+01 -1.245355E+02  5.501993E+00  8.244455E+01  5.828384E-01  2.862211E+00
      2485   6 -7.052117E+01 -9.751026E+01  7.635036E+00  9.201644E+01  9.208111E-02  4.518541E+00
      2485   7 -4.367874E+01 -1.198449E+02  7.711595E+00  7.930644E+01 -7.376513E+00 -1.711050E+00
      2485   8 -6.776990E+01 -9.314723E+01  9.859511E+00  8.887796E+01 -8.036996E+00 -1.622504E-01
      2486   1 -1.279289E+02 -1.957230E+02 -1.850695E+01  1.239002E+02  3.308437E-01  4.217435E+00
      2486   2 -1.557555E+02 -1.648564E+02 -1.597867E+01  1.296391E+02 -3.732280E-01  5.886555E+00
      2486   3 -1.241170E+02 -1.910754E+02 -1.590065E+01  1.202688E+02 -7.599232E+00 -9.947772E-01
      2486   4 -1.516841E+02 -1.605557E+02 -1.334905E+01  1.260782E+02 -8.463729E+00  5.541818E-01
      2486   5 -6.171317E+01 -1.148902E+02  5.743098E+00  9.069708E+01  5.000784E-01  2.706324E+00
      2486   6 -8.819875E+01 -8.582352E+01  7.790505E+00  9.612887E+01 -6.631041E-02  4.438775E+00
      2486   7 -5.849978E+01 -1.106473E+02  8.029028E+00  8.728768E+01 -7.278193E+00 -2.692617E+00
      2486   8 -8.473752E+01 -8.190684E+01  1.010363E+01  9.278621E+01 -7.995983E+00 -1.073116E+00
      2487   1 -1.525677E+02 -1.809468E+02 -1.899618E+01  1.317343E+02  2.302270E-01  4.012531E+00
      2487   2 -1.819166E+02 -1.487293E+02 -1.659758E+01  1.326384E+02 -5.610834E-01  5.731810E+00
      2487   3 -1.479464E+02 -1.768883E+02 -1.632076E+01  1.279649E+02 -7.426270E+00 -2.039550E+00
      2487   4 -1.770345E+02 -1.449999E+02 -1.388688E+01  1.290133E+02 -8.357797E+00 -4.429492E-01
      2487   5 -7.869961E+01 -1.033758E+02  5.974276E+00  9.676886E+01  4.405006E-01  2.560857E+00
      2487   6 -1.066144E+02 -7.301877E+01  7.926087E+00  9.762457E+01 -2.101638E-01  4.363268E+00
      2487   7 -7.474934E+01 -9.966719E+01  8.323051E+00  9.320776E+01 -7.059060E+00 -3.652556E+00
      2487   8 -1.024146E+02 -6.961901E+01  1.031446E+01  9.420006E+01 -7.842005E+00 -1.965364E+00
      2488   1 -1.784511E+02 -1.641587E+02 -1.943653E+01  1.360515E+02  1.689361E-01  3.808932E+00
      2488   2 -2.084489E+02 -1.314812E+02 -1.718063E+01  1.318143E+02 -7.160272E-01  5.571988E+00
      2488   3 -1.730041E+02 -1.607442E+02 -1.670520E+01  1.322914E+02 -7.112571E+00 -3.059448E+00
      2488   4 -2.027570E+02 -1.283602E+02 -1.440176E+01  1.282713E+02 -8.117262E+00 -1.418184E+00
      2488   5 -9.672660E+01 -9.038911E+01  6.195611E+00  1.003182E+02  4.067881E-01  2.420474E+00
      2488   6 -1.252426E+02 -5.958385E+01  8.042372E+00  9.630773E+01 -3.373006E-01  4.287482E+00
      2488   7 -9.201830E+01 -8.726879E+01  8.596268E+00  9.673655E+01 -6.716758E+00 -4.583016E+00
      2488   8 -1.202994E+02 -5.673816E+01  1.049533E+01  9.293153E+01 -7.573755E+00 -2.830274E+00
      2489   1 -2.048617E+02 -1.460112E+02 -1.982315E+01  1.365198E+02  1.491839E-01  3.608709E+00
      2489   2 -2.345710E+02 -1.138263E+02 -1.772191E+01  1.270096E+02 -8.360608E-01  5.409187E+00
      2489   3 -1.986028E+02 -1.432597E+02 -1.704751E+01  1.329221E+02 -6.658197E+00 -4.038550E+00
      2489   4 -2.281005E+02 -1.113155E+02 -1.488632E+01  1.236967E+02 -7.742999E+00 -2.355605E+00
      2489   5 -1.152891E+02 -7.640147E+01  6.406842E+00  1.010893E+02  4.008502E-01  2.284397E+00
      2489   6 -1.435183E+02 -4.604872E+01  8.139553E+00  9.208804E+01 -4.462026E-01  4.210339E+00
      2489   7 -1.098277E+02 -7.389137E+01  8.850071E+00  9.762459E+01 -6.251706E+00 -5.471616E+00
      2489   8 -1.378531E+02 -4.376274E+01  1.064796E+01  8.889289E+01 -7.192611E+00 -3.655795E+00
      2490   1 -2.310177E+02 -1.272289E+02 -2.015239E+01  1.329517E+02  1.713410E-01  3.416805E+00
      2490   2 -2.594751E+02 -9.651497E+01 -1.821677E+01  1.182238E+02 -9.207024E-01  5.247767E+00
      2490   3 -2.239940E+02 -1.251249E+02 -1.734352E+01  1.296689E+02 -6.067303E+00 -4.958333E+00
      2490   4 -2.522882E+02 -9.458222E+01 -1.533515E+01  1.152845E+02 -7.239645E+00 -3.237415E+00
      2490   5 -1.338304E+02 -6.193869E+01  6.607425E+00  9.892911E+01  4.234754E-01  2.154804E+00
      2490   6 -1.608598E+02 -3.296323E+01  8.217933E+00  8.498930E+01 -5.360995E-01  4.133064E+00
      2490   7 -1.276502E+02 -6.002976E+01  9.084537E+00  9.571930E+01 -5.667545E+00 -6.303305E+00
      2490   8 -1.545211E+02 -3.121238E+01  1.077347E+01  8.210463E+01 -6.702792E+00 -4.427963E+00
      2491   1 -2.561063E+02 -1.085763E+02 -2.042148E+01  1.253171E+02  2.336550E-01  3.239437E+00
      2491   2 -2.823613E+02 -8.029660E+01 -1.866141E+01  1.056180E+02 -9.715770E-01  5.093266E+00
      2491   3 -2.483963E+02 -1.070701E+02 -1.758995E+01  1.224937E+02 -5.348025E+00 -5.799859E+00
      2491   4 -2.745501E+02 -7.887814E+01 -1.574411E+01  1.031841E+02 -6.615703E+00 -4.045558E+00
      2491   5 -1.517656E+02 -4.755759E+01  6.797180E+00  9.379650E+01  4.739876E-01  2.035377E+00
      2491   6 -1.766951E+02 -2.087069E+01  8.277669E+00  7.515167E+01 -6.074118E-01  4.058146E+00
      2491   7 -1.449302E+02 -4.621121E+01  9.299396E+00  9.097431E+01 -4.971213E+00 -7.062299E+00
      2491   8 -1.697592E+02 -1.960269E+01  1.087184E+01  7.269810E+01 -6.111450E+00 -5.132383E+00
      2492   1 -2.793158E+02 -9.081991E+01 -2.062739E+01  1.137487E+02  3.328037E-01  3.083702E+00
      2492   2 -3.024700E+02 -6.588365E+01 -1.905164E+01  8.951204E+01 -9.911639E-01  4.951428E+00
      2492   3 -2.710304E+02 -8.983228E+01 -1.778454E+01  1.115149E+02 -4.511854E+00 -6.544294E+00
      2492   4 -2.941566E+02 -6.488881E+01 -1.610990E+01  8.769770E+01 -5.882292E+00 -4.762777E+00
      2492   5 -1.685077E+02 -3.382158E+01  6.975370E+00  8.576904E+01  5.507110E-01  1.930892E+00
      2492   6 -1.904862E+02 -1.028314E+01  8.319100E+00  6.282945E+01 -6.613202E-01  3.988730E+00
      2492   7 -1.611083E+02 -3.297121E+01  9.493909E+00  8.345526E+01 -4.172381E+00 -7.732673E+00
      2492   8 -1.830552E+02 -9.420784E+00  1.094319E+01  6.091268E+01 -5.428204E+00 -5.754973E+00
      2493   1 -2.998714E+02 -7.469501E+01 -2.076729E+01  9.854092E+01  4.645474E-01  2.956160E+00
      2493   2 -3.191167E+02 -5.391921E+01 -1.938291E+01  7.037466E+01 -9.825905E-01  4.827947E+00
      2493   3 -2.911510E+02 -7.411973E+01 -1.792511E+01  9.700516E+01 -3.573092E+00 -7.174407E+00
      2493   4 -3.104484E+02 -5.323385E+01 -1.642856E+01  6.926951E+01 -5.053057E+00 -5.373134E+00
      2493   5 -1.834930E+02 -2.127542E+01  7.141088E+00  7.504197E+01  6.510029E-01  1.846230E+00
      2493   6 -2.017549E+02 -1.657996E+00  8.342734E+00  4.838302E+01 -6.994375E-01  3.928360E+00
      2493   7 -1.756475E+02 -2.082965E+01  9.666838E+00  7.333947E+01 -3.283364E+00 -8.299471E+00
      2493   8 -1.939530E+02 -1.102389E+00  1.098778E+01  4.708807E+01 -4.664773E+00 -6.282522E+00
      2494   1 -3.170705E+02 -6.087162E+01 -2.083813E+01  8.014072E+01  6.247185E-01  2.862998E+00
      2494   2 -3.317248E+02 -4.494488E+01 -1.965031E+01  4.880677E+01 -9.485261E-01  4.728435E+00
      2494   3 -3.080803E+02 -6.058114E+01 -1.800969E+01  7.938355E+01 -2.547688E+00 -7.675003E+00
      2494   4 -3.228697E+02 -4.443815E+01 -1.669650E+01  4.847038E+01 -4.142838E+00 -5.862625E+00
      2494   5 -1.962057E+02 -1.041961E+01  7.293865E+00  6.192212E+01  7.719750E-01  1.786438E+00
      2494   6 -2.101056E+02  4.624999E+00  8.348640E+00  3.226502E+01 -7.233083E-01  3.880956E+00
      2494   7 -1.880535E+02 -1.026641E+01  9.817319E+00  6.091011E+01 -2.318247E+00 -8.749195E+00
      2494   8 -2.020754E+02  4.988937E+00  1.100499E+01  3.165128E+01 -3.834266E+00 -6.703242E+00
      2495   1 -3.303098E+02 -4.991864E+01 -2.083429E+01  5.912865E+01  8.103131E-01  2.810689E+00
      2495   2 -3.398453E+02 -3.937432E+01 -1.984725E+01  2.551671E+01 -8.889463E-01  4.658835E+00
      2495   3 -3.212405E+02 -4.977395E+01 -1.803696E+01  5.919842E+01 -1.450958E+00 -8.032986E+00
      2495   4 -3.309929E+02 -3.890713E+01 -1.691102E+01  2.597370E+01 -3.164164E+00 -6.219378E+00
      2495   5 -2.062085E+02 -1.689661E+00  7.430271E+00  4.681703E+01  9.103497E-01  1.757323E+00
      2495   6 -2.152465E+02  8.277403E+00  8.334056E+00  1.500379E+01 -7.347501E-01  3.851631E+00
      2495   7 -1.979059E+02 -1.701979E+00  9.941353E+00  4.654635E+01 -1.292077E+00 -9.069781E+00
      2495   8 -2.071426E+02  8.576944E+00  1.099200E+01  1.509960E+01 -2.950503E+00 -7.006425E+00
      2496   1 -3.391125E+02 -4.228247E+01 -2.074940E+01  3.618948E+01  1.019672E+00  2.803960E+00
      2496   2 -3.431858E+02 -3.747927E+01 -1.996865E+01  1.285474E+00 -8.035043E-01  4.615648E+00
      2496   3 -3.301678E+02 -4.213885E+01 -1.800235E+01  3.710721E+01 -2.985991E-01 -8.240356E+00
      2496   4 -3.345317E+02 -3.691115E+01 -1.706824E+01  2.530833E+00 -2.130831E+00 -6.444894E+00
      2496   5 -2.131585E+02  4.562182E+00  7.544368E+00  3.021039E+01  1.060482E+00  1.763286E+00
      2496   6 -2.170115E+02  9.110650E+00  8.288762E+00 -2.825741E+00 -7.390201E-01  3.835349E+00
      2496   7 -2.048654E+02  4.521467E+00  1.003488E+01  3.070991E+01 -2.234366E-01 -9.253926E+00
      2496   8 -2.089864E+02  9.478807E+00  1.094091E+01 -2.016128E+00 -2.031780E+00 -7.195413E+00
      2497   1 -3.436147E+02 -3.839949E+01 -2.075666E+01  1.200850E+01  1.217749E+00  2.827926E+00
      2497   2 -3.421797E+02 -3.939955E+01 -2.021912E+01 -2.246860E+01 -7.309936E-01  4.479217E+00
      2497   3 -3.348560E+02 -3.806745E+01 -1.802878E+01  1.377382E+01  8.705858E-01 -8.322982E+00
      2497   4 -3.337457E+02 -3.860166E+01 -1.734152E+01 -2.068080E+01 -1.070921E+00 -6.679345E+00
      2497   5 -2.167903E+02  8.162634E+00  7.659571E+00  1.250249E+01  1.189997E+00  1.786868E+00
      2497   6 -2.154131E+02  7.234952E+00  8.212241E+00 -2.012959E+01 -7.430709E-01  3.691491E+00
      2497   7 -2.086790E+02  8.212474E+00  1.010704E+01  1.380523E+01  8.516234E-01 -9.332518E+00
      2497   8 -2.076024E+02  7.732511E+00  1.081737E+01 -1.880557E+01 -1.074271E+00 -7.435924E+00
      2498   1 -3.428995E+02 -3.815296E+01 -2.052034E+01 -1.188623E+01  1.358982E+00  3.003622E+00
      2498   2 -3.361623E+02 -4.477214E+01 -2.025417E+01 -4.565163E+01 -6.854653E-01  4.427067E+00
      2498   3 -3.346041E+02 -3.753300E+01 -1.786636E+01 -9.535905E+00  2.024490E+00 -8.160605E+00
      2498   4 -3.281668E+02 -4.370758E+01 -1.745455E+01 -4.335281E+01 -1.387926E-02 -6.720177E+00
      2498   5 -2.169817E+02  8.865964E+00  7.772474E+00 -5.022110E+00  1.296146E+00  1.966742E+00
      2498   6 -2.105692E+02  2.636817E+00  8.107975E+00 -3.698057E+01 -7.616357E-01  3.624428E+00
      2498   7 -2.091988E+02  9.159991E+00  1.017810E+01 -3.132900E+00  1.939577E+00 -9.170248E+00
      2498   8 -2.030636E+02  3.358088E+00  1.066643E+01 -3.514011E+01 -1.120187E-01 -7.497184E+00
      2499   1 -3.375555E+02 -4.150785E+01 -2.024222E+01 -3.531349E+01  1.485812E+00  3.220548E+00
      2499   2 -3.257408E+02 -5.352480E+01 -2.024729E+01 -6.743035E+01 -6.291752E-01  4.399094E+00
      2499   3 -3.297929E+02 -4.051546E+01 -1.765519E+01 -3.245389E+01  3.156231E+00 -7.832878E+00
      2499   4 -3.182415E+02 -5.211924E+01 -1.751834E+01 -6.468282E+01  1.042375E+00 -6.613781E+00
      2499   5 -2.138456E+02  6.857474E+00  7.871694E+00 -2.231383E+01  1.378211E+00  2.175429E+00
      2499   6 -2.026112E+02 -4.464381E+00  7.988310E+00 -5.271198E+01 -7.717638E-01  3.566461E+00
      2499   7 -2.064872E+02  7.476063E+00  1.023251E+01 -1.989957E+01  2.998017E+00 -8.859442E+00
      2499   8 -1.954960E+02 -3.448780E+00  1.049739E+01 -5.040380E+01  8.496292E-01 -7.430622E+00
      2500   1 -3.277598E+02 -4.829907E+01 -1.992191E+01 -5.751678E+01  1.588739E+00  3.462781E+00
      2500   2 -3.112615E+02 -6.531563E+01 -2.019368E+01 -8.710683E+01 -5.700016E-01  4.392775E+00
      2500   3 -3.205879E+02 -4.686693E+01 -1.739625E+01 -5.423789E+01  4.239333E+00 -7.358344E+00
      2500   4 -3.043075E+02 -6.350906E+01 -1.752966E+01 -8.398767E+01  2.073300E+00 -6.366133E+00
      2500   5 -2.075055E+02  2.229309E+00  7.949572E+00 -3.881860E+01  1.432466E+00  2.396291E+00
      2500   6 -1.918228E+02 -1.380938E+01  7.849186E+00 -6.682514E+01 -7.769383E-01  3.515523E+00
      2500   7 -2.006501E+02  3.241146E+00  1.026472E+01 -3.595810E+01  4.006880E+00 -8.418801E+00
      2500   8 -1.851681E+02 -1.243762E+01  1.030818E+01 -6.411582E+01  1.791147E+00 -7.241165E+00
      2501   1 -3.138410E+02 -5.821600E+01 -1.955731E+01 -7.779232E+01  1.657038E+00  3.726149E+00
      2501   2 -2.932078E+02 -7.967590E+01 -2.008941E+01 -1.040710E+02 -5.176003E-01  4.407854E+00
      2501   3 -3.073057E+02 -5.629549E+01 -1.708950E+01 -7.419065E+01  5.247598E+00 -6.746960E+00
      2501   4 -2.868398E+02 -7.742510E+01 -1.748710E+01 -1.006643E+02  3.054039E+00 -5.983457E+00
      2501   5 -1.981872E+02 -4.814922E+00  8.003167E+00 -5.401690E+01  1.455534E+00  2.626264E+00
      2501   6 -1.785768E+02 -2.504494E+01  7.689710E+00 -7.888929E+01 -7.804687E-01  3.473218E+00
      2501   7 -1.918971E+02 -3.355705E+00  1.027230E+01 -5.079796E+01  4.947293E+00 -7.856764E+00
      2501   8 -1.724400E+02 -2.326805E+01  1.009798E+01 -7.585491E+01  2.693991E+00 -6.932762E+00
      2502   1 -2.962597E+02 -7.081962E+01 -1.914675E+01 -9.551759E+01  1.683247E+00  4.005469E+00
      2502   2 -2.721721E+02 -9.603303E+01 -1.993236E+01 -1.178228E+02 -4.791232E-01  4.442601E+00
      2502   3 -2.903929E+02 -6.838116E+01 -1.673491E+01 -9.169318E+01  6.159661E+00 -6.011156E+00
      2502   4 -2.664203E+02 -9.331166E+01 -1.739031E+01 -1.142170E+02  3.963768E+00 -5.474824E+00
      2502   5 -1.862105E+02 -1.397364E+01  8.032420E+00 -6.744437E+01  1.444191E+00  2.861702E+00
      2502   6 -1.633166E+02 -3.774241E+01  7.511451E+00 -8.855601E+01 -7.861047E-01  3.439964E+00
      2502   7 -1.805308E+02 -1.202923E+01  1.025536E+01 -6.396070E+01  5.802063E+00 -7.183890E+00
      2502   8 -1.577411E+02 -3.552554E+01  9.868440E+00 -8.527916E+01  3.540664E+00 -6.511996E+00
      2503   1 -2.755898E+02 -8.556471E+01 -1.869099E+01 -1.101745E+02  1.663327E+00  4.294242E+00
      2503   2 -2.488340E+02 -1.137367E+02 -1.972263E+01 -1.279911E+02 -4.594330E-01  4.493887E+00
      2503   3 -2.704068E+02 -8.259674E+01 -1.633363E+01 -1.062285E+02  6.958005E+00 -5.166300E+00
      2503   4 -2.437133E+02 -1.105332E+02 -1.723938E+01 -1.242757E+02  4.784536E+00 -4.852661E+00
      2503   5 -1.719765E+02 -2.486364E+01  8.037984E+00 -7.870921E+01  1.396613E+00  3.097862E+00
      2503   6 -1.465436E+02 -5.141919E+01  7.315403E+00 -9.557227E+01 -7.966934E-01  3.415068E+00
      2503   7 -1.669355E+02 -2.241349E+01  1.021458E+01 -7.505816E+01  6.556269E+00 -6.413317E+00
      2503   8 -1.415575E+02 -4.874207E+01  9.620809E+00 -9.213960E+01  4.315587E+00 -5.988367E+00
      2504   1 -2.524954E+02 -1.018251E+02 -1.819256E+01 -1.213708E+02  1.595153E+00  4.585334E+00
      2504   2 -2.239290E+02 -1.320865E+02 -1.946091E+01 -1.343462E+02 -4.623760E-01  4.557893E+00
      2504   3 -2.479936E+02 -9.833261E+01 -1.588790E+01 -1.174021E+02  7.628465E+00 -4.230219E+00
      2504   4 -2.194395E+02 -1.284038E+02 -1.703492E+01 -1.306098E+02  5.500926E+00 -4.131881E+00
      2504   5 -1.559531E+02 -3.703843E+01  8.020163E+00 -8.750807E+01  1.312413E+00  3.329638E+00
      2504   6 -1.287939E+02 -6.555882E+01  7.103188E+00 -9.978905E+01 -8.145029E-01  3.397416E+00
      2504   7 -1.515616E+02 -3.407958E+01  1.015002E+01 -8.378753E+01  7.197875E+00 -5.560274E+00
      2504   8 -1.244102E+02 -6.241618E+01  9.356544E+00 -9.628841E+01  5.005296E+00 -5.373501E+00
      2505   1 -2.276997E+02 -1.189200E+02 -1.765403E+01 -1.288526E+02  1.478331E+00  4.871684E+00
      2505   2 -1.982180E+02 -1.503625E+02 -1.914851E+01 -1.368071E+02 -4.900855E-01  4.630856E+00
      2505   3 -2.238608E+02 -1.149243E+02 -1.540062E+01 -1.249556E+02  8.160330E+00 -3.222271E+00
      2505   4 -1.943464E+02 -1.462179E+02 -1.677855E+01 -1.331353E+02  6.101008E+00 -3.328857E+00
      2505   5 -1.386548E+02 -5.000792E+01  7.979192E+00 -9.363635E+01  1.192433E+00  3.552312E+00
      2505   6 -1.106174E+02 -7.963433E+01  6.875999E+00 -1.011652E+02 -8.408845E-01  3.386068E+00
      2505   7 -1.349065E+02 -4.655396E+01  1.006198E+01 -8.994175E+01  7.717669E+00 -4.641187E+00
      2505   8 -1.068350E+02 -7.603623E+01  9.076674E+00 -9.768364E+01  5.598873E+00 -4.680330E+00
      2506   1 -2.019559E+02 -1.361458E+02 -1.707909E+01 -1.325129E+02  1.314280E+00  5.146779E+00
      2506   2 -1.724554E+02 -1.678576E+02 -1.878765E+01 -1.354414E+02 -5.435841E-01  4.709470E+00
      2506   3 -1.987481E+02 -1.316840E+02 -1.487608E+01 -1.287752E+02  8.546816E+00 -2.162438E+00
      2506   4 -1.691761E+02 -1.632826E+02 -1.647296E+01 -1.319143E+02  6.576106E+00 -2.460553E+00
      2506   5 -1.206213E+02 -6.326050E+01  7.914850E+00 -9.699478E+01  1.038975E+00  3.761830E+00
      2506   6 -9.255508E+01 -9.313080E+01  6.634909E+00 -9.976652E+01 -8.765005E-01  3.380691E+00
      2506   7 -1.174944E+02 -5.934186E+01  9.949931E+00 -9.341643E+01  8.109872E+00 -3.672962E+00
      2506   8 -8.935772E+01 -8.910223E+01  8.782245E+00 -9.638756E+01  6.088100E+00 -3.922233E+00
      2507   1 -1.760149E+02 -1.528073E+02 -1.647213E+01 -1.323917E+02  1.106242E+00  5.405886E+00
      2507   2 -1.473595E+02 -1.839077E+02 -1.838116E+01 -1.304574E+02 -6.222683E-01  4.791913E+00
      2507   3 -1.733946E+02 -1.479317E+02 -1.431988E+01 -1.288923E+02  8.784942E+00 -1.069976E+00
      2507   4 -1.446356E+02 -1.789477E+02 -1.612197E+01 -1.271491E+02  6.921237E+00 -1.543482E+00
      2507   5 -1.023940E+02 -7.628572E+01  7.826884E+00 -9.759041E+01  8.555292E-01  3.956074E+00
      2507   6 -7.511745E+01 -1.055671E+02  6.380931E+00 -9.575962E+01 -9.210237E-01  3.382505E+00
      2507   7 -9.985354E+01 -7.194946E+01  9.812447E+00 -9.421144E+01  8.371873E+00 -2.671549E+00
      2507   8 -7.247650E+01 -1.011487E+02  8.473231E+00 -9.256150E+01  6.467806E+00 -3.111978E+00
      2508   1 -1.505957E+02 -1.682486E+02 -1.583840E+01 -1.286696E+02  8.589453E-01  5.646865E+00
      2508   2 -1.235835E+02 -1.979211E+02 -1.793320E+01 -1.221920E+02 -7.243569E-01  4.879122E+00
      2508   3 -1.485111E+02 -1.630270E+02 -1.373958E+01 -1.254780E+02  8.875674E+00  3.790405E-02
      2508   4 -1.213700E+02 -1.926367E+02 -1.573195E+01 -1.191687E+02  7.135065E+00 -5.918274E-01
      2508   5 -8.449382E+01 -8.859545E+01  7.715377E+00 -9.553276E+01  6.464945E-01  4.135509E+00
      2508   6 -5.876356E+01 -1.165163E+02  6.114593E+00 -8.940179E+01 -9.736417E-01  3.395379E+00
      2508   7 -8.249428E+01 -8.390581E+01  9.647438E+00 -9.242729E+01  8.504304E+00 -1.650845E+00
      2508   8 -5.664002E+01 -1.117653E+02  8.148174E+00 -8.645566E+01  6.735661E+00 -2.260109E+00
      2509   1 -1.263579E+02 -1.818833E+02 -1.518527E+01 -1.216559E+02  5.783322E-01  5.871655E+00
      2509   2 -1.016917E+02 -2.094040E+02 -1.744996E+01 -1.110905E+02 -8.468283E-01  4.976810E+00
      2509   3 -1.247526E+02 -1.764020E+02 -1.314695E+01 -1.188313E+02  8.823649E+00  1.147976E+00
      2509   4 -9.993833E+01 -2.038745E+02 -1.531323E+01 -1.084106E+02  7.219946E+00  3.850286E-01
      2509   5 -6.740036E+01 -9.974573E+01  7.579853E+00 -9.102513E+01  4.165823E-01  4.304516E+00
      2509   6 -4.388272E+01 -1.256223E+02  5.836396E+00 -8.102518E+01 -1.033431E+00  3.427483E+00
      2509   7 -6.588872E+01 -9.478544E+01  9.451007E+00 -8.825711E+01  8.510430E+00 -6.209685E-01
      2509   8 -4.222939E+01 -1.206148E+02  7.804334E+00 -7.839403E+01  6.891735E+00 -1.372889E+00
      2510   1 -1.038774E+02 -1.932181E+02 -1.452293E+01 -1.117693E+02  2.710347E-01  6.087755E+00
      2510   2 -8.214048E+01 -2.179805E+02 -1.694144E+01 -9.768281E+01 -9.863641E-01  5.097121E+00
      2510   3 -1.026947E+02 -1.875873E+02 -1.255934E+01 -1.093610E+02  8.636784E+00  2.253228E+00
      2510   4 -8.079403E+01 -2.123093E+02 -1.488233E+01 -9.539555E+01  7.180995E+00  1.384949E+00
      2510   5 -5.153368E+01 -1.093518E+02  7.419857E+00 -8.435193E+01  1.701559E-01  4.472106E+00
      2510   6 -3.078206E+01 -1.326111E+02  5.545922E+00 -7.101926E+01 -1.100364E+00  3.492200E+00
      2510   7 -5.045284E+01 -1.042260E+02  9.217091E+00 -8.197382E+01  8.395563E+00  4.130990E-01
      2510   8 -2.954513E+01 -1.274459E+02  7.436327E+00 -6.875572E+01  6.937505E+00 -4.507067E-01
      2511   1 -8.362672E+01 -2.018674E+02 -1.386432E+01 -9.951765E+01 -5.744438E-02  6.308600E+00
      2511   2 -6.526490E+01 -2.233982E+02 -1.642232E+01 -8.255810E+01 -1.141144E+00  5.259329E+00
      2511   3 -8.281200E+01 -1.962277E+02 -1.199993E+01 -9.756317E+01  8.324272E+00  3.354524E+00
      2511   4 -6.427091E+01 -2.177201E+02 -1.446328E+01 -8.070166E+01  7.023780E+00  2.415138E+00
      2511   5 -3.724004E+01 -1.170981E+02  7.234789E+00 -7.586531E+01 -9.088151E-02  4.651724E+00
      2511   6 -1.967739E+01 -1.372933E+02  5.241705E+00 -5.981332E+01 -1.177313E+00  3.608159E+00
      2511   7 -3.653140E+01 -1.119392E+02  8.937098E+00 -7.391630E+01  8.164688E+00  1.452227E+00
      2511   8 -1.879825E+01 -1.320972E+02  7.035532E+00 -5.795711E+01  6.873236E+00  5.129647E-01
      2512   1 -6.595430E+01 -2.075380E+02 -1.321943E+01 -8.547661E+01 -4.052148E-01  6.551109E+00
      2512   2 -5.126728E+01 -2.255039E+02 -1.590785E+01 -6.634500E+01 -1.313971E+00  5.487510E+00
      2512   3 -6.545589E+01 -2.020680E+02 -1.149123E+01 -8.399844E+01  7.892975E+00  4.459913E+00
      2512   4 -5.057003E+01 -2.199919E+02 -1.408269E+01 -6.494165E+01  6.749348E+00  3.491594E+00
      2512   5 -2.478413E+01 -1.227394E+02  7.023357E+00 -6.597623E+01 -3.694667E-01  4.858172E+00
      2512   6 -1.069359E+01 -1.395543E+02  4.920950E+00 -4.786845E+01 -1.272991E+00  3.796072E+00
      2512   7 -2.438773E+01 -1.177108E+02  8.600577E+00 -6.447828E+01  7.818846E+00  2.500981E+00
      2512   8 -1.010850E+01 -1.344855E+02  6.591067E+00 -4.644129E+01  6.693131E+00  1.529353E+00
      2513   1 -5.105124E+01 -2.099610E+02 -1.257185E+01 -7.028235E+01 -7.773147E-01  6.826797E+00
      2513   2 -4.019911E+01 -2.241623E+02 -1.539150E+01 -4.971942E+01 -1.516713E+00  5.799472E+00
      2513   3 -5.081509E+01 -2.048734E+02 -1.102659E+01 -6.927858E+01  7.340873E+00  5.576357E+00
      2513   4 -3.973731E+01 -2.190233E+02 -1.374271E+01 -4.876444E+01  6.345699E+00  4.628480E+00
      2513   5 -1.434417E+01 -1.260926E+02  6.784117E+00 -5.516291E+01 -6.759018E-01  5.098611E+00
      2513   6 -3.873274E+00 -1.393345E+02  4.580884E+00 -3.570039E+01 -1.405138E+00  4.067848E+00
      2513   7 -1.419522E+01 -1.213842E+02  8.199576E+00 -5.411255E+01  7.349651E+00  3.558290E+00
      2513   8 -3.510600E+00 -1.345771E+02  6.094677E+00 -3.469621E+01  6.378397E+00  2.603004E+00
      2514   1 -3.888122E+01 -2.087234E+02 -1.181234E+01 -5.465695E+01 -1.189250E+00  7.120703E+00
      2514   2 -3.189677E+01 -2.190764E+02 -1.476867E+01 -3.347464E+01 -1.774561E+00  6.180470E+00
      2514   3 -3.883662E+01 -2.042325E+02 -1.049221E+01 -5.408375E+01  6.647697E+00  6.683727E+00
      2514   4 -3.159675E+01 -2.145191E+02 -1.333550E+01 -3.291890E+01  5.777155E+00  5.806171E+00
      2514   5 -6.007227E+00 -1.270410E+02  6.517821E+00 -4.400798E+01 -1.029861E+00  5.354214E+00
      2514   6  8.234530E-01 -1.366200E+02  4.233052E+00 -2.395923E+01 -1.602260E+00  4.403140E+00
      2514   7 -6.024701E+00 -1.228370E+02  7.741434E+00 -4.336243E+01  6.732228E+00  4.593477E+00
      2514   8  1.047529E+00 -1.323533E+02  5.563174E+00 -2.333021E+01  5.889905E+00  3.701996E+00
      2515   1 -2.901687E+01 -2.029520E+02 -1.057664E+01 -3.948663E+01 -1.663458E+00  7.351691E+00
      2515   2 -2.580935E+01 -2.094824E+02 -1.363940E+01 -1.870655E+01 -2.117013E+00  6.530918E+00
      2515   3 -2.905447E+01 -1.991756E+02 -9.482535E+00 -3.924023E+01  5.773998E+00  7.671224E+00
      2515   4 -2.557538E+01 -2.056215E+02 -1.242557E+01 -1.844362E+01  4.996125E+00  6.893356E+00
      2515   5  2.332946E-01 -1.256259E+02  6.222740E+00 -3.326773E+01 -1.453676E+00  5.549235E+00
      2515   6  3.523530E+00 -1.315524E+02  3.917392E+00 -1.359971E+01 -1.890597E+00  4.709139E+00
      2515   7  1.595071E-01 -1.220283E+02  7.258323E+00 -3.293318E+01  5.929756E+00  5.499791E+00
      2515   8  3.706196E+00 -1.278754E+02  5.064915E+00 -1.324951E+01  5.185886E+00  4.700562E+00
      2516   1 -2.029833E+01 -1.908606E+02 -7.890528E+00 -2.597701E+01 -2.186857E+00  7.317720E+00
      2516   2 -2.033675E+01 -1.936670E+02 -1.071050E+01 -7.191843E+00 -2.476716E+00  6.600576E+00
      2516   3 -2.025861E+01 -1.876622E+02 -6.931169E+00 -2.593361E+01  4.725641E+00  8.196987E+00
      2516   4 -2.004944E+01 -1.903718E+02 -9.638954E+00 -7.113029E+00  4.100079E+00  7.496124E+00
      2516   5  4.451706E+00 -1.224883E+02  5.835347E+00 -2.386475E+01 -1.927274E+00  5.541790E+00
      2516   6  4.686867E+00 -1.248730E+02  3.799838E+00 -6.084854E+00 -2.192042E+00  4.804540E+00
      2516   7  4.458252E+00 -1.194041E+02  6.753239E+00 -2.373891E+01  4.960736E+00  6.038535E+00
      2516   8  4.926877E+00 -1.216980E+02  4.821864E+00 -5.925491E+00  4.378192E+00  5.316917E+00
      2517   1 -2.002063E+01 -1.874277E+02 -9.067299E+00  7.768772E+00  3.038049E+00  4.320791E+00
      2517   2 -2.034498E+01 -1.845106E+02 -5.705447E+00  2.677911E+01  2.927673E+00  5.470984E+00
      2517   3 -1.971136E+01 -1.820366E+02 -7.352953E+00  9.759998E+00 -3.947028E+00  5.550046E+00
      2517   4 -2.095104E+01 -1.795354E+02 -4.378624E+00  2.859423E+01 -4.632916E+00  6.681659E+00
      2517   5  4.395778E+00 -1.194253E+02  4.174162E+00  6.423199E+00  2.536754E+00  2.445598E+00
      2517   6  3.548481E+00 -1.172046E+02  6.095411E+00  2.441622E+01  2.381249E+00  3.592773E+00
      2517   7  4.560145E+00 -1.144051E+02  5.732326E+00  8.115856E+00 -4.437118E+00  3.000124E+00
      2517   8  2.844578E+00 -1.125799E+02  7.282303E+00  2.594220E+01 -5.137521E+00  4.129938E+00
      2518   1 -2.523651E+01 -2.013155E+02 -1.048973E+01  1.894606E+01  2.907684E+00  4.055034E+00
      2518   2 -2.911349E+01 -1.948288E+02 -7.504299E+00  3.991369E+01  2.708440E+00  5.625477E+00
      2518   3 -2.517122E+01 -1.937875E+02 -8.195475E+00  2.025662E+01 -4.943833E+00  4.407854E+00
      2518   4 -2.974958E+01 -1.877160E+02 -5.530320E+00  4.094018E+01 -5.542525E+00  5.936522E+00
      2518   5  3.054379E+00 -1.247694E+02  4.738955E+00  1.357858E+01  2.326669E+00  2.207121E+00
      2518   6 -9.709858E-01 -1.189857E+02  6.734274E+00  3.342412E+01  2.126248E+00  3.739075E+00
      2518   7  2.873559E+00 -1.179501E+02  6.740836E+00  1.469478E+01 -5.479824E+00  2.086845E+00
      2518   8 -1.816597E+00 -1.125604E+02  8.430808E+00  3.427145E+01 -6.058327E+00  3.579439E+00
      2519   1 -3.132174E+01 -2.094236E+02 -1.109555E+01  3.315199E+01  2.823133E+00  3.712016E+00
      2519   2 -3.902722E+01 -1.990577E+02 -8.344875E+00  5.444391E+01  2.513611E+00  5.575466E+00
      2519   3 -3.132637E+01 -2.005326E+02 -8.404805E+00  3.341903E+01 -5.558436E+00  3.189304E+00
      2519   4 -3.947075E+01 -1.905728E+02 -5.888942E+00  5.439802E+01 -6.167006E+00  5.000085E+00
      2519   5  1.845045E-01 -1.287140E+02  5.142739E+00  2.338409E+01  2.204916E+00  1.927136E+00
      2519   6 -7.362562E+00 -1.191568E+02  7.153694E+00  4.353657E+01  1.940223E+00  3.750807E+00
      2519   7 -1.262713E-01 -1.206619E+02  7.481846E+00  2.358463E+01 -6.113937E+00  1.047124E+00
      2519   8 -8.088983E+00 -1.114893E+02  9.269979E+00  4.344093E+01 -6.661503E+00  2.821188E+00
      2520   1 -3.961518E+01 -2.134642E+02 -1.156838E+01  4.867192E+01  2.766005E+00  3.493376E+00
      2520   2 -5.115531E+01 -1.991214E+02 -8.873404E+00  6.925212E+01  2.322214E+00  5.552773E+00
      2520   3 -3.942917E+01 -2.037882E+02 -8.576587E+00  4.784412E+01 -5.946564E+00  2.138539E+00
      2520   4 -5.122641E+01 -1.898786E+02 -6.065139E+00  6.811445E+01 -6.653229E+00  4.131531E+00
      2520   5 -4.550920E+00 -1.306160E+02  5.454711E+00  3.441634E+01  2.164941E+00  1.730110E+00
      2520   6 -1.569467E+01 -1.172619E+02  7.489400E+00  5.389520E+01  1.796357E+00  3.754863E+00
      2520   7 -4.733938E+00 -1.218466E+02  8.053276E+00  3.362515E+01 -6.465813E+00  5.989372E-02
      2520   8 -1.612083E+01 -1.089023E+02  9.914748E+00  5.281073E+01 -7.082912E+00  2.022113E+00
      2521   1 -5.057928E+01 -2.141373E+02 -1.202625E+01  6.448893E+01  2.706613E+00  3.390545E+00
      2521   2 -6.591020E+01 -1.958979E+02 -9.328810E+00  8.353340E+01  2.120199E+00  5.586786E+00
      2521   3 -4.998953E+01 -2.040990E+02 -8.795874E+00  6.258748E+01 -6.228021E+00  1.202628E+00
      2521   4 -6.544629E+01 -1.863407E+02 -6.251397E+00  8.134423E+01 -7.060943E+00  3.316368E+00
      2521   5 -1.126718E+01 -1.303495E+02  5.718459E+00  4.579475E+01  2.153631E+00  1.625864E+00
      2521   6 -2.598750E+01 -1.132960E+02  7.781970E+00  6.382008E+01  1.664493E+00  3.793604E+00
      2521   7 -1.112078E+01 -1.212595E+02  8.518116E+00  4.401664E+01 -6.677936E+00 -8.583795E-01
      2521   8 -2.595959E+01 -1.046606E+02  1.043827E+01  6.176964E+01 -7.400011E+00  1.231664E+00
      2522   1 -6.435795E+01 -2.116627E+02 -1.247979E+01  7.985867E+01  2.639226E+00  3.366068E+00
      2522   2 -8.332252E+01 -1.897490E+02 -9.782248E+00  9.661100E+01  1.904300E+00  5.662351E+00
      2522   3 -6.316989E+01 -2.016014E+02 -9.054147E+00  7.693048E+01 -6.428448E+00  3.178639E-01
      2522   4 -8.215758E+01 -1.802214E+02 -6.488602E+00  9.343549E+01 -7.397117E+00  2.515462E+00
      2522   5 -2.000547E+01 -1.278838E+02  5.970419E+00  5.692272E+01  2.149081E+00  1.591980E+00
      2522   6 -3.815868E+01 -1.073463E+02  8.048722E+00  7.277855E+01  1.529150E+00  3.868077E+00
      2522   7 -1.934517E+01 -1.187864E+02  8.932506E+00  5.419235E+01 -6.794245E+00 -1.737494E+00
      2522   8 -3.751925E+01 -9.875316E+01  1.088826E+01  6.981411E+01 -7.634964E+00  4.456681E-01
      2523   1 -8.089690E+01 -2.061108E+02 -1.291570E+01  9.413142E+01  2.565932E+00  3.386292E+00
      2523   2 -1.031893E+02 -1.808894E+02 -1.024364E+01  1.078736E+02  1.676131E+00  5.757919E+00
      2523   3 -7.892183E+01 -1.963152E+02 -9.325418E+00  9.025355E+01 -6.542654E+00 -5.553172E-01
      2523   4 -1.011528E+02 -1.716739E+02 -6.767568E+00  1.038064E+02 -7.651188E+00  1.703558E+00
      2523   5 -3.073049E+01 -1.232281E+02  6.224651E+00  6.731900E+01  2.143019E+00  1.604350E+00
      2523   6 -5.202584E+01 -9.955230E+01  8.296524E+00  8.032578E+01  1.383333E+00  3.966927E+00
      2523   7 -2.937743E+01 -1.143872E+02  9.323330E+00  6.370128E+01 -6.822251E+00 -2.600536E+00
      2523   8 -5.061318E+01 -9.125905E+01  1.129050E+01  7.652883E+01 -7.788463E+00 -3.441185E-01
      2524   1 -9.999201E+01 -1.975896E+02 -1.332355E+01  1.066932E+02  2.490533E+00  3.428500E+00
      2524   2 -1.251467E+02 -1.695715E+02 -1.070540E+01  1.167635E+02  1.439108E+00  5.856617E+00
      2524   3 -9.705072E+01 -1.883103E+02 -9.591144E+00  1.019813E+02 -6.558370E+00 -1.431872E+00
      2524   4 -1.220751E+02 -1.609050E+02 -7.069711E+00  1.119359E+02 -7.810362E+00  8.727603E-01
      2524   5 -4.332374E+01 -1.164556E+02  6.482053E+00  7.654543E+01  2.133181E+00  1.644428E+00
      2524   6 -6.731811E+01 -9.012275E+01  8.526494E+00  8.607682E+01  1.224890E+00  4.077611E+00
      2524   7 -4.110765E+01 -1.080996E+02  9.699237E+00  7.214159E+01 -6.757135E+00 -3.457111E+00
      2524   8 -6.497680E+01 -8.234474E+01  1.165662E+01  8.156351E+01 -7.854718E+00 -1.140142E+00
      2525   1 -1.213041E+02 -1.863238E+02 -1.369751E+01  1.169672E+02  2.416786E+00  3.479309E+00
      2525   2 -1.487060E+02 -1.561573E+02 -1.115785E+01  1.227918E+02  1.197150E+00  5.947548E+00
      2525   3 -1.172379E+02 -1.777740E+02 -9.840650E+00  1.115784E+02 -6.465121E+00 -2.310977E+00
      2525   4 -1.444572E+02 -1.482339E+02 -7.379250E+00  1.173735E+02 -7.864773E+00  2.682354E-02
      2525   5 -5.757435E+01 -1.077256E+02  6.738635E+00  8.419127E+01  2.119955E+00  1.699712E+00
      2525   6 -8.368324E+01 -7.934696E+01  8.737801E+00  8.970416E+01  1.054381E+00  4.189910E+00
      2525   7 -5.434343E+01 -1.000497E+02  1.006046E+01  7.914118E+01 -6.592380E+00 -4.306311E+00
      2525   8 -8.027704E+01 -7.226144E+01  1.199120E+01  8.462622E+01 -7.827767E+00 -1.938789E+00
      2526   1 -1.443714E+02 -1.726751E+02 -1.403492E+01  1.244371E+02  2.347685E+00  3.531963E+00
      2526   2 -1.732782E+02 -1.411270E+02 -1.159354E+01  1.255624E+02  9.538385E-01  6.024821E+00
      2526   3 -1.390535E+02 -1.650264E+02 -1.006853E+01  1.185666E+02 -6.256508E+00 -3.183243E+00
      2526   4 -1.677439E+02 -1.340964E+02 -7.685743E+00  1.197572E+02 -7.808446E+00 -8.238855E-01
      2526   5 -7.318035E+01 -9.729132E+01  6.989770E+00  8.988407E+01  2.104565E+00  1.762582E+00
      2526   6 -1.006993E+02 -6.759051E+01  8.929271E+00  9.094916E+01  8.734225E-01  4.296672E+00
      2526   7 -6.881151E+01 -9.045411E+01  1.040462E+01  8.436321E+01 -6.323572E+00 -5.140726E+00
      2526   8 -9.612275E+01 -6.133545E+01  1.229550E+01  8.549012E+01 -7.703760E+00 -2.732084E+00
      2527   1 -1.686251E+02 -1.571300E+02 -1.433419E+01  1.286744E+02  2.285126E+00  3.584011E+00
      2527   2 -1.981959E+02 -1.250596E+02 -1.200690E+01  1.247939E+02  7.121931E-01  6.085836E+00
      2527   3 -1.619711E+02 -1.505075E+02 -1.027207E+01  1.225489E+02 -5.930256E+00 -4.034874E+00
      2527   4 -1.913121E+02 -1.190231E+02 -7.982478E+00  1.188321E+02 -7.638896E+00 -1.665789E+00
      2527   5 -8.975865E+01 -8.549306E+01  7.231500E+00  9.330881E+01  2.088230E+00  1.828988E+00
      2527   6 -1.178903E+02 -5.528223E+01  9.099778E+00  8.963592E+01  6.840645E-01  4.393360E+00
      2527   7 -8.416673E+01 -7.961202E+01  1.072871E+01  8.752229E+01 -5.949151E+00 -5.949196E+00
      2527   8 -1.120774E+02 -4.995242E+01  1.256940E+01  8.400440E+01 -7.481179E+00 -3.509415E+00
      2528   1 -1.934098E+02 -1.402755E+02 -1.459385E+01  1.293631E+02  2.230185E+00  3.635539E+00
      2528   2 -2.227395E+02 -1.086039E+02 -1.239379E+01  1.203376E+02  4.748100E-01  6.130127E+00
      2528   3 -1.853863E+02 -1.347535E+02 -1.044983E+01  1.232311E+02 -5.487657E+00 -4.850016E+00
      2528   4 -2.144939E+02 -1.036113E+02 -8.265408E+00  1.144663E+02 -7.356692E+00 -2.483718E+00
      2528   5 -1.068586E+02 -7.274358E+01  7.461291E+00  9.422598E+01  2.071948E+00  1.897251E+00
      2528   6 -1.347452E+02 -4.289332E+01  9.248456E+00  8.568350E+01  4.884430E-01  4.477423E+00
      2528   7 -1.000040E+02 -6.789027E+01  1.103028E+01  8.839995E+01 -5.470430E+00 -6.718533E+00
      2528   8 -1.276764E+02 -3.853702E+01  1.281203E+01  8.010421E+01 -7.160952E+00 -4.258594E+00
      2529   1 -2.180109E+02 -1.227704E+02 -1.481264E+01  1.263185E+02  2.182830E+00  3.687996E+00
      2529   2 -2.461649E+02 -9.244478E+01 -1.275097E+01  1.121884E+02  2.432146E-01  6.158452E+00
      2529   3 -2.086400E+02 -1.183686E+02 -1.060092E+01  1.204388E+02 -4.933122E+00 -5.612477E+00
      2529   4 -2.366008E+02 -8.849151E+01 -8.531830E+00  1.066595E+02 -6.965265E+00 -3.262293E+00
      2529   5 -1.239828E+02 -5.950928E+01  7.676875E+00  9.248711E+01  2.056018E+00  1.967096E+00
      2529   6 -1.507387E+02 -3.091512E+01  9.374872E+00  7.911321E+01  2.881178E-01  4.547443E+00
      2529   7 -1.158760E+02 -5.570601E+01  1.130677E+01  8.685847E+01 -4.891508E+00 -7.434953E+00
      2529   8 -1.424444E+02 -2.753176E+01  1.302248E+01  7.381649E+01 -6.746465E+00 -4.967100E+00
      2530   1 -2.416803E+02 -1.053127E+02 -1.498885E+01  1.194987E+02  2.142201E+00  3.743419E+00
      2530   2 -2.677339E+02 -7.726911E+01 -1.307538E+01  1.004889E+02  1.830639E-02  6.172375E+00
      2530   3 -2.310418E+02 -1.019946E+02 -1.072408E+01  1.141282E+02 -4.274058E+00 -6.306130E+00
      2530   4 -2.569501E+02 -7.429663E+01 -8.779264E+00  9.554693E+01 -6.470872E+00 -3.986078E+00
      2530   5 -1.406061E+02 -4.628847E+01  7.876791E+00  8.804376E+01  2.040265E+00  2.039049E+00
      2530   6 -1.653552E+02 -1.983540E+01  9.478402E+00  7.005124E+01  8.451889E-02  4.602911E+00
      2530   7 -1.313101E+02 -4.350675E+01  1.155623E+01  8.284906E+01 -4.218938E+00 -8.084572E+00
      2530   8 -1.559165E+02 -1.737567E+01  1.319949E+01  6.526220E+01 -6.243245E+00 -5.622294E+00
      2531   1 -2.636714E+02 -8.860857E+01 -1.512144E+01  1.090116E+02  2.106608E+00  3.803939E+00
      2531   2 -2.867477E+02 -6.373386E+01 -1.336461E+01  8.552746E+01 -1.995420E-01  6.173749E+00
      2531   3 -2.519013E+02 -8.628317E+01 -1.081885E+01  1.043920E+02 -3.520750E+00 -6.915802E+00
      2531   4 -2.748970E+02 -6.163226E+01 -9.006169E+00  8.139752E+01 -5.882267E+00 -4.640520E+00
      2531   5 -1.561984E+02 -3.358817E+01  8.059965E+00  8.095285E+01  2.024045E+00  2.113882E+00
      2531   6 -1.781100E+02 -1.011491E+01  9.558813E+00  5.872549E+01 -1.210913E-01  4.643807E+00
      2531   7 -1.458276E+02 -3.174976E+01  1.177696E+01  7.641696E+01 -3.461700E+00 -8.654251E+00
      2531   8 -1.676574E+02 -8.482604E+00  1.334200E+01  5.465301E+01 -5.658870E+00 -6.212157E+00
      2532   1 -2.832692E+02 -7.333847E+01 -1.520901E+01  9.511187E+01  2.073852E+00  3.871778E+00
      2532   2 -3.025745E+02 -5.243348E+01 -1.361585E+01  6.772792E+01 -4.102691E-01  6.164447E+00
      2532   3 -2.705566E+02 -7.186468E+01 -1.088472E+01  9.145831E+01 -2.685532E+00 -7.427704E+00
      2532   4 -2.898598E+02 -5.104684E+01 -9.210847E+00  6.460384E+01 -5.209955E+00 -5.212498E+00
      2532   5 -1.702495E+02 -2.190201E+01  8.224978E+00  7.137663E+01  2.006425E+00  2.192699E+00
      2532   6 -1.885717E+02 -2.165753E+00  9.616119E+00  4.545811E+01 -3.277336E-01  4.670415E+00
      2532   7 -1.589663E+02 -2.088185E+01  1.196731E+01  6.770126E+01 -2.630640E+00 -9.131895E+00
      2532   8 -1.772802E+02 -1.221802E+00  1.344951E+01  4.228388E+01 -5.002680E+00 -6.725716E+00
      2533   1 -2.998217E+02 -6.012695E+01 -1.525025E+01  7.819394E+01  2.041897E+00  3.948675E+00
      2533   2 -3.146810E+02 -4.387223E+01 -1.382572E+01  4.763455E+01 -6.139265E-01  6.146820E+00
      2533   3 -2.864009E+02 -5.931903E+01 -1.092043E+01  7.568216E+01 -1.782736E+00 -7.829765E+00
      2533   4 -3.013442E+02 -4.300553E+01 -9.390149E+00  4.566788E+01 -4.466737E+00 -5.689906E+00
      2533   5 -1.822889E+02 -1.168712E+01  8.371143E+00  5.957721E+01  1.986462E+00  2.276560E+00
      2533   6 -1.963828E+02  3.668090E+00  9.650473E+00  3.065325E+01 -5.341928E-01  4.683606E+00
      2533   7 -1.702985E+02 -1.131913E+01  1.212612E+01  5.693037E+01 -1.738410E+00 -9.506750E+00
      2533   8 -1.844650E+02  4.098568E+00  1.352151E+01  2.852234E+01 -4.285601E+00 -7.152960E+00
      2534   1 -3.127737E+02 -4.951420E+01 -1.524408E+01  5.877617E+01  2.009730E+00  4.037051E+00
      2534   2 -3.226572E+02 -3.844029E+01 -1.398840E+01  2.588879E+01 -8.087263E-01  6.125372E+00
      2534   3 -2.989168E+02 -4.915246E+01 -1.092578E+01  5.753225E+01 -8.282142E-01 -8.111324E+00
      2534   4 -3.089748E+02 -3.787075E+01 -9.539707E+00  2.517874E+01 -3.666089E+00 -6.061438E+00
      2534   5 -1.919132E+02 -3.345286E+00  8.496376E+00  4.590714E+01  1.963605E+00  2.367370E+00
      2534   6 -2.012770E+02  7.126594E+00  9.662702E+00  1.477967E+01 -7.388971E-01  4.686922E+00
      2534   7 -1.794530E+02 -3.429484E+00  1.225178E+01  4.441255E+01 -7.989203E-01 -9.769315E+00
      2534   8 -1.889746E+02  7.246500E+00  1.355879E+01  1.379037E+01 -3.519819E+00 -7.484110E+00
      2535   1 -3.216835E+02 -4.193137E+01 -1.518587E+01  3.748108E+01  1.978903E+00  4.144085E+00
      2535   2 -3.262350E+02 -3.640151E+01 -1.410247E+01  3.203723E+00 -9.853747E-01  6.115154E+00
      2535   3 -3.077166E+02 -4.178118E+01 -1.090790E+01  3.756319E+01  1.671359E-01 -8.260843E+00
      2535   4 -3.125283E+02 -3.589093E+01 -9.667262E+00  3.774796E+00 -2.811236E+00 -6.309958E+00
      2535   5 -1.987938E+02  2.795108E+00  8.598822E+00  3.079647E+01  1.937323E+00  2.472718E+00
      2535   6 -2.030945E+02  8.036294E+00  9.641155E+00 -1.646554E+00 -9.390680E-01  4.697019E+00
      2535   7 -1.861295E+02  2.484760E+00  1.234137E+01  3.051347E+01  1.768223E-01 -9.907737E+00
      2535   8 -1.906685E+02  8.074932E+00  1.355097E+01 -1.466761E+00 -2.713116E+00 -7.700397E+00
      2536   1 -3.264203E+02 -3.772732E+01 -1.515088E+01  1.496817E+01  1.927110E+00  4.257915E+00
      2536   2 -3.255247E+02 -3.789893E+01 -1.429719E+01 -1.940900E+01 -1.194823E+00  5.990650E+00
      2536   3 -3.125373E+02 -3.751436E+01 -1.090010E+01  1.644619E+01  1.194871E+00 -8.307274E+00
      2536   4 -3.119598E+02 -3.722001E+01 -9.881106E+00 -1.774187E+01 -1.915749E+00 -6.584488E+00
      2536   5 -2.026645E+02  6.538080E+00  8.685983E+00  1.466552E+01  1.880901E+00  2.579621E+00
      2536   6 -2.017893E+02  6.403094E+00  9.558007E+00 -1.787198E+01 -1.164187E+00  4.568546E+00
      2536   7 -1.900689E+02  6.207462E+00  1.238592E+01  1.569483E+01  1.170639E+00 -9.954320E+00
      2536   8 -1.894872E+02  6.521230E+00  1.343243E+01 -1.666367E+01 -1.863413E+00 -7.975287E+00
      2537   1 -3.264774E+02 -3.693972E+01 -1.495781E+01 -7.694320E+00  1.815448E+00  4.500492E+00
      2537   2 -3.202466E+02 -4.275120E+01 -1.438857E+01 -4.148962E+01 -1.406336E+00  5.882166E+00
      2537   3 -3.130725E+02 -3.642941E+01 -1.078555E+01 -5.033769E+00  2.233611E+00 -8.118711E+00
      2537   4 -3.071504E+02 -4.174035E+01 -1.004356E+01 -3.871832E+01 -9.779892E-01 -6.717061E+00
      2537   5 -2.033986E+02  7.700152E+00  8.797648E+00 -1.639327E+00  1.784283E+00  2.828244E+00
      2537   6 -1.974521E+02  2.248745E+00  9.450895E+00 -3.362609E+01 -1.390902E+00  4.452523E+00
      2537   7 -1.911410E+02  7.622402E+00  1.245344E+01  5.330669E-01  2.187799E+00 -9.762390E+00
      2537   8 -1.854794E+02  2.651991E+00  1.328710E+01 -3.134887E+01 -9.773531E-01 -8.119608E+00
      2538   1 -3.220814E+02 -3.957313E+01 -1.473061E+01 -3.003656E+01  1.680829E+00  4.723684E+00
      2538   2 -3.107187E+02 -5.082108E+01 -1.444550E+01 -6.229180E+01 -1.602359E+00  5.752715E+00
      2538   3 -3.093539E+02 -3.856594E+01 -1.063413E+01 -2.631202E+01  3.245062E+00 -7.801708E+00
      2538   4 -2.982761E+02 -4.928905E+01 -1.016789E+01 -5.852662E+01 -3.352657E-02 -6.725199E+00
      2538   5 -2.010177E+02  6.328563E+00  8.890757E+00 -1.783333E+01  1.657220E+00  3.050991E+00
      2538   6 -1.901950E+02 -4.249296E+00  9.319824E+00 -4.836248E+01 -1.601259E+00  4.307594E+00
      2538   7 -1.893231E+02  6.687639E+00  1.249173E+01 -1.462112E+01  3.173958E+00 -9.453605E+00
      2538   8 -1.787634E+02 -3.386772E+00  1.310792E+01 -4.511182E+01 -7.973675E-02 -8.152395E+00
      2539   1 -3.133909E+02 -4.549614E+01 -1.447273E+01 -5.132854E+01  1.518207E+00  4.932983E+00
      2539   2 -2.972734E+02 -6.179620E+01 -1.446447E+01 -8.114613E+01 -1.783786E+00  5.610156E+00
      2539   3 -3.015336E+02 -4.382082E+01 -1.045536E+01 -4.667799E+01  4.202943E+00 -7.357126E+00
      2539   4 -2.856667E+02 -5.958558E+01 -1.025885E+01 -7.652048E+01  8.960161E-01 -6.607838E+00
      2539   5 -1.956132E+02  2.491762E+00  8.956608E+00 -3.339307E+01  1.501379E+00  3.254749E+00
      2539   6 -1.802726E+02 -1.285034E+01  9.164208E+00 -6.161496E+01 -1.793836E+00  4.142307E+00
      2539   7 -1.846793E+02  3.456748E+00  1.249640E+01 -2.926330E+01  4.109496E+00 -9.026861E+00
      2539   8 -1.695695E+02 -1.137244E+01  1.289674E+01 -5.750873E+01  8.100685E-01 -8.071305E+00
      2540   1 -3.007053E+02 -5.443363E+01 -1.418110E+01 -7.088583E+01  1.327042E+00  5.127630E+00
      2540   2 -2.803709E+02 -7.524118E+01 -1.444407E+01 -9.746205E+01 -1.951739E+00  5.457591E+00
      2540   3 -2.898810E+02 -5.195093E+01 -1.024700E+01 -6.547585E+01  5.089994E+00 -6.792936E+00
      2540   4 -2.697528E+02 -7.222438E+01 -1.031535E+01 -9.213659E+01  1.793016E+00 -6.368394E+00
      2540   5 -1.873768E+02 -3.635910E+00  8.994848E+00 -4.782206E+01  1.319390E+00  3.439008E+00
      2540   6 -1.680286E+02 -2.322788E+01  8.984239E+00 -7.297610E+01 -1.967028E+00  3.960637E+00
      2540   7 -1.773700E+02 -1.923375E+00  1.246822E+01 -4.292655E+01  4.979385E+00 -8.489549E+00
      2540   8 -1.582111E+02 -2.100409E+01  1.265515E+01 -6.816058E+01  1.676213E+00 -7.878580E+00
      2541   1 -2.844519E+02 -6.598560E+01 -1.385610E+01 -8.809920E+01  1.108200E+00  5.304218E+00
      2541   2 -2.605760E+02 -9.061881E+01 -1.438435E+01 -1.107533E+02 -2.107097E+00  5.296692E+00
      2541   3 -2.747846E+02 -6.259174E+01 -1.000867E+01 -8.211979E+01  5.890018E+00 -6.120491E+00
      2541   4 -2.510630E+02 -8.670174E+01 -1.033668E+01 -1.049106E+02  2.639877E+00 -6.013523E+00
      2541   5 -1.765918E+02 -1.178754E+01  9.005695E+00 -6.067318E+01  1.113783E+00  3.600900E+00
      2541   6 -1.538755E+02 -3.498438E+01  8.781307E+00 -8.211496E+01 -2.119907E+00  3.765602E+00
      2541   7 -1.676431E+02 -9.219410E+00  1.240787E+01 -5.518896E+01  5.769498E+00 -7.852007E+00
      2541   8 -1.450676E+02 -3.191585E+01  1.238511E+01 -7.676008E+01  2.503298E+00 -7.579043E+00
      2542   1 -2.651676E+02 -7.964612E+01 -1.349904E+01 -1.024580E+02  8.628827E-01  5.458769E+00
      2542   2 -2.385338E+02 -1.073131E+02 -1.428547E+01 -1.206560E+02 -2.250556E+00  5.128722E+00
      2542   3 -2.567416E+02 -7.527724E+01 -9.741681E+00 -9.611523E+01  6.588504E+00 -5.353702E+00
      2542   4 -2.302047E+02 -1.024400E+02 -1.032304E+01 -1.144937E+02  3.420558E+00 -5.552245E+00
      2542   5 -1.636221E+02 -2.161738E+01  8.989576E+00 -7.156597E+01  8.873316E-01  3.737532E+00
      2542   6 -1.382802E+02 -4.767033E+01  8.556633E+00 -8.879014E+01 -2.251951E+00  3.560028E+00
      2542   7 -1.558231E+02 -1.812282E+01  1.231646E+01 -6.568767E+01  6.467200E+00 -7.126598E+00
      2542   8 -1.305682E+02 -4.369382E+01  1.208852E+01 -8.308262E+01  3.276786E+00 -7.179669E+00
      2543   1 -2.434758E+02 -9.482680E+01 -1.311190E+01 -1.135694E+02  5.937249E-01  5.587473E+00
      2543   2 -2.149441E+02 -1.246576E+02 -1.414779E+01 -1.269413E+02 -2.382428E+00  4.954543E+00
      2543   3 -2.363322E+02 -8.946047E+01 -9.447413E+00 -1.070772E+02  7.173641E+00 -4.508379E+00
      2543   4 -2.078361E+02 -1.188121E+02 -1.027411E+01 -1.206643E+02  4.120832E+00 -4.996147E+00
      2543   5 -1.488968E+02 -3.271766E+01  8.946398E+00 -8.020132E+01  6.435766E-01  3.846288E+00
      2543   6 -1.217436E+02 -6.080379E+01  8.311800E+00 -9.285753E+01 -2.362669E+00  3.346529E+00
      2543   7 -1.422974E+02 -2.826568E+01  1.219451E+01 -7.413318E+01  7.062044E+00 -6.327348E+00
      2543   8 -1.151739E+02 -5.589421E+01  1.176758E+01 -8.699312E+01  3.983675E+00 -6.689676E+00
      2544   1 -2.200626E+02 -1.108842E+02 -1.269729E+01 -1.211732E+02  3.041260E-01  5.687042E+00
      2544   2 -1.905342E+02 -1.419664E+02 -1.397206E+01 -1.295235E+02 -2.503084E+00  4.775043E+00
      2544   3 -2.141983E+02 -1.045392E+02 -9.127751E+00 -1.147437E+02  7.636175E+00 -3.601954E+00
      2544   4 -1.846426E+02 -1.351713E+02 -1.018990E+01 -1.233346E+02  4.728294E+00 -4.358918E+00
      2544   5 -1.328914E+02 -4.463579E+01  8.876727E+00 -8.637151E+01  3.866609E-01  3.925221E+00
      2544   6 -1.047811E+02 -7.389261E+01  8.048297E+00 -9.427496E+01 -2.451774E+00  3.127945E+00
      2544   7 -1.274996E+02 -3.923638E+01  1.204287E+01 -8.031875E+01  7.545965E+00 -5.469612E+00
      2544   8 -9.935996E+01 -6.806350E+01  1.142416E+01 -8.844987E+01  4.612649E+00 -6.120051E+00
      2545   1 -1.956467E+02 -1.271503E+02 -1.225834E+01 -1.251491E+02 -2.006309E-03  5.754987E+00
      2545   2 -1.660264E+02 -1.585648E+02 -1.375918E+01 -1.284596E+02 -2.612609E+00  4.591457E+00
      2545   3 -1.910175E+02 -1.198855E+02 -8.785516E+00 -1.189852E+02  7.969854E+00 -2.652685E+00
      2545   4 -1.613079E+02 -1.508812E+02 -1.007119E+01 -1.225524E+02  5.233338E+00 -3.655354E+00
      2545   5 -1.161091E+02 -5.689717E+01  8.780783E+00 -8.996750E+01  1.210435E-01  3.973489E+00
      2545   6 -8.789896E+01 -8.645560E+01  7.768526E+00 -9.310077E+01 -2.519202E+00  2.907532E+00
      2545   7 -1.118920E+02 -5.059941E+01  1.186214E+01 -8.412767E+01  7.913516E+00 -4.569274E+00
      2545   8 -8.359418E+01 -7.975836E+01  1.106085E+01 -8.750398E+01  5.154460E+00 -5.482825E+00
      2546   1 -1.709486E+02 -1.429631E+02 -1.179865E+01 -1.255193E+02 -3.198226E-01  5.789944E+00
      2546   2 -1.421092E+02 -1.738191E+02 -1.350999E+01 -1.239429E+02 -2.710667E+00  4.405530E+00
      2546   3 -1.674726E+02 -1.348743E+02 -8.424201E+00 -1.198060E+02  8.171799E+00 -1.679029E+00
      2546   4 -1.384842E+02 -1.653440E+02 -9.918660E+00 -1.184941E+02  5.629285E+00 -2.900960E+00
      2546   5 -9.905894E+01 -6.902668E+01  8.658671E+00 -9.098086E+01 -1.482011E-01  3.991445E+00
      2546   6 -7.157599E+01 -9.804466E+01  7.474987E+00 -8.948887E+01 -2.564779E+00  2.689114E+00
      2546   7 -9.594575E+01 -6.191645E+01  1.165267E+01 -8.553617E+01  8.162178E+00 -3.642293E+00
      2546   8 -6.831909E+01 -9.056604E+01  1.068043E+01 -8.429444E+01  5.602366E+00 -4.790635E+00
      2547   1 -1.466619E+02 -1.576982E+02 -1.132239E+01 -1.224422E+02 -6.439185E-01  5.792472E+00
      2547   2 -1.194107E+02 -1.871675E+02 -1.322540E+01 -1.162914E+02 -2.796625E+00  4.220436E+00
      2547   3 -1.442252E+02 -1.489146E+02 -8.048373E+00 -1.173408E+02  8.242187E+00 -6.987718E-01
      2547   4 -1.167691E+02 -1.780291E+02 -9.733605E+00 -1.114544E+02  5.912415E+00 -2.111087E+00
      2547   5 -8.223387E+01 -8.057036E+01  8.511087E+00 -8.950063E+01 -4.158640E-01  3.981345E+00
      2547   6 -5.624355E+01 -1.082651E+02  7.170701E+00 -8.367905E+01 -2.588498E+00  2.477931E+00
      2547   7 -8.012132E+01 -7.276710E+01  1.141484E+01 -8.461110E+01  8.292087E+00 -2.703783E+00
      2547   8 -5.393485E+01 -1.001240E+02  1.028563E+01 -7.903975E+01  5.952126E+00 -4.055787E+00
      2548   1 -1.234279E+02 -1.708018E+02 -1.083539E+01 -1.162027E+02 -9.684036E-01  5.765728E+00
      2548   2 -9.847460E+01 -1.981471E+02 -1.290662E+01 -1.059293E+02 -2.869492E+00  4.041701E+00
      2548   3 -1.218921E+02 -1.614819E+02 -7.665599E+00 -1.118451E+02  8.184848E+00  2.720116E-01
      2548   4 -9.668244E+01 -1.885024E+02 -9.518817E+00 -1.018294E+02  6.082716E+00 -1.299534E+00
      2548   5 -6.609113E+01 -9.111741E+01  8.338954E+00 -8.570612E+01 -6.766904E-01  3.947876E+00
      2548   6 -4.226691E+01 -1.167931E+02  6.859951E+00 -7.598248E+01 -2.590586E+00  2.281220E+00
      2548   7 -6.485060E+01 -8.277025E+01  1.114813E+01 -8.150410E+01  8.306517E+00 -1.767118E+00
      2548   8 -4.078201E+01 -1.081368E+02  9.879476E+00 -7.202432E+01  6.202549E+00 -3.289185E+00
      2549   1 -1.018106E+02 -1.818169E+02 -1.034520E+01 -1.071941E+02 -1.287238E+00  5.716503E+00
      2549   2 -7.974020E+01 -2.064168E+02 -1.255607E+01 -9.336282E+01 -2.927902E+00  3.878830E+00
      2549   3 -1.010224E+02 -1.721465E+02 -7.287248E+00 -1.036805E+02  8.007500E+00  1.220816E+00
      2549   4 -7.864865E+01 -1.964491E+02 -9.280178E+00 -9.009475E+01  6.144353E+00 -4.759747E-01
      2549   5 -5.103455E+01 -1.003189E+02  8.143525E+00 -7.985474E+01 -9.262511E-01  3.898753E+00
      2549   6 -2.993238E+01 -1.233894E+02  6.547748E+00 -6.676367E+01 -2.572012E+00  2.109421E+00
      2549   7 -5.052042E+01 -9.160365E+01  1.085068E+01 -7.644178E+01  8.211428E+00 -8.426367E-01
      2549   8 -2.912983E+01 -1.143915E+02  9.464191E+00 -6.358306E+01  6.355247E+00 -2.498343E+00
      2550   1 -8.227541E+01 -1.904013E+02 -9.860903E+00 -9.589669E+01 -1.594418E+00  5.656691E+00
      2550   2 -6.352796E+01 -2.117665E+02 -1.217885E+01 -7.915483E+01 -2.970250E+00  3.747560E+00
      2550   3 -8.207809E+01 -1.805945E+02 -6.930226E+00 -9.329568E+01  7.722104E+00  2.141968E+00
      2550   4 -6.298185E+01 -2.016856E+02 -9.029293E+00 -7.678260E+01  6.105751E+00  3.582291E-01
      2550   5 -3.739954E+01 -1.079001E+02  7.925998E+00 -7.226894E+01 -1.161411E+00  3.844986E+00
      2550   6 -1.943837E+01 -1.279050E+02  6.238356E+00 -5.642301E+01 -2.535083E+00  1.977211E+00
      2550   7 -3.745973E+01 -9.901971E+01  1.051725E+01 -6.971486E+01  8.015343E+00  6.407053E-02
      2550   8 -1.916754E+01 -1.187643E+02  9.038864E+00 -5.408546E+01  6.414129E+00 -1.684731E+00
      2551   1 -6.516656E+01 -1.963156E+02 -9.388746E+00 -8.285572E+01 -1.884768E+00  5.604176E+00
      2551   2 -5.002815E+01 -2.140961E+02 -1.178441E+01 -6.390268E+01 -2.995075E+00  3.672397E+00
      2551   3 -6.541160E+01 -1.866227E+02 -6.614702E+00 -8.120868E+01  7.343864E+00  3.041689E+00
      2551   4 -4.987365E+01 -2.041449E+02 -8.786373E+00 -6.246427E+01  5.977575E+00  1.217147E+00
      2551   5 -2.544290E+01 -1.136629E+02  7.685959E+00 -6.332572E+01 -1.382101E+00  3.800093E+00
      2551   6 -1.089488E+01 -1.302723E+02  5.931193E+00 -4.538692E+01 -2.484977E+00  1.904605E+00
      2551   7 -2.592967E+01 -1.048546E+02  1.013541E+01 -6.167178E+01  7.726876E+00  9.539283E-01
      2551   8 -1.100298E+01 -1.212189E+02  8.593878E+00 -4.393046E+01  6.381782E+00 -8.397702E-01
      2552   1 -5.067056E+01 -1.993508E+02 -8.915950E+00 -6.866753E+01 -2.155263E+00  5.580938E+00
      2552   2 -3.928541E+01 -2.133355E+02 -1.138406E+01 -4.823920E+01 -3.002456E+00  3.687794E+00
      2552   3 -5.122695E+01 -1.900804E+02 -6.351395E+00 -6.799801E+01  6.885918E+00  3.943480E+00
      2552   4 -3.937072E+01 -2.038080E+02 -8.579402E+00 -4.775536E+01  5.763919E+00  2.138971E+00
      2552   5 -1.533573E+01 -1.174752E+02  7.417783E+00 -5.346046E+01 -1.593229E+00  3.776360E+00
      2552   6 -4.332403E+00 -1.304840E+02  5.612450E+00 -3.412534E+01 -2.432489E+00  1.916201E+00
      2552   7 -1.611411E+01 -1.090309E+02  9.678849E+00 -5.272575E+01  7.348438E+00  1.833993E+00
      2552   8 -4.664751E+00 -1.217962E+02  8.101154E+00 -3.356637E+01  6.249122E+00  5.800075E-02
      2553   1 -3.874522E+01 -1.991452E+02 -8.368184E+00 -5.399270E+01 -2.407498E+00  5.602247E+00
      2553   2 -3.115177E+01 -2.092602E+02 -1.096556E+01 -3.289247E+01 -2.998357E+00  3.831035E+00
      2553   3 -3.949450E+01 -1.907051E+02 -6.100206E+00 -5.431253E+01  6.343731E+00  4.884657E+00
      2553   4 -3.131018E+01 -2.005373E+02 -8.418223E+00 -3.337145E+01  5.439235E+00  3.185278E+00
      2553   5 -7.152674E+00 -1.192537E+02  7.105192E+00 -4.319492E+01 -1.808092E+00  3.773924E+00
      2553   6  2.912153E-01 -1.285706E+02  5.246025E+00 -2.322386E+01 -2.400019E+00  2.034318E+00
      2553   7 -8.097292E+00 -1.115602E+02  9.099686E+00 -4.337868E+01  6.860687E+00  2.707427E+00
      2553   8 -9.441458E-02 -1.206097E+02  7.504333E+00 -2.355826E+01  5.971964E+00  1.036052E+00
      2554   1 -2.897592E+01 -1.948258E+02 -7.507912E+00 -3.961946E+01 -2.653008E+00  5.639987E+00
      2554   2 -2.516547E+01 -2.011710E+02 -1.041203E+01 -1.886037E+01 -3.009382E+00  4.109980E+00
      2554   3 -2.978262E+01 -1.877881E+02 -5.667378E+00 -4.089630E+01  5.658982E+00  5.878473E+00
      2554   4 -2.518012E+01 -1.937845E+02 -8.215478E+00 -2.025631E+01  4.884559E+00  4.405515E+00
      2554   5 -8.701383E-01 -1.190076E+02  6.707472E+00 -3.319537E+01 -2.053915E+00  3.754172E+00
      2554   6  3.093318E+00 -1.246564E+02  4.791584E+00 -1.354721E+01 -2.437189E+00  2.251578E+00
      2554   7 -1.831154E+00 -1.125840E+02  8.325458E+00 -3.424143E+01  6.188058E+00  3.524444E+00
      2554   8  2.881049E+00 -1.179035E+02  6.744415E+00 -1.470600E+01  5.409240E+00  2.076048E+00
      2555   1 -2.031139E+01 -1.845029E+02 -5.705647E+00 -2.663834E+01 -2.909368E+00  5.474659E+00
      2555   2 -2.001815E+01 -1.873841E+02 -9.049724E+00 -7.816054E+00 -3.057393E+00  4.329967E+00
      2555   3 -2.097860E+01 -1.795596E+02 -4.438024E+00 -2.860089E+01  4.684901E+00  6.667805E+00
      2555   4 -1.973015E+01 -1.820332E+02 -7.362100E+00 -9.809389E+00  3.939025E+00  5.551557E+00
      2555   5  3.578177E+00 -1.171909E+02  6.087681E+00 -2.430035E+01 -2.355572E+00  3.597250E+00
      2555   6  4.397180E+00 -1.193764E+02  4.185946E+00 -6.485313E+00 -2.556543E+00  2.451554E+00
      2555   7  2.831105E+00 -1.125704E+02  7.239666E+00 -2.595500E+01  5.194706E+00  4.115008E+00
      2555   8  4.552357E+00 -1.143720E+02  5.731166E+00 -8.169101E+00  4.428087E+00  2.996460E+00
      2556   1  4.707774E+00  1.616659E+02  2.942437E+00  7.902054E+00  2.750276E+00  1.179726E-01
      2556   2 -1.024526E+01  1.179761E+02 -3.211144E+00  8.396872E+00  3.014693E+00  6.211195E-01
      2556   3  6.589974E+00  1.626407E+02  4.309372E+00 -5.273240E+00  2.600387E+00 -3.178123E-01
      2556   4 -8.235257E+00  1.190786E+02 -1.545998E+00 -4.778422E+00  2.749421E+00  1.638127E-01
      2556   5  4.435463E+00  1.632182E+02  3.323405E+00  8.594664E+00 -2.743217E+00 -1.424611E-01
      2556   6 -1.047503E+01  1.196286E+02 -2.788639E+00  9.244235E+00 -2.478119E+00  2.465381E-01
      2556   7  6.843756E+00  1.644157E+02  4.906770E+00 -4.769754E+00 -2.982763E+00 -5.712160E-01
      2556   8 -7.940993E+00  1.209518E+02 -9.118742E-01 -4.120183E+00 -2.831187E+00 -2.033915E-01
      2557   1 -1.074544E+00  9.480289E+01  1.148923E+00  1.355114E+01  2.505163E+00  8.911843E-01
      2557   2 -1.555138E+01  5.183187E+01 -4.136173E+00  1.486168E+01  2.905004E+00  1.125868E+00
      2557   3  3.553843E+00  9.702784E+01  3.937045E+00  4.870947E-01  2.372021E+00  4.001817E-01
      2557   4 -1.104963E+01  5.393019E+01 -1.643540E+00  1.797636E+00  2.646452E+00  5.643289E-01
      2557   5 -1.813293E+00  9.636639E+01  1.392025E+00  1.515322E+01 -3.230983E+00  5.164202E-01
      2557   6 -1.614747E+01  5.372723E+01 -3.749420E+00  1.663196E+01 -2.830402E+00  8.647524E-01
      2557   7  3.425908E+00  9.884922E+01  4.428946E+00  1.963146E+00 -3.234853E+00  3.333842E-02
      2557   8 -1.103287E+01  5.608547E+01 -1.003221E+00  3.441887E+00 -2.957658E+00  3.122720E-01
      2558   1 -2.850527E+00  2.924513E+01  1.762623E+00  2.005226E+01  2.291796E+00  1.309414E+00
      2558   2 -1.879730E+01 -1.740184E+01 -4.746315E+00  2.155685E+01  2.769610E+00  1.576187E+00
      2558   3  2.151510E+00  3.148787E+01  4.236396E+00  5.976807E+00  2.205571E+00  7.015116E-01
      2558   4 -1.400321E+01 -1.536704E+01 -2.757754E+00  7.481392E+00  2.548270E+00  9.121544E-01
      2558   5 -3.690019E+00  3.121425E+01  2.099740E+00  2.226917E+01 -3.595249E+00  1.158075E+00
      2558   6 -1.952264E+01 -1.516799E+01 -4.293409E+00  2.395497E+01 -3.116638E+00  1.611113E+00
      2558   7  1.979523E+00  3.374147E+01  4.854262E+00  8.033087E+00 -3.476493E+00  5.599786E-01
      2558   8 -1.405769E+01 -1.284537E+01 -2.016272E+00  9.718889E+00 -3.130817E+00  9.577923E-01
      2559   1 -3.904683E-01 -4.017989E+01  3.076840E+00  2.322295E+01  2.251610E+00  1.846818E+00
      2559   2 -1.835138E+01 -9.184777E+01 -5.124998E+00  2.446574E+01  2.727916E+00  2.319420E+00
      2559   3  3.379239E+00 -3.868937E+01  4.275529E+00  7.768946E+00  2.214525E+00  1.154097E+00
      2559   4 -1.487696E+01 -9.065253E+01 -4.615310E+00  9.011739E+00  2.533855E+00  1.604455E+00
      2559   5 -1.055455E+00 -3.780963E+01  3.590662E+00  2.589582E+01 -3.833036E+00  2.046610E+00
      2559   6 -1.896987E+01 -8.937134E+01 -4.562356E+00  2.734915E+01 -3.355803E+00  2.783370E+00
      2559   7  3.469953E+00 -3.599322E+01  5.119949E+00  1.021623E+01 -3.583678E+00  1.365064E+00
      2559   8 -1.473499E+01 -8.784545E+01 -3.710955E+00  1.166957E+01 -3.260890E+00  2.079939E+00
      2560   1  7.094991E+00 -1.138915E+02  5.551906E+00  1.786212E+01  2.574085E+00  3.111948E+00
      2560   2 -1.155029E+01 -1.679311E+02 -2.559404E+00  1.770261E+01  2.996604E+00  4.804571E+00
      2560   3  5.732008E+00 -1.149619E+02  3.346717E+00  1.634484E+00  2.520452E+00  2.372579E+00
      2560   4 -1.353840E+01 -1.696267E+02 -6.223224E+00  1.474972E+00  2.772879E+00  4.020774E+00
      2560   5  6.735892E+00 -1.112092E+02  6.257560E+00  1.973105E+01 -3.991678E+00  3.877272E+00
      2560   6 -1.181632E+01 -1.650366E+02 -1.755757E+00  1.979967E+01 -3.568155E+00  6.129107E+00
      2560   7  6.122396E+00 -1.119506E+02  4.399730E+00  3.292874E+00 -3.475273E+00  3.149831E+00
      2560   8 -1.304486E+01 -1.663931E+02 -5.048687E+00  3.361492E+00 -3.219098E+00  5.357955E+00
      2561   1  5.378436E+00  1.567236E+02  2.753170E+00  1.050964E+01  2.891161E+00 -6.258102E-01
      2561   2 -1.008673E+01  1.116551E+02 -3.728808E+00  1.119564E+01  2.980102E+00  8.106127E-02
      2561   3  8.208500E+00  1.582956E+02  5.163090E+00 -3.062941E+00  2.379921E+00 -7.705635E-01
      2561   4 -7.377949E+00  1.131058E+02 -1.601878E+00 -2.376942E+00  2.409187E+00 -6.737722E-02
      2561   5  5.335004E+00  1.572476E+02  2.860450E+00  1.164824E+01 -2.660518E+00 -1.182826E+00
      2561   6 -1.011864E+01  1.122004E+02 -3.604535E+00  1.241427E+01 -2.569557E+00 -3.673874E-01
      2561   7  8.452105E+00  1.589368E+02  5.374075E+00 -2.142293E+00 -3.040750E+00 -1.325244E+00
      2561   8 -7.120868E+00  1.137703E+02 -1.369336E+00 -1.376258E+00 -3.008501E+00 -5.134311E-01
      2562   1  2.675339E+00  8.954793E+01  1.971855E+00  1.661822E+01  2.679688E+00  4.352391E-01
      2562   2 -1.203044E+01  4.634542E+01 -3.844913E+00  1.754803E+01  2.872409E+00  6.959994E-01
      2562   3  6.063574E+00  9.123095E+01  4.193710E+00  3.553033E+00  2.190924E+00  2.608106E-01
      2562   4 -8.802438E+00  4.786822E+01 -1.996931E+00  4.482848E+00  2.307486E+00  4.542501E-01
      2562   5  2.272084E+00  9.003570E+01  1.973502E+00  1.865839E+01 -2.804892E+00  7.980290E-02
      2562   6 -1.229284E+01  4.715464E+01 -3.695175E+00  1.969035E+01 -2.609594E+00  4.861107E-01
      2562   7  6.035926E+00  9.187598E+01  4.343913E+00  5.463122E+00 -3.126262E+00 -9.181156E-02
      2562   8 -8.686641E+00  4.883727E+01 -1.692605E+00  6.495082E+00 -3.005894E+00  2.482615E-01
      2563   1  1.723133E+00  2.474474E+01  2.293918E+00  2.087111E+01  2.532880E+00  8.805723E-01
      2563   2 -1.363748E+01 -2.005629E+01 -4.107085E+00  2.186160E+01  2.783789E+00  1.124075E+00
      2563   3  5.010906E+00  2.621603E+01  3.910454E+00  7.373254E+00  2.091171E+00  6.000303E-01
      2563   4 -1.055818E+01 -1.879347E+01 -2.977000E+00  8.363743E+00  2.255680E+00  8.048697E-01
      2563   5  1.295474E+00  2.563439E+01  2.426125E+00  2.334899E+01 -2.984943E+00  7.926669E-01
      2563   6 -1.398030E+01 -1.897809E+01 -3.880631E+00  2.445536E+01 -2.731110E+00  1.223887E+00
      2563   7  5.011614E+00  2.728827E+01  4.222900E+00  9.678137E+00 -3.213868E+00  5.166509E-01
      2563   8 -1.046927E+01 -1.752933E+01 -2.562459E+00  1.078451E+01 -3.045041E+00  9.098313E-01
      2564   1  3.935217E+00 -4.117231E+01  3.417344E+00  2.097886E+01  2.550166E+00  1.359840E+00
      2564   2 -1.231883E+01 -8.818597E+01 -3.749167E+00  2.152181E+01  2.766591E+00  1.760459E+00
      2564   3  5.403799E+00 -4.069946E+01  3.524925E+00  6.876184E+00  2.136630E+00  1.024188E+00
      2564   4 -1.111826E+01 -8.798112E+01 -4.266928E+00  7.419136E+00  2.268720E+00  1.418536E+00
      2564   5  3.732848E+00 -3.996752E+01  3.734143E+00  2.368061E+01 -3.036485E+00  1.616150E+00
      2564   6 -1.249951E+01 -8.694266E+01 -3.398586E+00  2.433667E+01 -2.817206E+00  2.256614E+00
      2564   7  5.603382E+00 -3.931988E+01  4.022407E+00  9.354527E+00 -3.182327E+00  1.285913E+00
      2564   8 -1.089266E+01 -8.655871E+01 -3.725575E+00  1.001059E+01 -3.046022E+00  1.920207E+00
      2565   1  7.656416E+00 -1.085550E+02  4.837968E+00  1.365351E+01  2.806372E+00  2.424442E+00
      2565   2 -7.979654E+00 -1.542465E+02 -1.590825E+00  1.330303E+01  2.964291E+00  3.837857E+00
      2565   3  5.758721E+00 -1.098100E+02  2.552489E+00 -1.262882E-01  2.331935E+00  2.069743E+00
      2565   4 -1.024029E+01 -1.558644E+02 -4.723158E+00 -4.767631E-01  2.412612E+00  3.454525E+00
      2565   5  7.666575E+00 -1.071765E+02  5.299913E+00  1.540537E+01 -2.847418E+00  3.127522E+00
      2565   6 -7.899607E+00 -1.527213E+02 -1.042614E+00  1.515849E+01 -2.686886E+00  4.866422E+00
      2565   7  6.100836E+00 -1.082821E+02  3.180452E+00  1.435408E+00 -2.971381E+00  2.778545E+00
      2565   8 -9.822429E+00 -1.541839E+02 -3.995266E+00  1.188530E+00 -2.886844E+00  4.489275E+00
      2566   1  5.619718E+00  1.485040E+02  2.343692E+00  1.130294E+01  2.892041E+00 -1.280752E+00
      2566   2 -9.270690E+00  1.050933E+02 -3.880322E+00  1.198583E+01  2.893033E+00 -3.856102E-01
      2566   3  8.652302E+00  1.502842E+02  5.245194E+00 -1.773061E+00  2.056685E+00 -1.226226E+00
      2566   4 -6.465272E+00  1.066463E+02 -1.508874E+00 -1.090177E+00  2.040458E+00 -3.553564E-01
      2566   5  5.591359E+00  1.482532E+02  2.169880E+00  1.273206E+01 -2.369236E+00 -2.036053E+00
      2566   6 -9.236182E+00  1.049705E+02 -3.972552E+00  1.343804E+01 -2.367180E+00 -9.362934E-01
      2566   7  8.721643E+00  1.500675E+02  5.087413E+00 -5.280031E-01 -2.974762E+00 -1.982406E+00
      2566   8 -6.329400E+00  1.065613E+02 -1.576522E+00  1.779749E-01 -2.989647E+00 -9.065276E-01
      2567   1  4.803802E+00  8.442072E+01  2.311701E+00  1.812237E+01  2.721975E+00  4.720134E-02
      2567   2 -9.592959E+00  4.232175E+01 -3.578536E+00  1.873717E+01  2.785687E+00  3.345226E-01
      2567   3  7.232035E+00  8.572144E+01  4.219202E+00  5.421430E+00  1.929470E+00  4.942469E-02
      2567   4 -7.371151E+00  4.341604E+01 -2.152692E+00  6.036238E+00  1.960811E+00  2.844372E-01
      2567   5  4.616390E+00  8.431581E+01  2.175265E+00  2.048888E+01 -2.432285E+00 -3.598456E-01
      2567   6 -9.662381E+00  4.247515E+01 -3.579976E+00  2.114711E+01 -2.366573E+00  1.152798E-01
      2567   7  7.211257E+00  8.568375E+01  4.140197E+00  7.645083E+00 -3.010392E+00 -3.576581E-01
      2567   8 -7.270609E+00  4.363999E+01 -2.088931E+00  8.303308E+00 -2.976529E+00  6.600241E-02
      2568   1  4.688991E+00  2.202449E+01  2.698078E+00  2.113797E+01  2.627112E+00  5.251200E-01
      2568   2 -9.890197E+00 -2.047037E+01 -3.404353E+00  2.163636E+01  2.725255E+00  7.585204E-01
      2568   3  6.382730E+00  2.280422E+01  3.603422E+00  8.339162E+00  1.870401E+00  4.421932E-01
      2568   4 -8.411991E+00 -1.990618E+01 -3.001921E+00  8.837555E+00  1.929646E+00  6.381779E-01
      2568   5  4.521082E+00  2.226698E+01  2.710362E+00  2.377263E+01 -2.499011E+00  4.460036E-01
      2568   6 -9.969515E+00 -2.003892E+01 -3.285722E+00  2.432319E+01 -2.398465E+00  8.744324E-01
      2568   7  6.409705E+00  2.312936E+01  3.696332E+00  1.081073E+01 -3.031245E+00  3.644146E-01
      2568   8 -8.292949E+00 -1.938860E+01 -2.794551E+00  1.136130E+01 -2.968969E+00  7.560313E-01
      2569   1  6.071979E+00 -4.030890E+01  3.500304E+00  1.953743E+01  2.652741E+00  9.746578E-01
      2569   2 -8.714728E+00 -8.328907E+01 -2.808549E+00  1.963437E+01  2.723716E+00  1.331756E+00
      2569   3  6.096965E+00 -4.046169E+01  2.966000E+00  6.611265E+00  1.908788E+00  8.360824E-01
      2569   4 -8.924484E+00 -8.367660E+01 -3.890583E+00  6.708205E+00  1.947902E+00  1.180783E+00
      2569   5  6.077466E+00 -3.976542E+01  3.695638E+00  2.220210E+01 -2.465195E+00  1.239061E+00
      2569   6 -8.669794E+00 -8.267289E+01 -2.554429E+00  2.234177E+01 -2.392250E+00  1.806816E+00
      2569   7  6.251566E+00 -3.985167E+01  3.234032E+00  9.079487E+00 -2.966346E+00  1.102721E+00
      2569   8 -8.726649E+00 -8.299009E+01 -3.554930E+00  9.219161E+00 -2.924750E+00  1.658279E+00
      2570   1  7.726158E+00 -1.027811E+02  4.317481E+00  1.211385E+01  2.785502E+00  1.921284E+00
      2570   2 -6.679253E+00 -1.448155E+02 -1.666185E+00  1.169573E+01  2.824911E+00  3.174806E+00
      2570   3  5.693870E+00 -1.040466E+02  2.131500E+00 -5.535043E-01  2.003751E+00  1.751028E+00
      2570   4 -8.939888E+00 -1.463093E+02 -4.384978E+00 -9.716280E-01  2.015357E+00  2.964268E+00
      2570   5  7.854646E+00 -1.020493E+02  4.649526E+00  1.376794E+01 -2.293048E+00  2.549094E+00
      2570   6 -6.455616E+00 -1.438805E+02 -1.220179E+00  1.338711E+01 -2.251921E+00  4.009279E+00
      2570   7  5.933134E+00 -1.032609E+02  2.532233E+00  9.432450E-01 -2.836199E+00  2.381585E+00
      2570   8 -8.601792E+00 -1.453168E+02 -3.861687E+00  5.624116E-01 -2.822427E+00  3.802138E+00
      2571   1  5.349774E+00  1.387595E+02  1.863638E+00  1.145395E+01  2.861208E+00 -1.727406E+00
      2571   2 -8.527168E+00  9.823808E+01 -3.871401E+00  1.208833E+01  2.833489E+00 -7.050141E-01
      2571   3  8.384568E+00  1.405892E+02  4.927821E+00 -1.199830E+00  2.027899E+00 -1.612305E+00
      2571   4 -5.746461E+00  9.981368E+01 -1.400090E+00 -5.654475E-01  1.994280E+00 -6.017097E-01
      2571   5  5.334150E+00  1.382738E+02  1.585603E+00  1.283088E+01 -2.008894E+00 -2.556665E+00
      2571   6 -8.499073E+00  9.782743E+01 -4.078774E+00  1.347310E+01 -2.036144E+00 -1.308271E+00
      2571   7  8.383603E+00  1.401148E+02  4.672977E+00  3.120268E-01 -2.656817E+00 -2.440460E+00
      2571   8 -5.706144E+00  9.941195E+01 -1.589956E+00  9.542472E-01 -2.690024E+00 -1.203976E+00
      2572   1  5.604645E+00  7.913445E+01  2.330725E+00  1.870364E+01  2.749727E+00 -2.205037E-01
      2572   2 -8.117594E+00  3.908896E+01 -3.364577E+00  1.912264E+01  2.752867E+00  8.081108E-02
      2572   3  7.493140E+00  8.022700E+01  4.084040E+00  6.202417E+00  1.940101E+00 -1.377126E-01
      2572   4 -6.456399E+00  3.995420E+01 -2.141629E+00  6.621417E+00  1.932003E+00  1.193552E-01
      2572   5  5.496219E+00  7.875118E+01  2.114896E+00  2.105729E+01 -2.044730E+00 -6.660567E-01
      2572   6 -8.119759E+00  3.892952E+01 -3.450041E+00  2.149122E+01 -2.040696E+00 -1.598872E-01
      2572   7  7.425406E+00  7.986387E+01  3.894701E+00  8.730113E+00 -2.691750E+00 -5.824718E-01
      2572   8 -6.420053E+00  3.981274E+01 -2.205689E+00  9.164046E+00 -2.699062E+00 -1.209735E-01
      2573   1  5.959505E+00  2.015208E+01  2.791881E+00  2.122499E+01  2.687065E+00  2.714287E-01
      2573   2 -7.732110E+00 -1.977032E+01 -2.924436E+00  2.142519E+01  2.708192E+00  4.908910E-01
      2573   3  6.728720E+00  2.054099E+01  3.319030E+00  8.767691E+00  1.896139E+00  2.811612E-01
      2573   4 -7.185287E+00 -1.960381E+01 -2.916204E+00  8.967890E+00  1.902942E+00  4.661554E-01
      2573   5  5.891859E+00  2.008143E+01  2.736100E+00  2.376350E+01 -2.070383E+00  1.788186E-01
      2573   6 -7.713375E+00 -1.966300E+01 -2.870253E+00  2.398273E+01 -2.048117E+00  5.980106E-01
      2573   7  6.718413E+00  2.049548E+01  3.289716E+00  1.146760E+01 -2.703364E+00  1.886444E-01
      2573   8 -7.111346E+00 -1.947347E+01 -2.840529E+00  1.168683E+01 -2.695559E+00  5.730377E-01
      2574   1  6.809833E+00 -3.844456E+01  3.406958E+00  1.897321E+01  2.701392E+00  6.941895E-01
      2574   2 -6.869219E+00 -7.829827E+01 -2.336175E+00  1.885246E+01  2.711829E+00  1.030149E+00
      2574   3  6.127961E+00 -3.889704E+01  2.580568E+00  6.542566E+00  1.915135E+00  6.478858E-01
      2574   4 -7.770527E+00 -7.897018E+01 -3.674583E+00  6.421810E+00  1.916261E+00  9.593882E-01
      2574   5  6.847133E+00 -3.824005E+01  3.518159E+00  2.143510E+01 -2.027440E+00  9.462715E-01
      2574   6 -6.765724E+00 -7.796258E+01 -2.135511E+00  2.132672E+01 -2.016262E+00  1.478546E+00
      2574   7  6.207120E+00 -3.867613E+01  2.704586E+00  9.153091E+00 -2.658698E+00  8.995237E-01
      2574   8 -7.627278E+00 -7.862019E+01 -3.466010E+00  9.044706E+00 -2.656920E+00  1.407107E+00
      2575   1  7.659187E+00 -9.677164E+01  4.012095E+00  1.165345E+01  2.759791E+00  1.584236E+00
      2575   2 -5.779385E+00 -1.360210E+02 -1.533817E+00  1.119269E+01  2.757286E+00  2.762069E+00
      2575   3  5.468944E+00 -9.808660E+01  1.819123E+00 -6.043775E-01  1.964879E+00  1.497108E+00
      2575   4 -8.183593E+00 -1.375499E+02 -4.226040E+00 -1.065136E+00  1.958906E+00  2.654684E+00
      2575   5  7.775498E+00 -9.636112E+01  4.260923E+00  1.310222E+01 -1.940471E+00  2.174449E+00
      2575   6 -5.605684E+00 -1.354992E+02 -1.204911E+00  1.264606E+01 -1.942700E+00  3.543417E+00
      2575   7  5.608662E+00 -9.766966E+01  2.065956E+00  9.861326E-01 -2.585128E+00  2.086486E+00
      2575   8 -7.988537E+00 -1.370238E+02 -3.903917E+00  5.299820E-01 -2.590859E+00  3.435002E+00
      2576   1  5.017951E+00  1.289988E+02  1.573412E+00  1.109363E+01  2.564484E+00 -2.055759E+00
      2576   2 -7.882386E+00  9.133210E+01 -3.761038E+00  1.169480E+01  2.527821E+00 -9.377926E-01
      2576   3  7.947759E+00  1.307866E+02  4.602924E+00 -6.681871E-01  1.963673E+00 -1.921995E+00
      2576   4 -5.199292E+00  9.287318E+01 -1.307191E+00 -6.701631E-02  1.929131E+00 -8.232459E-01
      2576   5  4.977720E+00  1.284403E+02  1.292215E+00  1.248622E+01 -1.997347E+00 -2.889081E+00
      2576   6 -7.868792E+00  9.087847E+01 -3.967711E+00  1.308457E+01 -2.034143E+00 -1.551374E+00
      2576   7  7.888200E+00  1.302249E+02  4.330453E+00  8.601307E-01 -2.417989E+00 -2.754034E+00
      2576   8 -5.207392E+00  9.241401E+01 -1.510659E+00  1.458484E+00 -2.452645E+00 -1.435729E+00
      2577   1  5.623860E+00  7.366168E+01  2.160493E+00  1.849968E+01  2.484924E+00 -4.138402E-01
      2577   2 -7.211671E+00  3.620805E+01 -3.170972E+00  1.883006E+01  2.467966E+00 -1.003422E-01
      2577   3  7.231698E+00  7.464191E+01  3.820080E+00  6.808259E+00  1.893562E+00 -3.175800E-01
      2577   4 -5.835374E+00  3.695673E+01 -2.051646E+00  7.138641E+00  1.875744E+00 -3.482396E-02
      2577   5  5.542598E+00  7.324312E+01  1.954973E+00  2.090785E+01 -2.038003E+00 -8.712143E-01
      2577   6 -7.217095E+00  3.594701E+01 -3.281229E+00  2.123938E+01 -2.054907E+00 -3.506904E-01
      2577   7  7.148656E+00  7.422538E+01  3.623104E+00  9.365895E+00 -2.461880E+00 -7.740311E-01
      2577   8 -5.844798E+00  3.669551E+01 -2.158540E+00  9.697421E+00 -2.479653E+00 -2.845439E-01
      2578   1  6.206838E+00  1.862591E+01  2.701319E+00  2.093127E+01  2.442800E+00  9.424364E-02
      2578   2 -6.567452E+00 -1.864283E+01 -2.610904E+00  2.099432E+01  2.435959E+00  3.123642E-01
      2578   3  6.527567E+00  1.882687E+01  3.050444E+00  9.298573E+00  1.861157E+00  1.378696E-01
      2578   4 -6.471032E+00 -1.866619E+01 -2.785169E+00  9.361624E+00  1.850097E+00  3.269210E-01
      2578   5  6.155892E+00  1.843447E+01  2.616483E+00  2.348230E+01 -2.052931E+00 -6.933928E-03
      2578   6 -6.546349E+00 -1.868498E+01 -2.604873E+00  2.355096E+01 -2.059506E+00  4.117023E-01
      2578   7  6.494155E+00  1.864355E+01  2.975152E+00  1.199643E+01 -2.473260E+00  3.711032E-02
      2578   8 -6.434547E+00 -1.870236E+01 -2.774612E+00  1.206508E+01 -2.484095E+00  4.263987E-01
      2579   1  6.857206E+00 -3.610490E+01  3.263484E+00  1.851156E+01  2.452413E+00  5.133692E-01
      2579   2 -5.849353E+00 -7.318244E+01 -2.014177E+00  1.828575E+01  2.443597E+00  8.444047E-01
      2579   3  5.831328E+00 -3.670181E+01  2.299660E+00  6.937507E+00  1.871308E+00  5.088266E-01
      2579   4 -7.093519E+00 -7.399764E+01 -3.487341E+00  6.711693E+00  1.858994E+00  8.167505E-01
      2579   5  6.875355E+00 -3.606999E+01  3.309417E+00  2.094445E+01 -2.021672E+00  7.574056E-01
      2579   6 -5.771408E+00 -7.302631E+01 -1.890134E+00  2.072328E+01 -2.030267E+00  1.283248E+00
      2579   7  5.869274E+00 -3.665992E+01  2.349051E+00  9.509204E+00 -2.446620E+00  7.528194E-01
      2579   8 -6.997871E+00 -7.383663E+01 -3.364723E+00  9.288038E+00 -2.458747E+00  1.255329E+00
      2580   1  7.450746E+00 -9.057619E+01  3.813226E+00  1.129185E+01  2.491127E+00  1.394603E+00
      2580   2 -5.182210E+00 -1.274519E+02 -1.420950E+00  1.079062E+01  2.481870E+00  2.566736E+00
      2580   3  5.133623E+00 -9.194116E+01  1.580447E+00 -2.212998E-01  1.910169E+00  1.349846E+00
      2580   4 -7.711023E+00 -1.290285E+02 -4.147671E+00 -7.225260E-01  1.900939E+00  2.498366E+00
      2580   5  7.517545E+00 -9.035426E+01  3.970832E+00  1.268996E+01 -1.963528E+00  1.973927E+00
      2580   6 -5.055030E+00 -1.271068E+02 -1.185203E+00  1.218870E+01 -1.972786E+00  3.335055E+00
      2580   7  5.209891E+00 -9.171874E+01  1.730224E+00  1.315677E+00 -2.393920E+00  1.928742E+00
      2580   8 -7.576404E+00 -1.286850E+02 -3.924490E+00  8.144156E-01 -2.403151E+00  3.266029E+00
      2581   1  4.610898E+00  1.193901E+02  1.330280E+00  1.064732E+01  2.323463E+00 -2.237940E+00
      2581   2 -7.315850E+00  8.455842E+01 -3.593880E+00  1.122312E+01  2.290069E+00 -1.082881E+00
      2581   3  7.443924E+00  1.211293E+02  4.294652E+00 -2.304869E-01  1.898956E+00 -2.122550E+00
      2581   4 -4.721421E+00  8.605905E+01 -1.186234E+00  3.453081E-01  1.869180E+00 -9.808361E-01
      2581   5  4.572281E+00  1.189112E+02  1.101258E+00  1.207706E+01 -1.935592E+00 -3.057186E+00
      2581   6 -7.316819E+00  8.415263E+01 -3.770521E+00  1.264804E+01 -1.969153E+00 -1.690167E+00
      2581   7  7.380111E+00  1.206446E+02  4.071614E+00  1.319241E+00 -2.185607E+00 -2.940690E+00
      2581   8 -4.749874E+00  8.564520E+01 -1.362229E+00  1.890230E+00 -2.215516E+00 -1.587144E+00
      2582   1  5.312231E+00  6.824273E+01  1.949466E+00  1.811159E+01  2.257325E+00 -5.415269E-01
      2582   2 -6.588959E+00  3.350116E+01 -2.979598E+00  1.840237E+01  2.238178E+00 -2.175804E-01
      2582   3  6.787619E+00  6.916575E+01  3.550808E+00  7.264432E+00  1.839261E+00 -4.524366E-01
      2582   4 -5.343591E+00  3.419416E+01 -1.914969E+00  7.555206E+00  1.821404E+00 -1.505367E-01
      2582   5  5.239226E+00  6.785978E+01  1.771838E+00  2.057578E+01 -1.982894E+00 -9.962811E-01
      2582   6 -6.607373E+00  3.323138E+01 -3.088431E+00  2.086484E+01 -2.002101E+00 -4.675695E-01
      2582   7  6.704668E+00  6.878132E+01  3.378208E+00  9.859203E+00 -2.233574E+00 -9.063366E-01
      2582   8 -5.374156E+00  3.392070E+01 -2.023918E+00  1.014826E+01 -2.251478E+00 -3.998829E-01
      2583   1  5.956782E+00  1.722430E+01  2.523301E+00  2.056715E+01  2.227117E+00 -1.878261E-02
      2583   2 -5.893866E+00 -1.737222E+01 -2.382339E+00  2.057947E+01  2.212633E+00  2.003968E-01
      2583   3  6.109973E+00  1.735409E+01  2.802747E+00  9.764878E+00  1.812785E+00  3.203852E-02
      2583   4 -5.965491E+00 -1.746724E+01 -2.627463E+00  9.777196E+00  1.798363E+00  2.289434E-01
      2583   5  5.915544E+00  1.701074E+01  2.437848E+00  2.316456E+01 -1.996147E+00 -1.205563E-01
      2583   6 -5.880299E+00 -1.747179E+01 -2.399103E+00  2.317679E+01 -2.010634E+00  2.987897E-01
      2583   7  6.069150E+00  1.714132E+01  2.719522E+00  1.249272E+01 -2.247431E+00 -6.924789E-02
      2583   8 -5.953664E+00 -1.756818E+01 -2.647029E+00  1.250495E+01 -2.261855E+00  3.276100E-01
      2584   1  6.555122E+00 -3.360332E+01  3.082675E+00  1.816016E+01  2.234534E+00  4.022728E-01
      2584   2 -5.245888E+00 -6.806367E+01 -1.793672E+00  1.789847E+01  2.219818E+00  7.346288E-01
      2584   3  5.409854E+00 -3.425147E+01  2.067432E+00  7.398977E+00  1.820638E+00  4.151780E-01
      2584   4 -6.610963E+00 -6.893163E+01 -3.321796E+00  7.137289E+00  1.806534E+00  7.270756E-01
      2584   5  6.566625E+00 -3.364009E+01  3.097196E+00  2.061773E+01 -1.976023E+00  6.455428E-01
      2584   6 -5.183432E+00 -6.799513E+01 -1.714623E+00  2.035523E+01 -1.990767E+00  1.173544E+00
      2584   7  5.424304E+00 -3.428849E+01  2.078187E+00  9.984329E+00 -2.231044E+00  6.585718E-01
      2584   8 -6.547667E+00 -6.886544E+01 -3.251431E+00  9.721828E+00 -2.245171E+00  1.165918E+00
      2585   1  7.123189E+00 -8.427571E+01  3.635351E+00  1.097100E+01  2.271519E+00  1.283230E+00
      2585   2 -4.670566E+00 -1.187022E+02 -1.250670E+00  1.044720E+01  2.261946E+00  2.449680E+00
      2585   3  4.727037E+00 -8.567682E+01  1.361151E+00  2.224550E-01  1.858215E+00  1.262241E+00
      2585   4 -7.283213E+00 -1.203198E+02 -4.030026E+00 -3.013511E-01  1.849992E+00  2.412444E+00
      2585   5  7.157345E+00 -8.416407E+01  3.731660E+00  1.238380E+01 -1.928553E+00  1.864223E+00
      2585   6 -4.594001E+00 -1.185050E+02 -1.098583E+00  1.185820E+01 -1.938188E+00  3.223190E+00
      2585   7  4.765546E+00 -8.556689E+01  1.447365E+00  1.757647E+00 -2.185721E+00  1.843033E+00
      2585   8 -7.204371E+00 -1.201264E+02 -3.892877E+00  1.232047E+00 -2.193994E+00  3.185596E+00
      2586   1  4.167052E+00  1.099720E+02  1.108473E+00  1.020027E+01  2.095712E+00 -2.356795E+00
      2586   2 -6.810696E+00  7.790210E+01 -3.414097E+00  1.075972E+01  2.067950E+00 -1.176686E+00
      2586   3  6.933826E+00  1.116760E+02  4.021739E+00  1.833477E-01  1.822966E+00 -2.268738E+00
      2586   4 -4.277510E+00  7.937253E+01 -1.045869E+00  7.428002E-01  1.798204E+00 -1.095798E+00
      2586   5  4.140799E+00  1.096111E+02  9.456193E-01  1.165972E+01 -1.866571E+00 -3.162751E+00
      2586   6 -6.815722E+00  7.758145E+01 -3.546471E+00  1.221518E+01 -1.894423E+00 -1.775524E+00
      2586   7  6.885479E+00  1.113106E+02  3.865981E+00  1.746896E+00 -1.967967E+00 -3.073850E+00
      2586   8 -4.306870E+00  7.904514E+01 -1.176373E+00  2.302363E+00 -1.992790E+00 -1.693861E+00
      2587   1  4.869244E+00  6.288983E+01  1.723609E+00  1.768430E+01  2.039393E+00 -6.229878E-01
      2587   2 -6.093729E+00  3.086651E+01 -2.796310E+00  1.796057E+01  2.022332E+00 -2.903658E-01
      2587   3  6.292104E+00  6.378788E+01  3.294236E+00  7.682498E+00  1.771315E+00 -5.502222E-01
      2587   4 -4.898771E+00  3.153665E+01 -1.757454E+00  7.958767E+00  1.756128E+00 -2.326216E-01
      2587   5  4.810906E+00  6.258004E+01  1.587195E+00  2.019704E+01 -1.915459E+00 -1.071963E+00
      2587   6 -6.115360E+00  3.063334E+01 -2.886989E+00  2.047082E+01 -1.932576E+00 -5.370261E-01
      2587   7  6.221679E+00  6.347567E+01  3.161855E+00  1.030901E+01 -2.016877E+00 -9.984999E-01
      2587   8 -4.934674E+00  3.129888E+01 -1.849200E+00  1.058279E+01 -2.032101E+00 -4.787282E-01
      2588   1  5.528354E+00  1.587152E+01  2.315720E+00  2.018603E+01  2.014552E+00 -8.669446E-02
      2588   2 -5.403936E+00 -1.606395E+01 -2.189771E+00  2.018396E+01  2.000340E+00  1.371239E-01
      2588   3  5.632305E+00  1.597941E+01  2.571393E+00  1.021138E+01  1.748919E+00 -4.045772E-02
      2588   4 -5.524769E+00 -1.618085E+01 -2.458594E+00  1.020931E+01  1.736201E+00  1.669433E-01
      2588   5  5.494887E+00  1.567977E+01  2.242449E+00  2.283058E+01 -1.930252E+00 -1.862457E-01
      2588   6 -5.398005E+00 -1.617268E+01 -2.214741E+00  2.282652E+01 -1.944508E+00  2.371668E-01
      2588   7  5.593432E+00  1.578595E+01  2.497829E+00  1.297118E+01 -2.031787E+00 -1.395656E-01
      2588   8 -5.526400E+00 -1.629344E+01 -2.488886E+00  1.296713E+01 -2.044536E+00  2.672721E-01
      2589   1  6.135997E+00 -3.104487E+01  2.889415E+00  1.781954E+01  2.022045E+00  3.421950E-01
      2589   2 -4.770000E+00 -6.290915E+01 -1.599630E+00  1.754751E+01  2.008576E+00  6.786411E-01
      2589   3  4.954315E+00 -3.170980E+01  1.854669E+00  7.866208E+00  1.756594E+00  3.602829E-01
      2589   4 -6.173365E+00 -6.379576E+01 -3.151636E+00  7.594182E+00  1.744954E+00  6.810955E-01
      2589   5  6.140506E+00 -3.110689E+01  2.886442E+00  2.031700E+01 -1.916759E+00  5.873372E-01
      2589   6 -4.727748E+00 -6.289188E+01 -1.556079E+00  2.004254E+01 -1.930283E+00  1.120608E+00
      2589   7  4.956750E+00 -3.177423E+01  1.845742E+00  1.047775E+01 -2.020647E+00  6.055985E-01
      2589   8 -6.135312E+00 -6.378303E+01 -3.119000E+00  1.020329E+01 -2.032323E+00  1.123086E+00
      2590   1  6.735985E+00 -7.788946E+01  3.459653E+00  1.062784E+01  2.059133E+00  1.231839E+00
      2590   2 -4.185498E+00 -1.097789E+02 -1.055832E+00  1.009313E+01  2.051890E+00  2.406759E+00
      2590   3  4.297157E+00 -7.931253E+01  1.154929E+00  6.699069E-01  1.792993E+00  1.225309E+00
      2590   4 -6.845775E+00 -1.114234E+02 -3.877270E+00  1.351956E-01  1.787822E+00  2.391314E+00
      2590   5  6.748027E+00 -7.784828E+01  3.509668E+00  1.206755E+01 -1.873038E+00  1.817743E+00
      2590   6 -4.149111E+00 -1.096897E+02 -9.727012E-01  1.153009E+01 -1.880342E+00  3.189080E+00
      2590   7  4.310676E+00 -7.927434E+01  1.193500E+00  2.215340E+00 -1.977741E+00  1.811149E+00
      2590   8 -6.810035E+00 -1.113393E+02 -3.810538E+00  1.677876E+00 -1.982954E+00  3.173486E+00
      2591   1  3.710400E+00  1.007124E+02  9.034129E-01  9.769106E+00  1.878774E+00 -2.454451E+00
      2591   2 -6.340622E+00  7.134207E+01 -3.229660E+00  1.031724E+01  1.855814E+00 -1.249683E+00
      2591   3  6.429030E+00  1.023898E+02  3.776025E+00  5.941423E-01  1.736730E+00 -2.397445E+00
      2591   4 -3.852241E+00  7.278919E+01 -8.942944E-01  1.142275E+00  1.716084E+00 -1.193172E+00
      2591   5  3.709134E+00  1.004887E+02  8.155840E-01  1.125894E+01 -1.789237E+00 -3.249228E+00
      2591   6 -6.337887E+00  7.112373E+01 -3.309466E+00  1.180400E+01 -1.812227E+00 -1.840506E+00
      2591   7  6.408937E+00  1.021630E+02  3.696500E+00  2.171739E+00 -1.761886E+00 -3.191675E+00
      2591   8 -3.870540E+00  7.256549E+01 -9.709482E-01  2.716799E+00 -1.782541E+00 -1.783453E+00
      2592   1  4.394404E+00  5.760619E+01  1.502186E+00  1.725979E+01  1.830401E+00 -6.825467E-01
      2592   2 -5.641202E+00  2.827142E+01 -2.615067E+00  1.753050E+01  1.816432E+00 -3.378692E-01
      2592   3  5.793572E+00  5.849111E+01  3.052748E+00  8.094399E+00  1.693246E+00 -6.295121E-01
      2592   4 -4.467898E+00  2.893048E+01 -1.591526E+00  8.365107E+00  1.680918E+00 -2.938392E-01
      2592   5  4.354960E+00  5.738422E+01  1.412428E+00  1.982136E+01 -1.837896E+00 -1.125445E+00
      2592   6 -5.659742E+00  2.809429E+01 -2.679977E+00  2.008989E+01 -1.851887E+00 -5.805851E-01
      2592   7  5.743189E+00  5.826719E+01  2.967419E+00  1.075427E+01 -1.809284E+00 -1.071902E+00
      2592   8 -4.499544E+00  2.874922E+01 -1.657059E+00  1.102280E+01 -1.821618E+00 -5.361329E-01
      2593   1  5.055851E+00  1.454424E+01  2.103599E+00  1.979556E+01  1.809694E+00 -1.262597E-01
      2593   2 -4.964202E+00 -1.474459E+01 -2.007749E+00  1.979147E+01  1.798131E+00  1.071908E-01
      2593   3  5.150981E+00  1.464713E+01  2.351441E+00  1.064459E+01  1.674989E+00 -8.941868E-02
      2593   4 -5.093047E+00 -1.486567E+01 -2.282515E+00  1.064051E+01  1.665160E+00  1.333955E-01
      2593   5  5.031412E+00  1.439310E+01  2.048456E+00  2.249196E+01 -1.852618E+00 -2.230368E-01
      2593   6 -4.964509E+00 -1.484333E+01 -2.034848E+00  2.248557E+01 -1.864202E+00  2.089431E-01
      2593   7  5.120129E+00  1.449384E+01  2.295536E+00  1.344121E+01 -1.823099E+00 -1.858426E-01
      2593   8 -5.101915E+00 -1.496872E+01 -2.315388E+00  1.343482E+01 -1.832934E+00  2.353990E-01
      2594   1  5.684951E+00 -2.846923E+01  2.691072E+00  1.745824E+01  1.817235E+00  3.193133E-01
      2594   2 -4.324453E+00 -5.772976E+01 -1.413083E+00  1.718546E+01  1.807041E+00  6.653922E-01
      2594   3  4.499496E+00 -2.913651E+01  1.652269E+00  8.315659E+00  1.682085E+00  3.379582E-01
      2594   4 -5.732302E+00 -5.861943E+01 -2.970809E+00  8.042883E+00  1.674038E+00  6.740195E-01
      2594   5  5.684276E+00 -2.853822E+01  2.676501E+00  2.000504E+01 -1.843004E+00  5.658840E-01
      2594   6 -4.302250E+00 -5.774924E+01 -1.400892E+00  1.972941E+01 -1.853226E+00  1.109085E+00
      2594   7  4.495371E+00 -2.920850E+01  1.631130E+00  1.096182E+01 -1.815182E+00  5.847076E-01
      2594   8 -5.715682E+00 -5.864405E+01 -2.970161E+00  1.068619E+01 -1.823237E+00  1.117795E+00
      2595   1  6.320104E+00 -7.145935E+01  3.275850E+00  1.025488E+01  1.852366E+00  1.229192E+00
      2595   2 -3.711972E+00 -1.007615E+02 -8.622838E-01  9.717273E+00  1.848703E+00  2.423443E+00
      2595   3  3.868518E+00 -7.288968E+01  9.596835E-01  1.103314E+00  1.714515E+00  1.233667E+00
      2595   4 -6.387418E+00 -1.024157E+02 -3.700790E+00  5.657085E-01  1.712997E+00  2.426590E+00
      2595   5  6.312727E+00 -7.147453E+01  3.284169E+00  1.172796E+01 -1.800938E+00  1.817621E+00
      2595   6 -3.713770E+00 -1.007675E+02 -8.444776E-01  1.118751E+01 -1.804629E+00  3.210178E+00
      2595   7  3.862359E+00 -7.290797E+01  9.563898E-01  2.664976E+00 -1.774500E+00  1.822139E+00
      2595   8 -6.390144E+00 -1.024270E+02 -3.699605E+00  2.124520E+00 -1.776025E+00  3.213355E+00
      2596   1  3.252221E+00  9.159119E+01  7.136065E-01  9.350243E+00  1.673351E+00 -2.564124E+00
      2596   2 -5.888995E+00  6.487422E+01 -3.040143E+00  9.887936E+00  1.654315E+00 -1.327539E+00
      2596   3  5.924690E+00  9.324223E+01  3.544613E+00  1.003313E+00  1.642237E+00 -2.542185E+00
      2596   4 -3.444205E+00  6.629758E+01 -7.403854E-01  1.541006E+00  1.625293E+00 -1.298394E+00
      2596   5  3.288669E+00  9.152530E+01  7.101581E-01  1.087597E+01 -1.701853E+00 -3.347928E+00
      2596   6 -5.867708E+00  6.477402E+01 -3.059817E+00  1.141089E+01 -1.720881E+00 -1.909648E+00
      2596   7  5.943498E+00  9.317363E+01  3.549768E+00  2.599311E+00 -1.565192E+00 -3.325779E+00
      2596   8 -3.442740E+00  6.619249E+01 -7.565497E-01  3.134226E+00 -1.582109E+00 -1.880223E+00
      2597   1  3.923596E+00  5.239797E+01  1.292877E+00  1.684065E+01  1.634395E+00 -7.415247E-01
      2597   2 -5.199704E+00  2.571220E+01 -2.432351E+00  1.710752E+01  1.623173E+00 -3.770901E-01
      2597   3  5.303066E+00  5.327048E+01  2.821768E+00  8.500026E+00  1.610765E+00 -7.106910E-01
      2597   4 -4.043365E+00  2.636157E+01 -1.424097E+00  8.766897E+00  1.600928E+00 -3.488477E-01
      2597   5  3.909881E+00  5.227603E+01  1.255175E+00  1.945750E+01 -1.747440E+00 -1.177469E+00
      2597   6 -5.209038E+00  2.560152E+01 -2.466715E+00  1.972253E+01 -1.758656E+00 -6.154022E-01
      2597   7  5.279590E+00  5.314705E+01  2.788875E+00  1.119933E+01 -1.607092E+00 -1.146340E+00
      2597   8 -4.064599E+00  2.624728E+01 -1.458645E+00  1.146436E+01 -1.616911E+00 -5.868890E-01
      2598   1  4.586018E+00  1.323965E+01  1.896125E+00  1.939388E+01  1.618249E+00 -1.515308E-01
      2598   2 -4.530716E+00 -1.342525E+01 -1.828083E+00  1.939119E+01  1.609606E+00  1.002740E-01
      2598   3  4.683388E+00  1.334213E+01  2.140344E+00  1.106005E+01  1.597939E+00 -1.257317E-01
      2598   4 -4.655133E+00 -1.354456E+01 -2.101366E+00  1.105736E+01  1.590800E+00  1.219893E-01
      2598   5  4.572820E+00  1.313627E+01  1.861798E+00  2.214940E+01 -1.760113E+00 -2.456034E-01
      2598   6 -4.536554E+00 -1.351042E+01 -1.856088E+00  2.214472E+01 -1.768751E+00  2.026384E-01
      2598   7  4.664711E+00  1.323698E+01  2.105611E+00  1.389983E+01 -1.617551E+00 -2.195569E-01
      2598   8 -4.668576E+00 -1.363362E+01 -2.134738E+00  1.389515E+01 -1.624670E+00  2.245619E-01
      2599   1  5.232262E+00 -2.589907E+01  2.490417E+00  1.707186E+01  1.624591E+00  3.259258E-01
      2599   2 -3.881937E+00 -5.255778E+01 -1.231533E+00  1.680265E+01  1.618020E+00  6.906131E-01
      2599   3  4.059683E+00 -2.656024E+01  1.459100E+00  8.739771E+00  1.602664E+00  3.448654E-01
      2599   4 -5.275682E+00 -5.344012E+01 -2.778905E+00  8.470557E+00  1.597980E+00  7.060532E-01
      2599   5  5.225401E+00 -2.597446E+01  2.464052E+00  1.967689E+01 -1.753573E+00  5.718919E-01
      2599   6 -3.882600E+00 -5.261768E+01 -1.252736E+00  1.940517E+01 -1.760138E+00  1.132469E+00
      2599   7  4.050402E+00 -2.663819E+01  1.426627E+00  1.142831E+01 -1.613076E+00  5.910130E-01
      2599   8 -5.280885E+00 -5.350469E+01 -2.811163E+00  1.115659E+01 -1.617735E+00  1.148057E+00
      2600   1  5.892260E+00 -6.503699E+01  3.081276E+00  9.859243E+00  1.653813E+00  1.272691E+00
      2600   2 -3.247314E+00 -9.173955E+01 -6.814073E-01  9.325351E+00  1.653699E+00  2.498270E+00
      2600   3  3.455684E+00 -6.645936E+01  7.766105E-01  1.518376E+00  1.625821E+00  1.289411E+00
      2600   4 -5.907890E+00 -9.338593E+01 -3.508738E+00  9.844853E-01  1.627398E+00  2.521987E+00
      2600   5  5.863283E+00 -6.511421E+01  3.045392E+00  1.137175E+01 -1.714710E+00  1.858880E+00
      2600   6 -3.291021E+00 -9.185009E+01 -7.330701E-01  1.083561E+01 -1.714818E+00  3.282896E+00
      2600   7  3.429822E+00 -6.653887E+01  7.299760E-01  3.101355E+00 -1.577798E+00  1.875761E+00
      2600   8 -5.950629E+00 -9.350090E+01 -3.576163E+00  2.565218E+00 -1.576199E+00  3.306840E+00
      2601   1  2.800784E+00  8.262990E+01  5.421888E-01  8.935389E+00  1.481389E+00 -2.717073E+00
      2601   2 -5.447563E+00  5.852135E+01 -2.843752E+00  9.460319E+00  1.466498E+00 -1.434539E+00
      2601   3  5.412628E+00  8.424456E+01  3.312550E+00  1.403195E+00  1.542431E+00 -2.738509E+00
      2601   4 -3.059796E+00  5.991194E+01 -5.962344E-01  1.928126E+00  1.530624E+00 -1.439302E+00
      2601   5  2.891316E+00  8.276004E+01  6.386140E-01  1.050461E+01 -1.603378E+00 -3.485267E+00
      2601   6 -5.394767E+00  5.856945E+01 -2.791072E+00  1.102545E+01 -1.618207E+00 -2.003918E+00
      2601   7  5.481407E+00  8.437013E+01  3.415484E+00  3.023119E+00 -1.377417E+00 -3.506908E+00
      2601   8 -3.030900E+00  5.995331E+01 -5.420599E-01  3.543953E+00 -1.389133E+00 -2.008726E+00
      2602   1  3.469252E+00  4.728657E+01  1.098529E+00  1.641571E+01  1.457532E+00 -8.197307E-01
      2602   2 -4.761143E+00  2.319830E+01 -2.247850E+00  1.667802E+01  1.448849E+00 -4.225780E-01
      2602   3  4.822033E+00  4.814106E+01  2.594059E+00  8.884622E+00  1.531242E+00 -8.161457E-01
      2602   4 -3.626662E+00  2.383449E+01 -1.261686E+00  9.146928E+00  1.524175E+00 -4.128583E-01
      2602   5  3.492387E+00  4.728840E+01  1.122784E+00  1.909561E+01 -1.640801E+00 -1.245517E+00
      2602   6 -4.754625E+00  2.316721E+01 -2.246068E+00  1.935577E+01 -1.649451E+00 -6.548771E-01
      2602   7  4.834428E+00  4.814093E+01  2.622494E+00  1.162838E+01 -1.407014E+00 -1.241897E+00
      2602   8 -3.632978E+00  2.379935E+01 -1.260610E+00  1.188854E+01 -1.414033E+00 -6.450642E-01
      2603   1  4.133701E+00  1.196122E+01  1.696195E+00  1.897404E+01  1.447825E+00 -1.733279E-01
      2603   2 -4.094456E+00 -1.211923E+01 -1.650545E+00  1.897433E+01  1.441566E+00  1.104833E-01
      2603   3  4.237731E+00  1.206471E+01  1.937116E+00  1.144561E+01  1.526564E+00 -1.595057E-01
      2603   4 -4.207618E+00 -1.223293E+01 -1.916407E+00  1.144589E+01  1.521307E+00  1.293789E-01
      2603   5  4.135590E+00  1.191075E+01  1.685213E+00  2.179538E+01 -1.648880E+00 -2.643517E-01
      2603   6 -4.107048E+00 -1.219767E+01 -1.681834E+00  2.179433E+01 -1.655118E+00  2.119438E-01
      2603   7  4.236218E+00  1.201334E+01  1.926558E+00  1.433210E+01 -1.410986E+00 -2.503970E-01
      2603   8 -4.225694E+00 -1.231435E+01 -1.952130E+00  1.433106E+01 -1.416214E+00  2.310206E-01
      2604   1  4.788848E+00 -2.335890E+01  2.288427E+00  1.666106E+01  1.450784E+00  3.597691E-01
      2604   2 -3.439098E+00 -4.743972E+01 -1.057249E+00  1.639921E+01  1.446998E+00  7.570194E-01
      2604   3  3.645252E+00 -2.400508E+01  1.278093E+00  9.132352E+00  1.526546E+00  3.824062E-01
      2604   4 -4.799898E+00 -4.830310E+01 -2.574393E+00  8.870504E+00  1.523575E+00  7.848051E-01
      2604   5  4.772149E+00 -2.345513E+01  2.245024E+00  1.933228E+01 -1.646328E+00  6.021423E-01
      2604   6 -3.470428E+00 -4.756426E+01 -1.121109E+00  1.906935E+01 -1.650098E+00  1.191889E+00
      2604   7  3.630633E+00 -2.410192E+01  1.230594E+00  1.186864E+01 -1.411342E+00  6.249965E-01
      2604   8 -4.831230E+00 -4.843033E+01 -2.647209E+00  1.160571E+01 -1.414288E+00  1.219941E+00
      2605   1  5.462490E+00 -5.868291E+01  2.875835E+00  9.447732E+00  1.467552E+00  1.368664E+00
      2605   2 -2.793336E+00 -8.280624E+01 -5.202576E-01  8.924116E+00  1.469643E+00  2.642457E+00
      2605   3  3.070895E+00 -6.007982E+01  6.110683E-01  1.912073E+00  1.532395E+00  1.404499E+00
      2605   4 -5.406422E+00 -8.442464E+01 -3.301836E+00  1.388456E+00  1.534551E+00  2.695135E+00
      2605   5  5.403516E+00 -5.885170E+01  2.784808E+00  1.100603E+01 -1.615212E+00  1.945926E+00
      2605   6 -2.890333E+00 -8.305781E+01 -6.552487E-01  1.048233E+01 -1.613119E+00  3.416248E+00
      2605   7  3.021929E+00 -6.024789E+01  5.124420E-01  3.520888E+00 -1.387447E+00  1.982105E+00
      2605   8 -5.495535E+00 -8.467761E+01 -3.449382E+00  2.997185E+00 -1.385289E+00  3.469431E+00
      2606   1  2.368044E+00  7.390637E+01  3.921093E-01  8.516674E+00  1.306123E+00 -2.942555E+00
      2606   2 -5.012313E+00  5.233956E+01 -2.642276E+00  9.023929E+00  1.298129E+00 -1.592716E+00
      2606   3  4.887064E+00  7.546178E+01  3.057807E+00  1.779367E+00  1.442071E+00 -3.023736E+00
      2606   4 -2.709601E+00  5.367867E+01 -4.812975E-01  2.286621E+00  1.440206E+00 -1.645094E+00
      2606   5  2.534047E+00  7.430316E+01  6.139577E-01  1.013517E+01 -1.494712E+00 -3.683127E+00
      2606   6 -4.911656E+00  5.259447E+01 -2.496366E+00  1.063428E+01 -1.502481E+00 -2.140631E+00
      2606   7  5.018223E+00  7.584821E+01  3.279931E+00  3.425850E+00 -1.200596E+00 -3.765086E+00
      2606   8 -2.645863E+00  5.392114E+01 -3.399517E-01  3.924961E+00 -1.202177E+00 -2.193512E+00
      2607   1  3.041355E+00  4.231558E+01  9.194196E-01  1.596954E+01  1.307117E+00 -9.344017E-01
      2607   2 -4.324745E+00  2.074657E+01 -2.065241E+00  1.622648E+01  1.301856E+00 -4.856936E-01
      2607   3  4.356163E+00  4.314228E+01  2.360279E+00  9.224414E+00  1.461900E+00 -9.688841E-01
      2607   4 -3.219239E+00  2.136397E+01 -1.112756E+00  9.481361E+00  1.459593E+00 -5.000849E-01
      2607   5  3.118936E+00  4.248940E+01  1.024161E+00  1.871452E+01 -1.515880E+00 -1.343670E+00
      2607   6 -4.294892E+00  2.081927E+01 -2.018477E+00  1.896754E+01 -1.521032E+00 -7.088304E-01
      2607   7  4.417127E+00  4.331150E+01  2.466311E+00  1.200835E+01 -1.208765E+00 -1.378483E+00
      2607   8 -3.208011E+00  2.143007E+01 -1.069383E+00  1.226137E+01 -1.210935E+00 -7.233598E-01
      2608   1  3.708221E+00  1.071301E+01  1.504040E+00  1.852716E+01  1.306891E+00 -1.991474E-01
      2608   2 -3.654762E+00 -1.084829E+01 -1.477936E+00  1.853342E+01  1.301884E+00  1.350032E-01
      2608   3  3.827265E+00  1.082015E+01  1.742141E+00  1.178421E+01  1.468458E+00 -1.988847E-01
      2608   4 -3.744687E+00 -1.095011E+01 -1.727429E+00  1.179048E+01  1.463542E+00  1.552105E-01
      2608   5  3.732452E+00  1.072446E+01  1.520996E+00  2.141343E+01 -1.515784E+00 -2.861365E-01
      2608   6 -3.677954E+00 -1.093726E+01 -1.518636E+00  2.141957E+01 -1.520788E+00  2.338447E-01
      2608   7  3.851845E+00  1.083229E+01  1.761041E+00  1.470960E+01 -1.202150E+00 -2.858713E-01
      2608   8 -3.769534E+00 -1.104040E+01 -1.770861E+00  1.471574E+01 -1.207063E+00  2.542457E-01
      2609   1  4.362128E+00 -2.088375E+01  2.085992E+00  1.622748E+01  1.304367E+00  4.218087E-01
      2609   2 -2.996770E+00 -4.243604E+01 -8.913819E-01  1.597833E+01  1.300671E+00  8.712252E-01
      2609   3  3.270004E+00 -2.150259E+01  1.115322E+00  9.486873E+00  1.462941E+00  4.560587E-01
      2609   4 -4.298266E+00 -4.326425E+01 -2.350588E+00  9.237729E+00  1.457315E+00  9.238962E-01
      2609   5  4.330477E+00 -2.103287E+01  2.014963E+00  1.896718E+01 -1.518565E+00  6.567980E-01
      2609   6 -3.072823E+00 -4.267851E+01 -1.017066E+00  1.872060E+01 -1.522332E+00  1.292347E+00
      2609   7  3.252133E+00 -2.164725E+01  1.045379E+00  1.226757E+01 -1.207572E+00  6.913764E-01
      2609   8 -4.362547E+00 -4.350427E+01 -2.479870E+00  1.202099E+01 -1.213287E+00  1.345523E+00
      2610   1  5.037721E+00 -5.247229E+01  2.662155E+00  9.026491E+00  1.299908E+00  1.528504E+00
      2610   2 -2.354236E+00 -7.406875E+01 -3.812382E-01  8.520408E+00  1.300272E+00  2.874807E+00
      2610   3  2.726846E+00 -5.382178E+01  4.747089E-01  2.280608E+00  1.442861E+00  1.598600E+00
      2610   4 -4.879796E+00 -7.563293E+01 -3.069616E+00  1.774525E+00  1.439464E+00  2.974088E+00
      2610   5  4.934547E+00 -5.279579E+01  2.494145E+00  1.063534E+01 -1.502150E+00  2.087751E+00
      2610   6 -2.523459E+00 -7.453585E+01 -6.258096E-01  1.013425E+01 -1.501923E+00  3.625287E+00
      2610   7  2.650079E+00 -5.413741E+01  3.065383E-01  3.917043E+00 -1.202277E+00  2.158519E+00
      2610   8 -5.024670E+00 -7.609422E+01 -3.319152E+00  3.415957E+00 -1.205848E+00  3.725520E+00
      2611   1  1.974439E+00  6.556592E+01  2.578736E-01  8.089775E+00  1.152641E+00 -3.255789E+00
      2611   2 -4.580108E+00  4.642198E+01 -2.446676E+00  8.573891E+00  1.158444E+00 -1.811215E+00
      2611   3  4.354592E+00  6.702642E+01  2.746068E+00  2.110926E+00  1.349324E+00 -3.422226E+00
      2611   4 -2.398311E+00  4.768413E+01 -4.213109E-01  2.595042E+00  1.367579E+00 -1.933666E+00
      2611   5  2.236843E+00  6.633369E+01  6.381800E-01  9.753837E+00 -1.380212E+00 -3.947388E+00
      2611   6 -4.415947E+00  4.697462E+01 -2.178718E+00  1.022141E+01 -1.373744E+00 -2.324771E+00
      2611   7  4.554628E+00  6.777169E+01  3.113723E+00  3.776791E+00 -1.040993E+00 -4.115421E+00
      2611   8 -2.298420E+00  4.821236E+01 -1.704425E-01  4.244364E+00 -1.021955E+00 -2.448396E+00
      2612   1  2.654345E+00  3.755223E+01  7.509356E-01  1.549097E+01  1.187614E+00 -1.091480E+00
      2612   2 -3.891033E+00  1.837864E+01 -1.893399E+00  1.574071E+01  1.188663E+00 -5.697002E-01
      2612   3  3.913335E+00  3.833680E+01  2.107197E+00  9.493684E+00  1.403327E+00 -1.182052E+00
      2612   4 -2.826141E+00  1.896912E+01 -9.900341E-01  9.743422E+00  1.409853E+00 -6.171667E-01
      2612   5  2.809274E+00  3.797552E+01  9.640399E-01  1.828426E+01 -1.376128E+00 -1.476097E+00
      2612   6 -3.832365E+00  1.859112E+01 -1.790360E+00  1.852672E+01 -1.374787E+00 -7.800918E-01
      2612   7  4.040530E+00  3.875056E+01  2.316246E+00  1.229005E+01 -1.021245E+00 -1.567538E+00
      2612   8 -2.797069E+00  1.917020E+01 -8.953922E-01  1.253251E+01 -1.014375E+00 -8.280134E-01
      2613   1  3.325274E+00  9.496573E+00  1.319076E+00  1.804865E+01  1.198796E+00 -2.313420E-01
      2613   2 -3.209300E+00 -9.651207E+00 -1.315058E+00  1.806673E+01  1.192871E+00  1.712900E-01
      2613   3  3.477107E+00  9.614066E+00  1.558886E+00  1.205849E+01  1.419790E+00 -2.469010E-01
      2613   4 -3.253857E+00 -9.730104E+00 -1.533491E+00  1.207657E+01  1.412231E+00  1.997981E-01
      2613   5  3.383922E+00  9.583568E+00  1.371249E+00  2.097925E+01 -1.364119E+00 -3.134302E-01
      2613   6 -3.248951E+00 -9.779610E+00 -1.375149E+00  2.099949E+01 -1.370131E+00  2.655082E-01
      2613   7  3.543216E+00  9.704761E+00  1.615932E+00  1.499090E+01 -1.001964E+00 -3.291383E-01
      2613   8 -3.287930E+00 -9.856690E+00 -1.593103E+00  1.501115E+01 -1.009626E+00  2.942896E-01
      2614   1  3.962994E+00 -1.852818E+01  1.884823E+00  1.578195E+01  1.191857E+00  5.101188E-01
      2614   2 -2.549043E+00 -3.762205E+01 -7.281004E-01  1.555518E+01  1.182080E+00  1.033184E+00
      2614   3  2.960406E+00 -1.909999E+01  9.813769E-01  9.806691E+00  1.414457E+00  5.693076E-01
      2614   4 -3.748860E+00 -3.839109E+01 -2.091748E+00  9.579924E+00  1.397561E+00  1.132127E+00
      2614   5  3.914367E+00 -1.878129E+01  1.771308E+00  1.857612E+01 -1.370826E+00  7.335902E-01
      2614   6 -2.687418E+00 -3.807055E+01 -9.453893E-01  1.835881E+01 -1.380983E+00  1.433476E+00
      2614   7  2.947701E+00 -1.933907E+01  8.787143E-01  1.260793E+01 -1.006474E+00  7.933465E-01
      2614   8 -3.853205E+00 -3.882745E+01 -2.302598E+00  1.239062E+01 -1.023818E+00  1.533368E+00
      2615   1  4.622782E+00 -4.649790E+01  2.449899E+00  8.610278E+00  1.160093E+00  1.755534E+00
      2615   2 -1.934250E+00 -6.565169E+01 -2.530901E-01  8.127567E+00  1.150218E+00  3.205963E+00
      2615   3  2.426690E+00 -4.777702E+01  3.822809E-01  2.627935E+00  1.370399E+00  1.885317E+00
      2615   4 -4.330413E+00 -6.713087E+01 -2.787542E+00  2.145225E+00  1.348978E+00  3.380251E+00
      2615   5  4.460563E+00 -4.707813E+01  2.172495E+00  1.026634E+01 -1.375253E+00  2.286281E+00
      2615   6 -2.195835E+00 -6.644954E+01 -6.440878E-01  9.798967E+00 -1.385744E+00  3.916301E+00
      2615   7  2.324551E+00 -4.833473E+01  1.198246E-01  4.285184E+00 -1.020976E+00  2.417309E+00
      2615   8 -4.533837E+00 -6.790813E+01 -3.168069E+00  3.817813E+00 -1.043122E+00  4.092260E+00
      2616   1  1.637439E+00  5.780701E+01  1.055718E-01  7.680221E+00  1.030945E+00 -3.624981E+00
      2616   2 -4.149693E+00  4.090255E+01 -2.280411E+00  8.126306E+00  1.062861E+00 -2.058897E+00
      2616   3  3.793944E+00  5.911611E+01  2.312740E+00  2.400475E+00  1.288144E+00 -3.905178E+00
      2616   4 -2.157242E+00  4.204760E+01 -4.560368E-01  2.846560E+00  1.339738E+00 -2.275822E+00
      2616   5  2.000608E+00  5.905324E+01  6.700493E-01  9.350480E+00 -1.266494E+00 -4.241188E+00
      2616   6 -3.924098E+00  4.184308E+01 -1.868807E+00  9.770420E+00 -1.233202E+00 -2.525364E+00
      2616   7  4.063397E+00  6.032587E+01  2.849355E+00  4.041790E+00 -8.961260E-01 -4.524071E+00
      2616   8 -2.026937E+00  4.295008E+01 -7.596482E-02  4.461729E+00 -8.429673E-01 -2.744370E+00
      2617   1  2.323476E+00  3.309137E+01  5.830806E-01  1.498828E+01  1.092238E+00 -1.263472E+00
      2617   2 -3.470051E+00  1.611287E+01 -1.750167E+00  1.522642E+01  1.105803E+00 -6.564141E-01
      2617   3  3.501797E+00  3.381730E+01  1.824525E+00  9.676398E+00  1.342644E+00 -1.429670E+00
      2617   4 -2.463334E+00  1.666719E+01 -9.091320E-01  9.914543E+00  1.368380E+00 -7.472953E-01
      2617   5  2.567555E+00  3.384235E+01  9.284691E-01  1.776773E+01 -1.237325E+00 -1.617566E+00
      2617   6 -3.388080E+00  1.650159E+01 -1.582890E+00  1.798971E+01 -1.222909E+00 -8.532395E-01
      2617   7  3.688815E+00  3.454594E+01  2.152520E+00  1.241216E+01 -8.667954E-01 -1.785358E+00
      2617   8 -2.440069E+00  1.703193E+01 -7.630870E-01  1.263413E+01 -8.400912E-01 -9.449921E-01
      2618   1  3.007803E+00  8.303133E+00  1.139822E+00  1.755562E+01  1.109612E+00 -2.612750E-01
      2618   2 -2.752932E+00 -8.591555E+00 -1.167943E+00  1.759252E+01  1.098679E+00  2.112075E-01
      2618   3  3.216626E+00  8.441858E+00  1.393416E+00  1.226798E+01  1.356006E+00 -2.947481E-01
      2618   4 -2.724614E+00 -8.633334E+00 -1.335526E+00  1.230488E+01  1.340063E+00  2.592593E-01
      2618   5  3.119873E+00  8.481675E+00  1.237450E+00  2.045721E+01 -1.213046E+00 -3.399266E-01
      2618   6 -2.815965E+00 -8.804751E+00 -1.262251E+00  2.050077E+01 -1.224329E+00  2.981433E-01
      2618   7  3.350276E+00  8.630121E+00  1.501866E+00  1.511788E+01 -8.387902E-01 -3.737207E-01
      2618   8 -2.767797E+00 -8.838541E+00 -1.423050E+00  1.516144E+01 -8.551316E-01  3.466558E-01
      2619   1  3.614602E+00 -1.637161E+01  1.691300E+00  1.536564E+01  1.109290E+00  6.062083E-01
      2619   2 -2.075772E+00 -3.309566E+01 -5.525668E-01  1.517500E+01  1.081001E+00  1.212888E+00
      2619   3  2.753614E+00 -1.687046E+01  8.894678E-01  1.012562E+01  1.373087E+00  7.092261E-01
      2619   4 -3.119309E+00 -3.377705E+01 -1.780347E+00  9.934983E+00  1.325728E+00  1.384551E+00
      2619   5  3.561066E+00 -1.679471E+01  1.520761E+00  1.815565E+01 -1.212458E+00  8.146956E-01
      2619   6 -2.278885E+00 -3.385074E+01 -8.897060E-01  1.799035E+01 -1.242081E+00  1.587873E+00
      2619   7  2.787350E+00 -1.725740E+01  7.521805E-01  1.287959E+01 -8.195250E-01  9.187012E-01
      2619   8 -3.236900E+00 -3.449773E+01 -2.088319E+00  1.271430E+01 -8.684010E-01  1.761182E+00
      2620   1  4.220425E+00 -4.086973E+01  2.259321E+00  8.243997E+00  1.062151E+00  2.015387E+00
      2620   2 -1.518495E+00 -5.765520E+01 -8.494559E-02  7.795686E+00  1.026838E+00  3.601174E+00
      2620   3  2.188969E+00 -4.204955E+01  3.580282E-01  2.997864E+00  1.338287E+00  2.235569E+00
      2620   4 -3.726153E+00 -5.901122E+01 -2.397376E+00  2.549554E+00  1.281266E+00  3.885268E+00
      2620   5  4.001501E+00 -4.182102E+01  1.842656E+00  9.916696E+00 -1.232777E+00  2.510077E+00
      2620   6 -1.877118E+00 -5.891602E+01 -6.577412E-01  9.497229E+00 -1.269608E+00  4.256409E+00
      2620   7  2.073988E+00 -4.295927E+01 -2.397288E-02  4.640500E+00 -8.335602E-01  2.732371E+00
      2620   8 -3.982522E+00 -6.023216E+01 -2.939450E+00  4.221034E+00 -8.923080E-01  4.543227E+00
      2621   1  1.393317E+00  5.093782E+01 -8.141374E-02  7.270551E+00  9.200040E-01 -3.938535E+00
      2621   2 -3.711035E+00  3.598849E+01 -2.146593E+00  7.692125E+00  9.962968E-01 -2.250981E+00
      2621   3  3.313509E+00  5.208488E+01  1.821918E+00  2.756819E+00  1.100701E+00 -4.321037E+00
      2621   4 -1.906825E+00  3.701957E+01 -5.138853E-01  3.178394E+00  1.220611E+00 -2.572712E+00
      2621   5  1.766100E+00  5.258859E+01  6.022616E-01  8.964260E+00 -1.179664E+00 -4.475500E+00
      2621   6 -3.469551E+00  3.734495E+01 -1.606266E+00  9.327336E+00 -1.099972E+00 -2.679507E+00
      2621   7  3.508505E+00  5.365423E+01  2.411969E+00  4.300553E+00 -8.608694E-01 -4.851831E+00
      2621   8 -1.841257E+00  3.829647E+01 -6.281653E-02  4.663628E+00 -7.382652E-01 -2.996047E+00
      2622   1  2.037706E+00  2.907976E+01  4.166117E-01  1.447127E+01  9.555888E-01 -1.386198E+00
      2622   2 -3.089130E+00  1.403820E+01 -1.631279E+00  1.465953E+01  9.966115E-01 -7.111204E-01
      2622   3  2.995408E+00  2.969220E+01  1.500397E+00  9.925559E+00  1.082566E+00 -1.641577E+00
      2622   4 -2.282422E+00  1.449965E+01 -8.998145E-01  1.011382E+01  1.144663E+00 -8.459965E-01
      2622   5  2.351699E+00  3.020868E+01  8.972327E-01  1.717788E+01 -1.154108E+00 -1.722179E+00
      2622   6 -3.029331E+00  1.458969E+01 -1.420540E+00  1.733788E+01 -1.111443E+00 -9.027014E-01
      2622   7  3.221407E+00  3.078016E+01  1.932443E+00  1.240701E+01 -8.629263E-01 -1.973438E+00
      2622   8 -2.308182E+00  1.501260E+01 -7.319666E-01  1.256700E+01 -7.995275E-01 -1.035402E+00
      2623   1  2.800526E+00  7.175370E+00  9.949643E-01  1.701737E+01  9.622085E-01 -2.747847E-01
      2623   2 -2.316885E+00 -7.819124E+00 -1.068581E+00  1.707470E+01  9.390639E-01  2.422287E-01
      2623   3  3.072117E+00  7.341825E+00  1.278225E+00  1.248892E+01  1.064418E+00 -3.196884E-01
      2623   4 -2.208228E+00 -7.815602E+00 -1.165497E+00  1.254624E+01  1.030096E+00  3.226310E-01
      2623   5  2.984377E+00  7.430135E+00  1.138381E+00  1.981964E+01 -1.125973E+00 -3.566136E-01
      2623   6 -2.397823E+00 -8.165269E+00 -1.206880E+00  1.989196E+01 -1.149988E+00  3.158484E-01
      2623   7  3.306471E+00  7.617428E+00  1.440594E+00  1.506030E+01 -8.508194E-01 -4.007929E-01
      2623   8 -2.236033E+00 -8.138281E+00 -1.278711E+00  1.513262E+01 -8.858318E-01  3.949536E-01
      2624   1  3.340633E+00 -1.459088E+01  1.492128E+00  1.500324E+01  1.000017E+00  6.770177E-01
      2624   2 -1.538496E+00 -2.900568E+01 -3.568400E-01  1.488253E+01  9.275714E-01  1.347870E+00
      2624   3  2.753331E+00 -1.495682E+01  8.596363E-01  1.063132E+01  1.150589E+00  8.424254E-01
      2624   4 -2.303240E+00 -2.954906E+01 -1.403365E+00  1.051062E+01  1.040616E+00  1.620211E+00
      2624   5  3.339919E+00 -1.523394E+01  1.271997E+00  1.774518E+01 -1.081735E+00  8.686583E-01
      2624   6 -1.768166E+00 -3.016453E+01 -8.243620E-01  1.767481E+01 -1.157105E+00  1.706501E+00
      2624   7  2.913673E+00 -1.552901E+01  7.146719E-01  1.316791E+01 -7.443916E-01  1.031398E+00
      2624   8 -2.368992E+00 -3.063418E+01 -1.789041E+00  1.309754E+01 -8.566839E-01  1.974448E+00
      2625   1  3.810285E+00 -3.574245E+01  2.090933E+00  7.970850E+00  9.872727E-01  2.224431E+00
      2625   2 -1.101152E+00 -5.019158E+01  1.686099E-01  7.529142E+00  9.032150E-01  3.948389E+00
      2625   3  1.894050E+00 -3.684863E+01  3.199101E-01  3.598001E+00  1.202488E+00  2.557866E+00
      2625   4 -3.171277E+00 -5.145165E+01 -1.961488E+00  3.156293E+00  1.067401E+00  4.341804E+00
      2625   5  3.580647E+00 -3.714080E+01  1.535191E+00  9.673757E+00 -1.084934E+00  2.696260E+00
      2625   6 -1.463449E+00 -5.188348E+01 -5.357802E-01  9.300490E+00 -1.172968E+00  4.562490E+00
      2625   7  1.872462E+00 -3.815321E+01 -1.313456E-01  5.154232E+00 -6.992400E-01  3.024316E+00
      2625   8 -3.323041E+00 -5.304730E+01 -2.555599E+00  4.780964E+00 -8.374795E-01  4.949559E+00
      2626   1  8.779655E-01  4.415602E+01 -6.641280E-01  7.281805E+00  8.805511E-01 -3.814079E+00
      2626   2 -3.259257E+00  3.173683E+01 -2.035684E+00  7.649705E+00  1.032017E+00 -2.142419E+00
      2626   3  2.596427E+00  4.519978E+01  1.096610E+00  3.484681E+00  9.597761E-01 -4.289765E+00
      2626   4 -1.683159E+00  3.263823E+01 -6.071263E-01  3.852582E+00  1.147728E+00 -2.562770E+00
      2626   5  1.139190E+00  4.610617E+01  4.586719E-02  8.752130E+00 -9.734586E-01 -4.318661E+00
      2626   6 -3.116471E+00  3.342011E+01 -1.453614E+00  9.071094E+00 -8.201696E-01 -2.516943E+00
      2626   7  2.708706E+00  4.708113E+01  1.726249E+00  4.823579E+00 -7.350999E-01 -4.786674E+00
      2626   8 -1.687022E+00  3.425501E+01 -1.000544E-01  5.142543E+00 -5.459126E-01 -2.930513E+00
      2627   1  1.666163E+00  2.572809E+01  2.751021E-01  1.421808E+01  7.712162E-01 -1.296223E+00
      2627   2 -2.934695E+00  1.221911E+01 -1.552119E+00  1.429061E+01  8.516242E-01 -6.560331E-01
      2627   3  2.204312E+00  2.613322E+01  1.087395E+00  1.013388E+01  6.418297E-01 -1.632063E+00
      2627   4 -2.500069E+00  1.252072E+01 -9.813814E-01  1.020641E+01  7.380171E-01 -8.163210E-01
      2627   5  1.993461E+00  2.716402E+01  8.305271E-01  1.655754E+01 -1.071573E+00 -1.586051E+00
      2627   6 -2.965748E+00  1.282580E+01 -1.361944E+00  1.660890E+01 -9.903764E-01 -8.445224E-01
      2627   7  2.461466E+00  2.753628E+01  1.603375E+00  1.218693E+01 -1.079422E+00 -1.916473E+00
      2627   8 -2.599597E+00  1.309620E+01 -8.267552E-01  1.223830E+01 -9.827001E-01 -1.002225E+00
      2628   1  2.701516E+00  6.150885E+00  9.262288E-01  1.661757E+01  7.375106E-01 -2.438841E-01
      2628   2 -1.988664E+00 -7.500048E+00 -1.056774E+00  1.666599E+01  6.921323E-01  2.419379E-01
      2628   3  2.968189E+00  6.328760E+00  1.252472E+00  1.250924E+01  5.720214E-01 -2.794698E-01
      2628   4 -1.865910E+00 -7.466092E+00 -1.066341E+00  1.255766E+01  5.065995E-01  3.714927E-01
      2628   5  2.969305E+00  6.405195E+00  1.092498E+00  1.906354E+01 -1.060475E+00 -3.451588E-01
      2628   6 -2.060299E+00 -8.028137E+00 -1.239519E+00  1.913885E+01 -1.106855E+00  2.775997E-01
      2628   7  3.324421E+00  6.619948E+00  1.453226E+00  1.468142E+01 -1.071818E+00 -3.801704E-01
      2628   8 -1.846780E+00 -7.954980E+00 -1.209184E+00  1.475672E+01 -1.137918E+00  4.050645E-01
      2629   1  3.235041E+00 -1.334146E+01  1.303439E+00  1.498137E+01  8.641663E-01  6.511971E-01
      2629   2 -8.557977E-01 -2.552920E+01 -1.449555E-01  1.494618E+01  7.197488E-01  1.283492E+00
      2629   3  2.975314E+00 -1.353666E+01  9.125149E-01  1.126910E+01  7.630980E-01  8.958202E-01
      2629   4 -1.283482E+00 -2.589235E+01 -9.277791E-01  1.123391E+01  5.718400E-01  1.677347E+00
      2629   5  3.373133E+00 -1.422387E+01  1.067427E+00  1.743237E+01 -9.011198E-01  7.946794E-01
      2629   6 -1.026327E+00 -2.712053E+01 -7.007817E-01  1.746000E+01 -1.047878E+00  1.584609E+00
      2629   7  3.318849E+00 -1.432967E+01  7.690601E-01  1.347269E+01 -8.255057E-01  1.035356E+00
      2629   8 -1.245858E+00 -2.739157E+01 -1.384725E+00  1.350032E+01 -1.018349E+00  1.972111E+00
      2630   1  3.334223E+00 -3.105461E+01  1.951771E+00  8.161256E+00  1.003947E+00  2.144620E+00
      2630   2 -3.204488E-01 -4.218810E+01  9.030191E-01  7.700429E+00  8.309979E-01  3.864969E+00
      2630   3  1.398132E+00 -3.214558E+01  2.512990E-01  4.732360E+00  1.090835E+00  2.609952E+00
      2630   4 -2.477556E+00 -4.350008E+01 -1.313159E+00  4.271533E+00  8.632962E-01  4.376349E+00
      2630   5  3.206996E+00 -3.290536E+01  1.318779E+00  9.721087E+00 -7.565213E-01  2.576611E+00
      2630   6 -5.513600E-01 -4.426604E+01  1.516145E-01  9.333477E+00 -9.321986E-01  4.496881E+00
      2630   7  1.492862E+00 -3.389699E+01 -2.725228E-01  6.178412E+00 -4.429210E-01  3.034437E+00
      2630   8 -2.482946E+00 -4.547513E+01 -1.947074E+00  5.790801E+00 -6.723078E-01  5.000012E+00
      2631   1 -3.133979E-01  3.585135E+01 -2.207826E+00  7.750906E+00  8.098261E-01 -2.629760E+00
      2631   2 -2.357729E+00  2.857421E+01 -1.745125E+00  8.398354E+00  9.919435E-01 -1.526328E+00
      2631   3  1.976436E+00  3.695381E+01 -8.227773E-01  5.351765E+00  6.928475E-01 -2.956775E+00
      2631   4 -1.202765E-01  2.962429E+01 -4.822994E-01  5.999213E+00  8.384480E-01 -1.805971E+00
      2631   5 -4.941392E-01  3.702969E+01 -1.900451E+00  8.494722E+00 -7.910709E-01 -2.826468E+00
      2631   6 -2.634929E+00  2.952902E+01 -1.535748E+00  9.191147E+00 -6.097582E-01 -1.675156E+00
      2631   7  1.986109E+00  3.821180E+01 -4.403090E-01  5.997027E+00 -8.395074E-01 -3.148208E+00
      2631   8 -2.062178E-01  3.065960E+01 -1.958571E-01  6.693451E+00 -6.941226E-01 -1.950288E+00
      2632   1  1.541148E+00  2.373085E+01  4.155834E-01  1.413950E+01  3.372483E-01 -9.526774E-01
      2632   2 -3.061567E+00  1.036185E+01 -1.557801E+00  1.436387E+01  4.136500E-01 -4.888677E-01
      2632   3  2.420167E+00  2.419839E+01  1.095030E+00  1.012033E+01  3.131903E-02 -1.161221E+00
      2632   4 -2.131879E+00  1.088006E+01 -7.601244E-01  1.034470E+01  4.652836E-02 -5.505353E-01
      2632   5  1.613814E+00  2.456314E+01  6.931401E-01  1.565703E+01 -1.339065E+00 -1.099379E+00
      2632   6 -3.283271E+00  1.050579E+01 -1.573126E+00  1.596347E+01 -1.264012E+00 -6.776382E-01
      2632   7  2.769793E+00  2.514791E+01  1.486400E+00  1.138836E+01 -1.663075E+00 -1.304558E+00
      2632   8 -2.077440E+00  1.114041E+01 -6.635427E-01  1.169480E+01 -1.648227E+00 -7.383109E-01
      2633   1  2.347308E+00  4.753103E+00  7.778660E-01  1.682032E+01  2.322028E-01 -1.800713E-01
      2633   2 -1.776488E+00 -7.274357E+00 -9.406604E-01  1.676525E+01  1.495226E-01  1.997665E-01
      2633   3  2.357499E+00  4.864286E+00  1.138283E+00  1.319665E+01 -1.242437E-01 -1.441830E-01
      2633   4 -1.878915E+00 -7.275793E+00 -8.430187E-01  1.314158E+01 -2.399211E-01  3.553060E-01
      2633   5  2.644911E+00  4.745477E+00  8.719993E-01  1.862382E+01 -1.307192E+00 -3.464179E-01
      2633   6 -1.722082E+00 -7.846135E+00 -1.093034E+00  1.861301E+01 -1.390599E+00  1.367525E-01
      2633   7  2.793552E+00  4.914272E+00  1.286008E+00  1.479116E+01 -1.543362E+00 -3.111086E-01
      2633   8 -1.684243E+00 -7.788141E+00 -9.375610E-01  1.478035E+01 -1.659235E+00  2.897829E-01
      2634   1  2.988303E+00 -1.235491E+01  1.209721E+00  1.555816E+01  4.722902E-01  5.200629E-01
      2634   2 -6.269508E-01 -2.310350E+01 -9.253085E-02  1.509980E+01  2.749318E-01  1.015291E+00
      2634   3  1.520826E+00 -1.298177E+01  5.876471E-01  1.228766E+01  1.684600E-01  7.675709E-01
      2634   4 -2.175006E+00 -2.381095E+01 -9.026198E-01  1.182930E+01 -2.281129E-02  1.394410E+00
      2634   5  3.386836E+00 -1.313252E+01  1.096135E+00  1.739711E+01 -1.012520E+00  5.223042E-01
      2634   6 -4.949704E-01 -2.450070E+01 -4.750370E-01  1.693058E+01 -1.209744E+00  1.092480E+00
      2634   7  1.868549E+00 -1.378119E+01  4.521749E-01  1.390847E+01 -1.220517E+00  7.658193E-01
      2634   8 -2.092536E+00 -2.522866E+01 -1.303979E+00  1.344194E+01 -1.411753E+00  1.465484E+00
      2635   1  2.325676E+00 -2.689512E+01  1.770352E+00  8.969102E+00  9.195733E-01  1.622449E+00
      2635   2  1.020578E+00 -3.207130E+01  2.596202E+00  8.165594E+00  6.846495E-01  2.786006E+00
      2635   3 -4.320851E-01 -2.817931E+01  2.474754E-01  7.194286E+00  7.143492E-01  2.050717E+00
      2635   4 -1.935355E+00 -3.355366E+01  6.109249E-01  6.390779E+00  4.943352E-01  3.216941E+00
      2635   5  2.545689E+00 -2.844421E+01  1.364789E+00  1.003631E+01 -4.530496E-01  1.791949E+00
      2635   6  1.230858E+00 -3.363728E+01  2.175084E+00  9.212809E+00 -6.876448E-01  3.132758E+00
      2635   7 -3.166986E-01 -2.977160E+01 -1.974265E-01  8.229063E+00 -4.632776E-01  2.213309E+00
      2635   8 -1.826504E+00 -3.515963E+01  1.579278E-01  7.405559E+00 -6.832036E-01  3.556741E+00
      2636   1  4.894240E+00  1.589145E+02  3.367225E+00  7.129602E+00  2.671448E+00 -1.769899E-01
      2636   2 -9.894848E+00  1.154426E+02 -2.457804E+00  7.496101E+00  2.802016E+00  5.530200E-01
      2636   3  6.495779E+00  1.598630E+02  4.927346E+00 -5.647450E+00  2.479243E+00 -6.627449E-01
      2636   4 -8.357607E+00  1.163268E+02 -1.047715E+00 -5.280951E+00  2.572233E+00  8.744244E-02
      2636   5  5.332615E+00  1.610157E+02  4.124271E+00  7.509599E+00 -2.925050E+00 -5.959849E-01
      2636   6 -9.497841E+00  1.174467E+02 -1.741607E+00  7.927947E+00 -2.794254E+00  1.930477E-01
      2636   7  7.110236E+00  1.620353E+02  5.745353E+00 -5.508311E+00 -3.047175E+00 -1.073678E+00
      2636   8 -7.783453E+00  1.184031E+02 -2.680663E-01 -5.089963E+00 -2.953334E+00 -2.648028E-01
      2637   1 -4.301565E-01  9.236926E+01  2.069263E+00  1.184568E+01  2.381074E+00  1.016366E+00
      2637   2 -1.505452E+01  4.911593E+01 -3.425306E+00  1.304434E+01  2.528165E+00  1.552243E+00
      2637   3  3.635515E+00  9.429912E+01  4.436467E+00 -9.073646E-01  2.207328E+00  5.519261E-01
      2637   4 -1.110599E+01  5.092866E+01 -1.331426E+00  2.912895E-01  2.328298E+00  1.070732E+00
      2637   5 -9.136163E-02  9.434422E+01  2.759936E+00  1.266385E+01 -3.318153E+00  7.174748E-01
      2637   6 -1.467969E+01  5.117404E+01 -2.697643E+00  1.389855E+01 -3.170903E+00  1.361204E+00
      2637   7  4.146225E+00  9.634465E+01  5.190449E+00 -2.830896E-01 -3.375436E+00  2.607427E-01
      2637   8 -1.055730E+01  5.305927E+01 -5.359187E-01  9.516050E-01 -3.253873E+00  8.876846E-01
      2638   1 -2.076176E+00  2.646784E+01  2.508587E+00  1.791000E+01  2.034616E+00  1.976998E+00
      2638   2 -1.816681E+01 -2.051424E+01 -4.144793E+00  1.927808E+01  2.226069E+00  2.601576E+00
      2638   3  2.284912E+00  2.839123E+01  4.558826E+00  4.149109E+00  1.956455E+00  1.476062E+00
      2638   4 -1.400478E+01 -1.878990E+01 -2.559028E+00  5.517185E+00  2.111245E+00  2.064638E+00
      2638   5 -1.851252E+00  2.853868E+01  3.196315E+00  1.888182E+01 -3.855579E+00  1.892537E+00
      2638   6 -1.786617E+01 -1.826833E+01 -3.379733E+00  2.030048E+01 -3.663903E+00  2.700437E+00
      2638   7  2.740655E+00  3.056009E+01  5.342469E+00  4.933686E+00 -3.745753E+00  1.399914E+00
      2638   8 -1.347002E+01 -1.644267E+01 -1.690344E+00  6.352348E+00 -3.590132E+00  2.172410E+00
      2639   1  2.607083E-01 -4.347826E+01  3.639652E+00  2.120604E+01  1.872197E+00  3.206329E+00
      2639   2 -1.782380E+01 -9.545793E+01 -4.662354E+00  2.230892E+01  2.082420E+00  4.233968E+00
      2639   3  3.415082E+00 -4.228904E+01  4.449343E+00  6.107108E+00  1.882490E+00  2.640009E+00
      2639   4 -1.496409E+01 -9.456338E+01 -4.540217E+00  7.209987E+00  2.060091E+00  3.623376E+00
      2639   5  5.360327E-01 -4.112674E+01  4.430701E+00  2.196247E+01 -4.232468E+00  3.471598E+00
      2639   6 -1.745505E+01 -9.289083E+01 -3.775502E+00  2.311036E+01 -4.022046E+00  4.770551E+00
      2639   7  3.895893E+00 -3.984676E+01  5.337456E+00  6.664054E+00 -3.950947E+00  2.914677E+00
      2639   8 -1.438497E+01 -9.190062E+01 -3.544889E+00  7.811944E+00 -3.772606E+00  4.170093E+00
      2640   1  7.737664E+00 -1.177683E+02  5.787317E+00  1.704727E+01  2.249203E+00  5.230757E+00
      2640   2 -1.143784E+01 -1.726398E+02 -3.259596E+00  1.668627E+01  2.525039E+00  6.926399E+00
      2640   3  5.785151E+00 -1.190776E+02  3.375595E+00  1.146164E+00  2.249944E+00  4.578857E+00
      2640   4 -1.377195E+01 -1.743306E+02 -6.561693E+00  7.851647E-01  2.463804E+00  6.205912E+00
      2640   5  7.878150E+00 -1.151354E+02  6.628063E+00  1.713747E+01 -4.071006E+00  5.995276E+00
      2640   6 -1.115309E+01 -1.696733E+02 -2.271493E+00  1.686198E+01 -3.794794E+00  8.042335E+00
      2640   7  6.191504E+00 -1.163228E+02  4.356423E+00  1.053739E+00 -3.724513E+00  5.354195E+00
      2640   8 -1.321499E+01 -1.712360E+02 -5.418730E+00  7.782511E-01 -3.509247E+00  7.333806E+00
      2641   1  5.583597E+00  1.551303E+02  3.872078E+00  9.445773E+00  2.739125E+00 -8.576610E-01
      2641   2 -9.917628E+00  1.101724E+02 -2.840690E+00  1.005137E+01  2.813484E+00 -1.143881E-02
      2641   3  8.006217E+00  1.564739E+02  5.927958E+00 -3.676044E+00  2.242641E+00 -1.227534E+00
      2641   4 -7.621857E+00  1.113891E+02 -1.080789E+00 -3.070452E+00  2.290070E+00 -3.411834E-01
      2641   5  6.072043E+00  1.567872E+02  4.483410E+00  9.918007E+00 -2.703323E+00 -1.336204E+00
      2641   6 -9.507817E+00  1.116398E+02 -2.302104E+00  1.056076E+01 -2.628027E+00 -3.746997E-01
      2641   7  8.635483E+00  1.581860E+02  6.582754E+00 -3.475393E+00 -3.070111E+00 -1.699940E+00
      2641   8 -7.069120E+00  1.129139E+02 -4.938264E-01 -2.832643E+00 -3.021298E+00 -6.989724E-01
      2642   1  3.039764E+00  8.813418E+01  2.824129E+00  1.453369E+01  2.490863E+00  5.149197E-01
      2642   2 -1.177814E+01  4.471728E+01 -3.151978E+00  1.538424E+01  2.587003E+00  1.106736E+00
      2642   3  5.994373E+00  8.957324E+01  4.666407E+00  1.793975E+00  2.029206E+00  1.964743E-01
      2642   4 -8.983522E+00  4.599635E+01 -1.683016E+00  2.644524E+00  2.103440E+00  7.790320E-01
      2642   5  3.361601E+00  8.952146E+01  3.318612E+00  1.551101E+01 -2.980542E+00  2.478402E-01
      2642   6 -1.143157E+01  4.615484E+01 -2.625334E+00  1.639178E+01 -2.883640E+00  9.871461E-01
      2642   7  6.451779E+00  9.101576E+01  5.209432E+00  2.567891E+00 -3.282796E+00 -6.532084E-02
      2642   8 -8.498728E+00  4.749180E+01 -1.101635E+00  3.448663E+00 -3.207435E+00  6.648803E-01
      2643   1  2.135537E+00  2.304096E+01  2.996762E+00  1.841108E+01  2.287026E+00  1.549684E+00
      2643   2 -1.333688E+01 -2.203574E+01 -3.501253E+00  1.931264E+01  2.409775E+00  2.168027E+00
      2643   3  4.954123E+00  2.425311E+01  4.218689E+00  5.223546E+00  1.895073E+00  1.206376E+00
      2643   4 -1.072736E+01 -2.103266E+01 -2.767162E+00  6.125103E+00  1.993502E+00  1.791342E+00
      2643   5  2.408323E+00  2.451110E+01  3.519199E+00  1.954522E+01 -3.262062E+00  1.554897E+00
      2643   6 -1.298774E+01 -2.039715E+01 -2.892755E+00  2.048034E+01 -3.138466E+00  2.366714E+00
      2643   7  5.380625E+00  2.578907E+01  4.806773E+00  6.176877E+00 -3.451235E+00  1.217285E+00
      2643   8 -1.022104E+01 -1.932479E+01 -2.084922E+00  7.111990E+00 -3.351556E+00  1.996281E+00
      2644   1  4.286455E+00 -4.332257E+01  4.007569E+00  1.877814E+01  2.245021E+00  2.743421E+00
      2644   2 -1.210935E+01 -9.069517E+01 -3.272533E+00  1.922501E+01  2.386512E+00  3.697086E+00
      2644   3  5.304781E+00 -4.310050E+01  3.729496E+00  4.979214E+00  1.901870E+00  2.333919E+00
      2644   4 -1.135561E+01 -9.073768E+01 -4.167960E+00  5.426083E+00  2.014670E+00  3.231300E+00
      2644   5  4.577354E+00 -4.157611E+01  4.641417E+00  1.966163E+01 -3.387586E+00  3.102723E+00
      2644   6 -1.169276E+01 -8.866769E+01 -2.500701E+00  2.014809E+01 -3.245096E+00  4.301719E+00
      2644   7  5.750940E+00 -4.128394E+01  4.441741E+00  5.700208E+00 -3.479414E+00  2.700016E+00
      2644   8 -1.077936E+01 -8.863571E+01 -3.307486E+00  6.186663E+00 -3.365139E+00  3.843662E+00
      2645   1  8.012810E+00 -1.112528E+02  5.348059E+00  1.268706E+01  2.566938E+00  4.609241E+00
      2645   2 -7.791552E+00 -1.574053E+02 -1.180634E+00  1.220885E+01  2.738291E+00  6.147632E+00
      2645   3  5.669603E+00 -1.127439E+02  2.720881E+00 -8.318408E-01  2.162385E+00  4.097061E+00
      2645   4 -1.045034E+01 -1.592120E+02 -4.544179E+00 -1.310049E+00  2.286252E+00  5.564982E+00
      2645   5  8.300042E+00 -1.090936E+02  6.133402E+00  1.292083E+01 -3.163845E+00  5.410823E+00
      2645   6 -7.347486E+00 -1.548948E+02 -2.238051E-01  1.250814E+01 -2.990839E+00  7.241956E+00
      2645   7  6.153561E+00 -1.104923E+02  3.617467E+00 -7.381005E-01 -3.273715E+00  4.907141E+00
      2645   8 -9.804315E+00 -1.566039E+02 -3.463887E+00 -1.150790E+00 -3.147406E+00  6.668974E+00
      2646   1  5.821981E+00  1.480626E+02  3.506160E+00  1.011815E+01  2.747063E+00 -1.643483E+00
      2646   2 -9.215418E+00  1.045044E+02 -3.060389E+00  1.076949E+01  2.782066E+00 -6.537878E-01
      2646   3  8.528572E+00  1.496086E+02  5.952916E+00 -2.586681E+00  1.975336E+00 -1.832767E+00
      2646   4 -6.697623E+00  1.058617E+02 -1.054159E+00 -1.935338E+00  1.998116E+00 -8.366865E-01
      2646   5  6.148928E+00  1.489243E+02  3.788346E+00  1.059990E+01 -2.430201E+00 -2.252861E+00
      2646   6 -8.889686E+00  1.053474E+02 -2.763419E+00  1.126810E+01 -2.394421E+00 -1.089909E+00
      2646   7  8.932061E+00  1.504967E+02  6.246548E+00 -2.327335E+00 -3.014045E+00 -2.439004E+00
      2646   8 -6.292217E+00  1.067341E+02 -7.384306E-01 -1.659127E+00 -2.990284E+00 -1.269773E+00
      2647   1  4.978607E+00  8.379495E+01  3.041887E+00  1.580593E+01  2.564858E+00 -5.154607E-02
      2647   2 -9.523986E+00  4.149418E+01 -2.999318E+00  1.637670E+01  2.613989E+00  6.041138E-01
      2647   3  7.105307E+00  8.490463E+01  4.614107E+00  3.422956E+00  1.848172E+00 -2.363527E-01
      2647   4 -7.590591E+00  4.241055E+01 -1.878143E+00  3.993728E+00  1.882470E+00  4.077086E-01
      2647   5  5.239132E+00  8.462254E+01  3.330101E+00  1.686482E+01 -2.600099E+00 -3.588987E-01
      2647   6 -9.227170E+00  4.239007E+01 -2.658429E+00  1.745605E+01 -2.550026E+00  4.753081E-01
      2647   7  7.455003E+00  8.576714E+01  4.929570E+00  4.287360E+00 -3.123474E+00 -5.406381E-01
      2647   8 -7.201395E+00  4.334457E+01 -1.502519E+00  4.878597E+00 -3.087987E+00  2.821625E-01
      2648   1  4.870892E+00  2.109835E+01  3.267163E+00  1.847744E+01  2.449039E+00  1.067033E+00
      2648   2 -9.829205E+00 -2.169343E+01 -2.941388E+00  1.893066E+01  2.514874E+00  1.676092E+00
      2648   3  6.289280E+00  2.170918E+01  3.884875E+00  5.963733E+00  1.774865E+00  8.528583E-01
      2648   4 -8.623061E+00 -2.129484E+01 -2.818910E+00  6.416949E+00  1.827008E+00  1.424969E+00
      2648   5  5.117146E+00  2.204801E+01  3.625369E+00  1.971611E+01 -2.728779E+00  1.075899E+00
      2648   6 -9.492990E+00 -2.055184E+01 -2.475232E+00  2.018822E+01 -2.662074E+00  1.882536E+00
      2648   7  6.619202E+00  2.269465E+01  4.278776E+00  7.037395E+00 -3.192297E+00  8.652787E-01
      2648   8 -8.199655E+00 -2.011393E+01 -2.308841E+00  7.509503E+00 -3.139056E+00  1.635581E+00
      2649   1  6.218653E+00 -4.168455E+01  3.969465E+00  1.720018E+01  2.450321E+00  2.221364E+00
      2649   2 -8.689693E+00 -8.498895E+01 -2.420615E+00  1.724525E+01  2.528869E+00  3.102014E+00
      2649   3  5.989722E+00 -4.199378E+01  3.167600E+00  4.550880E+00  1.798736E+00  1.938140E+00
      2649   4 -9.150032E+00 -8.552960E+01 -3.762433E+00  4.595950E+00  1.858134E+00  2.768040E+00
      2649   5  6.493745E+00 -4.043672E+01  4.467049E+00  1.819385E+01 -2.739440E+00  2.579219E+00
      2649   6 -8.294858E+00 -8.348133E+01 -1.783676E+00  1.826534E+01 -2.659675E+00  3.675953E+00
      2649   7  6.357100E+00 -4.070290E+01  3.716415E+00  5.394500E+00 -3.163156E+00  2.300696E+00
      2649   8 -8.659071E+00 -8.397509E+01 -3.065301E+00  5.465993E+00 -3.102224E+00  3.347523E+00
      2650   1  7.889082E+00 -1.046474E+02  4.787484E+00  1.101324E+01  2.646335E+00  3.947589E+00
      2650   2 -6.618148E+00 -1.470694E+02 -1.147959E+00  1.051317E+01  2.738627E+00  5.377095E+00
      2650   3  5.549837E+00 -1.060956E+02  2.299364E+00 -1.421669E+00  1.943323E+00  3.571071E+00
      2650   4 -9.215172E+00 -1.487754E+02 -4.237562E+00 -1.921734E+00  1.999327E+00  4.935091E+00
      2650   5  8.213346E+00 -1.029958E+02  5.466172E+00  1.137229E+01 -2.575145E+00  4.688935E+00
      2650   6 -6.141968E+00 -1.450852E+02 -2.955067E-01  1.092230E+01 -2.480546E+00  6.359717E+00
      2650   7  6.019495E+00 -1.043743E+02  3.065020E+00 -1.190615E+00 -3.027860E+00  4.318665E+00
      2650   8 -8.589319E+00 -1.467172E+02 -3.288159E+00 -1.640609E+00 -2.968948E+00  5.925049E+00
      2651   1  5.379338E+00  1.387062E+02  2.643332E+00  1.051479E+01  2.798825E+00 -2.354888E+00
      2651   2 -8.557827E+00  9.815956E+01 -3.267223E+00  1.112657E+01  2.810621E+00 -1.222348E+00
      2651   3  8.250821E+00  1.403964E+02  5.405819E+00 -2.330256E+00  1.986382E+00 -2.449290E+00
      2651   4 -5.909852E+00  9.962625E+01 -1.026254E+00 -1.718472E+00  1.987145E+00 -1.303822E+00
      2651   5  5.610098E+00  1.391217E+02  2.728142E+00  1.083503E+01 -2.054308E+00 -3.048221E+00
      2651   6 -8.334925E+00  9.853337E+01 -3.166957E+00  1.146124E+01 -2.041649E+00 -1.721949E+00
      2651   7  8.518119E+00  1.408319E+02  5.520737E+00 -1.906147E+00 -2.700206E+00 -3.143512E+00
      2651   8 -5.652519E+00  1.000179E+02 -9.007990E-01 -1.279943E+00 -2.698685E+00 -1.804192E+00
      2652   1  5.672977E+00  7.903075E+01  2.891325E+00  1.655265E+01  2.693999E+00 -5.502577E-01
      2652   2 -8.158535E+00  3.875309E+01 -2.936063E+00  1.694745E+01  2.708027E+00  1.533851E-01
      2652   3  7.424254E+00  8.001971E+01  4.436582E+00  3.786461E+00  1.907767E+00 -6.352139E-01
      2652   4 -6.630417E+00  3.951889E+01 -1.911511E+00  4.181261E+00  1.911298E+00  4.598896E-02
      2652   5  5.848902E+00  7.940473E+01  2.999721E+00  1.749827E+01 -2.140103E+00 -9.071371E-01
      2652   6 -7.921160E+00  3.924718E+01 -2.742940E+00  1.790679E+01 -2.125253E+00 -7.300600E-03
      2652   7  7.637574E+00  8.041196E+01  4.568501E+00  4.879420E+00 -2.760681E+00 -9.928946E-01
      2652   8 -6.357752E+00  4.002915E+01 -1.699776E+00  5.287939E+00 -2.756428E+00 -1.157097E-01
      2653   1  6.042073E+00  1.972135E+01  3.227116E+00  1.871395E+01  2.622601E+00  6.279398E-01
      2653   2 -7.754324E+00 -2.046443E+01 -2.575100E+00  1.889049E+01  2.649012E+00  1.220804E+00
      2653   3  6.668487E+00  2.000687E+01  3.552454E+00  5.975162E+00  1.857409E+00  4.995095E-01
      2653   4 -7.353366E+00 -2.040436E+01 -2.775826E+00  6.151706E+00  1.874455E+00  1.057348E+00
      2653   5  6.222199E+00  2.027678E+01  3.443737E+00  1.987363E+01 -2.200889E+00  6.119707E-01
      2653   6 -7.487893E+00 -1.973113E+01 -2.248658E+00  2.006242E+01 -2.173745E+00  1.404015E+00
      2653   7  6.884294E+00  2.057776E+01  3.784903E+00  7.297662E+00 -2.799043E+00  4.823291E-01
      2653   8 -7.053381E+00 -1.965773E+01 -2.438518E+00  7.486447E+00 -2.781353E+00  1.239017E+00
      2654   1  6.901701E+00 -3.925673E+01  3.785369E+00  1.681034E+01  2.629746E+00  1.739610E+00
      2654   2 -6.878644E+00 -7.939151E+01 -2.014326E+00  1.666593E+01  2.666372E+00  2.564149E+00
      2654   3  6.051749E+00 -3.982784E+01  2.731624E+00  4.088420E+00  1.872650E+00  1.547365E+00
      2654   4 -7.957698E+00 -8.019173E+01 -3.602643E+00  3.944009E+00  1.898567E+00  2.328280E+00
      2654   5  7.108843E+00 -3.843390E+01  4.143444E+00  1.773571E+01 -2.182056E+00  2.070039E+00
      2654   6 -6.568056E+00 -7.835122E+01 -1.528909E+00  1.760529E+01 -2.144592E+00  3.097608E+00
      2654   7  6.306889E+00 -3.898639E+01  3.103766E+00  5.187187E+00 -2.769466E+00  1.875981E+00
      2654   8 -7.601274E+00 -7.913497E+01 -3.108201E+00  5.056772E+00 -2.742812E+00  2.859514E+00
      2655   1  7.750941E+00 -9.795570E+01  4.401677E+00  1.073745E+01  2.731712E+00  3.367012E+00
      2655   2 -5.707488E+00 -1.373424E+02 -1.073014E+00  1.025029E+01  2.770186E+00  4.735935E+00
      2655   3  5.343138E+00 -9.942285E+01  1.918963E+00 -1.778768E+00  1.952988E+00  3.105153E+00
      2655   4 -8.352248E+00 -1.390466E+02 -4.108628E+00 -2.265924E+00  1.977657E+00  4.446695E+00
      2655   5  8.027981E+00 -9.682510E+01  4.927252E+00  1.102148E+01 -2.080632E+00  4.051139E+00
      2655   6 -5.358232E+00 -1.360681E+02 -4.505064E-01  1.055237E+01 -2.041078E+00  5.628664E+00
      2655   7  5.688774E+00 -9.826696E+01  2.460252E+00 -1.343560E+00 -2.683291E+00  3.786810E+00
      2655   8 -7.936631E+00 -1.377491E+02 -3.475621E+00 -1.812673E+00 -2.657672E+00  5.336696E+00
      2656   1  5.017770E+00  1.292294E+02  2.102093E+00  1.015363E+01  2.544867E+00 -2.954793E+00
      2656   2 -7.943252E+00  9.147469E+01 -3.346582E+00  1.074797E+01  2.539115E+00 -1.696808E+00
      2656   3  7.882403E+00  1.309465E+02  4.960897E+00 -1.814887E+00  1.937110E+00 -2.975156E+00
      2656   4 -5.311191E+00  9.295915E+01 -1.030449E+00 -1.220551E+00  1.926974E+00 -1.719661E+00
      2656   5  5.152997E+00  1.293331E+02  2.081902E+00  1.047019E+01 -2.026133E+00 -3.699651E+00
      2656   6 -7.788748E+00  9.160418E+01 -3.328302E+00  1.107026E+01 -2.031614E+00 -2.238872E+00
      2656   7  8.026118E+00  1.310584E+02  4.959728E+00 -1.383382E+00 -2.459008E+00 -3.720206E+00
      2656   8 -5.150394E+00  9.309470E+01 -9.982661E-01 -7.833173E-01 -2.468914E+00 -2.261940E+00
      2657   1  5.644288E+00  7.376618E+01  2.555208E+00  1.626436E+01  2.476290E+00 -9.646284E-01
      2657   2 -7.271256E+00  3.614102E+01 -2.871449E+00  1.658845E+01  2.471242E+00 -2.222602E-01
      2657   3  7.194034E+00  7.469014E+01  4.085327E+00  4.336433E+00  1.876537E+00 -9.947256E-01
      2657   4 -5.951027E+00  3.683546E+01 -1.876871E+00  4.660525E+00  1.868208E+00 -2.696588E-01
      2657   5  5.764385E+00  7.391396E+01  2.586797E+00  1.725699E+01 -2.078671E+00 -1.358875E+00
      2657   6 -7.103035E+00  3.638215E+01 -2.772796E+00  1.758537E+01 -2.083516E+00 -4.154577E-01
      2657   7  7.322541E+00  7.484397E+01  4.128687E+00  5.462148E+00 -2.506299E+00 -1.389256E+00
      2657   8 -5.776561E+00  3.708048E+01 -1.771496E+00  5.790528E+00 -2.514455E+00 -4.633034E-01
      2658   1  6.264179E+00  1.849748E+01  3.015844E+00  1.833740E+01  2.430638E+00  2.655393E-01
      2658   2 -6.591871E+00 -1.897374E+01 -2.366438E+00  1.838887E+01  2.436049E+00  8.558640E-01
      2658   3  6.496067E+00  1.862999E+01  3.225662E+00  6.455071E+00  1.842148E+00  2.023272E-01
      2658   4 -6.587053E+00 -1.906830E+01 -2.686452E+00  6.506537E+00  1.842224E+00  7.667499E-01
      2658   5  6.371503E+00  1.877747E+01  3.125817E+00  1.955421E+01 -2.113390E+00  2.189342E-01
      2658   6 -6.419714E+00 -1.856121E+01 -2.172893E+00  1.961265E+01 -2.107649E+00  1.008708E+00
      2658   7  6.625656E+00  1.891984E+01  3.346219E+00  7.815285E+00 -2.532019E+00  1.551259E-01
      2658   8 -6.394773E+00 -1.864806E+01 -2.487320E+00  7.873724E+00 -2.531664E+00  9.187537E-01
      2659   1  6.932877E+00 -3.651089E+01  3.532492E+00  1.627329E+01  2.439031E+00  1.364277E+00
      2659   2 -5.842337E+00 -7.377273E+01 -1.789717E+00  1.603217E+01  2.453409E+00  2.162964E+00
      2659   3  5.783404E+00 -3.719479E+01  2.402295E+00  4.453008E+00  1.851914E+00  1.256135E+00
      2659   4 -7.217253E+00 -7.468207E+01 -3.445948E+00  4.211891E+00  1.858688E+00  2.028738E+00
      2659   5  7.052737E+00 -3.604386E+01  3.744468E+00  1.726143E+01 -2.090695E+00  1.662614E+00
      2659   6 -5.657389E+00 -7.317243E+01 -1.494048E+00  1.703025E+01 -2.075846E+00  2.659342E+00
      2659   7  5.940989E+00 -3.671340E+01  2.624425E+00  5.584203E+00 -2.509510E+00  1.553451E+00
      2659   8 -6.996706E+00 -7.406954E+01 -3.145085E+00  5.353025E+00 -2.502338E+00  2.523850E+00
      2660   1  7.521693E+00 -9.124285E+01  4.065848E+00  1.036451E+01  2.501502E+00  2.955581E+00
      2660   2 -5.156261E+00 -1.282664E+02 -1.170405E+00  9.850876E+00  2.517256E+00  4.322367E+00
      2660   3  5.060275E+00 -9.271250E+01  1.628455E+00 -1.387715E+00  1.906568E+00  2.803610E+00
      2660   4 -7.844794E+00 -1.299632E+02 -4.137733E+00 -1.901349E+00  1.915388E+00  4.147999E+00
      2660   5  7.689201E+00 -9.057791E+01  4.393451E+00  1.067021E+01 -2.020047E+00  3.597387E+00
      2660   6 -4.930788E+00 -1.274850E+02 -7.660932E-01  1.016564E+01 -2.003864E+00  5.163444E+00
      2660   7  5.267487E+00 -9.203445E+01  1.960034E+00 -9.442085E-01 -2.445455E+00  3.443982E+00
      2660   8 -7.581759E+00 -1.291708E+02 -3.734443E+00 -1.448782E+00 -2.436271E+00  4.987431E+00
      2661   1  4.589107E+00  1.196752E+02  1.672824E+00  9.686279E+00  2.305007E+00 -3.354229E+00
      2661   2 -7.378701E+00  8.477378E+01 -3.318467E+00  1.026143E+01  2.292061E+00 -2.033399E+00
      2661   3  7.417625E+00  1.213931E+02  4.570835E+00 -1.384317E+00  1.875593E+00 -3.344600E+00
      2661   4 -4.785213E+00  8.625671E+01 -9.688617E-01 -8.091650E-01  1.861320E+00 -2.028198E+00
      2661   5  4.674259E+00  1.196527E+02  1.621730E+00  1.000829E+01 -1.969122E+00 -4.125801E+00
      2661   6 -7.274161E+00  8.478224E+01 -3.335897E+00  1.058518E+01 -1.982007E+00 -2.599988E+00
      2661   7  7.498775E+00  1.213737E+02  4.533926E+00 -9.533320E-01 -2.220522E+00 -4.116082E+00
      2661   8 -4.686893E+00  8.626600E+01 -9.772789E-01 -3.764440E-01 -2.234747E+00 -2.594737E+00
      2662   1  5.320973E+00  6.843366E+01  2.220659E+00  1.581837E+01  2.247763E+00 -1.267008E+00
      2662   2 -6.638462E+00  3.356873E+01 -2.779191E+00  1.610735E+01  2.236424E+00 -4.940175E-01
      2662   3  6.776590E+00  6.933129E+01  3.757123E+00  4.761331E+00  1.823443E+00 -1.267917E+00
      2662   4 -5.414663E+00  3.423454E+01 -1.783634E+00  5.050312E+00  1.810757E+00 -5.071937E-01
      2662   5  5.394607E+00  6.845614E+01  2.211657E+00  1.683838E+01 -2.015345E+00 -1.684432E+00
      2662   6 -6.530218E+00  3.365788E+01 -2.739501E+00  1.712912E+01 -2.026622E+00 -7.089000E-01
      2662   7  6.851511E+00  6.935690E+01  3.757281E+00  5.899997E+00 -2.264419E+00 -1.685350E+00
      2662   8 -5.307319E+00  3.432464E+01 -1.739887E+00  6.190738E+00 -2.277057E+00 -7.222005E-01
      2663   1  5.988551E+00  1.724933E+01  2.731474E+00  1.790393E+01  2.216634E+00  7.110876E-03
      2663   2 -5.919085E+00 -1.748460E+01 -2.226709E+00  1.791226E+01  2.212317E+00  6.032286E-01
      2663   3  6.095331E+00  1.734003E+01  2.927029E+00  6.885129E+00  1.796487E+00 -1.658692E-02
      2663   4 -6.041307E+00 -1.762291E+01 -2.565492E+00  6.893456E+00  1.789926E+00  5.630519E-01
      2663   5  6.051580E+00  1.736279E+01  2.778209E+00  1.915909E+01 -2.039712E+00 -6.032893E-02
      2663   6 -5.813318E+00 -1.728534E+01 -2.123324E+00  1.917035E+01 -2.043926E+00  7.360687E-01
      2663   7  6.168656E+00  1.745833E+01  2.979589E+00  8.263845E+00 -2.287049E+00 -8.425024E-02
      2663   8 -5.927403E+00 -1.742096E+01 -2.461322E+00  8.275105E+00 -2.293528E+00  6.955130E-01
      2664   1  6.599746E+00 -3.376658E+01  3.249635E+00  1.587217E+01  2.224317E+00  1.112745E+00
      2664   2 -5.253960E+00 -6.835730E+01 -1.672002E+00  1.560574E+01  2.226331E+00  1.908653E+00
      2664   3  5.382216E+00 -3.446967E+01  2.123533E+00  4.896465E+00  1.804096E+00  1.060609E+00
      2664   4 -6.698461E+00 -6.928736E+01 -3.327704E+00  4.630040E+00  1.803301E+00  1.840322E+00
      2664   5  6.666969E+00 -3.353483E+01  3.364380E+00  1.689009E+01 -2.020795E+00  1.391548E+00
      2664   6 -5.144649E+00 -6.804113E+01 -1.501380E+00  1.662733E+01 -2.018654E+00  2.385954E+00
      2664   7  5.467145E+00 -3.423204E+01  2.240167E+00  6.037184E+00 -2.269975E+00  1.338920E+00
      2664   8 -6.573585E+00 -6.896745E+01 -3.160189E+00  5.774429E+00 -2.270669E+00  2.316978E+00
      2665   1  7.174547E+00 -8.461681E+01  3.768824E+00  1.002330E+01  2.273179E+00  2.698971E+00
      2665   2 -4.662070E+00 -1.191532E+02 -1.150199E+00  9.495838E+00  2.278063E+00  4.062250E+00
      2665   3  4.681978E+00 -8.609090E+01  1.347765E+00 -9.344110E-01  1.849010E+00  2.619461E+00
      2665   4 -7.381179E+00 -1.208538E+02 -4.099854E+00 -1.461876E+00  1.851490E+00  3.968392E+00
      2665   5  7.260967E+00 -8.426438E+01  3.956563E+00  1.033998E+01 -1.962637E+00  3.321414E+00
      2665   6 -4.537200E+00 -1.187248E+02 -9.102492E-01  9.815656E+00 -1.957643E+00  4.882732E+00
      2665   7  4.788872E+00 -8.573352E+01  1.531519E+00 -4.974116E-01 -2.216174E+00  3.241153E+00
      2665   8 -7.237973E+00 -1.204226E+02 -3.868875E+00 -1.021735E+00 -2.213607E+00  4.787988E+00
      2666   1  4.127740E+00  1.101768E+02  1.340063E+00  9.209780E+00  2.076556E+00 -3.629909E+00
      2666   2 -6.869459E+00  7.808224E+01 -3.222671E+00  9.771170E+00  2.061554E+00 -2.268278E+00
      2666   3  6.927478E+00  1.118926E+02  4.259504E+00 -9.744393E-01  1.800049E+00 -3.621918E+00
      2666   4 -4.305690E+00  7.956203E+01 -8.538259E-01 -4.130497E-01  1.785324E+00 -2.259823E+00
      2666   5  4.206241E+00  1.101656E+02  1.314507E+00  9.545370E+00 -1.892835E+00 -4.416720E+00
      2666   6 -6.784973E+00  7.807574E+01 -3.233049E+00  1.010640E+01 -1.907845E+00 -2.849503E+00
      2666   7  6.995556E+00  1.118817E+02  4.245700E+00 -5.442690E-01 -1.989533E+00 -4.408654E+00
      2666   8 -4.233853E+00  7.955370E+01 -8.576452E-01  1.675815E-02 -2.004264E+00 -2.840968E+00
      2667   1  4.863608E+00  6.306652E+01  1.911370E+00  1.533795E+01  2.027710E+00 -1.477674E+00
      2667   2 -6.138009E+00  3.097133E+01 -2.665498E+00  1.561512E+01  2.014237E+00 -6.793324E-01
      2667   3  6.295360E+00  6.396308E+01  3.468147E+00  5.155574E+00  1.756717E+00 -1.470968E+00
      2667   4 -4.939195E+00  3.163495E+01 -1.652244E+00  5.432748E+00  1.743246E+00 -6.778728E-01
      2667   5  4.922050E+00  6.305826E+01  1.901344E+00  1.638385E+01 -1.935470E+00 -1.909305E+00
      2667   6 -6.062475E+00  3.099388E+01 -2.649357E+00  1.666102E+01 -1.948943E+00 -9.078515E-01
      2667   7  6.349710E+00  6.395573E+01  3.465263E+00  6.303181E+00 -2.029226E+00 -1.902536E+00
      2667   8 -4.869950E+00  3.165622E+01 -1.634087E+00  6.580351E+00 -2.042697E+00 -9.063781E-01
      2668   1  5.542246E+00  1.595720E+01  2.446545E+00  1.746412E+01  2.002714E+00 -1.638297E-01
      2668   2 -5.427522E+00 -1.605945E+01 -2.102700E+00  1.746222E+01  1.994966E+00  4.462085E-01
      2668   3  5.628288E+00  1.604691E+01  2.659516E+00  7.304280E+00  1.734260E+00 -1.671441E-01
      2668   4 -5.572375E+00 -1.620064E+01 -2.428483E+00  7.302383E+00  1.726210E+00  4.350975E-01
      2668   5  5.579754E+00  1.598411E+01  2.461186E+00  1.874962E+01 -1.957747E+00 -2.442850E-01
      2668   6 -5.367983E+00 -1.599013E+01 -2.057030E+00  1.874812E+01 -1.965486E+00  5.671593E-01
      2668   7  5.668050E+00  1.607528E+01  2.676785E+00  8.694464E+00 -2.050691E+00 -2.476305E-01
      2668   8 -5.512759E+00 -1.613203E+01 -2.385267E+00  8.692962E+00 -2.058736E+00  5.559435E-01
      2669   1  6.165567E+00 -3.106429E+01  2.977681E+00  1.548373E+01  2.009698E+00  9.644216E-01
      2669   2 -4.778308E+00 -6.300731E+01 -1.558881E+00  1.521194E+01  2.007609E+00  1.770168E+00
      2669   3  4.940201E+00 -3.176486E+01  1.867840E+00  5.346939E+00  1.740699E+00  9.478154E-01
      2669   4 -6.233171E+00 -6.393737E+01 -3.204216E+00  5.075146E+00  1.738250E+00  1.746345E+00
      2669   5  6.189644E+00 -3.098684E+01  3.023688E+00  1.652598E+01 -1.942489E+00  1.232360E+00
      2669   6 -4.733377E+00 -6.289014E+01 -1.483079E+00  1.625466E+01 -1.944568E+00  2.238277E+00
      2669   7  4.971539E+00 -3.168594E+01  1.911444E+00  6.492926E+00 -2.037149E+00  1.215597E+00
      2669   8 -6.183144E+00 -6.382091E+01 -3.135867E+00  6.221603E+00 -2.039591E+00  2.214230E+00
      2670   1  6.778043E+00 -7.800333E+01  3.500319E+00  9.650728E+00  2.051393E+00  2.567267E+00
      2670   2 -4.170604E+00 -1.099438E+02 -1.054722E+00  9.115950E+00  2.052593E+00  3.939237E+00
      2670   3  4.266683E+00 -7.948209E+01  1.082485E+00 -4.825181E-01  1.778227E+00  2.539243E+00
      2670   4 -6.911043E+00 -1.116516E+02 -4.007075E+00 -1.017296E+00  1.778835E+00  3.906952E+00
      2670   5  6.795999E+00 -7.787923E+01  3.578610E+00  9.981748E+00 -1.892307E+00  3.181748E+00
      2670   6 -4.137600E+00 -1.097935E+02 -9.524587E-01  9.447745E+00 -1.891089E+00  4.753439E+00
      2670   7  4.297474E+00 -7.935628E+01  1.153623E+00 -5.148735E-02 -1.991455E+00  3.153460E+00
      2670   8 -6.867365E+00 -1.115018E+02 -3.917007E+00 -5.854911E-01 -1.990836E+00  4.720850E+00
      2671   1  3.651840E+00  1.007434E+02  1.080580E+00  8.748330E+00  1.856563E+00 -3.851058E+00
      2671   2 -6.397792E+00  7.140486E+01 -3.079621E+00  9.300137E+00  1.842345E+00 -2.451334E+00
      2671   3  6.433256E+00  1.024594E+02  4.018941E+00 -5.629047E-01  1.711740E+00 -3.867312E+00
      2671   4 -3.853699E+00  7.288347E+01 -6.950142E-01 -1.109718E-02  1.698953E+00 -2.458978E+00
      2671   5  3.757898E+00  1.008428E+02  1.121741E+00  9.097949E+00 -1.802463E+00 -4.649673E+00
      2671   6 -6.305554E+00  7.146793E+01 -3.048204E+00  9.647885E+00 -1.816701E+00 -3.043281E+00
      2671   7  6.524275E+00  1.025573E+02  4.070127E+00 -1.370433E-01 -1.765525E+00 -4.666080E+00
      2671   8 -3.778739E+00  7.294280E+01 -6.587937E-01  4.128928E-01 -1.778317E+00 -3.050997E+00
      2672   1  4.372382E+00  5.769370E+01  1.641581E+00  1.486381E+01  1.818130E+00 -1.635976E+00
      2672   2 -5.682315E+00  2.834599E+01 -2.526363E+00  1.513715E+01  1.804989E+00 -8.081023E-01
      2672   3  5.802912E+00  5.859643E+01  3.220162E+00  5.550605E+00  1.681671E+00 -1.638958E+00
      2672   4 -4.486047E+00  2.901446E+01 -1.494393E+00  5.823948E+00  1.669561E+00 -8.069571E-01
      2672   5  4.440976E+00  5.773050E+01  1.661879E+00  1.593297E+01 -1.839177E+00 -2.077587E+00
      2672   6 -5.618794E+00  2.836693E+01 -2.507113E+00  1.620497E+01 -1.852330E+00 -1.045654E+00
      2672   7  5.863146E+00  5.863238E+01  3.245984E+00  6.701635E+00 -1.796460E+00 -2.080597E+00
      2672   8 -4.433095E+00  2.903234E+01 -1.474775E+00  6.973630E+00 -1.808573E+00 -1.044498E+00
      2673   1  5.056717E+00  1.463047E+01  2.182980E+00  1.701934E+01  1.797770E+00 -2.729150E-01
      2673   2 -4.981366E+00 -1.467862E+01 -1.968209E+00  1.701724E+01  1.789842E+00  3.613699E-01
      2673   3  5.151237E+00  1.472905E+01  2.417075E+00  7.716765E+00  1.664682E+00 -2.694437E-01
      2673   4 -5.119741E+00 -1.481293E+01 -2.277534E+00  7.714660E+00  1.657395E+00  3.670690E-01
      2673   5  5.083201E+00  1.462811E+01  2.187947E+00  1.833072E+01 -1.859624E+00 -3.615125E-01
      2673   6 -4.956249E+00 -1.468817E+01 -1.960608E+00  1.832778E+01 -1.867561E+00  4.756642E-01
      2673   7  5.175941E+00  1.472648E+01  2.423106E+00  9.112281E+00 -1.814676E+00 -3.580084E-01
      2673   8 -5.098600E+00 -1.482489E+01 -2.273995E+00  9.109338E+00 -1.821966E+00  4.814170E-01
      2674   1  5.708745E+00 -2.839394E+01  2.721664E+00  1.507418E+01  1.803540E+00  8.968251E-01
      2674   2 -4.320945E+00 -5.767310E+01 -1.431476E+00  1.480300E+01  1.801082E+00  1.725431E+00
      2674   3  4.490934E+00 -2.908813E+01  1.625523E+00  5.781998E+00  1.669172E+00  9.044906E-01
      2674   4 -5.770871E+00 -5.859940E+01 -3.069218E+00  5.510816E+00  1.667028E+00  1.736241E+00
      2674   5  5.696658E+00 -2.842553E+01  2.715295E+00  1.613855E+01 -1.847430E+00  1.159394E+00
      2674   6 -4.336206E+00 -5.771608E+01 -1.437031E+00  1.586696E+01 -1.849892E+00  2.190200E+00
      2674   7  4.483193E+00 -2.911947E+01  1.615601E+00  6.929268E+00 -1.804382E+00  1.167131E+00
      2674   8 -5.783976E+00 -5.864433E+01 -3.083436E+00  6.657675E+00 -1.806527E+00  2.201112E+00
      2675   1  6.360504E+00 -7.138345E+01  3.246063E+00  9.246374E+00  1.836937E+00  2.539697E+00
      2675   2 -3.677517E+00 -1.006688E+02 -9.286536E-01  8.709255E+00  1.837187E+00  3.935706E+00
      2675   3  3.841892E+00 -7.286494E+01  8.263760E-01 -4.477496E-02  1.695447E+00  2.554108E+00
      2675   4 -6.428645E+00 -1.023828E+02 -3.890878E+00 -5.818944E-01  1.695394E+00  3.956811E+00
      2675   5  6.317055E+00 -7.145071E+01  3.228567E+00  9.591461E+00 -1.805854E+00  3.152598E+00
      2675   6 -3.731093E+00 -1.007637E+02 -9.522827E-01  9.054738E+00 -1.805600E+00  4.751112E+00
      2675   7  3.810094E+00 -7.293100E+01  8.012309E-01  3.787602E-01 -1.769521E+00  3.167146E+00
      2675   8 -6.472764E+00 -1.024787E+02 -3.927273E+00 -1.579626E-01 -1.769573E+00  4.772417E+00
      2676   1  3.166839E+00  9.135522E+01  8.789702E-01  8.298690E+00  1.646820E+00 -4.080297E+00
      2676   2 -5.950439E+00  6.474115E+01 -2.897883E+00  8.842695E+00  1.635642E+00 -2.633058E+00
      2676   3  5.934268E+00  9.307223E+01  3.834915E+00 -1.474326E-01  1.614279E+00 -4.141987E+00
      2676   4 -3.422243E+00  6.621893E+01 -5.001521E-01  3.965726E-01  1.606064E+00 -2.674640E+00
      2676   5  3.333602E+00  9.165888E+01  1.025657E+00  8.661226E+00 -1.696605E+00 -4.890120E+00
      2676   6 -5.823920E+00  6.495201E+01 -2.792542E+00  9.201359E+00 -1.707773E+00 -3.234367E+00
      2676   7  6.079655E+00  9.337174E+01  3.989134E+00  2.688898E-01 -1.545247E+00 -4.952391E+00
      2676   8 -3.319357E+00  6.642338E+01 -3.925432E-01  8.090223E-01 -1.553424E+00 -3.276341E+00
      2677   1  3.880423E+00  5.232877E+01  1.412110E+00  1.439869E+01  1.625008E+00 -1.784296E+00
      2677   2 -5.239033E+00  2.570510E+01 -2.362406E+00  1.466979E+01  1.614004E+00 -9.126761E-01
      2677   3  5.312534E+00  5.323742E+01  3.008819E+00  5.948984E+00  1.606660E+00 -1.812313E+00
      2677   4 -4.042841E+00  2.637783E+01 -1.316175E+00  6.220084E+00  1.597645E+00 -9.237388E-01
      2677   5  3.982139E+00  5.247800E+01  1.490482E+00  1.548671E+01 -1.721256E+00 -2.234024E+00
      2677   6 -5.171369E+00  2.577596E+01 -2.319172E+00  1.575521E+01 -1.732253E+00 -1.156790E+00
      2677   7  5.401854E+00  5.338412E+01  3.091149E+00  7.094770E+00 -1.558511E+00 -2.262305E+00
      2677   8 -3.989798E+00  2.644393E+01 -1.274174E+00  7.363269E+00 -1.567500E+00 -1.167957E+00
      2678   1  4.574451E+00  1.328677E+01  1.944208E+00  1.656773E+01  1.611246E+00 -3.463440E-01
      2678   2 -4.536694E+00 -1.332061E+01 -1.818905E+00  1.656740E+01  1.604527E+00  3.292840E-01
      2678   3  4.681096E+00  1.339405E+01  2.195186E+00  8.121886E+00  1.598344E+00 -3.454940E-01
      2678   4 -4.665024E+00 -1.344829E+01 -2.116203E+00  8.121554E+00  1.592537E+00  3.457263E-01
      2678   5  4.602558E+00  1.329585E+01  1.956010E+00  1.789985E+01 -1.736947E+00 -4.402398E-01
      2678   6 -4.539965E+00 -1.338366E+01 -1.839563E+00  1.789832E+01 -1.743664E+00  4.401763E-01
      2678   7  4.706241E+00  1.340245E+01  2.207655E+00  9.513427E+00 -1.569536E+00 -4.393818E-01
      2678   8 -4.673475E+00 -1.351425E+01 -2.141366E+00  9.511903E+00 -1.575332E+00  4.567736E-01
      2679   1  5.254821E+00 -2.574099E+01  2.477820E+00  1.464152E+01  1.614314E+00  8.950212E-01
      2679   2 -3.857025E+00 -5.234126E+01 -1.294726E+00  1.437292E+01  1.612225E+00  1.765016E+00
      2679   3  4.048122E+00 -2.642904E+01  1.390992E+00  6.199434E+00  1.598809E+00  9.232434E-01
      2679   4 -5.298306E+00 -5.326390E+01 -2.928912E+00  5.930833E+00  1.596556E+00  1.809829E+00
      2679   5  5.210704E+00 -2.586587E+01  2.425331E+00  1.572420E+01 -1.728404E+00  1.155704E+00
      2679   6 -3.934477E+00 -5.254284E+01 -1.381631E+00  1.545582E+01 -1.730494E+00  2.230147E+00
      2679   7  4.010383E+00 -2.655281E+01  1.335863E+00  7.340264E+00 -1.563878E+00  1.184193E+00
      2679   8 -5.371593E+00 -5.346658E+01 -3.023620E+00  7.071877E+00 -1.566133E+00  2.275383E+00
      2680   1  5.938508E+00 -6.475786E+01  2.993207E+00  8.819777E+00  1.633356E+00  2.610092E+00
      2680   2 -3.181969E+00 -9.136361E+01 -8.026327E-01  8.284220E+00  1.632685E+00  4.048889E+00
      2680   3  3.422922E+00 -6.623934E+01  5.705269E-01  3.792163E-01  1.605211E+00  2.668231E+00
      2680   4 -5.933542E+00 -9.308108E+01 -3.775948E+00 -1.563414E-01  1.603157E+00  4.126844E+00
      2680   5  5.831216E+00 -6.502233E+01  2.877452E+00  9.176992E+00 -1.700160E+00  3.225342E+00
      2680   6 -3.328922E+00 -9.171954E+01 -9.591349E-01  8.643242E+00 -1.700836E+00  4.869823E+00
      2680   7  3.331933E+00 -6.650063E+01  4.490777E-01  7.905291E-01 -1.546999E+00  3.284030E+00
      2680   8 -6.066417E+00 -9.343605E+01 -3.943339E+00  2.567793E-01 -1.549070E+00  4.948513E+00
      2681   1  2.673041E+00  8.200103E+01  7.265323E-01  7.852889E+00  1.451355E+00 -4.382136E+00
      2681   2 -5.522354E+00  5.809224E+01 -2.682661E+00  8.389279E+00  1.446358E+00 -2.865126E+00
      2681   3  5.423214E+00  8.371549E+01  3.691224E+00  2.676551E-01  1.512384E+00 -4.515049E+00
      2681   4 -3.012915E+00  5.956596E+01 -2.796814E-01  8.040451E-01  1.512959E+00 -2.961533E+00
      2681   5  2.938491E+00  8.262171E+01  1.024536E+00  8.226428E+00 -1.572138E+00 -5.201760E+00
      2681   6 -5.333235E+00  5.854117E+01 -2.467340E+00  8.755537E+00 -1.577025E+00 -3.474276E+00
      2681   7  5.656201E+00  8.432731E+01  3.992162E+00  6.664374E-01 -1.325805E+00 -5.335928E+00
      2681   8 -2.858530E+00  6.000376E+01 -6.672494E-02  1.195547E+00 -1.325068E+00 -3.571594E+00
      2682   1  3.393965E+00  4.697821E+01  1.218697E+00  1.393481E+01  1.457396E+00 -1.965280E+00
      2682   2 -4.800828E+00  2.305863E+01 -2.177700E+00  1.420380E+01  1.450344E+00 -1.023866E+00
      2682   3  4.824940E+00  4.788979E+01  2.826313E+00  6.344074E+00  1.541173E+00 -2.035332E+00
      2682   4 -3.606986E+00  2.373308E+01 -1.123393E+00  6.613068E+00  1.537421E+00 -1.058418E+00
      2682   5  3.554661E+00  4.731457E+01  1.385718E+00  1.503446E+01 -1.573818E+00 -2.421509E+00
      2682   6 -4.714420E+00  2.322791E+01 -2.091222E+00  1.529914E+01 -1.580805E+00 -1.272779E+00
      2682   7  4.967628E+00  4.822124E+01  2.994996E+00  7.470281E+00 -1.307784E+00 -2.492222E+00
      2682   8 -3.540822E+00  2.389521E+01 -1.040474E+00  7.734961E+00 -1.311440E+00 -1.307657E+00
      2683   1  4.105418E+00  1.193805E+01  1.726866E+00  1.610747E+01  1.454101E+00 -4.068162E-01
      2683   2 -4.084145E+00 -1.197436E+01 -1.659270E+00  1.610957E+01  1.448868E+00  3.375809E-01
      2683   3  4.223981E+00  1.205257E+01  1.990038E+00  8.517680E+00  1.546080E+00 -4.156481E-01
      2683   4 -4.202207E+00 -1.209646E+01 -1.948224E+00  8.519773E+00  1.541587E+00  3.635174E-01
      2683   5  4.147696E+00  1.199041E+01  1.759081E+00  1.745157E+01 -1.580229E+00 -5.041309E-01
      2683   6 -4.114711E+00 -1.208572E+01 -1.706141E+00  1.745269E+01 -1.585448E+00  4.471257E-01
      2683   7  4.264006E+00  1.210457E+01  2.023291E+00  9.889231E+00 -1.306403E+00 -5.130461E-01
      2683   8 -4.237258E+00 -1.221042E+01 -1.999265E+00  9.890357E+00 -1.310875E+00  4.733068E-01
      2684   1  4.812608E+00 -2.309729E+01  2.240382E+00  1.419158E+01  1.452059E+00  9.540203E-01
      2684   2 -3.381229E+00 -4.701179E+01 -1.157912E+00  1.392703E+01  1.449062E+00  1.893767E+00
      2684   3  3.620381E+00 -2.377869E+01  1.161287E+00  6.602842E+00  1.539960E+00  1.005684E+00
      2684   4 -4.809850E+00 -4.792958E+01 -2.788594E+00  6.338286E+00  1.535232E+00  1.980949E+00
      2684   5  4.736061E+00 -2.332639E+01  2.138458E+00  1.528520E+01 -1.577248E+00  1.214928E+00
      2684   6 -3.532085E+00 -4.740804E+01 -1.340383E+00  1.502291E+01 -1.580279E+00  2.361348E+00
      2684   7  3.556945E+00 -2.400377E+01  1.059623E+00  7.722974E+00 -1.307649E+00  1.267079E+00
      2684   8 -4.949825E+00 -4.832404E+01 -2.976007E+00  7.460680E+00 -1.312427E+00  2.449352E+00
      2685   1  5.523755E+00 -5.813250E+01  2.732455E+00  8.379728E+00  1.446405E+00  2.790134E+00
      2685   2 -2.681380E+00 -8.205513E+01 -6.953584E-01  7.848879E+00  1.442302E+00  4.299308E+00
      2685   3  3.021426E+00 -5.960981E+01  3.104018E-01  7.925120E-01  1.514252E+00  2.903988E+00
      2685   4 -5.422380E+00 -8.377112E+01 -3.674311E+00  2.616629E-01  1.506094E+00  4.450514E+00
      2685   5  5.339648E+00 -5.864456E+01  2.499300E+00  8.745582E+00 -1.571273E+00  3.409749E+00
      2685   6 -2.943434E+00 -8.274278E+01 -1.012758E+00  8.220032E+00 -1.575456E+00  5.127616E+00
      2685   7  2.865135E+00 -6.011377E+01  7.643818E-02  1.182572E+00 -1.319714E+00  3.524677E+00
      2685   8 -5.658870E+00 -8.445291E+01 -3.997772E+00  6.570219E-01 -1.327990E+00  5.280248E+00
      2686   1  2.171847E+00  7.269688E+01  6.139367E-01  7.405299E+00  1.275082E+00 -4.829652E+00
      2686   2 -5.112895E+00  5.147069E+01 -2.442354E+00  7.932709E+00  1.281436E+00 -3.202338E+00
      2686   3  4.886340E+00  7.439300E+01  3.553173E+00  6.754302E-01  1.411117E+00 -5.069214E+00
      2686   4 -2.636637E+00  5.292858E+01 -5.899665E-02  1.202840E+00  1.427079E+00 -3.381237E+00
      2686   5  2.583590E+00  7.378714E+01  1.122920E+00  7.786744E+00 -1.427814E+00 -5.650652E+00
      2686   6 -4.828682E+00  5.227486E+01 -2.072375E+00  8.301597E+00 -1.421112E+00 -3.813573E+00
      2686   7  5.248189E+00  7.546690E+01  4.057524E+00  1.043931E+00 -1.108945E+00 -5.892473E+00
      2686   8 -2.404565E+00  5.371414E+01  3.011061E-01  1.558784E+00 -1.092545E+00 -3.994160E+00
      2687   1  2.915201E+00  4.165257E+01  1.054233E+00  1.346400E+01  1.323419E+00 -2.221600E+00
      2687   2 -4.367038E+00  2.041222E+01 -1.979546E+00  1.373164E+01  1.322804E+00 -1.169491E+00
      2687   3  4.340260E+00  4.256084E+01  2.656741E+00  6.726082E+00  1.489242E+00 -2.355260E+00
      2687   4 -3.177553E+00  2.108491E+01 -9.267118E-01  6.993724E+00  1.493806E+00 -1.240213E+00
      2687   5  3.166363E+00  4.227006E+01  1.347432E+00  1.456423E+01 -1.391968E+00 -2.680095E+00
      2687   6 -4.247770E+00  2.073330E+01 -1.829587E+00  1.482510E+01 -1.392395E+00 -1.420456E+00
      2687   7  4.565226E+00  4.316991E+01  2.948068E+00  7.810598E+00 -1.045524E+00 -2.815015E+00
      2687   8 -3.086703E+00  2.139536E+01 -7.838097E-01  8.071472E+00 -1.040724E+00 -1.491845E+00
      2688   1  3.653178E+00  1.058818E+01  1.525159E+00  1.563847E+01  1.334762E+00 -4.722450E-01
      2688   2 -3.621679E+00 -1.064070E+01 -1.495487E+00  1.564506E+01  1.330485E+00  3.805560E-01
      2688   3  3.787898E+00  1.071017E+01  1.797090E+00  8.902530E+00  1.509953E+00 -4.969303E-01
      2688   4 -3.723078E+00 -1.075482E+01 -1.774501E+00  8.909120E+00  1.505834E+00  4.187084E-01
      2688   5  3.723549E+00  1.071284E+01  1.590710E+00  1.698134E+01 -1.384041E+00 -5.711158E-01
      2688   6 -3.683027E+00 -1.081201E+01 -1.573029E+00  1.698772E+01 -1.388312E+00  4.896857E-01
      2688   7  3.858432E+00  1.083551E+01  1.864731E+00  1.022979E+01 -1.027728E+00 -5.960340E-01
      2688   8 -3.786490E+00 -1.092768E+01 -1.855149E+00  1.023618E+01 -1.031841E+00  5.281980E-01
      2689   1  4.387013E+00 -2.046580E+01  2.004631E+00  1.373319E+01  1.325576E+00  1.077557E+00
      2689   2 -2.890564E+00 -4.169357E+01 -1.026188E+00  1.347506E+01  1.318407E+00  2.128998E+00
      2689   3  3.218339E+00 -2.113605E+01  9.391481E-01  6.999096E+00  1.497050E+00  1.161747E+00
      2689   4 -4.295105E+00 -4.259968E+01 -2.642028E+00  6.740964E+00  1.485381E+00  2.276127E+00
      2689   5  4.273837E+00 -2.083480E+01  1.841416E+00  1.482660E+01 -1.388539E+00  1.338875E+00
      2689   6 -3.135647E+00 -4.235899E+01 -1.332671E+00  1.457435E+01 -1.395870E+00  2.598101E+00
      2689   7  3.130205E+00 -2.149591E+01  7.813403E-01  8.076761E+00 -1.036145E+00  1.423859E+00
      2689   8 -4.517371E+00 -4.325819E+01 -2.948296E+00  7.824510E+00 -1.048019E+00  2.746617E+00
      2690   1  5.125392E+00 -5.151962E+01  2.461186E+00  7.934619E+00  1.283147E+00  3.108249E+00
      2690   2 -2.171445E+00 -7.276903E+01 -6.122022E-01  7.411547E+00  1.270209E+00  4.732172E+00
      2690   3  2.652256E+00 -5.298276E+01  5.719041E-02  1.199380E+00  1.429788E+00  3.301290E+00
      2690   4 -4.882309E+00 -7.446989E+01 -3.570895E+00  6.763085E-01  1.408375E+00  4.987706E+00
      2690   5  4.841320E+00 -5.237677E+01  2.074633E+00  8.304384E+00 -1.416176E+00  3.730048E+00
      2690   6 -2.586622E+00 -7.392064E+01 -1.141310E+00  7.792389E+00 -1.429420E+00  5.563360E+00
      2690   7  2.415122E+00 -5.382360E+01 -3.219240E-01  1.553960E+00 -1.087008E+00  3.924909E+00
      2690   8 -5.252790E+00 -7.560743E+01 -4.097797E+00  1.041965E+00 -1.108807E+00  5.821305E+00
      2691   1  1.670428E+00  6.351315E+01  5.120466E-01  6.954792E+00  1.122057E+00 -5.502360E+00
      2691   2 -4.720211E+00  4.492272E+01 -2.199655E+00  7.472656E+00  1.147568E+00 -3.695527E+00
      2691   3  4.308922E+00  6.515170E+01  3.335393E+00  1.065660E+00  1.312839E+00 -5.895260E+00
      2691   4 -2.304174E+00  4.633881E+01  1.046247E-01  1.583524E+00  1.353852E+00 -3.991476E+00
      2691   5  2.284737E+00  6.527020E+01  1.304261E+00  7.341171E+00 -1.271164E+00 -6.297205E+00
      2691   6 -4.307637E+00  4.622462E+01 -1.624737E+00  7.838775E+00 -1.244840E+00 -4.291459E+00
      2691   7  4.847441E+00  6.688106E+01  4.111090E+00  1.385879E+00 -9.118796E-01 -6.693810E+00
      2691   8 -1.969488E+00  4.761092E+01  6.581304E-01  1.883484E+00 -8.699073E-01 -4.590199E+00
      2692   1  2.450514E+00  3.638519E+01  9.030857E-01  1.298485E+01  1.219304E+00 -2.588085E+00
      2692   2 -3.936630E+00  1.777840E+01 -1.780611E+00  1.324948E+01  1.228383E+00 -1.369332E+00
      2692   3  3.846745E+00  3.727044E+01  2.457693E+00  7.086135E+00  1.431094E+00 -2.811037E+00
      2692   4 -2.766332E+00  1.843772E+01 -7.531789E-01  7.350769E+00  1.447019E+00 -1.489804E+00
      2692   5  2.827741E+00  3.739444E+01  1.364681E+00  1.407241E+01 -1.187854E+00 -3.037188E+00
      2692   6 -3.772160E+00  1.830703E+01 -1.547576E+00  1.432810E+01 -1.178417E+00 -1.616204E+00
      2692   7  4.190397E+00  3.826801E+01  2.913918E+00  8.100717E+00 -8.044185E-01 -3.262244E+00
      2692   8 -2.637567E+00  1.895253E+01 -5.304864E-01  8.356402E+00 -7.880699E-01 -1.737813E+00
      2693   1  3.227666E+00  9.238950E+00  1.333065E+00  1.516348E+01  1.244452E+00 -5.535624E-01
      2693   2 -3.146946E+00 -9.342326E+00 -1.334365E+00  1.517903E+01  1.239698E+00  4.564071E-01
      2693   3  3.389637E+00  9.370894E+00  1.610907E+00  9.271034E+00  1.458910E+00 -5.993165E-01
      2693   4 -3.214369E+00 -9.439777E+00 -1.591778E+00  9.286585E+00  1.453184E+00  5.123089E-01
      2693   5  3.341170E+00  9.461727E+00  1.443900E+00  1.649175E+01 -1.164239E+00 -6.513030E-01
      2693   6 -3.244765E+00 -9.596590E+00 -1.450899E+00  1.650857E+01 -1.169044E+00  5.638710E-01
      2693   7  3.507935E+00  9.596315E+00  1.725762E+00  1.052729E+01 -7.751054E-01 -6.974886E-01
      2693   8 -3.309558E+00 -9.693560E+00 -1.709341E+00  1.054411E+01 -7.808913E-01  6.203001E-01
      2694   1  3.983810E+00 -1.787606E+01  1.769166E+00  1.328276E+01  1.230465E+00  1.271749E+00
      2694   2 -2.376503E+00 -3.641646E+01 -8.914763E-01  1.303857E+01  1.213764E+00  2.489334E+00
      2694   3  2.870898E+00 -1.851746E+01  7.440837E-01  7.403144E+00  1.447457E+00  1.402000E+00
      2694   4 -3.718434E+00 -3.728688E+01 -2.450937E+00  7.158949E+00  1.422936E+00  2.721057E+00
      2694   5  3.829317E+00 -1.843728E+01  1.528286E+00  1.436503E+01 -1.174101E+00  1.529309E+00
      2694   6 -2.741938E+00 -3.745386E+01 -1.359319E+00  1.413105E+01 -1.191212E+00  2.951762E+00
      2694   7  2.755614E+00 -1.906342E+01  5.148371E-01  8.413505E+00 -7.828487E-01  1.660790E+00
      2694   8 -4.046821E+00 -3.831118E+01 -2.912186E+00  8.179531E+00 -8.078538E-01  3.185671E+00
      2695   1  4.747601E+00 -4.495396E+01  2.192726E+00  7.501347E+00  1.149172E+00  3.597586E+00
      2695   2 -1.646198E+00 -6.354595E+01 -5.279439E-01  6.986136E+00  1.118855E+00  5.407804E+00
      2695   3  2.323544E+00 -4.638320E+01 -1.473455E-01  1.612986E+00  1.354909E+00  3.902801E+00
      2695   4 -4.295692E+00 -6.520063E+01 -3.394037E+00  1.097775E+00  1.309544E+00  5.812329E+00
      2695   5  4.336533E+00 -4.629033E+01  1.606376E+00  7.870822E+00 -1.239911E+00  4.208804E+00
      2695   6 -2.263783E+00 -6.534842E+01 -1.336581E+00  7.375278E+00 -1.271018E+00  6.220656E+00
      2695   7  1.988134E+00 -4.769082E+01 -7.135438E-01  1.913343E+00 -8.630974E-01  4.516898E+00
      2695   8 -4.839746E+00 -6.697648E+01 -4.187484E+00  1.417799E+00 -9.093941E-01  6.628996E+00
      2696   1  1.174662E+00  5.463579E+01  3.366888E-01  6.539304E+00  9.888122E-01 -6.453215E+00
      2696   2 -4.338345E+00  3.859768E+01 -2.001888E+00  7.022899E+00  1.042946E+00 -4.357672E+00
      2696   3  3.573473E+00  5.610083E+01  2.821343E+00  1.458583E+00  1.208977E+00 -7.044039E+00
      2696   4 -2.113593E+00  3.988866E+01  7.662768E-02  1.942178E+00  1.278776E+00 -4.800164E+00
      2696   5  2.037326E+00  5.724178E+01  1.468480E+00  6.927921E+00 -1.135326E+00 -7.160155E+00
      2696   6 -3.778449E+00  4.051318E+01 -1.188832E+00  7.391042E+00 -1.080114E+00 -4.902749E+00
      2696   7  4.359545E+00  5.867812E+01  3.934048E+00  1.709259E+00 -7.893209E-01 -7.756552E+00
      2696   8 -1.631930E+00  4.177381E+01  8.667671E-01  2.172380E+00 -7.182963E-01 -5.349415E+00
      2697   1  2.021780E+00  3.129048E+01  7.408844E-01  1.250052E+01  1.100117E+00 -3.061631E+00
      2697   2 -3.516105E+00  1.518192E+01 -1.610176E+00  1.276275E+01  1.122394E+00 -1.616324E+00
      2697   3  3.361376E+00  3.212375E+01  2.178873E+00  7.397808E+00  1.273772E+00 -3.394461E+00
      2697   4 -2.377060E+00  1.581465E+01 -6.401382E-01  7.660028E+00  1.306226E+00 -1.797885E+00
      2697   5  2.547619E+00  3.277650E+01  1.398529E+00  1.357785E+01 -1.025157E+00 -3.479694E+00
      2697   6 -3.300615E+00  1.596219E+01 -1.281278E+00  1.382677E+01 -1.002180E+00 -1.849240E+00
      2697   7  3.838688E+00  3.359142E+01  2.823869E+00  8.333729E+00 -7.026795E-01 -3.815664E+00
      2697   8 -2.211989E+00  1.657467E+01 -3.283033E-01  8.582648E+00 -6.694294E-01 -2.032514E+00
      2698   1  2.842893E+00  7.882279E+00  1.138090E+00  1.470001E+01  1.121036E+00 -6.460366E-01
      2698   2 -2.654651E+00 -8.127243E+00 -1.177535E+00  1.472983E+01  1.113286E+00  5.595292E-01
      2698   3  3.045909E+00  8.027719E+00  1.419872E+00  9.625628E+00  1.273443E+00 -7.166869E-01
      2698   4 -2.662880E+00 -8.193048E+00 -1.388656E+00  9.655447E+00  1.263082E+00  6.406237E-01
      2698   5  3.015473E+00  8.224080E+00  1.304599E+00  1.601389E+01 -9.979503E-01 -7.399939E-01
      2698   6 -2.794088E+00 -8.494104E+00 -1.342422E+00  1.604712E+01 -1.005880E+00  6.600689E-01
      2698   7  3.229934E+00  8.374976E+00  1.593123E+00  1.079724E+01 -6.873677E-01 -8.113105E-01
      2698   8 -2.792864E+00 -8.556446E+00 -1.551450E+00  1.083047E+01 -6.979331E-01  7.419282E-01
      2699   1  3.616680E+00 -1.539860E+01  1.546204E+00  1.287619E+01  1.117593E+00  1.526367E+00
      2699   2 -1.834154E+00 -3.128993E+01 -7.319088E-01  1.265182E+01  1.084196E+00  2.962253E+00
      2699   3  2.595036E+00 -1.598701E+01  6.064983E-01  7.836314E+00  1.293003E+00  1.716868E+00
      2699   4 -3.066623E+00 -3.208917E+01 -2.163542E+00  7.611942E+00  1.245885E+00  3.299911E+00
      2699   5  3.422876E+00 -1.620337E+01  1.215211E+00  1.395195E+01 -9.983885E-01  1.769040E+00
      2699   6 -2.330954E+00 -3.278236E+01 -1.385238E+00  1.374551E+01 -1.032729E+00  3.398742E+00
      2699   7  2.465861E+00 -1.676550E+01  2.984698E-01  8.775214E+00 -6.655279E-01  1.961337E+00
      2699   8 -3.500784E+00 -3.355730E+01 -2.798548E+00  8.568775E+00 -7.137190E-01  3.739586E+00
      2700   1  4.385174E+00 -3.855566E+01  1.966208E+00  7.118397E+00  1.038549E+00  4.257024E+00
      2700   2 -1.085241E+00 -5.447727E+01 -3.469013E-01  6.631523E+00  9.805090E-01  6.358519E+00
      2700   3  2.120468E+00 -3.988026E+01 -1.844329E-01  2.073355E+00  1.267223E+00  4.703097E+00
      2700   4 -3.535885E+00 -5.598781E+01 -2.931397E+00  1.586481E+00  1.193474E+00  6.953626E+00
      2700   5  3.834114E+00 -4.048188E+01  1.149143E+00  7.495177E+00 -1.074783E+00  4.827507E+00
      2700   6 -1.941266E+00 -5.709801E+01 -1.485987E+00  7.028834E+00 -1.133904E+00  7.101263E+00
      2700   7  1.647661E+00 -4.177629E+01 -9.790915E-01  2.310982E+00 -7.103566E-01  5.277787E+00
      2700   8 -4.315410E+00 -5.858011E+01 -4.052168E+00  1.844639E+00 -7.853336E-01  7.701984E+00
      2701   1  8.683896E-01  4.697106E+01  1.069957E-01  6.030428E+00  8.303555E-01 -7.628468E+00
      2701   2 -3.903780E+00  3.303358E+01 -1.862758E+00  6.506724E+00  9.127584E-01 -5.116199E+00
      2701   3  2.831028E+00  4.808502E+01  1.857542E+00  1.947649E+00  9.291533E-01 -8.319636E+00
      2701   4 -2.003571E+00  3.408511E+01 -2.578811E-01  2.423945E+00  1.029079E+00 -5.642252E+00
      2701   5  1.855555E+00  5.014071E+01  1.420377E+00  6.484201E+00 -1.110629E+00 -8.123043E+00
      2701   6 -3.263348E+00  3.540086E+01 -9.027819E-01  6.936320E+00 -1.026821E+00 -5.540113E+00
      2701   7  3.758672E+00  5.122463E+01  3.130321E+00  2.126129E+00 -9.205796E-01 -8.802741E+00
      2701   8 -1.421624E+00  3.642338E+01  6.639105E-01  2.578247E+00 -8.195402E-01 -6.057437E+00
      2702   1  1.699404E+00  2.674464E+01  5.733000E-01  1.194616E+01  8.118839E-01 -3.573589E+00
      2702   2 -3.078411E+00  1.284690E+01 -1.455014E+00  1.217322E+01  8.557736E-01 -1.871369E+00
      2702   3  2.748330E+00  2.738899E+01  1.672210E+00  7.883600E+00  7.258024E-01 -3.973380E+00
      2702   4 -2.169484E+00  1.335125E+01 -6.827686E-01  8.110655E+00  7.847530E-01 -2.091321E+00
      2702   5  2.304427E+00  2.859560E+01  1.357463E+00  1.306950E+01 -1.076197E+00 -3.919228E+00
      2702   6 -2.856813E+00  1.381817E+01 -1.069239E+00  1.327578E+01 -1.031100E+00 -2.073815E+00
      2702   7  3.293752E+00  2.921117E+01  2.420053E+00  8.713583E+00 -1.010492E+00 -4.312384E+00
      2702   8 -2.005164E+00  1.429606E+01 -3.278925E-01  8.919857E+00 -9.505838E-01 -2.290116E+00
      2703   1  2.553284E+00  6.616776E+00  9.678092E-01  1.415337E+01  7.843373E-01 -7.317471E-01
      2703   2 -2.195557E+00 -7.183398E+00 -1.061487E+00  1.419923E+01  7.708732E-01  6.795374E-01
      2703   3  2.785461E+00  6.767242E+00  1.237185E+00  1.012136E+01  6.379427E-01 -8.174957E-01
      2703   4 -2.128653E+00 -7.198205E+00 -1.177748E+00  1.016722E+01  6.213507E-01  7.806003E-01
      2703   5  2.785151E+00  7.058268E+00  1.182208E+00  1.549920E+01 -1.076963E+00 -8.206546E-01
      2703   6 -2.363570E+00 -7.657296E+00 -1.264633E+00  1.554937E+01 -1.090678E+00  7.576295E-01
      2703   7  3.031946E+00  7.214153E+00  1.455030E+00  1.116564E+01 -1.052178E+00 -9.049801E-01
      2703   8 -2.279306E+00 -7.663942E+00 -1.371049E+00  1.121581E+01 -1.068968E+00  8.570152E-01
      2704   1  3.247352E+00 -1.332988E+01  1.308591E+00  1.245857E+01  8.312072E-01  1.806951E+00
      2704   2 -1.317829E+00 -2.668691E+01 -5.516480E-01  1.228248E+01  7.689087E-01  3.475819E+00
      2704   3  2.500829E+00 -1.376263E+01  6.126013E-01  8.542156E+00  7.431826E-01  2.038568E+00
      2704   4 -2.230577E+00 -2.728589E+01 -1.635497E+00  8.366063E+00  6.613743E-01  3.877302E+00
      2704   5  3.069479E+00 -1.432822E+01  9.282942E-01  1.358666E+01 -1.027570E+00  2.007119E+00
      2704   6 -1.860591E+00 -2.851889E+01 -1.314600E+00  1.343749E+01 -1.091432E+00  3.842504E+00
      2704   7  2.402321E+00 -1.472509E+01  2.725586E-01  9.391818E+00 -9.422536E-01  2.234892E+00
      2704   8 -2.691215E+00 -2.907923E+01 -2.351758E+00  9.242645E+00 -1.025302E+00  4.237325E+00
      2705   1  3.959341E+00 -3.281510E+01  1.788579E+00  6.738366E+00  8.890396E-01  5.001776E+00
      2705   2 -6.455216E-01 -4.630956E+01 -6.650729E-02  6.236812E+00  8.037714E-01  7.501900E+00
      2705   3  1.936716E+00 -3.394404E+01  4.808165E-02  2.778407E+00  9.865288E-01  5.522865E+00
      2705   4 -2.761516E+00 -4.753187E+01 -2.024865E+00  2.276853E+00  8.829887E-01  8.179893E+00
      2705   5  3.344638E+00 -3.515378E+01  8.388352E-01  7.183991E+00 -1.018271E+00  5.465450E+00
      2705   6 -1.592442E+00 -4.941343E+01 -1.358448E+00  6.707649E+00 -1.105004E+00  8.064036E+00
      2705   7  1.383171E+00 -3.625216E+01 -8.609528E-01  2.961078E+00 -8.039080E-01  5.977892E+00
      2705   8 -3.645728E+00 -5.060363E+01 -3.272481E+00  2.484735E+00 -9.086095E-01  8.730777E+00
      2706   1  4.118147E-01  4.017751E+01 -8.359661E-01  6.125345E+00  6.262814E-01 -8.312451E+00
      2706   2 -3.356502E+00  2.865634E+01 -1.875858E+00  6.546713E+00  7.417774E-01 -5.450796E+00
      2706   3  1.953482E+00  4.096837E+01  2.585589E-01  2.671763E+00  4.896174E-01 -8.962497E+00
      2706   4 -1.715184E+00  2.954685E+01 -5.488144E-01  3.093131E+00  6.238770E-01 -5.974451E+00
      2706   5  1.194892E+00  4.308239E+01  2.907200E-01  6.580306E+00 -1.222507E+00 -8.555368E+00
      2706   6 -2.829884E+00  3.095599E+01 -9.987999E-01  6.975785E+00 -1.106046E+00 -5.778877E+00
      2706   7  2.672864E+00  4.384379E+01  1.350747E+00  2.910450E+00 -1.395885E+00 -9.194625E+00
      2706   8 -1.253916E+00  3.181539E+01  2.898861E-01  3.305929E+00 -1.260972E+00 -6.293840E+00
      2707   1  1.388621E+00  2.322638E+01  3.844261E-01  1.189376E+01  1.925725E-01 -3.747904E+00
      2707   2 -2.827772E+00  1.093462E+01 -1.378456E+00  1.199153E+01  2.658070E-01 -1.957170E+00
      2707   3  2.014159E+00  2.367770E+01  1.263286E+00  8.296504E+00 -4.024906E-01 -4.161163E+00
      2707   4 -2.320315E+00  1.126785E+01 -7.751183E-01  8.394278E+00 -3.200095E-01 -2.195214E+00
      2707   5  1.924063E+00  2.509441E+01  1.134046E+00  1.297098E+01 -1.457419E+00 -4.064103E+00
      2707   6 -2.661033E+00  1.195044E+01 -1.005635E+00  1.305600E+01 -1.383709E+00 -2.155745E+00
      2707   7  2.508971E+00  2.552528E+01  1.985355E+00  9.093999E+00 -1.916461E+00 -4.470503E+00
      2707   8 -2.192247E+00  1.226518E+01 -4.252743E-01  9.179015E+00 -1.833657E+00 -2.389838E+00
      2708   1  2.363170E+00  5.505074E+00  8.426672E-01  1.397571E+01  6.100162E-02 -7.499479E-01
      2708   2 -1.869501E+00 -6.735942E+00 -1.025222E+00  1.401798E+01  4.417757E-02  7.575109E-01
      2708   3  2.600624E+00  5.667220E+00  1.145702E+00  1.040832E+01 -6.134227E-01 -8.470141E-01
      2708   4 -1.778724E+00 -6.720473E+00 -1.064434E+00  1.045058E+01 -6.281619E-01  8.703872E-01
      2708   5  2.636210E+00  6.007846E+00  1.084828E+00  1.525685E+01 -1.527996E+00 -8.521344E-01
      2708   6 -2.038508E+00 -7.254556E+00 -1.235163E+00  1.529624E+01 -1.544713E+00  8.010386E-01
      2708   7  2.865013E+00  6.165283E+00  1.380815E+00  1.136682E+01 -2.044356E+00 -9.475896E-01
      2708   8 -1.953948E+00 -7.241362E+00 -1.275743E+00  1.140621E+01 -2.059022E+00  9.120415E-01
      2709   1  2.976421E+00 -1.195304E+01  1.101064E+00  1.257759E+01  2.137698E-01  1.939399E+00
      2709   2 -7.839280E-01 -2.306498E+01 -3.214956E-01  1.250149E+01  1.172545E-01  3.660918E+00
      2709   3  2.583156E+00 -1.221071E+01  6.354397E-01  9.302754E+00 -3.855674E-01  2.187292E+00
      2709   4 -1.344583E+00 -2.349004E+01 -1.177695E+00  9.226654E+00 -4.913704E-01  4.067742E+00
      2709   5  2.890013E+00 -1.297189E+01  7.555860E-01  1.368274E+01 -1.362340E+00  2.095610E+00
      2709   6 -1.207872E+00 -2.485994E+01 -1.015985E+00  1.361946E+01 -1.459333E+00  3.979272E+00
      2709   7  2.535965E+00 -1.321127E+01  3.116997E-01  1.015397E+01 -1.785067E+00  2.339389E+00
      2709   8 -1.726531E+00 -2.526393E+01 -1.843964E+00  1.009069E+01 -1.891194E+00  4.379344E+00
      2710   1  3.358785E+00 -2.805669E+01  1.768537E+00  6.976440E+00  6.859757E-01  5.311908E+00
      2710   2 -1.720422E-04 -3.848410E+01  9.994266E-01  6.463351E+00  5.713714E-01  8.100980E+00
      2710   3  1.386643E+00 -2.911459E+01  2.143472E-01  3.827727E+00  5.414500E-01  5.812478E+00
      2710   4 -1.938414E+00 -3.950810E+01 -4.756641E-01  3.314638E+00  4.135762E-01  8.698733E+00
      2710   5  2.888693E+00 -3.024242E+01  9.386179E-01  7.427498E+00 -1.073268E+00  5.680026E+00
      2710   6 -6.696568E-01 -4.113741E+01 -2.756204E-02  6.932718E+00 -1.188555E+00  8.442912E+00
      2710   7  9.537816E-01 -3.128083E+01 -5.878498E-01  4.104165E+00 -1.200662E+00  6.172288E+00
      2710   8 -2.571231E+00 -4.214248E+01 -1.476243E+00  3.609384E+00 -1.328998E+00  9.030745E+00
      2711   1 -1.025382E+00  3.193302E+01 -3.220459E+00  6.801808E+00 -2.142698E-02 -7.730025E+00
      2711   2 -2.710923E+00  2.500822E+01 -1.914124E+00  7.295033E+00  9.165308E-02 -5.302543E+00
      2711   3  6.220207E-01  3.270157E+01 -2.306016E+00  4.467925E+00 -9.253262E-01 -8.340624E+00
      2711   4 -9.447220E-01  2.589557E+01 -7.224844E-01  4.961150E+00 -8.847835E-01 -5.927558E+00
      2711   5 -2.893614E-01  3.465696E+01 -2.178172E+00  7.304842E+00 -1.948586E+00 -7.844514E+00
      2711   6 -1.942372E+00  2.780447E+01 -8.357159E-01  7.898151E+00 -1.837150E+00 -5.526634E+00
      2711   7  1.699530E+00  3.557083E+01 -1.120835E+00  4.949594E+00 -2.909584E+00 -8.444979E+00
      2711   8  1.633466E-01  2.883516E+01  4.942178E-01  5.542903E+00 -2.869482E+00 -6.141277E+00
      2712   1  1.143827E+00  2.067073E+01  4.314979E-01  1.210682E+01 -1.203597E+00 -3.748932E+00
      2712   2 -3.013783E+00  8.727660E+00 -1.484131E+00  1.234082E+01 -1.112687E+00 -1.931871E+00
      2712   3  2.138722E+00  2.124869E+01  1.363114E+00  8.638711E+00 -2.433136E+00 -4.297813E+00
      2712   4 -2.036516E+00  9.287985E+00 -5.936475E-01  8.872706E+00 -2.320693E+00 -2.258331E+00
      2712   5  1.871276E+00  2.314971E+01  1.403850E+00  1.319595E+01 -2.658735E+00 -4.005360E+00
      2712   6 -2.747063E+00  1.013214E+01 -9.730406E-01  1.340023E+01 -2.567337E+00 -2.167041E+00
      2712   7  2.779872E+00  2.368817E+01  2.290096E+00  9.391287E+00 -3.834127E+00 -4.545132E+00
      2712   8 -1.855802E+00  1.065326E+01 -1.272444E-01  9.595571E+00 -3.721553E+00 -2.488084E+00
      2713   1  1.920786E+00  3.916378E+00  5.921045E-01  1.455916E+01 -1.484718E+00 -7.042732E-01
      2713   2 -1.605928E+00 -6.356280E+00 -8.909515E-01  1.453046E+01 -1.488829E+00  8.325235E-01
      2713   3  2.021156E+00  4.067901E+00  9.968097E-01  1.155411E+01 -2.817542E+00 -8.479602E-01
      2713   4 -1.645656E+00 -6.344856E+00 -8.131410E-01  1.152541E+01 -2.798741E+00  9.657638E-01
      2713   5  2.242520E+00  4.623163E+00  9.081215E-01  1.573784E+01 -2.811795E+00 -8.821962E-01
      2713   6 -1.860510E+00 -6.989998E+00 -1.155485E+00  1.567751E+01 -2.815386E+00  7.897458E-01
      2713   7  2.237985E+00  4.727925E+00  1.261865E+00  1.233592E+01 -3.991422E+00 -1.023499E+00
      2713   8 -2.002818E+00 -7.023008E+00 -1.123211E+00  1.227559E+01 -3.972481E+00  9.207750E-01
      2714   1  2.747008E+00 -1.068311E+01  1.028806E+00  1.341378E+01 -1.175770E+00  2.006595E+00
      2714   2 -4.986806E-01 -2.023078E+01 -2.424835E-01  1.300343E+01 -1.269224E+00  3.677423E+00
      2714   3  1.411922E+00 -1.128702E+01  3.508441E-01  1.060650E+01 -2.374614E+00  2.309505E+00
      2714   4 -1.981422E+00 -2.098235E+01 -1.264974E+00  1.019615E+01 -2.444065E+00  4.166951E+00
      2714   5  2.557192E+00 -1.195930E+01  5.868211E-01  1.449679E+01 -2.460816E+00  2.064546E+00
      2714   6 -1.078077E+00 -2.241153E+01 -1.078512E+00  1.405332E+01 -2.553725E+00  3.875423E+00
      2714   7  1.096424E+00 -1.261655E+01 -1.432489E-01  1.140886E+01 -3.499246E+00  2.362429E+00
      2714   8 -2.684050E+00 -2.321399E+01 -2.147393E+00  1.096539E+01 -3.568551E+00  4.356828E+00
      2715   1  2.534137E+00 -2.362316E+01  1.859819E+00  7.839754E+00  2.120170E-02  5.106631E+00
      2715   2  1.488282E+00 -2.873394E+01  3.484411E+00  7.180977E+00 -8.167893E-02  7.340471E+00
      2715   3  2.169087E-01 -2.476655E+01  3.657391E-01  6.028995E+00 -9.239479E-01  5.645268E+00
      2715   4 -8.447354E-01 -2.989312E+01  1.953489E+00  5.370218E+00 -9.535686E-01  7.826660E+00
      2715   5  1.910846E+00 -2.601710E+01  9.443163E-01  8.386105E+00 -1.701997E+00  5.360774E+00
      2715   6  9.731834E-01 -3.087494E+01  2.676623E+00  7.626247E+00 -1.803216E+00  7.607949E+00
      2715   7 -7.571960E-01 -2.730834E+01 -6.917982E-01  6.610350E+00 -2.594334E+00  5.890473E+00
      2715   8 -1.710385E+00 -3.218172E+01  1.004279E+00  5.850491E+00 -2.623509E+00  8.086070E+00
      2716   1  5.038974E+00  1.570846E+02  4.257570E+00  6.726105E+00  2.596989E+00 -8.737084E-02
      2716   2 -9.743732E+00  1.136544E+02 -1.587945E+00  7.041369E+00  2.659915E+00  4.184945E-01
      2716   3  6.540038E+00  1.580403E+02  5.942291E+00 -5.662178E+00  2.419630E+00 -3.840939E-01
      2716   4 -8.368123E+00  1.144847E+02 -1.959504E-01 -5.346915E+00  2.466057E+00  1.255365E-01
      2716   5  5.398612E+00  1.584411E+02  4.766493E+00  6.918181E+00 -2.984779E+00 -6.033118E-01
      2716   6 -9.391332E+00  1.149930E+02 -1.085214E+00  7.256881E+00 -2.921750E+00  2.134308E-02
      2716   7  6.979104E+00  1.594256E+02  6.467461E+00 -5.690164E+00 -3.046729E+00 -8.949649E-01
      2716   8 -7.934151E+00  1.158541E+02  3.280287E-01 -5.351463E+00 -2.999917E+00 -2.666092E-01
      2717   1 -2.607837E-01  9.058457E+01  2.932542E+00  1.106190E+01  2.386374E+00  7.694781E-01
      2717   2 -1.491224E+01  4.726869E+01 -2.589769E+00  1.223835E+01  2.453968E+00  1.222518E+00
      2717   3  3.623415E+00  9.243380E+01  5.212456E+00 -1.333716E+00  2.226562E+00  4.762069E-01
      2717   4 -1.117108E+01  4.897488E+01 -6.436107E-01 -1.572700E-01  2.289640E+00  9.246258E-01
      2717   5  8.905956E-02  9.192369E+01  3.435729E+00  1.141465E+01 -3.314949E+00  4.654013E-01
      2717   6 -1.455166E+01  4.863168E+01 -2.074648E+00  1.259751E+01 -3.247327E+00  1.053936E+00
      2717   7  4.049406E+00  9.380240E+01  5.737765E+00 -1.190673E+00 -3.343560E+00  1.771411E-01
      2717   8 -1.073190E+01  5.036980E+01 -1.006648E-01 -7.810678E-03 -3.280377E+00  7.611341E-01
      2718   1 -1.907947E+00  2.455075E+01  3.314578E+00  1.707022E+01  2.190203E+00  1.584910E+00
      2718   2 -1.810569E+01 -2.264746E+01 -3.479672E+00  1.841049E+01  2.259391E+00  2.121943E+00
      2718   3  2.208926E+00  2.634928E+01  5.192812E+00  3.664404E+00  2.091548E+00  1.278510E+00
      2718   4 -1.417416E+01 -2.103427E+01 -2.033905E+00  5.004675E+00  2.156143E+00  1.796920E+00
      2718   5 -1.532301E+00  2.595516E+01  3.847946E+00  1.742244E+01 -3.682097E+00  1.530214E+00
      2718   6 -1.768920E+01 -2.114930E+01 -2.903915E+00  1.876924E+01 -3.612879E+00  2.242895E+00
      2718   7  2.674177E+00  2.779151E+01  5.762636E+00  3.806861E+00 -3.612962E+00  1.229050E+00
      2718   8 -1.366489E+01 -1.949512E+01 -1.414302E+00  5.153657E+00 -3.548260E+00  1.923426E+00
      2719   1  4.000515E-01 -4.573837E+01  4.205598E+00  2.064145E+01  2.097612E+00  2.582680E+00
      2719   2 -1.790075E+01 -9.807877E+01 -4.456670E+00  2.170611E+01  2.193140E+00  3.304405E+00
      2719   3  3.341204E+00 -4.463882E+01  4.929613E+00  5.921403E+00  2.044235E+00  2.241476E+00
      2719   4 -1.520068E+01 -9.722031E+01 -4.295196E+00  6.986063E+00  2.128685E+00  2.937618E+00
      2719   5  7.314553E-01 -4.421044E+01  4.766452E+00  2.084949E+01 -3.921170E+00  2.851556E+00
      2719   6 -1.751332E+01 -9.642213E+01 -3.837784E+00  2.192989E+01 -3.825573E+00  3.801767E+00
      2719   7  3.781907E+00 -4.306130E+01  5.546476E+00  5.905528E+00 -3.759160E+00  2.516182E+00
      2719   8 -1.469984E+01 -9.550996E+01 -3.610690E+00  6.985925E+00 -3.674451E+00  3.441248E+00
      2720   1  8.012884E+00 -1.205123E+02  5.772579E+00  1.693160E+01  2.381412E+00  3.893273E+00
      2720   2 -1.165846E+01 -1.760771E+02 -4.233823E+00  1.647320E+01  2.553468E+00  4.780368E+00
      2720   3  5.921194E+00 -1.218111E+02  3.535042E+00  1.409899E+00  2.315880E+00  3.505111E+00
      2720   4 -1.400448E+01 -1.776302E+02 -7.064800E+00  9.514984E-01  2.454037E+00  4.359390E+00
      2720   5  8.082842E+00 -1.189043E+02  6.283595E+00  1.698919E+01 -3.653604E+00  4.562506E+00
      2720   6 -1.151698E+01 -1.743043E+02 -3.649168E+00  1.657894E+01 -3.481336E+00  5.690674E+00
      2720   7  6.127372E+00 -1.201379E+02  4.127353E+00  1.238677E+00 -3.491976E+00  4.180977E+00
      2720   8 -1.372243E+01 -1.757878E+02 -6.388709E+00  8.284341E-01 -3.353028E+00  5.276889E+00
      2721   1  5.791776E+00  1.539137E+02  5.155704E+00  8.903442E+00  2.676258E+00 -4.800101E-01
      2721   2 -9.762128E+00  1.089824E+02 -1.759253E+00  9.469862E+00  2.717085E+00  6.124926E-02
      2721   3  8.014060E+00  1.551563E+02  7.075140E+00 -3.800535E+00  2.202973E+00 -7.127954E-01
      2721   4 -7.685683E+00  1.100790E+02 -1.801093E-01 -3.234116E+00  2.230704E+00 -1.617354E-01
      2721   5  6.153532E+00  1.550032E+02  5.559527E+00  9.172076E+00 -2.687538E+00 -9.524783E-01
      2721   6 -9.416028E+00  1.100283E+02 -1.364116E+00  9.757100E+00 -2.646241E+00 -2.734514E-01
      2721   7  8.454247E+00  1.562744E+02  7.496051E+00 -3.765011E+00 -3.022346E+00 -1.181286E+00
      2721   8 -7.258660E+00  1.111562E+02  2.379314E-01 -3.179986E+00 -2.993922E+00 -4.926258E-01
      2722   1  3.210390E+00  8.694411E+01  3.814346E+00  1.356457E+01  2.504261E+00  4.369647E-01
      2722   2 -1.166985E+01  4.343346E+01 -2.275791E+00  1.439683E+01  2.557192E+00  9.221792E-01
      2722   3  5.978020E+00  8.827214E+01  5.473469E+00  1.183658E+00  2.058637E+00  2.154937E-01
      2722   4 -9.066542E+00  4.459716E+01 -1.000091E+00  2.015916E+00  2.107953E+00  6.950430E-01
      2722   5  3.533731E+00  8.797651E+01  4.205639E+00  1.401009E+01 -2.951608E+00  2.097276E-01
      2722   6 -1.132854E+01  4.449992E+01 -1.858681E+00  1.484748E+01 -2.898547E+00  8.507702E-01
      2722   7  6.356731E+00  8.932584E+01  5.880409E+00  1.421011E+00 -3.242208E+00 -7.958978E-03
      2722   8 -8.667060E+00  4.568773E+01 -5.607824E-01  2.258404E+00 -3.192701E+00  6.275153E-01
      2723   1  2.219388E+00  2.165614E+01  3.808283E+00  1.738323E+01  2.395298E+00  1.296013E+00
      2723   2 -1.335036E+01 -2.364255E+01 -2.792189E+00  1.827090E+01  2.448532E+00  1.832133E+00
      2723   3  4.857194E+00  2.275849E+01  4.844970E+00  4.527264E+00  1.995879E+00  1.058247E+00
      2723   4 -1.091226E+01 -2.273991E+01 -2.221480E+00  5.414937E+00  2.048430E+00  1.570991E+00
      2723   5  2.592912E+00  2.278228E+01  4.261243E+00  1.782943E+01 -3.170495E+00  1.351176E+00
      2723   6 -1.291987E+01 -2.239302E+01 -2.272713E+00  1.871807E+01 -3.117236E+00  2.077266E+00
      2723   7  5.281263E+00  2.390677E+01  5.321195E+00  4.779187E+00 -3.384425E+00  1.117473E+00
      2723   8 -1.042781E+01 -2.146482E+01 -1.670776E+00  5.667830E+00 -3.331838E+00  1.820587E+00
      2724   1  4.355985E+00 -4.508106E+01  4.678831E+00  1.807252E+01  2.358231E+00  2.283137E+00
      2724   2 -1.223006E+01 -9.286651E+01 -2.822528E+00  1.849337E+01  2.423090E+00  2.979184E+00
      2724   3  5.221977E+00 -4.494304E+01  4.272921E+00  4.580668E+00  1.990131E+00  1.997833E+00
      2724   4 -1.159876E+01 -9.296318E+01 -3.776057E+00  5.001518E+00  2.049186E+00  2.651242E+00
      2724   5  4.741268E+00 -4.374958E+01  5.219210E+00  1.834965E+01 -3.278329E+00  2.679720E+00
      2724   6 -1.174551E+01 -9.131462E+01 -2.171662E+00  1.877874E+01 -3.213262E+00  3.599565E+00
      2724   7  5.661772E+00 -4.358421E+01  4.849940E+00  4.676539E+00 -3.431132E+00  2.399291E+00
      2724   8 -1.105569E+01 -9.137993E+01 -3.079192E+00  5.105635E+00 -3.371770E+00  3.277227E+00
      2725   1  8.242265E+00 -1.135299E+02  5.764345E+00  1.245687E+01  2.590124E+00  3.538550E+00
      2725   2 -7.856972E+00 -1.601766E+02 -1.253112E+00  1.190435E+01  2.704464E+00  4.370718E+00
      2725   3  5.752918E+00 -1.150636E+02  3.141646E+00 -7.530347E-01  2.177589E+00  3.183002E+00
      2725   4 -1.058746E+01 -1.619514E+02 -4.438482E+00 -1.305559E+00  2.266117E+00  3.982386E+00
      2725   5  8.467942E+00 -1.119734E+02  6.349773E+00  1.255971E+01 -3.044984E+00  4.324869E+00
      2725   6 -7.552791E+00 -1.584484E+02 -5.776530E-01  1.204386E+01 -2.929719E+00  5.386592E+00
      2725   7  6.076403E+00 -1.134571E+02  3.795578E+00 -8.388690E-01 -3.237021E+00  3.975397E+00
      2725   8 -1.018135E+01 -1.601691E+02 -3.684904E+00 -1.354725E+00 -3.147127E+00  5.004895E+00
      2726   1  6.108185E+00  1.476551E+02  4.921299E+00  9.554302E+00  2.698469E+00 -9.481034E-01
      2726   2 -9.093587E+00  1.038886E+02 -1.984739E+00  1.019144E+01  2.722856E+00 -3.578883E-01
      2726   3  8.582641E+00  1.490275E+02  7.021371E+00 -2.798218E+00  1.961169E+00 -1.080439E+00
      2726   4 -6.782109E+00  1.050980E+02 -2.649489E-01 -2.161077E+00  1.981467E+00 -5.033554E-01
      2726   5  6.376183E+00  1.482867E+02  5.129257E+00  9.835777E+00 -2.401517E+00 -1.456336E+00
      2726   6 -8.786941E+00  1.045961E+02 -1.723911E+00  1.047873E+01 -2.376862E+00 -7.109106E-01
      2726   7  8.892731E+00  1.496718E+02  7.229605E+00 -2.715061E+00 -2.980850E+00 -1.586410E+00
      2726   8 -6.430586E+00  1.058210E+02  2.652774E-03 -2.072112E+00 -2.960215E+00 -8.538922E-01
      2727   1  5.126327E+00  8.310556E+01  3.992419E+00  1.476597E+01  2.580107E+00  4.787350E-02
      2727   2 -9.455534E+00  4.067763E+01 -2.185857E+00  1.532191E+01  2.615227E+00  5.662202E-01
      2727   3  7.065200E+00  8.408279E+01  5.310967E+00  2.724243E+00  1.886622E+00 -1.058069E-01
      2727   4 -7.700149E+00  4.147137E+01 -1.295449E+00  3.280187E+00  1.918027E+00  4.032323E-01
      2727   5  5.395452E+00  8.383509E+01  4.262976E+00  1.524121E+01 -2.583452E+00 -1.845088E-01
      2727   6 -9.154566E+00  4.146545E+01 -1.867446E+00  1.580243E+01 -2.548089E+00  5.082226E-01
      2727   7  7.375459E+00  8.482745E+01  5.590821E+00  3.001784E+00 -3.100876E+00 -3.355634E-01
      2727   8 -7.354914E+00  4.227745E+01 -9.604257E-01  3.563004E+00 -3.069164E+00  3.480196E-01
      2728   1  4.931589E+00  2.016422E+01  4.022303E+00  1.733355E+01  2.522998E+00  9.510068E-01
      2728   2 -9.875986E+00 -2.289260E+01 -2.279464E+00  1.778169E+01  2.557364E+00  1.483917E+00
      2728   3  6.218109E+00  2.067557E+01  4.440270E+00  5.117474E+00  1.860026E+00  7.732832E-01
      2728   4 -8.795396E+00 -2.258718E+01 -2.342001E+00  5.565614E+00  1.895430E+00  1.275242E+00
      2728   5  5.254854E+00  2.102673E+01  4.385982E+00  1.783653E+01 -2.701798E+00  1.028965E+00
      2728   6 -9.473290E+00 -2.186271E+01 -1.818385E+00  1.828319E+01 -2.667500E+00  1.758930E+00
      2728   7  6.561616E+00  2.154744E+01  4.814903E+00  5.446780E+00 -3.169316E+00  8.542785E-01
      2728   8 -8.368940E+00 -2.154442E+01 -1.861757E+00  5.893447E+00 -3.133999E+00  1.553821E+00
      2729   1  6.277054E+00 -4.302813E+01  4.640314E+00  1.635269E+01  2.505616E+00  1.924235E+00
      2729   2 -8.772778E+00 -8.669191E+01 -1.862019E+00  1.638185E+01  2.545083E+00  2.594297E+00
      2729   3  5.932048E+00 -4.342357E+01  3.667191E+00  3.978908E+00  1.864209E+00  1.688532E+00
      2729   4 -9.341602E+00 -8.731116E+01 -3.357382E+00  4.008064E+00  1.900555E+00  2.315703E+00
      2729   5  6.640876E+00 -4.189932E+01  5.137253E+00  1.670411E+01 -2.743838E+00  2.349989E+00
      2729   6 -8.302912E+00 -8.533519E+01 -1.239506E+00  1.673770E+01 -2.704166E+00  3.234826E+00
      2729   7  6.318461E+00 -4.228085E+01  4.187913E+00  4.168839E+00 -3.174519E+00  2.118313E+00
      2729   8 -8.845320E+00 -8.593671E+01 -2.702163E+00  4.202428E+00 -3.137916E+00  2.960993E+00
      2730   1  8.082856E+00 -1.064723E+02  5.387345E+00  1.065482E+01  2.640928E+00  3.139539E+00
      2730   2 -6.633699E+00 -1.493425E+02 -7.976185E-01  1.008819E+01  2.710347E+00  3.959106E+00
      2730   3  5.545494E+00 -1.080295E+02  2.733914E+00 -1.519927E+00  1.962990E+00  2.828997E+00
      2730   4 -9.398209E+00 -1.511269E+02 -3.981061E+00 -2.086553E+00  2.007618E+00  3.604170E+00
      2730   5  8.380482E+00 -1.050536E+02  5.995520E+00  1.081803E+01 -2.599255E+00  3.938486E+00
      2730   6 -6.226610E+00 -1.476882E+02 -6.015903E-02  1.028662E+01 -2.528214E+00  4.976081E+00
      2730   7  5.935808E+00 -1.065631E+02  3.408570E+00 -1.512863E+00 -3.063868E+00  3.633250E+00
      2730   8 -8.894551E+00 -1.494209E+02 -3.168064E+00 -2.044271E+00 -3.017194E+00  4.627211E+00
      2731   1  5.521355E+00  1.385305E+02  3.718785E+00  1.023768E+01  2.786423E+00 -1.452767E+00
      2731   2 -8.490748E+00  9.793067E+01 -2.388441E+00  1.083124E+01  2.799798E+00 -7.811969E-01
      2731   3  8.240727E+00  1.400852E+02  6.181815E+00 -2.804551E+00  1.965267E+00 -1.545526E+00
      2731   4 -5.973367E+00  9.928340E+01 -3.967245E-01 -2.210991E+00  1.971259E+00 -8.712308E-01
      2731   5  5.744766E+00  1.389370E+02  3.816894E+00  1.035607E+01 -2.037249E+00 -2.029642E+00
      2731   6 -8.257045E+00  9.834054E+01 -2.259309E+00  1.095912E+01 -2.023305E+00 -1.185116E+00
      2731   7  8.484020E+00  1.405039E+02  6.300486E+00 -2.569639E+00 -2.704170E+00 -2.123262E+00
      2731   8 -5.721657E+00  9.970353E+01 -2.514039E-01 -1.966585E+00 -2.697678E+00 -1.275986E+00
      2732   1  5.800355E+00  7.876481E+01  3.700247E+00  1.575911E+01  2.726377E+00 -3.355365E-01
      2732   2 -8.131192E+00  3.829349E+01 -2.266923E+00  1.614060E+01  2.743786E+00  2.104600E-01
      2732   3  7.436192E+00  7.965210E+01  5.022060E+00  2.740385E+00  1.922092E+00 -4.320941E-01
      2732   4 -6.712329E+00  3.896381E+01 -1.451382E+00  3.121876E+00  1.934763E+00  9.335432E-02
      2732   5  5.985265E+00  7.918449E+01  3.838142E+00  1.608802E+01 -2.131384E+00 -6.074860E-01
      2732   6 -7.889945E+00  3.882235E+01 -2.050423E+00  1.647560E+01 -2.113611E+00  1.261024E-01
      2732   7  7.632806E+00  8.007852E+01  5.170732E+00  3.214685E+00 -2.769323E+00 -7.049397E-01
      2732   8 -6.461391E+00  3.949740E+01 -1.228803E+00  3.602268E+00 -2.756331E+00  7.909922E-03
      2733   1  6.116432E+00  1.915303E+01  3.870201E+00  1.774826E+01  2.696196E+00  6.021531E-01
      2733   2 -7.773090E+00 -2.127392E+01 -2.001252E+00  1.791668E+01  2.713729E+00  1.126282E+00
      2733   3  6.640515E+00  1.934664E+01  3.991481E+00  4.730680E+00  1.909775E+00  4.655892E-01
      2733   4 -7.477798E+00 -2.130911E+01 -2.413820E+00  4.899105E+00  1.925211E+00  9.571052E-01
      2733   5  6.351426E+00  1.975788E+01  4.129392E+00  1.814588E+01 -2.192651E+00  6.591706E-01
      2733   6 -7.457576E+00 -2.050468E+01 -1.638061E+00  1.831700E+01 -2.174957E+00  1.381952E+00
      2733   7  6.878862E+00  1.995264E+01  4.251150E+00  5.288765E+00 -2.803175E+00  5.213393E-01
      2733   8 -7.161055E+00 -2.054083E+01 -2.055105E+00  5.459886E+00 -2.787597E+00  1.211205E+00
      2734   1  6.998796E+00 -4.018296E+01  4.389676E+00  1.610072E+01  2.683482E+00  1.553045E+00
      2734   2 -6.893181E+00 -8.061889E+01 -1.480978E+00  1.594415E+01  2.705605E+00  2.194855E+00
      2734   3  6.007291E+00 -4.086726E+01  3.100179E+00  3.079935E+00  1.906188E+00  1.356532E+00
      2734   4 -8.122689E+00 -8.154120E+01 -3.325813E+00  2.923370E+00  1.924284E+00  1.956270E+00
      2734   5  7.275006E+00 -3.932260E+01  4.791204E+00  1.637373E+01 -2.206038E+00  1.957295E+00
      2734   6 -6.517499E+00 -7.955087E+01 -9.555505E-01  1.622234E+01 -2.183606E+00  2.806380E+00
      2734   7  6.301846E+00 -4.000145E+01  3.501547E+00  3.525263E+00 -2.799924E+00  1.758958E+00
      2734   8 -7.730870E+00 -8.046992E+01 -2.805700E+00  3.373875E+00 -2.781556E+00  2.565581E+00
      2735   1  7.917106E+00 -9.924441E+01  4.998830E+00  1.053517E+01  2.749209E+00  2.730441E+00
      2735   2 -5.597851E+00 -1.387812E+02 -5.142330E-01  1.002424E+01  2.784662E+00  3.551881E+00
      2735   3  5.296435E+00 -1.008626E+02  2.225644E+00 -2.229492E+00  1.957979E+00  2.469431E+00
      2735   4 -8.456914E+00 -1.406378E+02 -3.843668E+00 -2.740419E+00  1.983646E+00  3.271677E+00
      2735   5  8.198340E+00 -9.812680E+01  5.534063E+00  1.060867E+01 -2.127839E+00  3.493181E+00
      2735   6 -5.261244E+00 -1.375589E+02  1.008406E-01  1.011033E+01 -2.091632E+00  4.520470E+00
      2735   7  5.628580E+00 -9.972773E+01  2.767383E+00 -2.014625E+00 -2.735375E+00  3.229749E+00
      2735   8 -8.071608E+00 -1.394004E+02 -3.227251E+00 -2.512967E+00 -2.709046E+00  4.237666E+00
      2736   1  5.127882E+00  1.293100E+02  2.910615E+00  9.896288E+00  2.536130E+00 -1.935103E+00
      2736   2 -7.914595E+00  9.144465E+01 -2.698987E+00  1.048205E+01  2.537678E+00 -1.180472E+00
      2736   3  7.904197E+00  1.309369E+02  5.557539E+00 -2.280224E+00  1.921009E+00 -1.972207E+00
      2736   4 -5.359375E+00  9.285053E+01 -5.679519E-01 -1.694465E+00  1.918865E+00 -1.225173E+00
      2736   5  5.267456E+00  1.294795E+02  2.922593E+00  1.000130E+01 -2.024975E+00 -2.588642E+00
      2736   6 -7.746901E+00  9.166183E+01 -2.640936E+00  1.059180E+01 -2.023202E+00 -1.644005E+00
      2736   7  8.048530E+00  1.311126E+02  5.585078E+00 -2.053752E+00 -2.468718E+00 -2.626090E+00
      2736   8 -5.188974E+00  9.307175E+01 -4.991269E-01 -1.463245E+00 -2.470672E+00 -1.689121E+00
      2737   1  5.746231E+00  7.369757E+01  3.162010E+00  1.542378E+01  2.499220E+00 -6.936083E-01
      2737   2 -7.244718E+00  3.592462E+01 -2.368200E+00  1.574321E+01  2.506407E+00 -1.181030E-01
      2737   3  7.223207E+00  7.454779E+01  4.519090E+00  3.267306E+00  1.888904E+00 -7.469100E-01
      2737   4 -5.993943E+00  3.654863E+01 -1.538924E+00  3.586731E+00  1.894322E+00 -1.873044E-01
      2737   5  5.860635E+00  7.392921E+01  3.225694E+00  1.577460E+01 -2.078320E+00 -1.016260E+00
      2737   6 -7.085869E+00  3.624159E+01 -2.241704E+00  1.609630E+01 -2.071026E+00 -2.458651E-01
      2737   7  7.338788E+00  7.478195E+01  4.589998E+00  3.749778E+00 -2.513153E+00 -1.070056E+00
      2737   8 -5.836017E+00  3.686603E+01 -1.410102E+00  4.071477E+00 -2.507643E+00 -3.157087E-01
      2738   1  6.353384E+00  1.821077E+01  3.510763E+00  1.729426E+01  2.490361E+00  2.840270E-01
      2738   2 -6.573286E+00 -1.944068E+01 -1.926685E+00  1.733773E+01  2.497647E+00  8.071614E-01
      2738   3  6.489195E+00  1.826127E+01  3.543292E+00  5.165846E+00  1.889458E+00  2.001648E-01
      2738   4 -6.668688E+00 -1.962139E+01 -2.433650E+00  5.209323E+00  1.893641E+00  6.991448E-01
      2738   5  6.493101E+00  1.857924E+01  3.664641E+00  1.773331E+01 -2.103983E+00  3.006901E-01
      2738   6 -6.372897E+00 -1.894942E+01 -1.693360E+00  1.778078E+01 -2.096509E+00  1.023512E+00
      2738   7  6.640989E+00  1.863485E+01  3.702108E+00  5.746620E+00 -2.525379E+00  2.160496E-01
      2738   8 -6.458367E+00 -1.912717E+01 -2.200394E+00  5.794087E+00 -2.521036E+00  9.144928E-01
      2739   1  7.034178E+00 -3.705406E+01  3.991485E+00  1.545768E+01  2.480700E+00  1.227776E+00
      2739   2 -5.811521E+00 -7.450125E+01 -1.380320E+00  1.520247E+01  2.490207E+00  1.853782E+00
      2739   3  5.742860E+00 -3.784461E+01  2.647659E+00  3.389754E+00  1.882321E+00  1.101550E+00
      2739   4 -7.336815E+00 -7.552577E+01 -3.270091E+00  3.134536E+00  1.885866E+00  1.701960E+00
      2739   5  7.208455E+00 -3.650116E+01  4.253442E+00  1.579146E+01 -2.103133E+00  1.591207E+00
      2739   6 -5.573623E+00 -7.381890E+01 -1.035744E+00  1.554391E+01 -2.093263E+00  2.419358E+00
      2739   7  5.947429E+00 -3.728092E+01  2.915263E+00  3.866488E+00 -2.519842E+00  1.463809E+00
      2739   8 -7.070797E+00 -7.483481E+01 -2.924934E+00  3.618937E+00 -2.515990E+00  2.266127E+00
      2740   1  7.660222E+00 -9.202845E+01  4.506088E+00  1.013011E+01  2.517457E+00  2.389507E+00
      2740   2 -5.078049E+00 -1.292048E+02 -7.784782E-01  9.601483E+00  2.536223E+00  3.227131E+00
      2740   3  5.024216E+00 -9.362722E+01  1.812873E+00 -1.857656E+00  1.911236E+00  2.220917E+00
      2740   4 -7.949714E+00 -1.310392E+02 -4.021564E+00 -2.386281E+00  1.923355E+00  3.038324E+00
      2740   5  7.843776E+00 -9.130180E+01  4.865797E+00  1.022128E+01 -2.052948E+00  3.103472E+00
      2740   6 -4.841147E+00 -1.283728E+02 -3.462857E-01  9.701206E+00 -2.033777E+00  4.144355E+00
      2740   7  5.245924E+00 -9.288857E+01  2.174423E+00 -1.630981E+00 -2.476222E+00  2.933317E+00
      2740   8 -7.676845E+00 -1.301974E+02 -3.592633E+00 -2.151058E+00 -2.463759E+00  3.953796E+00
      2741   1  4.658021E+00  1.198232E+02  2.247928E+00  9.422564E+00  2.296632E+00 -2.275310E+00
      2741   2 -7.373750E+00  8.483008E+01 -2.864880E+00  9.994448E+00  2.292067E+00 -1.478072E+00
      2741   3  7.453906E+00  1.214969E+02  5.031259E+00 -1.840804E+00  1.860005E+00 -2.287756E+00
      2741   4 -4.808909E+00  8.627280E+01 -6.206513E-01 -1.268920E+00  1.853943E+00 -1.497198E+00
      2741   5  4.751909E+00  1.198878E+02  2.230831E+00  9.530821E+00 -1.971770E+00 -2.988169E+00
      2741   6 -7.256621E+00  8.493515E+01 -2.844928E+00  1.010463E+01 -1.976267E+00 -1.992560E+00
      2741   7  7.544015E+00  1.215644E+02  5.027253E+00 -1.620629E+00 -2.227444E+00 -3.000731E+00
      2741   8 -4.697702E+00  8.637852E+01 -5.926104E-01 -1.046819E+00 -2.233453E+00 -2.011863E+00
      2742   1  5.405301E+00  6.847089E+01  2.653847E+00  1.494716E+01  2.266434E+00 -9.665296E-01
      2742   2 -6.608794E+00  3.350174E+01 -2.423993E+00  1.523260E+01  2.269329E+00 -3.662066E-01
      2742   3  6.816725E+00  6.932223E+01  4.080237E+00  3.686871E+00  1.833433E+00 -9.920416E-01
      2742   4 -5.430356E+00  3.412010E+01 -1.541236E+00  3.972314E+00  1.834680E+00 -4.024872E-01
      2742   5  5.466046E+00  6.857961E+01  2.671177E+00  1.531310E+01 -2.012378E+00 -1.335123E+00
      2742   6 -6.516833E+00  3.366938E+01 -2.361523E+00  1.560066E+01 -2.009409E+00 -5.345806E-01
      2742   7  6.879665E+00  6.943418E+01  4.106131E+00  4.169810E+00 -2.262891E+00 -1.360872E+00
      2742   8 -5.338362E+00  3.428880E+01 -1.475247E+00  4.457370E+00 -2.261584E+00 -5.711979E-01
      2743   1  6.054258E+00  1.713438E+01  3.074240E+00  1.680616E+01  2.269131E+00  4.682277E-02
      2743   2 -5.899438E+00 -1.771175E+01 -1.925278E+00  1.680964E+01  2.269893E+00  5.749170E-01
      2743   3  6.093306E+00  1.716659E+01  3.142555E+00  5.576579E+00  1.838825E+00  1.349604E-03
      2743   4 -6.095183E+00 -1.791434E+01 -2.404813E+00  5.580064E+00  1.837441E+00  5.150979E-01
      2743   5  6.137956E+00  1.733663E+01  3.157920E+00  1.727495E+01 -2.020492E+00  2.564563E-02
      2743   6 -5.777543E+00 -1.743441E+01 -1.789368E+00  1.728119E+01 -2.019634E+00  7.556694E-01
      2743   7  6.186534E+00  1.737307E+01  3.230799E+00  6.166560E+00 -2.266885E+00 -2.024954E-02
      2743   8 -5.965938E+00 -1.763495E+01 -2.269424E+00  6.172805E+00 -2.268192E+00  6.952951E-01
      2744   1  6.660170E+00 -3.404579E+01  3.550479E+00  1.500665E+01  2.260687E+00  9.963127E-01
      2744   2 -5.244128E+00 -6.875572E+01 -1.420591E+00  1.473364E+01  2.260291E+00  1.619493E+00
      2744   3  5.342973E+00 -3.482731E+01  2.262615E+00  3.819655E+00  1.830547E+00  9.257065E-01
      2744   4 -6.796571E+00 -6.977248E+01 -3.257361E+00  3.546648E+00  1.827170E+00  1.533762E+00
      2744   5  6.773483E+00 -3.372809E+01  3.709291E+00  1.536898E+01 -2.015477E+00  1.325043E+00
      2744   6 -5.091096E+00 -6.835940E+01 -1.207999E+00  1.509981E+01 -2.015739E+00  2.150575E+00
      2744   7  5.474424E+00 -3.450385E+01  2.422488E+00  4.303763E+00 -2.261401E+00  1.253781E+00
      2744   8 -6.627584E+00 -6.937258E+01 -3.048803E+00  4.034590E+00 -2.264672E+00  2.064049E+00
      2745   1  7.271400E+00 -8.504862E+01  4.033116E+00  9.769600E+00  2.284040E+00  2.154302E+00
      2745   2 -4.619548E+00 -1.197039E+02 -9.481413E-01  9.235232E+00  2.292313E+00  2.992246E+00
      2745   3  4.649198E+00 -8.662231E+01  1.409678E+00 -1.397114E+00  1.849252E+00  2.057741E+00
      2745   4 -7.477249E+00 -1.215130E+02 -4.121078E+00 -1.931483E+00  1.854252E+00  2.881222E+00
      2745   5  7.375260E+00 -8.462917E+01  4.251283E+00  9.871952E+00 -1.977149E+00  2.833585E+00
      2745   6 -4.477233E+00 -1.192087E+02 -6.774445E-01  9.341791E+00 -1.968729E+00  3.874070E+00
      2745   7  4.776942E+00 -8.619680E+01  1.624163E+00 -1.174005E+00 -2.227564E+00  2.736128E+00
      2745   8 -7.313237E+00 -1.210141E+02 -3.859163E+00 -1.704165E+00 -2.222447E+00  3.762016E+00
      2746   1  4.158939E+00  1.102638E+02  1.754280E+00  8.928371E+00  2.063931E+00 -2.519630E+00
      2746   2 -6.879692E+00  7.812401E+01 -2.901411E+00  9.489757E+00  2.057030E+00 -1.693048E+00
      2746   3  6.972719E+00  1.119760E+02  4.648028E+00 -1.422497E+00  1.781789E+00 -2.531963E+00
      2746   4 -4.303580E+00  7.959860E+01 -5.622204E-01 -8.611108E-01  1.774811E+00 -1.706561E+00
      2746   5  4.242358E+00  1.103303E+02  1.755097E+00  9.045972E+00 -1.893083E+00 -3.278937E+00
      2746   6 -6.787165E+00  7.820266E+01 -2.882375E+00  9.607456E+00 -1.899982E+00 -2.248571E+00
      2746   7  7.046970E+00  1.120433E+02  4.660579E+00 -1.208244E+00 -1.987603E+00 -3.291385E+00
      2746   8 -4.222425E+00  7.967581E+01 -5.365955E-01 -6.467595E-01 -1.994579E+00 -2.262209E+00
      2747   1  4.918636E+00  6.311283E+01  2.215437E+00  1.443766E+01  2.039930E+00 -1.162928E+00
      2747   2 -6.117219E+00  3.096637E+01 -2.424290E+00  1.471364E+01  2.040090E+00 -5.411928E-01
      2747   3  6.340364E+00  6.399305E+01  3.727778E+00  4.082143E+00  1.762406E+00 -1.178126E+00
      2747   4 -4.934184E+00  3.160790E+01 -1.468896E+00  4.358120E+00  1.761886E+00 -5.598171E-01
      2747   5  4.960619E+00  6.317888E+01  2.224218E+00  1.481798E+01 -1.925175E+00 -1.568925E+00
      2747   6 -6.061765E+00  3.105470E+01 -2.392887E+00  1.509483E+01 -1.924995E+00 -7.424628E-01
      2747   7  6.381006E+00  6.406104E+01  3.744366E+00  4.561962E+00 -2.014271E+00 -1.584264E+00
      2747   8 -4.882285E+00  3.169595E+01 -1.434856E+00  4.838812E+00 -2.014778E+00 -7.612600E-01
      2748   1  5.580297E+00  1.593138E+01  2.668154E+00  1.632997E+01  2.046362E+00 -1.158320E-01
      2748   2 -5.416203E+00 -1.613735E+01 -1.918115E+00  1.632635E+01  2.043687E+00  4.245406E-01
      2748   3  5.628259E+00  1.598644E+01  2.803741E+00  5.993274E+00  1.770045E+00 -1.375774E-01
      2748   4 -5.607677E+00 -1.632172E+01 -2.341214E+00  5.989655E+00  1.766473E+00  3.976942E-01
      2748   5  5.631856E+00  1.603238E+01  2.710912E+00  1.681728E+01 -1.927450E+00 -1.669798E-01
      2748   6 -5.347920E+00 -1.600651E+01 -1.849454E+00  1.681481E+01 -1.930099E+00  5.788067E-01
      2748   7  5.684415E+00  1.608973E+01  2.849536E+00  6.582006E+00 -2.014754E+00 -1.889270E-01
      2748   8 -5.537019E+00 -1.619081E+01 -2.274701E+00  6.579539E+00 -2.018308E+00  5.517111E-01
      2749   1  6.196170E+00 -3.116559E+01  3.147232E+00  1.458693E+01  2.037712E+00  8.531517E-01
      2749   2 -4.781612E+00 -6.316902E+01 -1.441945E+00  1.431295E+01  2.032799E+00  1.483766E+00
      2749   3  4.901266E+00 -3.192289E+01  1.917802E+00  4.273086E+00  1.760898E+00  8.223942E-01
      2749   4 -6.315331E+00 -6.416514E+01 -3.228610E+00  3.999098E+00  1.754836E+00  1.447425E+00
      2749   5  6.260374E+00 -3.101925E+01  3.228042E+00  1.496567E+01 -1.922504E+00  1.157601E+00
      2749   6 -4.699771E+00 -6.299068E+01 -1.334343E+00  1.469316E+01 -1.927384E+00  1.993111E+00
      2749   7  4.975860E+00 -3.177398E+01  1.996805E+00  4.753638E+00 -2.010849E+00  1.126558E+00
      2749   8 -6.225316E+00 -6.398644E+01 -3.127985E+00  4.481128E+00 -2.016889E+00  1.956432E+00
      2750   1  6.845574E+00 -7.816855E+01  3.614921E+00  9.376633E+00  2.053037E+00  2.023138E+00
      2750   2 -4.142607E+00 -1.101726E+02 -1.008298E+00  8.838521E+00  2.056112E+00  2.866114E+00
      2750   3  4.230470E+00 -7.972780E+01  1.032524E+00 -9.324195E-01  1.771820E+00  1.982671E+00
      2750   4 -6.995497E+00 -1.119696E+02 -4.145529E+00 -1.470531E+00  1.773163E+00  2.819961E+00
      2750   5  6.879603E+00 -7.799268E+01  3.716133E+00  9.490085E+00 -1.892403E+00  2.682154E+00
      2750   6 -4.090774E+00 -1.099643E+02 -8.801656E-01  8.954201E+00 -1.889278E+00  3.729146E+00
      2750   7  4.281947E+00 -7.954852E+01  1.127649E+00 -7.170667E-01 -1.986007E+00  2.641312E+00
      2750   8 -6.928422E+00 -1.117601E+02 -4.028633E+00 -1.252951E+00 -1.984631E+00  3.682564E+00
      2751   1  3.650866E+00  1.006682E+02  1.409387E+00  8.448965E+00  1.837761E+00 -2.715760E+00
      2751   2 -6.417827E+00  7.134313E+01 -2.827870E+00  9.003720E+00  1.831144E+00 -1.861411E+00
      2751   3  6.488929E+00  1.024177E+02  4.403164E+00 -9.969832E-01  1.688247E+00 -2.749286E+00
      2751   4 -3.823616E+00  7.284883E+01 -4.030818E-01 -4.422278E-01  1.682919E+00 -1.888001E+00
      2751   5  3.756579E+00  1.008299E+02  1.469113E+00  8.575979E+00 -1.793936E+00 -3.515334E+00
      2751   6 -6.322400E+00  7.147673E+01 -2.774308E+00  9.129077E+00 -1.800569E+00 -2.452019E+00
      2751   7  6.580148E+00  1.025782E+02  4.473173E+00 -7.917810E-01 -1.749721E+00 -3.549170E+00
      2751   8 -3.744946E+00  7.297890E+01 -3.445171E-01 -2.386830E-01 -1.755053E+00 -2.478857E+00
      2752   1  4.398722E+00  5.766666E+01  1.868872E+00  1.394048E+01  1.822763E+00 -1.311853E+00
      2752   2 -5.669489E+00  2.833193E+01 -2.357106E+00  1.421497E+01  1.822113E+00 -6.647829E-01
      2752   3  5.851663E+00  5.858100E+01  3.463743E+00  4.489548E+00  1.680934E+00 -1.333558E+00
      2752   4 -4.461516E+00  2.900131E+01 -1.333827E+00  4.764042E+00  1.680662E+00 -6.800766E-01
      2752   5  4.448800E+00  5.776417E+01  1.901933E+00  1.433146E+01 -1.815635E+00 -1.749136E+00
      2752   6 -5.628673E+00  2.840369E+01 -2.329165E+00  1.460547E+01 -1.816289E+00 -8.921381E-01
      2752   7  5.896161E+00  5.867883E+01  3.503436E+00  4.959420E+00 -1.762839E+00 -1.771043E+00
      2752   8 -4.428553E+00  2.907111E+01 -1.304560E+00  5.233430E+00 -1.763113E+00 -9.075738E-01
      2753   1  5.071438E+00  1.463064E+01  2.320565E+00  1.586029E+01  1.831570E+00 -2.222025E-01
      2753   2 -4.974164E+00 -1.466378E+01 -1.870354E+00  1.585842E+01  1.827677E+00  3.398795E-01
      2753   3  5.150899E+00  1.471378E+01  2.518227E+00  6.418041E+00  1.691775E+00 -2.330642E-01
      2753   4 -5.140230E+00 -1.482617E+01 -2.245589E+00  6.416168E+00  1.687842E+00  3.347148E-01
      2753   5  5.108251E+00  1.468571E+01  2.346240E+00  1.635893E+01 -1.814595E+00 -2.957009E-01
      2753   6 -4.945227E+00 -1.463124E+01 -1.848406E+00  1.635711E+01 -1.818487E+00  4.767975E-01
      2753   7  5.188744E+00  1.476974E+01  2.545862E+00  6.996382E+00 -1.759309E+00 -3.066634E-01
      2753   8 -5.112540E+00 -1.479501E+01 -2.226997E+00  6.994560E+00 -1.763242E+00  4.715849E-01
      2754   1  5.720162E+00 -2.836586E+01  2.789507E+00  1.415541E+01  1.821907E+00  7.833234E-01
      2754   2 -4.324504E+00 -5.763811E+01 -1.420470E+00  1.388345E+01  1.815258E+00  1.432753E+00
      2754   3  4.447361E+00 -2.910504E+01  1.598382E+00  4.723577E+00  1.681095E+00  7.822085E-01
      2754   4 -5.841709E+00 -5.862169E+01 -3.181869E+00  4.451618E+00  1.673921E+00  1.437005E+00
      2754   5  5.743970E+00 -2.834910E+01  2.809125E+00  1.454433E+01 -1.811769E+00  1.073926E+00
      2754   6 -4.307951E+00 -5.764241E+01 -1.403976E+00  1.427304E+01 -1.818411E+00  1.932812E+00
      2754   7  4.478905E+00 -2.908676E+01  1.615323E+00  5.192516E+00 -1.758432E+00  1.072801E+00
      2754   8 -5.819687E+00 -5.862674E+01 -3.173343E+00  4.921232E+00 -1.765604E+00  1.937104E+00
      2755   1  6.408926E+00 -7.131713E+01  3.238585E+00  8.954295E+00  1.828791E+00  1.984536E+00
      2755   2 -3.649111E+00 -1.005997E+02 -1.005656E+00  8.414317E+00  1.828912E+00  2.842607E+00
      2755   3  3.793212E+00 -7.287333E+01  6.669720E-01 -4.760308E-01  1.681275E+00  1.992466E+00
      2755   4 -6.507267E+00 -1.023983E+02 -4.142967E+00 -1.016009E+00  1.679856E+00  2.855216E+00
      2755   5  6.379464E+00 -7.135338E+01  3.235607E+00  9.077170E+00 -1.791879E+00  2.637317E+00
      2755   6 -3.684526E+00 -1.006539E+02 -1.010488E+00  8.539173E+00 -1.791738E+00  3.703172E+00
      2755   7  3.780471E+00 -7.290645E+01  6.576988E-01 -2.722914E-01 -1.746842E+00  2.645320E+00
      2755   8 -6.528211E+00 -1.024517E+02 -4.159345E+00 -8.102885E-01 -1.748256E+00  3.715898E+00
      2756   1  3.133996E+00  9.100921E+01  1.187799E+00  7.984335E+00  1.619702E+00 -2.915519E+00
      2756   2 -5.977412E+00  6.448459E+01 -2.658940E+00  8.535163E+00  1.615972E+00 -2.025898E+00
      2756   3  6.005207E+00  9.279962E+01  4.284603E+00 -5.574831E-01  1.581948E+00 -2.992559E+00
      2756   4 -3.357459E+00  6.602374E+01 -1.484014E-01 -6.654580E-03  1.581295E+00 -2.084616E+00
      2756   5  3.295879E+00  9.136354E+01  1.348433E+00  8.118891E+00 -1.673934E+00 -3.755756E+00
      2756   6 -5.851723E+00  6.475561E+01 -2.535638E+00  8.665762E+00 -1.677654E+00 -2.650672E+00
      2756   7  6.145328E+00  9.314982E+01  4.453230E+00 -3.672850E-01 -1.511096E+00 -3.833511E+00
      2756   8 -3.255862E+00  6.628829E+01 -2.254649E-02  1.795864E-01 -1.511710E+00 -2.709935E+00
      2757   1  3.878907E+00  5.214881E+01  1.611165E+00  1.346291E+01  1.620025E+00 -1.449569E+00
      2757   2 -5.229992E+00  2.562219E+01 -2.225212E+00  1.373753E+01  1.620425E+00 -7.646300E-01
      2757   3  5.365785E+00  5.309685E+01  3.284447E+00  4.918886E+00  1.595446E+00 -1.494263E+00
      2757   4 -3.996241E+00  2.631711E+01 -1.142561E+00  5.193498E+00  1.597305E+00 -7.893311E-01
      2757   5  3.962043E+00  5.234970E+01  1.699578E+00  1.385799E+01 -1.678531E+00 -1.916024E+00
      2757   6 -5.186281E+00  2.573224E+01 -2.177371E+00  1.413072E+01 -1.678126E+00 -1.014013E+00
      2757   7  5.438911E+00  5.329635E+01  3.378185E+00  5.367531E+00 -1.500992E+00 -1.961133E+00
      2757   8 -3.964890E+00  2.642341E+01 -1.094877E+00  5.640266E+00 -1.499114E+00 -1.038943E+00
      2758   1  4.569319E+00  1.326630E+01  2.030754E+00  1.539697E+01  1.633054E+00 -2.945612E-01
      2758   2 -4.525955E+00 -1.323958E+01 -1.780950E+00  1.539767E+01  1.629231E+00  3.047518E-01
      2758   3  4.676935E+00  1.337254E+01  2.277273E+00  6.856428E+00  1.612418E+00 -3.045834E-01
      2758   4 -4.672249E+00 -1.338724E+01 -2.126885E+00  6.857129E+00  1.608937E+00  3.148397E-01
      2758   5  4.605725E+00  1.331893E+01  2.058084E+00  1.589866E+01 -1.672406E+00 -3.847904E-01
      2758   6 -4.529203E+00 -1.327832E+01 -1.794423E+00  1.589892E+01 -1.676228E+00  4.322654E-01
      2758   7  4.712799E+00  1.342550E+01  2.306231E+00  7.411514E+00 -1.490271E+00 -3.949056E-01
      2758   8 -4.678395E+00 -1.342802E+01 -2.144229E+00  7.411775E+00 -1.493747E+00  4.424470E-01
      2759   1  5.253626E+00 -2.559747E+01  2.465545E+00  1.371176E+01  1.621300E+00  7.747361E-01
      2759   2 -3.849285E+00 -5.210392E+01 -1.371039E+00  1.344160E+01  1.613626E+00  1.459444E+00
      2759   3  3.991908E+00 -2.632909E+01  1.288526E+00  5.174685E+00  1.598750E+00  7.993715E-01
      2759   4 -5.363475E+00 -5.308802E+01 -3.137161E+00  4.904523E+00  1.590235E+00  1.503714E+00
      2759   5  5.241667E+00 -2.569376E+01  2.431105E+00  1.410385E+01 -1.673375E+00  1.061197E+00
      2759   6 -3.899973E+00 -5.228944E+01 -1.445353E+00  1.383477E+01 -1.681051E+00  1.962415E+00
      2759   7  3.989061E+00 -2.642325E+01  1.252085E+00  5.620733E+00 -1.494330E+00  1.086061E+00
      2759   8 -5.407395E+00 -5.327374E+01 -3.218942E+00  5.351653E+00 -1.502856E+00  2.007096E+00
      2760   1  5.976431E+00 -6.444413E+01  2.878827E+00  8.514647E+00  1.614886E+00  2.035022E+00
      2760   2 -3.139238E+00 -9.096444E+01 -9.864268E-01  7.973821E+00  1.611945E+00  2.922820E+00
      2760   3  3.349079E+00 -6.601030E+01  2.856061E-01 -2.296456E-02  1.581024E+00  2.092906E+00
      2760   4 -6.016173E+00 -9.278020E+01 -4.162008E+00 -5.637909E-01  1.575465E+00  2.998268E+00
      2760   5  5.881279E+00 -6.469908E+01  2.769261E+00  8.643861E+00 -1.669821E+00  2.695580E+00
      2760   6 -3.269116E+00 -9.129929E+01 -1.131849E+00  8.106402E+00 -1.672771E+00  3.797404E+00
      2760   7  3.275310E+00 -6.626017E+01  1.715882E-01  1.627995E-01 -1.504431E+00  2.754001E+00
      2760   8 -6.126984E+00 -9.311228E+01 -4.317286E+00 -3.746597E-01 -1.510023E+00  3.873551E+00
      2761   1  2.598535E+00  8.123123E+01  1.072636E+00  7.527539E+00  1.412280E+00 -3.179903E+00
      2761   2 -5.557542E+00  5.752138E+01 -2.404430E+00  8.077153E+00  1.414969E+00 -2.235586E+00
      2761   3  5.516659E+00  8.307093E+01  4.286850E+00 -1.021572E-01  1.464746E+00 -3.330043E+00
      2761   4 -2.900305E+00  5.910019E+01  2.010454E-01  4.474570E-01  1.473445E+00 -2.350229E+00
      2761   5  2.860042E+00  8.190641E+01  1.388434E+00  7.667225E+00 -1.529860E+00 -4.066596E+00
      2761   6 -5.369584E+00  5.803171E+01 -2.168956E+00  8.209111E+00 -1.527055E+00 -2.897931E+00
      2761   7  5.744087E+00  8.373697E+01  4.606265E+00  6.331364E-02 -1.268452E+00 -4.218130E+00
      2761   8 -2.748848E+00  5.959897E+01  4.344881E-01  6.051994E-01 -1.259581E+00 -3.013638E+00
      2762   1  3.358851E+00  4.654698E+01  1.432377E+00  1.300240E+01  1.438279E+00 -1.616585E+00
      2762   2 -4.792498E+00  2.284531E+01 -2.037116E+00  1.327794E+01  1.441697E+00 -8.697594E-01
      2762   3  4.882853E+00  4.753034E+01  3.186239E+00  5.374398E+00  1.511679E+00 -1.703602E+00
      2762   4 -3.532488E+00  2.356468E+01 -8.992370E-01  5.649935E+00  1.517925E+00 -9.167975E-01
      2762   5  3.504746E+00  4.693565E+01  1.612249E+00  1.339192E+01 -1.505685E+00 -2.113689E+00
      2762   6 -4.728859E+00  2.304890E+01 -1.946355E+00  1.366382E+01 -1.502212E+00 -1.139766E+00
      2762   7  5.013039E+00  4.791534E+01  3.369593E+00  5.784088E+00 -1.220778E+00 -2.201514E+00
      2762   8 -3.487009E+00  2.376215E+01 -8.107092E-01  6.055988E+00 -1.214451E+00 -1.187241E+00
      2763   1  4.079260E+00  1.185784E+01  1.788046E+00  1.494416E+01  1.458985E+00 -3.540045E-01
      2763   2 -4.061878E+00 -1.182907E+01 -1.662173E+00  1.494721E+01  1.455727E+00  3.082388E-01
      2763   3  4.209963E+00  1.198255E+01  2.073047E+00  7.318390E+00  1.538715E+00 -3.714335E-01
      2763   4 -4.196292E+00 -1.196948E+01 -1.995776E+00  7.321444E+00  1.535803E+00  3.317242E-01
      2763   5  4.129273E+00  1.194465E+01  1.833149E+00  1.543722E+01 -1.490612E+00 -4.574054E-01
      2763   6 -4.095948E+00 -1.193157E+01 -1.708035E+00  1.543983E+01 -1.493864E+00  4.329167E-01
      2763   7  4.259480E+00  1.206978E+01  2.120063E+00  7.830425E+00 -1.198423E+00 -4.749962E-01
      2763   8 -4.233318E+00 -1.207401E+01 -2.045466E+00  7.833034E+00 -1.201325E+00  4.566201E-01
      2764   1  4.802565E+00 -2.281821E+01  2.158014E+00  1.326724E+01  1.443486E+00  8.237254E-01
      2764   2 -3.349197E+00 -4.651605E+01 -1.316685E+00  1.299817E+01  1.433882E+00  1.569818E+00
      2764   3  3.540239E+00 -2.355258E+01  9.724268E-01  5.641323E+00  1.520251E+00  8.768296E-01
      2764   4 -4.875089E+00 -4.751399E+01 -3.117259E+00  5.372255E+00  1.508550E+00  1.662928E+00
      2764   5  4.753386E+00 -2.303816E+01  2.065853E+00  1.365247E+01 -1.497405E+00  1.114876E+00
      2764   6 -3.480675E+00 -4.692119E+01 -1.497987E+00  1.338610E+01 -1.507050E+00  2.087701E+00
      2764   7  3.505587E+00 -2.376811E+01  8.805097E-01  6.046663E+00 -1.209451E+00  1.168473E+00
      2764   8 -4.994486E+00 -4.791715E+01 -3.304026E+00  5.780290E+00 -1.221212E+00  2.181674E+00
      2765   1  5.559563E+00 -5.749519E+01  2.509097E+00  8.068596E+00  1.415228E+00  2.187471E+00
      2765   2 -2.606272E+00 -8.121723E+01 -9.883092E-01  7.526474E+00  1.406782E+00  3.128838E+00
      2765   3  2.904573E+00 -5.908645E+01 -1.401381E-01  4.377080E-01  1.474563E+00  2.308307E+00
      2765   4 -5.520882E+00 -8.306812E+01 -4.243326E+00 -1.044140E-01  1.460808E+00  3.285420E+00
      2765   5  5.383890E+00 -5.802327E+01  2.271190E+00  8.199923E+00 -1.520117E+00  2.870065E+00
      2765   6 -2.855950E+00 -8.191125E+01 -1.306962E+00  7.664629E+00 -1.528665E+00  4.034699E+00
      2765   7  2.761881E+00 -5.960461E+01 -3.779367E-01  5.945197E-01 -1.252809E+00  2.992023E+00
      2765   8 -5.739990E+00 -8.375462E+01 -4.567493E+00  5.922498E-02 -1.266716E+00  4.192734E+00
      2766   1  2.027750E+00  7.125141E+01  1.051000E+00  7.072564E+00  1.216666E+00 -3.591652E+00
      2766   2 -5.164725E+00  5.040072E+01 -2.073226E+00  7.623681E+00  1.231507E+00 -2.552170E+00
      2766   3  5.006952E+00  7.314924E+01  4.397902E+00  3.727111E-01  1.334714E+00 -3.862051E+00
      2766   4 -2.458543E+00  5.202553E+01  6.366266E-01  9.238278E-01  1.360430E+00 -2.758480E+00
      2766   5  2.456376E+00  7.245066E+01  1.606323E+00  7.215549E+00 -1.359335E+00 -4.532972E+00
      2766   6 -4.869424E+00  5.130182E+01 -1.664169E+00  7.752681E+00 -1.344107E+00 -3.257152E+00
      2766   7  5.380685E+00  7.433073E+01  4.948909E+00  4.971914E-01 -1.022477E+00 -4.805880E+00
      2766   8 -2.220671E+00  5.290633E+01  1.035457E+00  1.034323E+00 -9.962723E-01 -3.465377E+00
      2767   1  2.828974E+00  4.082413E+01  1.321251E+00  1.255485E+01  1.281350E+00 -1.860549E+00
      2767   2 -4.359175E+00  1.998830E+01 -1.803418E+00  1.283356E+01  1.290343E+00 -1.010488E+00
      2767   3  4.398445E+00  4.184672E+01  3.160408E+00  5.860162E+00  1.427181E+00 -2.017341E+00
      2767   4 -3.066797E+00  2.073380E+01 -6.108079E-01  6.138879E+00  1.441069E+00 -1.096084E+00
      2767   5  3.080130E+00  4.152028E+01  1.643175E+00  1.292721E+01 -1.291472E+00 -2.391151E+00
      2767   6 -4.255200E+00  2.035416E+01 -1.641806E+00  1.319963E+01 -1.282305E+00 -1.301010E+00
      2767   7  4.625067E+00  4.253560E+01  3.482644E+00  6.205084E+00 -9.233860E-01 -2.549398E+00
      2767   8 -2.989926E+00  2.108982E+01 -4.548847E-01  6.477506E+00 -9.092781E-01 -1.387401E+00
      2768   1  3.597981E+00  1.040636E+01  1.579303E+00  1.450685E+01  1.313226E+00 -4.191785E-01
      2768   2 -3.578807E+00 -1.040943E+01 -1.527531E+00  1.451344E+01  1.310335E+00  3.462466E-01
      2768   3  3.752605E+00  1.054806E+01  1.897027E+00  7.816422E+00  1.466334E+00 -4.521696E-01
      2768   4 -3.702573E+00 -1.054612E+01 -1.859384E+00  7.823006E+00  1.463398E+00  3.857786E-01
      2768   5  3.678158E+00  1.056461E+01  1.658967E+00  1.497705E+01 -1.263426E+00 -5.335264E-01
      2768   6 -3.648415E+00 -1.058748E+01 -1.610847E+00  1.498369E+01 -1.266318E+00  4.731384E-01
      2768   7  3.833998E+00  1.070754E+01  1.979545E+00  8.257487E+00 -8.869242E-01 -5.668236E-01
      2768   8 -3.773549E+00 -1.072553E+01 -1.945874E+00  8.264130E+00 -8.898617E-01  5.130373E-01
      2769   1  4.370144E+00 -1.999173E+01  1.850676E+00  1.283454E+01  1.292575E+00  9.372733E-01
      2769   2 -2.815622E+00 -4.081792E+01 -1.275694E+00  1.256612E+01  1.278397E+00  1.786563E+00
      2769   3  3.098722E+00 -2.073649E+01  6.395973E-01  6.143414E+00  1.443021E+00  1.029342E+00
      2769   4 -4.364274E+00 -4.183990E+01 -3.133644E+00  5.874998E+00  1.424214E+00  1.949641E+00
      2769   5  4.274612E+00 -2.037805E+01  1.684573E+00  1.320103E+01 -1.277508E+00  1.240381E+00
      2769   6 -3.057979E+00 -4.153369E+01 -1.601761E+00  1.293857E+01 -1.291852E+00  2.329863E+00
      2769   7  3.028669E+00 -2.111374E+01  4.782311E-01  6.482674E+00 -9.046438E-01  1.333304E+00
      2769   8 -4.583725E+00 -4.254918E+01 -3.460977E+00  6.220210E+00 -9.236584E-01  2.494454E+00
      2770   1  5.170604E+00 -5.039933E+01  2.109263E+00  7.624576E+00  1.232733E+00  2.477398E+00
      2770   2 -2.033003E+00 -7.126782E+01 -1.034270E+00  7.079650E+00  1.213398E+00  3.515504E+00
      2770   3  2.471187E+00 -5.202952E+01 -6.252964E-01  9.214511E-01  1.361930E+00  2.690208E+00
      2770   4 -5.005146E+00 -7.317074E+01 -4.405190E+00  3.765252E-01  1.332467E+00  3.793175E+00
      2770   5  4.881160E+00 -5.132209E+01  1.694570E+00  7.754078E+00 -1.337736E+00  3.195037E+00
      2770   6 -2.457253E+00 -7.249220E+01 -1.596694E+00  7.222176E+00 -1.357430E+00  4.469254E+00
      2770   7  2.235572E+00 -5.293360E+01 -1.031561E+00  1.031513E+00 -9.898631E-01  3.409822E+00
      2770   8 -5.378098E+00 -7.437897E+01 -4.965092E+00  4.996113E-01 -1.019780E+00  4.749503E+00
      2771   1  1.393672E+00  6.095186E+01  1.092432E+00  6.609019E+00  1.027724E+00 -4.277027E+00
      2771   2 -4.810739E+00  4.304943E+01 -1.686510E+00  7.169211E+00  1.064351E+00 -3.059636E+00
      2771   3  4.452195E+00  6.291120E+01  4.565058E+00  8.707143E-01  1.176319E+00 -4.750519E+00
      2771   4 -2.037377E+00  4.472361E+01  1.120740E+00  1.430906E+00  1.232806E+00 -3.416768E+00
      2771   5  2.106960E+00  6.303069E+01  2.031618E+00  6.760157E+00 -1.168565E+00 -5.274462E+00
      2771   6 -4.336619E+00  4.458983E+01 -1.006117E+00  7.294809E+00 -1.130913E+00 -3.806598E+00
      2771   7  5.071439E+00  6.495575E+01  5.484002E+00  9.291665E-01 -7.922915E-01 -5.752348E+00
      2771   8 -1.659947E+00  4.622708E+01  1.774716E+00  1.463819E+00 -7.345949E-01 -4.167045E+00
      2772   1  2.274465E+00  3.492880E+01  1.256835E+00  1.211284E+01  1.137895E+00 -2.240472E+00
      2772   2 -3.933911E+00  1.702958E+01 -1.538536E+00  1.239372E+01  1.156196E+00 -1.219865E+00
      2772   3  3.878676E+00  3.598189E+01  3.162915E+00  6.378055E+00  1.308424E+00 -2.510159E+00
      2772   4 -2.618422E+00  1.779395E+01 -3.061415E-01  6.658934E+00  1.334107E+00 -1.367007E+00
      2772   5  2.698294E+00  3.612017E+01  1.798636E+00  1.246135E+01 -1.048660E+00 -2.802841E+00
      2772   6 -3.761365E+00  1.765450E+01 -1.267890E+00  1.273274E+01 -1.029978E+00 -1.528389E+00
      2772   7  4.267279E+00  3.716155E+01  3.700927E+00  6.626119E+00 -6.471350E-01 -3.075031E+00
      2772   8 -2.483781E+00  1.840448E+01 -4.553561E-02  6.897505E+00 -6.210024E-01 -1.676896E+00
      2773   1  3.126787E+00  8.904877E+00  1.392509E+00  1.407738E+01  1.180219E+00 -5.063378E-01
      2773   2 -3.072523E+00 -8.977823E+00 -1.389159E+00  1.409060E+01  1.176630E+00  4.224487E-01
      2773   3  3.311772E+00  9.063917E+00  1.737657E+00  8.346247E+00  1.352686E+00 -5.642627E-01
      2773   4 -3.176483E+00 -9.107729E+00 -1.718216E+00  8.359470E+00  1.348036E+00  4.857220E-01
      2773   5  3.259105E+00  9.178524E+00  1.526787E+00  1.451813E+01 -1.008338E+00 -6.289898E-01
      2773   6 -3.188902E+00 -9.264579E+00 -1.523463E+00  1.453271E+01 -1.011981E+00  5.537636E-01
      2773   7  3.449607E+00  9.340669E+00  1.876767E+00  8.688197E+00 -6.045270E-01 -6.874523E-01
      2773   8 -3.290026E+00 -9.394061E+00 -1.853945E+00  8.702784E+00 -6.092412E-01  6.176242E-01
      2774   1  3.962445E+00 -1.709837E+01  1.533118E+00  1.241946E+01  1.155961E+00  1.134488E+00
      2774   2 -2.226679E+00 -3.494783E+01 -1.247832E+00  1.215687E+01  1.132190E+00  2.151029E+00
      2774   3  2.699528E+00 -1.784606E+01  3.037272E-01  6.699634E+00  1.329658E+00  1.286137E+00
      2774   4 -3.779599E+00 -3.598553E+01 -3.153896E+00  6.437052E+00  1.297550E+00  2.422925E+00
      2774   5  3.801395E+00 -1.773522E+01  1.261422E+00  1.276302E+01 -1.027203E+00  1.452034E+00
      2774   6 -2.634646E+00 -3.614086E+01 -1.786403E+00  1.251116E+01 -1.051405E+00  2.723399E+00
      2774   7  2.579889E+00 -1.846708E+01  4.339327E-02  6.945484E+00 -6.213760E-01  1.605090E+00
      2774   8 -4.148845E+00 -3.716542E+01 -3.687385E+00  6.693623E+00 -6.539919E-01  2.997819E+00
      2775   1  4.823329E+00 -4.306805E+01  1.678802E+00  7.190946E+00  1.063939E+00  2.968702E+00
      2775   2 -1.385034E+00 -6.097134E+01 -1.112449E+00  6.635326E+00  1.024255E+00  4.186085E+00
      2775   3  2.053157E+00 -4.474801E+01 -1.150908E+00  1.454155E+00  1.229436E+00  3.327126E+00
      2775   4 -4.441756E+00 -6.293786E+01 -4.610773E+00  8.985352E-01  1.170857E+00  4.660659E+00
      2775   5  4.358648E+00 -4.460952E+01  9.998019E-01  7.320737E+00 -1.126272E+00  3.726456E+00
      2775   6 -2.088551E+00 -6.305038E+01 -2.050007E+00  6.789414E+00 -1.166932E+00  5.195490E+00
      2775   7  1.680677E+00 -4.625454E+01 -1.805636E+00  1.491509E+00 -7.317867E-01  4.088205E+00
      2775   8 -5.055730E+00 -6.498461E+01 -5.530264E+00  9.601856E-01 -7.915157E-01  5.674468E+00
      2776   1  6.369309E-01  5.023597E+01  1.108585E+00  6.152612E+00  8.185833E-01 -5.429602E+00
      2776   2 -4.517861E+00  3.545732E+01 -1.295402E+00  6.689450E+00  8.930276E-01 -3.867651E+00
      2776   3  3.611210E+00  5.215690E+01  4.537394E+00  1.431757E+00  9.371169E-01 -6.246692E+00
      2776   4 -1.829296E+00  3.709253E+01  1.466739E+00  1.968595E+00  1.037570E+00 -4.468831E+00
      2776   5  1.840249E+00  5.379751E+01  2.670738E+00  6.332780E+00 -9.962653E-01 -6.454436E+00
      2776   6 -3.750355E+00  3.802775E+01 -1.948497E-01  6.836171E+00 -9.200603E-01 -4.632929E+00
      2776   7  4.694284E+00  5.567290E+01  6.068005E+00  1.385446E+00 -6.527419E-01 -7.279110E+00
      2776   8 -1.184686E+00  3.961477E+01  2.529563E+00  1.888837E+00 -5.502865E-01 -5.239688E+00
      2777   1  1.696403E+00  2.887285E+01  1.205726E+00  1.161924E+01  9.450999E-01 -2.821630E+00
      2777   2 -3.530965E+00  1.393674E+01 -1.282727E+00  1.191416E+01  9.785749E-01 -1.525798E+00
      2777   3  3.344740E+00  2.994251E+01  3.122932E+00  6.856746E+00  1.022774E+00 -3.269123E+00
      2777   4 -2.169387E+00  1.471964E+01 -3.462517E-02  7.151665E+00  1.072073E+00 -1.769320E+00
      2777   5  2.388232E+00  3.083807E+01  2.077427E+00  1.197700E+01 -8.540089E-01 -3.396867E+00
      2777   6 -3.251991E+00  1.496452E+01 -8.497616E-01  1.225157E+01 -8.194627E-01 -1.841391E+00
      2777   7  3.963925E+00  3.187998E+01  3.974737E+00  7.003340E+00 -5.493353E-01 -3.848513E+00
      2777   8 -1.965717E+00  1.571700E+01  3.722344E-01  7.277909E+00 -4.988180E-01 -2.087173E+00
      2778   1  2.662275E+00  7.320943E+00  1.200721E+00  1.361959E+01  9.830106E-01 -6.232077E-01
      2778   2 -2.526701E+00 -7.533321E+00 -1.241601E+00  1.364329E+01  9.764348E-01  5.468837E-01
      2778   3  2.883054E+00  7.495214E+00  1.560845E+00  8.878408E+00  1.044538E+00 -7.190412E-01
      2778   4 -2.591551E+00 -7.644680E+00 -1.547945E+00  8.902111E+00  1.035192E+00  6.505706E-01
      2778   5  2.879875E+00  7.771695E+00  1.417582E+00  1.405978E+01 -8.170751E-01 -7.491930E-01
      2778   6 -2.713293E+00 -7.999904E+00 -1.454712E+00  1.408705E+01 -8.238384E-01  6.792726E-01
      2778   7  3.113318E+00  7.952133E+00  1.785598E+00  9.112799E+00 -5.289606E-01 -8.459158E-01
      2778   8 -2.768129E+00 -8.107746E+00 -1.759350E+00  9.140064E+00 -5.385198E-01  7.839218E-01
      2779   1  3.597424E+00 -1.413208E+01  1.222293E+00  1.199948E+01  9.654529E-01  1.441823E+00
      2779   2 -1.567360E+00 -2.891390E+01 -1.211837E+00  1.173525E+01  9.234430E-01  2.716752E+00
      2779   3  2.332877E+00 -1.487815E+01 -6.639519E-05  7.281979E+00  1.042570E+00  1.689608E+00
      2779   4 -3.122675E+00 -2.995074E+01 -3.112657E+00  7.017741E+00  9.816181E-01  3.158699E+00
      2779   5  3.339938E+00 -1.516664E+01  7.927655E-01  1.235434E+01 -8.271225E-01  1.764835E+00
      2779   6 -2.219049E+00 -3.084202E+01 -2.061812E+00  1.211446E+01 -8.704147E-01  3.302182E+00
      2779   7  2.163288E+00 -1.587693E+01 -3.982383E-01  7.437515E+00 -5.194773E-01  2.014920E+00
      2779   8 -3.689166E+00 -3.184578E+01 -3.937573E+00  7.197634E+00 -5.818867E-01  3.748230E+00
      2780   1  4.537263E+00 -3.547448E+01  1.253760E+00  6.760406E+00  8.815090E-01  3.751826E+00
      2780   2 -5.892729E-01 -5.017486E+01 -1.134315E+00  6.224237E+00  8.063462E-01  5.304770E+00
      2780   3  1.835729E+00 -3.712397E+01 -1.543012E+00  2.064086E+00  1.011962E+00  4.341319E+00
      2780   4 -3.580533E+00 -5.211408E+01 -4.607112E+00  1.527917E+00  9.130404E-01  6.103207E+00
      2780   5  3.794257E+00 -3.799206E+01  1.746212E-01  6.922785E+00 -9.241826E-01  4.529398E+00
      2780   6 -1.754925E+00 -5.365246E+01 -2.662250E+00  6.417167E+00 -1.000954E+00  6.344865E+00
      2780   7  1.205609E+00 -3.959774E+01 -2.588981E+00  2.008469E+00 -5.652004E-01  5.124362E+00
      2780   8 -4.635987E+00 -5.555055E+01 -6.108151E+00  1.502851E+00 -6.659504E-01  7.150712E+00
      2781   1  2.747048E-02  4.023010E+01  1.241675E+00  5.367866E+00  5.074146E-01 -7.341705E+00
      2781   2 -4.223134E+00  2.821962E+01 -9.165306E-01  5.953228E+00  6.333370E-01 -5.125294E+00
      2781   3  2.653806E+00  4.184390E+01  3.994682E+00  2.012194E+00  3.917986E-01 -8.518481E+00
      2781   4 -1.802607E+00  2.962762E+01  1.356257E+00  2.597555E+00  5.695802E-01 -5.981927E+00
      2781   5  1.905872E+00  4.585177E+01  3.613925E+00  5.730986E+00 -9.660203E-01 -8.248001E+00
      2781   6 -3.043907E+00  3.223253E+01  7.338957E-01  6.242676E+00 -8.358178E-01 -5.810254E+00
      2781   7  4.321529E+00  4.736693E+01  6.248832E+00  1.916799E+00 -8.758262E-01 -9.404669E+00
      2781   8 -8.305429E-01  3.354541E+01  2.896789E+00  2.428489E+00 -6.946507E-01 -6.652250E+00
      2782   1  1.228186E+00  2.307241E+01  1.167929E+00  1.084193E+01  5.139429E-01 -3.684753E+00
      2782   2 -3.055801E+00  1.097991E+01 -1.019535E+00  1.115251E+01  5.824303E-01 -1.965532E+00
      2782   3  2.660632E+00  2.396763E+01  2.719575E+00  7.465229E+00  2.352986E-01 -4.317392E+00
      2782   4 -1.844514E+00  1.165398E+01  1.607384E-02  7.775803E+00  3.430581E-01 -2.306350E+00
      2782   5  2.238330E+00  2.609632E+01  2.448576E+00  1.134846E+01 -9.341924E-01 -4.203218E+00
      2782   6 -2.685747E+00  1.253463E+01 -4.033150E-01  1.160325E+01 -8.624638E-01 -2.250461E+00
      2782   7  3.506891E+00  2.691651E+01  3.913962E+00  7.548283E+00 -1.000006E+00 -4.825047E+00
      2782   8 -1.634566E+00  1.313743E+01  5.548517E-01  7.803067E+00 -8.896767E-01 -2.585456E+00
      2783   1  2.254349E+00  5.772751E+00  1.015409E+00  1.290403E+01  5.176693E-01 -7.768379E-01
      2783   2 -1.983526E+00 -6.230762E+00 -1.107328E+00  1.293991E+01  5.049618E-01  7.515132E-01
      2783   3  2.473598E+00  5.929929E+00  1.320087E+00  9.545860E+00  2.103049E-01 -9.071538E-01
      2783   4 -1.981694E+00 -6.291001E+00 -1.309956E+00  9.581744E+00  1.932640E-01  9.044810E-01
      2783   5  2.587642E+00  6.449739E+00  1.334319E+00  1.345688E+01 -9.310208E-01 -8.923622E-01
      2783   6 -2.271823E+00 -6.980226E+00 -1.433934E+00  1.349892E+01 -9.440859E-01  8.652767E-01
      2783   7  2.825848E+00  6.613962E+00  1.643521E+00  9.686229E+00 -1.030967E+00 -1.020451E+00
      2783   8 -2.247319E+00 -7.029706E+00 -1.623369E+00  9.728270E+00 -1.048291E+00  1.015631E+00
      2784   1  3.177254E+00 -1.139381E+01  8.875574E-01  1.135835E+01  5.314780E-01  1.914135E+00
      2784   2 -9.609950E-01 -2.312842E+01 -1.171994E+00  1.109045E+01  4.483105E-01  3.562125E+00
      2784   3  2.095100E+00 -1.201255E+01 -9.276825E-02  8.073388E+00  2.542417E-01  2.267582E+00
      2784   4 -2.274866E+00 -2.397888E+01 -2.692992E+00  7.805484E+00  1.286939E-01  4.180007E+00
      2784   5  2.833668E+00 -1.298844E+01  2.672988E-01  1.186048E+01 -9.005350E-01  2.200136E+00
      2784   6 -1.887189E+00 -2.605697E+01 -2.400359E+00  1.165278E+01 -9.872003E-01  4.089401E+00
      2784   7  1.927463E+00 -1.352912E+01 -6.287937E-01  8.187860E+00 -9.571740E-01  2.547544E+00
      2784   8 -3.021151E+00 -2.682541E+01 -3.827886E+00  7.980161E+00 -1.085495E+00  4.696726E+00
      2785   1  4.236398E+00 -2.819372E+01  8.424336E-01  6.120140E+00  5.876529E-01  4.956605E+00
      2785   2  9.330649E-02 -3.993243E+01 -1.229161E+00  5.520628E+00  4.671941E-01  7.118408E+00
      2785   3  1.755510E+00 -2.963760E+01 -1.489606E+00  2.835497E+00  4.893614E-01  5.778687E+00
      2785   4 -2.601784E+00 -4.159051E+01 -4.061007E+00  2.235985E+00  3.230038E-01  8.233934E+00
      2785   5  3.109044E+00 -3.204499E+01 -7.464446E-01  6.452658E+00 -8.673213E-01  5.655312E+00
      2785   6 -1.677024E+00 -4.526040E+01 -3.484587E+00  5.918350E+00 -9.915682E-01  8.044197E+00
      2785   7  8.087976E-01 -3.340494E+01 -2.979386E+00  2.744108E+00 -7.539247E-01  6.463346E+00
      2785   8 -4.187813E+00 -4.683090E+01 -6.208795E+00  2.209800E+00 -9.232862E-01  9.140662E+00
      2786   1 -7.402558E-01  3.105089E+01  5.383494E-01  4.927984E+00 -8.855451E-02 -9.757716E+00
      2786   2 -3.942672E+00  2.189704E+01 -9.825194E-01  5.412684E+00  1.225830E-01 -6.556943E+00
      2786   3  1.074918E+00  3.202765E+01  1.979045E+00  2.354351E+00 -7.063167E-01 -1.141702E+01
      2786   4 -2.128493E+00  2.287280E+01  4.558564E-01  2.839051E+00 -4.673669E-01 -7.783063E+00
      2786   5  1.811209E+00  3.888974E+01  3.687372E+00  5.687135E+00 -1.311737E+00 -1.017509E+01
      2786   6 -2.314323E+00  2.758202E+01  1.243317E+00  6.132325E+00 -1.099127E+00 -6.950440E+00
      2786   7  3.524265E+00  3.981934E+01  5.072979E+00  2.527285E+00 -1.873084E+00 -1.180603E+01
      2786   8 -6.022449E-01  2.851065E+01  2.626643E+00  2.972475E+00 -1.633137E+00 -8.155610E+00
      2787   1  7.862187E-01  1.806259E+01  8.657316E-01  1.016219E+01 -5.214729E-01 -4.589618E+00
      2787   2 -2.674950E+00  8.347757E+00 -9.566650E-01  1.040229E+01 -3.702950E-01 -2.415559E+00
      2787   3  1.814240E+00  1.867528E+01  1.880016E+00  7.457857E+00 -1.749985E+00 -5.501490E+00
      2787   4 -1.770959E+00  8.836419E+00 -2.317834E-01  7.697965E+00 -1.527479E+00 -2.902070E+00
      2787   5  2.044715E+00  2.231220E+01  2.545800E+00  1.114535E+01 -1.678182E+00 -4.923141E+00
      2787   6 -2.329417E+00  1.047587E+01 -1.983141E-01  1.128413E+01 -1.523229E+00 -2.609100E+00
      2787   7  2.768167E+00  2.279142E+01  3.419753E+00  7.862312E+00 -2.760576E+00 -5.819431E+00
      2787   8 -1.727877E+00  1.083318E+01  3.911799E-01  8.001093E+00 -2.535513E+00 -3.087298E+00
      2788   1  1.897163E+00  4.326026E+00  7.802459E-01  1.216903E+01 -5.549326E-01 -9.086125E-01
      2788   2 -1.486467E+00 -5.233591E+00 -9.389045E-01  1.221416E+01 -5.736042E-01  1.034384E+00
      2788   3  2.118788E+00  4.469573E+00  1.037111E+00  9.498288E+00 -1.788426E+00 -1.086133E+00
      2788   4 -1.392643E+00 -5.217844E+00 -9.802418E-01  9.543427E+00 -1.806166E+00  1.275681E+00
      2788   5  2.354267E+00  5.245026E+00  1.200876E+00  1.315180E+01 -1.716999E+00 -9.984993E-01
      2788   6 -1.928583E+00 -6.403751E+00 -1.426516E+00  1.319561E+01 -1.735621E+00  1.087704E+00
      2788   7  2.572740E+00  5.386391E+00  1.453623E+00  9.911110E+00 -2.804688E+00 -1.172986E+00
      2788   8 -1.835728E+00 -6.388003E+00 -1.466875E+00  9.954924E+00 -2.822395E+00  1.324878E+00
      2789   1  2.805433E+00 -9.146700E+00  7.232569E-01  1.081605E+01 -4.966672E-01  2.475107E+00
      2789   2 -3.533637E-01 -1.810709E+01 -8.456766E-01  1.060499E+01 -6.648009E-01  4.468238E+00
      2789   3  2.019941E+00 -9.567095E+00  1.074302E-01  8.307218E+00 -1.717335E+00  3.001207E+00
      2789   4 -1.294534E+00 -1.868316E+01 -1.824753E+00  8.096150E+00 -1.952965E+00  5.353616E+00
      2789   5  2.446607E+00 -1.144027E+01 -8.591241E-02  1.181313E+01 -1.615292E+00  2.641771E+00
      2789   6 -1.486015E+00 -2.219527E+01 -2.439659E+00  1.169795E+01 -1.786998E+00  4.801359E+00
      2789   7  1.947812E+00 -1.173637E+01 -5.740985E-01  8.811583E+00 -2.665893E+00  3.158882E+00
      2789   8 -2.137828E+00 -2.264438E+01 -3.284888E+00  8.696401E+00 -2.903944E+00  5.671609E+00
      2790   1  3.908032E+00 -2.172738E+01  8.832853E-01  5.714667E+00  8.723297E-03  6.302610E+00
      2790   2  9.500288E-01 -3.026887E+01 -4.352334E-01  5.181340E+00 -1.797319E-01  9.321077E+00
      2790   3  1.925870E+00 -2.278702E+01 -6.666704E-01  3.300149E+00 -6.408997E-01  7.450883E+00
      2790   4 -1.055373E+00 -3.135175E+01 -2.039416E+00  2.766821E+00 -8.362937E-01  1.082831E+01
      2790   5  2.353157E+00 -2.706554E+01 -1.218368E+00  6.521839E+00 -1.181787E+00  6.711670E+00
      2790   6 -1.370989E+00 -3.739306E+01 -3.304670E+00  5.998369E+00 -1.370609E+00  9.771149E+00
      2790   7  3.795717E-01 -2.811791E+01 -2.752680E+00  3.616643E+00 -1.758517E+00  7.840323E+00
      2790   8 -3.367418E+00 -3.846827E+01 -4.892282E+00  3.093173E+00 -1.954160E+00  1.125263E+01
      2791   1 -1.702098E+00  2.307438E+01 -7.479019E-01  5.503874E+00 -1.734245E+00 -1.000074E+01
      2791   2 -3.343797E+00  1.757202E+01 -7.178787E-01  5.902507E+00 -1.494161E+00 -6.758951E+00
      2791   3  6.264336E-01  2.471337E+01  2.386877E+00  3.834376E+00 -3.657170E+00 -1.171132E+01
      2791   4 -1.088137E+00  1.913815E+01  2.246865E+00  4.233009E+00 -3.446699E+00 -8.108238E+00
      2791   5  8.901218E-01  3.114326E+01  2.495817E+00  6.328061E+00 -2.858544E+00 -1.110312E+01
      2791   6 -1.523153E+00  2.384283E+01  1.751996E+00  6.768762E+00 -2.619152E+00 -7.783884E+00
      2791   7  3.350019E+00  3.282760E+01  5.650382E+00  4.177924E+00 -4.662564E+00 -1.278447E+01
      2791   8  8.651168E-01  2.545554E+01  4.739432E+00  4.618625E+00 -4.452279E+00 -9.110114E+00
      2792   1  8.425656E-01  1.489338E+01  1.116534E+00  1.017078E+01 -3.255364E+00 -4.732401E+00
      2792   2 -2.406286E+00  6.079863E+00 -8.994548E-01  1.040687E+01 -3.008383E+00 -2.437552E+00
      2792   3  2.424433E+00  1.606688E+01  3.446337E+00  7.764403E+00 -5.878737E+00 -5.760508E+00
      2792   4 -1.248071E+00  6.829712E+00  4.418244E-01  8.000486E+00 -5.636443E+00 -2.949475E+00
      2792   5  1.956078E+00  1.955509E+01  2.884188E+00  1.130464E+01 -4.090728E+00 -5.577716E+00
      2792   6 -2.402595E+00  8.165174E+00 -2.548079E-01  1.154739E+01 -3.843856E+00 -2.869593E+00
      2792   7  3.556058E+00  2.072788E+01  5.193527E+00  8.211200E+00 -6.313601E+00 -6.588256E+00
      2792   8 -1.219030E+00  8.921555E+00  1.082899E+00  8.453942E+00 -6.071337E+00 -3.372768E+00
      2793   1  1.501179E+00  2.766811E+00  4.835223E-01  1.234290E+01 -3.317226E+00 -8.401000E-01
      2793   2 -1.074804E+00 -4.542627E+00 -7.936509E-01  1.236981E+01 -3.325937E+00  1.229371E+00
      2793   3  1.752874E+00  2.971969E+00  9.156894E-01  1.029597E+01 -6.000295E+00 -9.992633E-01
      2793   4 -1.146172E+00 -4.660531E+00 -1.115297E+00  1.032287E+01 -5.986309E+00  1.517780E+00
      2793   5  1.880490E+00  3.577662E+00  8.474592E-01  1.365821E+01 -4.192299E+00 -1.005059E+00
      2793   6 -1.656761E+00 -5.964680E+00 -1.401036E+00  1.365287E+01 -4.200481E+00  1.380820E+00
      2793   7  2.031392E+00  3.737961E+00  1.230888E+00  1.101623E+01 -6.559798E+00 -1.161502E+00
      2793   8 -1.823402E+00 -6.121923E+00 -1.758540E+00  1.101089E+01 -6.545670E+00  1.664301E+00
      2794   1  2.321160E+00 -7.568555E+00  4.770215E-01  1.118491E+01 -3.219208E+00  2.714271E+00
      2794   2 -2.510768E-01 -1.470875E+01 -9.569072E-01  1.089879E+01 -3.456756E+00  4.701622E+00
      2794   3  1.038316E+00 -8.356487E+00 -8.665743E-01  9.209545E+00 -5.844518E+00  3.312757E+00
      2794   4 -1.931960E+00 -1.589472E+01 -3.229261E+00  8.923429E+00 -6.024081E+00  5.699681E+00
      2794   5  2.095968E+00 -1.009978E+01 -3.667652E-01  1.253496E+01 -3.992880E+00  3.122927E+00
      2794   6 -1.337008E+00 -1.923598E+01 -2.673820E+00  1.216647E+01 -4.229075E+00  5.496573E+00
      2794   7  5.514989E-01 -1.099577E+01 -1.808922E+00  1.002579E+01 -6.240936E+00  3.711186E+00
      2794   8 -3.272715E+00 -2.052320E+01 -5.028865E+00  9.657302E+00 -6.420136E+00  6.477578E+00
      2795   1  3.213048E+00 -1.692355E+01  7.169391E-01  6.302424E+00 -1.681323E+00  6.469576E+00
      2795   2  1.912374E+00 -2.155021E+01  1.008011E+00  5.758155E+00 -1.864481E+00  9.312367E+00
      2795   3  5.785362E-01 -1.861661E+01 -2.292076E+00  4.864141E+00 -3.623038E+00  7.689158E+00
      2795   4 -7.945053E-01 -2.331563E+01 -2.169861E+00  4.319872E+00 -3.766449E+00  1.073759E+01
      2795   5  1.431655E+00 -2.265026E+01 -1.575422E+00  7.289718E+00 -2.750213E+00  7.432764E+00
      2795   6 -3.088998E-01 -2.830105E+01 -1.726483E+00  6.688985E+00 -2.932443E+00  1.034889E+01
      2795   7 -1.388525E+00 -2.441325E+01 -4.631886E+00  5.569384E+00 -4.577414E+00  8.631506E+00
      2795   8 -3.200210E+00 -3.013517E+01 -4.948919E+00  4.968651E+00 -4.720577E+00  1.174976E+01
      2796   1  5.331152E+00  1.565478E+02  5.060135E+00  6.541106E+00  2.645272E+00  1.238978E-01
      2796   2 -9.511437E+00  1.130617E+02 -9.290782E-01  6.827376E+00  2.677899E+00  2.159940E-01
      2796   3  6.736994E+00  1.574733E+02  6.739542E+00 -5.472507E+00  2.448955E+00  3.591452E-02
      2796   4 -8.273805E+00  1.138190E+02  3.578387E-01 -5.186237E+00  2.471411E+00  1.280010E-01
      2796   5  5.383478E+00  1.569361E+02  5.186020E+00  6.623192E+00 -2.886873E+00 -4.273102E-01
      2796   6 -9.458006E+00  1.134512E+02 -8.006419E-01  6.924352E+00 -2.854180E+00 -1.710499E-01
      2796   7  6.838928E+00  1.578772E+02  6.867726E+00 -5.605733E+00 -2.939695E+00 -5.137443E-01
      2796   8 -8.167804E+00  1.142270E+02  4.954846E-01 -5.304574E+00 -2.916994E+00 -2.574936E-01
      2797   1 -1.285754E-01  8.993555E+01  3.510114E+00  1.074226E+01  2.665367E+00  3.076412E-01
      2797   2 -1.477727E+01  4.661459E+01 -1.997888E+00  1.190985E+01  2.688390E+00  4.659299E-01
      2797   3  3.587466E+00  9.169277E+01  5.651456E+00 -1.283418E+00  2.531924E+00  2.193746E-01
      2797   4 -1.119100E+01  4.824203E+01 -1.593473E-01 -1.158336E-01  2.551697E+00  3.769254E-01
      2797   5 -1.484732E-02  9.035242E+01  3.666074E+00  1.087978E+01 -3.045739E+00  2.704462E-02
      2797   6 -1.466108E+01  4.703607E+01 -1.838356E+00  1.205212E+01 -3.022695E+00  3.119887E-01
      2797   7  3.771779E+00  9.213699E+01  5.828004E+00 -1.360522E+00 -3.066056E+00 -5.966786E-02
      2797   8 -1.100194E+01  4.869315E+01  2.610438E-02 -1.881804E-01 -3.046204E+00  2.245513E-01
      2798   1 -1.816411E+00  2.384267E+01  3.868257E+00  1.675751E+01  2.651206E+00  5.885645E-01
      2798   2 -1.807755E+01 -2.347308E+01 -3.019795E+00  1.809540E+01  2.671190E+00  7.653196E-01
      2798   3  2.160988E+00  2.557552E+01  5.667043E+00  3.732633E+00  2.525549E+00  4.961306E-01
      2798   4 -1.426783E+01 -2.190790E+01 -1.612263E+00  5.070523E+00  2.545566E+00  6.642547E-01
      2798   5 -1.675418E+00  2.428953E+01  4.044061E+00  1.689007E+01 -3.205041E+00  5.409016E-01
      2798   6 -1.791652E+01 -2.298091E+01 -2.822517E+00  1.822791E+01 -3.185057E+00  8.813594E-01
      2798   7  2.371369E+00  2.605162E+01  5.870926E+00  3.642530E+00 -3.185685E+00  4.500953E-01
      2798   8 -1.403446E+01 -2.138355E+01 -1.380017E+00  4.980372E+00 -3.165668E+00  7.820740E-01
      2799   1  4.511500E-01 -4.664281E+01  4.582247E+00  2.044134E+01  2.653391E+00  9.085350E-01
      2799   2 -1.798676E+01 -9.919386E+01 -4.326422E+00  2.150717E+01  2.680917E+00  1.123052E+00
      2799   3  3.330098E+00 -4.555198E+01  5.339406E+00  6.133660E+00  2.538268E+00  8.000470E-01
      2799   4 -1.530083E+01 -9.829604E+01 -4.019625E+00  7.199491E+00  2.569352E+00  1.002914E+00
      2799   5  5.910903E-01 -4.612815E+01  4.781423E+00  2.053000E+01 -3.300403E+00  1.153470E+00
      2799   6 -1.782000E+01 -9.861827E+01 -4.098763E+00  2.159062E+01 -3.272900E+00  1.556431E+00
      2799   7  3.514969E+00 -4.501555E+01  5.566231E+00  5.980439E+00 -3.249262E+00  1.046892E+00
      2799   8 -1.508573E+01 -9.769527E+01 -3.756387E+00  7.041062E+00 -3.218264E+00  1.438409E+00
      2800   1  8.050846E+00 -1.217438E+02  5.731371E+00  1.686957E+01  2.702140E+00  1.265735E+00
      2800   2 -1.191826E+01 -1.777476E+02 -4.828595E+00  1.637658E+01  2.747880E+00  1.441034E+00
      2800   3  5.992700E+00 -1.229749E+02  3.685970E+00  1.755986E+00  2.520301E+00  1.131545E+00
      2800   4 -1.424097E+01 -1.792432E+02 -7.491318E+00  1.262992E+00  2.557714E+00  1.280101E+00
      2800   5  8.139838E+00 -1.211422E+02  5.945388E+00  1.689719E+01 -3.177048E+00  1.862661E+00
      2800   6 -1.176884E+01 -1.770072E+02 -4.551875E+00  1.641639E+01 -3.131254E+00  2.296336E+00
      2800   7  6.102932E+00 -1.223580E+02  3.929574E+00  1.546152E+00 -3.134255E+00  1.730834E+00
      2800   8 -1.406565E+01 -1.784829E+02 -7.174141E+00  1.065348E+00 -3.096641E+00  2.138237E+00
      2801   1  6.037633E+00  1.536197E+02  6.048313E+00  8.567847E+00  2.687516E+00 -2.426775E-02
      2801   2 -9.615045E+00  1.086139E+02 -1.121540E+00  9.113486E+00  2.709109E+00  1.296787E-01
      2801   3  8.135773E+00  1.548024E+02  7.892627E+00 -3.743350E+00  2.229711E+00 -8.492893E-02
      2801   4 -7.654213E+00  1.096594E+02  4.023893E-01 -3.197711E+00  2.244355E+00  7.253714E-02
      2801   5  6.118280E+00  1.538975E+02  6.124077E+00  8.739687E+00 -2.593374E+00 -5.062756E-01
      2801   6 -9.537054E+00  1.088788E+02 -1.041668E+00  9.295500E+00 -2.571524E+00 -2.184540E-01
      2801   7  8.266800E+00  1.550968E+02  7.973341E+00 -3.796584E+00 -2.926805E+00 -5.658686E-01
      2801   8 -7.523424E+00  1.099432E+02  4.928517E-01 -3.240771E+00 -2.911782E+00 -2.745894E-01
      2802   1  3.231548E+00  8.650007E+01  4.331579E+00  1.309137E+01  2.796133E+00  2.349919E-01
      2802   2 -1.164719E+01  4.296292E+01 -1.727065E+00  1.392537E+01  2.808445E+00  3.687667E-01
      2802   3  5.926246E+00  8.779558E+01  5.955248E+00  1.071520E+00  2.332314E+00  1.771161E-01
      2802   4 -9.123240E+00  4.408769E+01 -5.018092E-01  1.905526E+00  2.346474E+00  3.053651E-01
      2802   5  3.387760E+00  8.680390E+01  4.453831E+00  1.331646E+01 -2.695118E+00 -3.069286E-03
      2802   6 -1.147253E+01  4.330137E+01 -1.577961E+00  1.414776E+01 -2.682875E+00  2.975512E-01
      2802   7  6.113929E+00  8.811042E+01  6.082732E+00  1.088067E+00 -3.006490E+00 -5.992596E-02
      2802   8 -8.914108E+00  4.444015E+01 -3.404575E-01  1.919368E+00 -2.992432E+00  2.352661E-01
      2803   1  2.215097E+00  2.112277E+01  4.345762E+00  1.694903E+01  2.786543E+00  4.737229E-01
      2803   2 -1.341241E+01 -2.431366E+01 -2.309485E+00  1.784882E+01  2.799744E+00  6.266941E-01
      2803   3  4.798730E+00  2.219685E+01  5.342417E+00  4.446634E+00  2.341215E+00  4.032240E-01
      2803   4 -1.102260E+01 -2.343340E+01 -1.765092E+00  5.346421E+00  2.360696E+00  5.423306E-01
      2803   5  2.413638E+00  2.150395E+01  4.523398E+00  1.714529E+01 -2.799474E+00  5.330038E-01
      2803   6 -1.317626E+01 -2.385428E+01 -2.084696E+00  1.803588E+01 -2.786505E+00  8.756517E-01
      2803   7  5.018171E+00  2.258758E+01  5.530959E+00  4.436120E+00 -3.072964E+00  4.637463E-01
      2803   8 -1.076214E+01 -2.296106E+01 -1.521433E+00  5.326714E+00 -3.053826E+00  7.927737E-01
      2804   1  4.381434E+00 -4.584127E+01  5.156057E+00  1.781101E+01  2.789265E+00  7.502739E-01
      2804   2 -1.233395E+01 -9.391504E+01 -2.488126E+00  1.823978E+01  2.810407E+00  9.349290E-01
      2804   3  5.238559E+00 -4.570348E+01  4.758232E+00  4.658744E+00  2.353424E+00  6.503745E-01
      2804   4 -1.169229E+01 -9.399272E+01 -3.388706E+00  5.087514E+00  2.380108E+00  8.064493E-01
      2804   5  4.570484E+00 -4.533393E+01  5.390699E+00  1.792603E+01 -2.859028E+00  1.146013E+00
      2804   6 -1.207418E+01 -9.325330E+01 -2.172152E+00  1.834668E+01 -2.838091E+00  1.542008E+00
      2804   7  5.433003E+00 -4.518979E+01  5.008659E+00  4.573736E+00 -3.105205E+00  1.047873E+00
      2804   8 -1.142334E+01 -9.332083E+01 -3.048093E+00  4.994394E+00 -3.078823E+00  1.415791E+00
      2805   1  8.312567E+00 -1.147049E+02  5.990130E+00  1.233995E+01  2.730562E+00  1.088262E+00
      2805   2 -8.081373E+00 -1.617943E+02 -1.566947E+00  1.176518E+01  2.761657E+00  1.322521E+00
      2805   3  5.859656E+00 -1.161935E+02  3.480948E+00 -5.342682E-01  2.301380E+00  9.389029E-01
      2805   4 -1.072381E+01 -1.634724E+02 -4.518361E+00 -1.109043E+00  2.328194E+00  1.144698E+00
      2805   5  8.469320E+00 -1.139968E+02  6.298584E+00  1.239561E+01 -2.771466E+00  1.840785E+00
      2805   6 -7.855116E+00 -1.609334E+02 -1.179652E+00  1.182710E+01 -2.740213E+00  2.261065E+00
      2805   7  6.018372E+00 -1.154769E+02  3.815917E+00 -6.737958E-01 -3.032692E+00  1.694056E+00
      2805   8 -1.049225E+01 -1.625996E+02 -4.096764E+00 -1.242302E+00 -3.005646E+00  2.086373E+00
      2806   1  6.427841E+00  1.479217E+02  5.944996E+00  9.148433E+00  2.696770E+00 -1.873491E-01
      2806   2 -8.959293E+00  1.038594E+02 -1.283239E+00  9.781039E+00  2.712059E+00 -2.429721E-02
      2806   3  8.778757E+00  1.492113E+02  7.892778E+00 -2.878426E+00  1.948945E+00 -1.783054E-01
      2806   4 -6.759510E+00  1.049979E+02  3.118987E-01 -2.245820E+00  1.963048E+00 -3.949469E-02
      2806   5  6.435304E+00  1.478680E+02  5.873434E+00  9.368401E+00 -2.344981E+00 -6.697153E-01
      2806   6 -8.888407E+00  1.039402E+02 -1.277787E+00  1.000274E+01 -2.329611E+00 -3.575303E-01
      2806   7  8.816008E+00  1.491654E+02  7.817427E+00 -2.843719E+00 -2.951833E+00 -6.608307E-01
      2806   8 -6.656174E+00  1.050891E+02  3.197707E-01 -2.209376E+00 -2.937630E+00 -3.724602E-01
      2807   1  5.161273E+00  8.292737E+01  4.562543E+00  1.420711E+01  2.801132E+00  8.813380E-02
      2807   2 -9.450675E+00  4.041189E+01 -1.628471E+00  1.476771E+01  2.805798E+00  2.322491E-01
      2807   3  7.027795E+00  8.385339E+01  5.782761E+00  2.503856E+00  2.061998E+00  5.968315E-02
      2807   4 -7.765918E+00  4.115615E+01 -8.323708E-01  3.064453E+00  2.070001E+00  1.918314E-01
      2807   5  5.301445E+00  8.309794E+01  4.629972E+00  1.448710E+01 -2.403740E+00 -1.252871E-01
      2807   6 -9.271966E+00  4.065604E+01 -1.506160E+00  1.504281E+01 -2.399299E+00  1.970281E-01
      2807   7  7.178979E+00  8.402646E+01  5.847509E+00  2.589037E+00 -2.976205E+00 -1.532368E-01
      2807   8 -7.572996E+00  4.140599E+01 -7.052731E-01  3.144749E+00 -2.968486E+00  1.573220E-01
      2808   1  4.939415E+00  1.980547E+01  4.567978E+00  1.680000E+01  2.799492E+00  3.404231E-01
      2808   2 -9.956415E+00 -2.347208E+01 -1.807239E+00  1.726617E+01  2.806423E+00  4.918448E-01
      2808   3  6.206645E+00  2.029062E+01  4.917915E+00  4.896177E+00  2.073651E+00  2.864585E-01
      2808   4 -8.890705E+00 -2.318845E+01 -1.927517E+00  5.362346E+00  2.089378E+00  4.128364E-01
      2808   5  5.128389E+00  2.011608E+01  4.729709E+00  1.705391E+01 -2.467825E+00  4.430335E-01
      2808   6 -9.698857E+00 -2.301956E+01 -1.558803E+00  1.750720E+01 -2.461487E+00  7.928175E-01
      2808   7  6.383455E+00  2.059704E+01  5.077833E+00  4.968038E+00 -3.010572E+00  3.900190E-01
      2808   8 -8.641764E+00 -2.273657E+01 -1.672614E+00  5.421331E+00 -2.995593E+00  7.152004E-01
      2809   1  6.324802E+00 -4.370997E+01  5.140569E+00  1.597582E+01  2.790950E+00  6.163282E-01
      2809   2 -8.840004E+00 -8.766984E+01 -1.448914E+00  1.601490E+01  2.805561E+00  8.050014E-01
      2809   3  5.985161E+00 -4.411519E+01  4.129478E+00  3.898632E+00  2.082595E+00  5.156770E-01
      2809   4 -9.391956E+00 -8.828737E+01 -2.955397E+00  3.937721E+00  2.103041E+00  6.702645E-01
      2809   5  6.520422E+00 -4.318764E+01  5.409076E+00  1.615551E+01 -2.511286E+00  1.066590E+00
      2809   6 -8.555217E+00 -8.695854E+01 -1.072149E+00  1.618606E+01 -2.497069E+00  1.464766E+00
      2809   7  6.165308E+00 -4.359491E+01  4.406593E+00  3.904474E+00 -3.027745E+00  9.677111E-01
      2809   8 -9.118904E+00 -8.757439E+01 -2.561301E+00  3.935020E+00 -3.007795E+00  1.332402E+00
      2810   1  8.185033E+00 -1.075962E+02  5.756280E+00  1.041073E+01  2.718913E+00  9.567153E-01
      2810   2 -6.786550E+00 -1.509261E+02 -8.191339E-01  9.812488E+00  2.739789E+00  1.182532E+00
      2810   3  5.612832E+00 -1.091648E+02  3.099981E+00 -1.483261E+00  2.010851E+00  7.950097E-01
      2810   4 -9.553781E+00 -1.526897E+02 -3.930504E+00 -2.081500E+00  2.022459E+00  9.812323E-01
      2810   5  8.383230E+00 -1.068035E+02  6.148928E+00  1.054348E+01 -2.471955E+00  1.763810E+00
      2810   6 -6.488256E+00 -1.499173E+02 -3.088506E-01  9.958812E+00 -2.450454E+00  2.182636E+00
      2810   7  5.834461E+00 -1.083538E+02  3.530032E+00 -1.514192E+00 -3.002678E+00  1.604952E+00
      2810   8 -9.228620E+00 -1.516592E+02 -3.374804E+00 -2.098864E+00 -2.990282E+00  1.984881E+00
      2811   1  5.736386E+00  1.388563E+02  4.575369E+00  1.019204E+01  2.761596E+00 -3.776059E-01
      2811   2 -8.401234E+00  9.807940E+01 -1.773118E+00  1.077645E+01  2.771047E+00 -1.835538E-01
      2811   3  8.389907E+00  1.403449E+02  6.883683E+00 -3.083630E+00  1.916395E+00 -3.517812E-01
      2811   4 -5.942932E+00  9.937273E+01  7.968322E-02 -2.499215E+00  1.922552E+00 -1.733356E-01
      2811   5  5.752482E+00  1.387432E+02  4.465535E+00  1.019490E+01 -2.032265E+00 -8.983069E-01
      2811   6 -8.340721E+00  9.805022E+01 -1.818817E+00  1.078348E+01 -2.022564E+00 -5.383599E-01
      2811   7  8.407577E+00  1.402356E+02  6.785220E+00 -2.941100E+00 -2.723746E+00 -8.722463E-01
      2811   8 -5.882629E+00  9.934565E+01  4.119484E-02 -2.352517E+00 -2.717370E+00 -5.280483E-01
      2812   1  5.855089E+00  7.880269E+01  4.226530E+00  1.556069E+01  2.868928E+00 -5.549915E-02
      2812   2 -8.138597E+00  3.816594E+01 -1.782338E+00  1.594218E+01  2.867423E+00  1.003007E-01
      2812   3  7.455492E+00  7.964262E+01  5.425917E+00  2.283142E+00  2.021838E+00 -5.987600E-02
      2812   4 -6.752825E+00  3.879124E+01 -1.083757E+00  2.664635E+00  2.021604E+00  7.165587E-02
      2812   5  5.949462E+00  7.884729E+01  4.232823E+00  1.561902E+01 -2.046770E+00 -2.826268E-01
      2812   6 -7.981895E+00  3.833429E+01 -1.692036E+00  1.599891E+01 -2.048370E+00  5.610208E-02
      2812   7  7.534725E+00  7.968215E+01  5.430411E+00  2.491987E+00 -2.724020E+00 -2.870436E-01
      2812   8 -6.613222E+00  3.895256E+01 -9.998270E-01  2.871872E+00 -2.724339E+00  2.719561E-02
      2813   1  6.173192E+00  1.893553E+01  4.367663E+00  1.752314E+01  2.866383E+00  2.141362E-01
      2813   2 -7.799896E+00 -2.170928E+01 -1.564483E+00  1.769816E+01  2.868729E+00  3.693406E-01
      2813   3  6.676075E+00  1.908954E+01  4.378127E+00  4.231312E+00  2.027185E+00  1.656384E-01
      2813   4 -7.526647E+00 -2.178491E+01 -2.089833E+00  4.406329E+00  2.033894E+00  2.908716E-01
      2813   5  6.308985E+00  1.917376E+01  4.494005E+00  1.758265E+01 -2.084302E+00  3.086425E-01
      2813   6 -7.589809E+00 -2.132090E+01 -1.340653E+00  1.775215E+01 -2.082286E+00  6.598668E-01
      2813   7  6.786274E+00  1.931623E+01  4.491627E+00  4.448590E+00 -2.741169E+00  2.597017E-01
      2813   8 -7.344252E+00 -2.141016E+01 -1.883738E+00  4.618086E+00 -2.734751E+00  5.806811E-01
      2814   1  7.119064E+00 -4.070169E+01  4.880659E+00  1.598619E+01  2.855784E+00  4.948095E-01
      2814   2 -6.860610E+00 -8.139315E+01 -1.026788E+00  1.583152E+01  2.867052E+00  6.823925E-01
      2814   3  6.071434E+00 -4.144100E+01  3.463913E+00  2.674394E+00  2.025732E+00  3.917895E-01
      2814   4 -8.145200E+00 -8.236942E+01 -2.996440E+00  2.519725E+00  2.039171E+00  5.422691E-01
      2814   5  7.263325E+00 -4.024535E+01  5.127556E+00  1.599818E+01 -2.114786E+00  9.312923E-01
      2814   6 -6.627960E+00 -8.075451E+01 -6.675686E-01  1.584076E+01 -2.103683E+00  1.321616E+00
      2814   7  6.206435E+00 -4.099128E+01  3.698002E+00  2.853247E+00 -2.756362E+00  8.273314E-01
      2814   8 -7.923975E+00 -8.173957E+01 -2.655079E+00  2.695828E+00 -2.743067E+00  1.180213E+00
      2815   1  8.062126E+00 -1.001109E+02  5.448384E+00  1.054378E+01  2.770874E+00  8.370769E-01
      2815   2 -5.578403E+00 -1.398674E+02 -2.636182E-01  1.002318E+01  2.782860E+00  1.072100E+00
      2815   3  5.329825E+00 -1.018055E+02  2.532253E+00 -2.471050E+00  1.944900E+00  6.753310E-01
      2815   4 -8.541379E+00 -1.417926E+02 -3.717989E+00 -2.991655E+00  1.953929E+00  8.883830E-01
      2815   5  8.249821E+00 -9.940597E+01  5.836492E+00  1.051913E+01 -2.109862E+00  1.622357E+00
      2815   6 -5.331525E+00 -1.390476E+02  2.069739E-01  1.000227E+01 -2.097653E+00  2.053671E+00
      2815   7  5.538525E+00 -1.010963E+02  2.913424E+00 -2.350442E+00 -2.752601E+00  1.459134E+00
      2815   8 -8.275602E+00 -1.409707E+02 -3.259250E+00 -2.867305E+00 -2.743376E+00  1.868276E+00
      2816   1  5.318720E+00  1.296980E+02  3.604949E+00  9.895624E+00  2.497332E+00 -5.313347E-01
      2816   2 -7.856575E+00  9.162702E+01 -2.241762E+00  1.047776E+01  2.501769E+00 -3.146075E-01
      2816   3  8.060501E+00  1.312793E+02  6.134325E+00 -2.511096E+00  1.872564E+00 -4.942456E-01
      2816   4 -5.331407E+00  9.299175E+01 -2.178173E-01 -1.928957E+00  1.875904E+00 -2.964668E-01
      2816   5  5.306900E+00  1.295344E+02  3.478475E+00  9.869324E+00 -2.036551E+00 -1.133469E+00
      2816   6 -7.819440E+00  9.156040E+01 -2.301970E+00  1.045285E+01 -2.032049E+00 -7.328420E-01
      2816   7  8.041595E+00  1.311164E+02  6.017185E+00 -2.401418E+00 -2.487891E+00 -1.096041E+00
      2816   8 -5.303337E+00  9.292383E+01 -2.733088E-01 -1.817890E+00 -2.484496E+00 -7.145356E-01
      2817   1  5.800441E+00  7.378372E+01  3.550590E+00  1.524148E+01  2.599634E+00 -1.756039E-01
      2817   2 -7.235993E+00  3.588154E+01 -2.002011E+00  1.556131E+01  2.597039E+00 -1.256637E-02
      2817   3  7.248478E+00  7.459421E+01  4.804190E+00  2.849662E+00  1.971678E+00 -1.716745E-01
      2817   4 -6.014142E+00  3.646584E+01 -1.276179E+00  3.169490E+00  1.969790E+00 -2.851447E-02
      2817   5  5.850679E+00  7.377966E+01  3.529917E+00  1.528231E+01 -2.031321E+00 -4.562381E-01
      2817   6 -7.134464E+00  3.597908E+01 -1.953316E+00  1.560124E+01 -2.033958E+00 -1.011689E-01
      2817   7  7.288563E+00  7.458753E+01  4.784948E+00  3.027490E+00 -2.477865E+00 -4.522728E-01
      2817   8 -5.924832E+00  3.655871E+01 -1.230874E+00  3.346426E+00 -2.479789E+00 -1.172627E-01
      2818   1  6.447790E+00  1.811276E+01  3.906329E+00  1.705837E+01  2.602477E+00  1.030064E-01
      2818   2 -6.542617E+00 -1.970667E+01 -1.575598E+00  1.710083E+01  2.604245E+00  2.557194E-01
      2818   3  6.533544E+00  1.811387E+01  3.824262E+00  4.684851E+00  1.977924E+00  7.115386E-02
      2818   4 -6.691097E+00 -1.993979E+01 -2.204210E+00  4.727315E+00  1.979939E+00  2.002927E-01
      2818   5  6.513060E+00  1.825805E+01  3.975977E+00  1.711479E+01 -2.043807E+00  1.575472E-01
      2818   6 -6.418554E+00 -1.944292E+01 -1.428439E+00  1.715695E+01 -2.042053E+00  5.093035E-01
      2818   7  6.595822E+00  1.825755E+01  3.891542E+00  4.882736E+00 -2.480253E+00  1.254037E-01
      2818   8 -6.572166E+00 -1.967979E+01 -2.064411E+00  4.924887E+00 -2.478250E+00  4.533706E-01
      2819   1  7.176376E+00 -3.737182E+01  4.393417E+00  1.529600E+01  2.594007E+00  3.771243E-01
      2819   2 -5.712085E+00 -7.496871E+01 -9.712262E-01  1.503459E+01  2.602182E+00  5.560954E-01
      2819   3  5.794437E+00 -3.823266E+01  2.905882E+00  2.982576E+00  1.971212E+00  3.042964E-01
      2819   4 -7.333544E+00 -7.606908E+01 -3.017641E+00  2.721165E+00  1.977414E+00  4.593009E-01
      2819   5  7.252872E+00 -3.705959E+01  4.558865E+00  1.532634E+01 -2.061712E+00  7.780593E-01
      2819   6 -5.575734E+00 -7.453597E+01 -7.267831E-01  1.506743E+01 -2.053418E+00  1.160557E+00
      2819   7  5.883526E+00 -3.791749E+01  3.068549E+00  3.154327E+00 -2.492019E+00  7.045663E-01
      2819   8 -7.186788E+00 -7.563557E+01 -2.781083E+00  2.895412E+00 -2.485716E+00  1.062879E+00
      2820   1  7.801715E+00 -9.258393E+01  4.896129E+00  1.013965E+01  2.507252E+00  7.094056E-01
      2820   2 -5.051704E+00 -1.299680E+02 -5.645710E-01  9.602050E+00  2.513105E+00  9.492856E-01
      2820   3  5.042132E+00 -9.427186E+01  2.029286E+00 -2.085153E+00  1.884962E+00  5.960575E-01
      2820   4 -8.048911E+00 -1.318935E+02 -3.985871E+00 -2.622756E+00  1.887422E+00  8.146792E-01
      2820   5  7.932892E+00 -9.208756E+01  5.176251E+00  1.010968E+01 -2.066030E+00  1.462215E+00
      2820   6 -4.865928E+00 -1.293632E+02 -2.108605E-01  9.576373E+00 -2.059973E+00  1.903860E+00
      2820   7  5.197058E+00 -9.376993E+01  2.304204E+00 -1.977906E+00 -2.497487E+00  1.347831E+00
      2820   8 -7.841556E+00 -1.312853E+02 -3.642429E+00 -2.511213E+00 -2.494855E+00  1.768024E+00
      2821   1  4.808217E+00  1.201525E+02  2.774675E+00  9.412011E+00  2.256093E+00 -6.330762E-01
      2821   2 -7.334753E+00  8.499599E+01 -2.545339E+00  9.982863E+00  2.258537E+00 -4.078153E-01
      2821   3  7.597280E+00  1.218037E+02  5.489371E+00 -2.056787E+00  1.811804E+00 -6.017402E-01
      2821   4 -4.773940E+00  8.641887E+01 -3.632249E-01 -1.485934E+00  1.814054E+00 -3.897534E-01
      2821   5  4.789906E+00  1.200113E+02  2.665804E+00  9.392146E+00 -1.981654E+00 -1.307482E+00
      2821   6 -7.317796E+00  8.492359E+01 -2.605514E+00  9.963243E+00 -1.979202E+00 -8.890549E-01
      2821   7  7.569075E+00  1.216623E+02  5.390137E+00 -1.956255E+00 -2.241243E+00 -1.275860E+00
      2821   8 -4.768960E+00  8.634431E+01 -4.186275E-01 -1.385158E+00 -2.238986E+00 -8.708281E-01
      2822   1  5.447744E+00  6.856792E+01  2.917942E+00  1.474958E+01  2.351758E+00 -2.637614E-01
      2822   2 -6.595584E+00  3.350983E+01 -2.168399E+00  1.503388E+01  2.348717E+00 -9.545981E-02
      2822   3  6.839060E+00  6.939251E+01  4.275281E+00  3.280202E+00  1.904148E+00 -2.558018E-01
      2822   4 -5.440110E+00  3.409858E+01 -1.361358E+00  3.564501E+00  1.900888E+00 -1.018259E-01
      2822   5  5.471671E+00  6.853932E+01  2.885986E+00  1.479760E+01 -1.969873E+00 -6.012314E-01
      2822   6 -6.534056E+00  3.355509E+01 -2.148881E+00  1.508217E+01 -1.972905E+00 -2.333106E-01
      2822   7  6.858615E+00  6.936412E+01  4.248403E+00  3.449929E+00 -2.226432E+00 -5.931991E-01
      2822   8 -5.385109E+00  3.414190E+01 -1.341788E+00  3.734504E+00 -2.229684E+00 -2.397349E-01
      2823   1  6.132728E+00  1.710913E+01  3.354434E+00  1.653798E+01  2.356993E+00  2.155748E-02
      2823   2 -5.863088E+00 -1.784612E+01 -1.676366E+00  1.653932E+01  2.357316E+00  1.729530E-01
      2823   3  6.127092E+00  1.710082E+01  3.332357E+00  5.096164E+00  1.909733E+00  4.286342E-03
      2823   4 -6.108361E+00 -1.809407E+01 -2.257596E+00  5.097508E+00  1.909395E+00  1.402146E-01
      2823   5  6.164764E+00  1.718558E+01  3.387767E+00  1.661012E+01 -1.969593E+00  3.102853E-02
      2823   6 -5.791116E+00 -1.769059E+01 -1.589002E+00  1.661230E+01 -1.969242E+00  3.852955E-01
      2823   7  6.161879E+00  1.717839E+01  3.366690E+00  5.291205E+00 -2.222653E+00  1.359964E-02
      2823   8 -6.035828E+00 -1.793960E+01 -2.174340E+00  5.293383E+00 -2.222967E+00  3.522581E-01
      2824   1  6.767867E+00 -3.421302E+01  3.833344E+00  1.481139E+01  2.348557E+00  2.926273E-01
      2824   2 -5.160582E+00 -6.901555E+01 -1.125624E+00  1.453438E+01  2.352901E+00  4.681880E-01
      2824   3  5.375275E+00 -3.505343E+01  2.424572E+00  3.412112E+00  1.901170E+00  2.484887E-01
      2824   4 -6.795232E+00 -7.009802E+01 -3.099197E+00  3.135106E+00  1.904007E+00  4.083707E-01
      2824   5  6.809215E+00 -3.402495E+01  3.934766E+00  1.485869E+01 -1.980699E+00  6.542331E-01
      2824   6 -5.078791E+00 -6.874735E+01 -9.695201E-01  1.458359E+01 -1.976288E+00  1.034717E+00
      2824   7  5.428068E+00 -3.486268E+01  2.523484E+00  3.582187E+00 -2.231893E+00  6.096914E-01
      2824   8 -6.704207E+00 -6.982935E+01 -2.950763E+00  3.307088E+00 -2.229003E+00  9.743537E-01
      2825   1  7.369207E+00 -8.537749E+01  4.297376E+00  9.762036E+00  2.262231E+00  6.194639E-01
      2825   2 -4.621127E+00 -1.201984E+02 -8.495178E-01  9.222529E+00  2.262614E+00  8.571967E-01
      2825   3  4.642851E+00 -8.702839E+01  1.520709E+00 -1.615548E+00  1.816382E+00  5.483349E-01
      2825   4 -7.586239E+00 -1.220880E+02 -4.183283E+00 -2.155054E+00  1.814679E+00  7.708424E-01
      2825   5  7.457537E+00 -8.506114E+01  4.483342E+00  9.741608E+00 -1.987934E+00  1.334981E+00
      2825   6 -4.493361E+00 -1.198041E+02 -6.100711E-01  9.204741E+00 -1.987459E+00  1.774831E+00
      2825   7  4.749624E+00 -8.670855E+01  1.699890E+00 -1.513965E+00 -2.240407E+00  1.263202E+00
      2825   8 -7.442211E+00 -1.216924E+02 -3.955709E+00 -2.050833E+00 -2.242036E+00  1.687688E+00
      2826   1  4.273241E+00  1.104780E+02  2.153205E+00  8.901960E+00  2.018823E+00 -7.025928E-01
      2826   2 -6.852149E+00  7.822725E+01 -2.680636E+00  9.463921E+00  2.020909E+00 -4.712397E-01
      2826   3  7.107640E+00  1.121922E+02  5.032766E+00 -1.625863E+00  1.730286E+00 -6.859150E-01
      2826   4 -4.255102E+00  7.970408E+01 -3.548962E-01 -1.063902E+00  1.732724E+00 -4.612461E-01
      2826   5  4.262690E+00  1.103991E+02  2.083483E+00  8.891249E+00 -1.900568E+00 -1.440510E+00
      2826   6 -6.843294E+00  7.818461E+01 -2.721998E+00  9.452764E+00 -1.898492E+00 -1.008707E+00
      2826   7  7.085789E+00  1.121130E+02  4.973407E+00 -1.532932E+00 -1.995452E+00 -1.423680E+00
      2826   8 -4.259715E+00  7.965900E+01 -3.909537E-01 -9.714165E-01 -1.993021E+00 -9.986223E-01
      2827   1  4.936110E+00  6.317179E+01  2.382204E+00  1.422097E+01  2.108504E+00 -3.235425E-01
      2827   2 -6.111907E+00  3.098480E+01 -2.257531E+00  1.449669E+01  2.104962E+00 -1.513793E-01
      2827   3  6.358282E+00  6.404434E+01  3.868544E+00  3.686388E+00  1.817055E+00 -3.186526E-01
      2827   4 -4.934148E+00  3.161294E+01 -1.341487E+00  3.962107E+00  1.813547E+00 -1.537490E-01
      2827   5  4.956268E+00  6.315530E+01  2.360727E+00  1.427917E+01 -1.883956E+00 -7.120837E-01
      2827   6 -6.071052E+00  3.100739E+01 -2.249089E+00  1.455484E+01 -1.887499E+00 -3.334965E-01
      2827   7  6.373791E+00  6.402827E+01  3.853083E+00  3.849003E+00 -1.975831E+00 -7.071492E-01
      2827   8 -4.900174E+00  3.163371E+01 -1.332238E+00  4.124680E+00 -1.979340E+00 -3.358879E-01
      2828   1  5.630794E+00  1.593950E+01  2.850328E+00  1.603948E+01  2.113893E+00 -3.251541E-02
      2828   2 -5.390641E+00 -1.618567E+01 -1.762626E+00  1.603467E+01  2.112996E+00  1.200636E-01
      2828   3  5.650345E+00  1.596864E+01  2.927932E+00  5.522460E+00  1.822517E+00 -4.036549E-02
      2828   4 -5.617310E+00 -1.640274E+01 -2.259533E+00  5.517647E+00  1.821172E+00  1.045006E-01
      2828   5  5.648121E+00  1.597472E+01  2.864311E+00  1.612304E+01 -1.878682E+00 -6.295718E-02
      2828   6 -5.351705E+00 -1.610931E+01 -1.717744E+00  1.611879E+01 -1.879566E+00  2.975829E-01
      2828   7  5.670117E+00  1.600511E+01  2.943595E+00  5.710844E+00 -1.968983E+00 -7.087897E-02
      2828   8 -5.578177E+00 -1.632740E+01 -2.218218E+00  5.706597E+00 -1.970319E+00  2.818777E-01
      2829   1  6.268386E+00 -3.122471E+01  3.321991E+00  1.437115E+01  2.104996E+00  2.400671E-01
      2829   2 -4.719237E+00 -6.327074E+01 -1.257387E+00  1.409495E+01  2.106948E+00  4.153437E-01
      2829   3  4.914557E+00 -3.202796E+01  1.998314E+00  3.876714E+00  1.813389E+00  2.187720E-01
      2829   4 -6.319826E+00 -6.432076E+01 -3.156837E+00  3.600513E+00  1.814373E+00  3.861014E-01
      2829   5  6.284301E+00 -3.113458E+01  3.372951E+00  1.442911E+01 -1.887383E+00  5.699938E-01
      2829   6 -4.681252E+00 -6.313842E+01 -1.175048E+00  1.415413E+01 -1.885404E+00  9.536942E-01
      2829   7  4.939862E+00 -3.193584E+01  2.046507E+00  4.039592E+00 -1.977480E+00  5.485042E-01
      2829   8 -6.274705E+00 -6.418870E+01 -3.082524E+00  3.764616E+00 -1.976478E+00  9.241849E-01
      2830   1  6.902568E+00 -7.831594E+01  3.758176E+00  9.353437E+00  2.021572E+00  5.663133E-01
      2830   2 -4.166645E+00 -1.104348E+02 -1.020329E+00  8.812044E+00  2.018537E+00  8.034936E-01
      2830   3  4.198110E+00 -7.994119E+01  1.045143E+00 -1.136639E+00  1.732126E+00  5.311553E-01
      2830   4 -7.112725E+00 -1.123017E+02 -4.297148E+00 -1.678032E+00  1.727663E+00  7.601205E-01
      2830   5  6.952719E+00 -7.815413E+01  3.861781E+00  9.341497E+00 -1.897181E+00  1.255657E+00
      2830   6 -4.094062E+00 -1.102298E+02 -8.851756E-01  8.801911E+00 -1.900176E+00  1.696934E+00
      2830   7  4.264148E+00 -7.977682E+01  1.141364E+00 -1.043365E+00 -1.989452E+00  1.220178E+00
      2830   8 -7.026461E+00 -1.120963E+02 -4.174529E+00 -1.582951E+00 -1.993887E+00  1.653165E+00
      2831   1  3.737325E+00  1.007199E+02  1.732574E+00  8.407344E+00  1.785154E+00 -7.543954E-01
      2831   2 -6.394028E+00  7.134098E+01 -2.659701E+00  8.964433E+00  1.788027E+00 -5.172270E-01
      2831   3  6.624746E+00  1.024968E+02  4.768224E+00 -1.184654E+00  1.629457E+00 -7.611966E-01
      2831   4 -3.752982E+00  7.287153E+01 -1.989256E-01 -6.275647E-01  1.633329E+00 -5.233471E-01
      2831   5  3.749920E+00  1.007431E+02  1.722914E+00  8.405288E+00 -1.797698E+00 -1.550832E+00
      2831   6 -6.379653E+00  7.136430E+01 -2.663482E+00  8.961112E+00 -1.794838E+00 -1.105798E+00
      2831   7  6.623998E+00  1.025193E+02  4.769270E+00 -1.100744E+00 -1.751064E+00 -1.557695E+00
      2831   8 -3.754199E+00  7.289180E+01 -1.972510E-01 -5.449202E-01 -1.747195E+00 -1.111974E+00
      2832   1  4.394729E+00  5.764690E+01  1.978014E+00  1.370855E+01  1.870093E+00 -3.655284E-01
      2832   2 -5.669094E+00  2.832548E+01 -2.246641E+00  1.398404E+01  1.866769E+00 -1.882484E-01
      2832   3  5.870250E+00  5.857325E+01  3.590333E+00  4.111542E+00  1.712535E+00 -3.710873E-01
      2832   4 -4.447701E+00  2.899770E+01 -1.227288E+00  4.387036E+00  1.709686E+00 -1.929555E-01
      2832   5  4.425290E+00  5.767643E+01  1.984915E+00  1.377508E+01 -1.775377E+00 -7.995375E-01
      2832   6 -5.636980E+00  2.835441E+01 -2.233959E+00  1.404997E+01 -1.778707E+00 -4.078525E-01
      2832   7  5.894731E+00  5.860286E+01  3.603579E+00  4.263868E+00 -1.724097E+00 -8.051472E-01
      2832   8 -4.423988E+00  2.902439E+01 -1.213677E+00  4.538760E+00 -1.726948E+00 -4.126026E-01
      2833   1  5.096669E+00  1.464014E+01  2.432666E+00  1.555479E+01  1.875801E+00 -6.600256E-02
      2833   2 -4.957400E+00 -1.465482E+01 -1.785932E+00  1.555270E+01  1.874284E+00  9.069943E-02
      2833   3  5.163247E+00  1.471088E+01  2.601889E+00  5.966105E+00  1.718818E+00 -7.012082E-02
      2833   4 -5.146181E+00 -1.483944E+01 -2.212548E+00  5.964016E+00  1.717188E+00  8.733811E-02
      2833   5  5.110109E+00  1.466027E+01  2.441138E+00  1.564633E+01 -1.767366E+00 -1.282707E-01
      2833   6 -4.942210E+00 -1.463486E+01 -1.771463E+00  1.564438E+01 -1.768881E+00  2.438761E-01
      2833   7  5.177922E+00  1.473192E+01  2.612175E+00  6.143487E+00 -1.714480E+00 -1.324265E-01
      2833   8 -5.132089E+00 -1.482090E+01 -2.201706E+00  6.141542E+00 -1.716109E+00  2.404841E-01
      2834   1  5.762873E+00 -2.834124E+01  2.877214E+00  1.392566E+01  1.866619E+00  2.133627E-01
      2834   2 -4.276961E+00 -5.760209E+01 -1.328049E+00  1.365219E+01  1.867017E+00  3.917831E-01
      2834   3  4.440721E+00 -2.911827E+01  1.609274E+00  4.346883E+00  1.709563E+00  2.104444E-01
      2834   4 -5.853792E+00 -5.863380E+01 -3.190241E+00  4.073418E+00  1.709233E+00  3.893181E-01
      2834   5  5.759472E+00 -2.832952E+01  2.887673E+00  1.399114E+01 -1.775976E+00  5.240475E-01
      2834   6 -4.278045E+00 -5.758920E+01 -1.311036E+00  1.371860E+01 -1.775569E+00  9.173432E-01
      2834   7  4.445775E+00 -2.910485E+01  1.616951E+00  4.498498E+00 -1.723736E+00  5.211025E-01
      2834   8 -5.848747E+00 -5.862154E+01 -3.181438E+00  4.225954E+00 -1.724063E+00  9.148556E-01
      2835   1  6.431884E+00 -7.129956E+01  3.278142E+00  8.917037E+00  1.786929E+00  5.446276E-01
      2835   2 -3.686408E+00 -1.006389E+02 -1.110207E+00  8.373994E+00  1.781427E+00  7.837862E-01
      2835   3  3.730881E+00 -7.291807E+01  5.841343E-01 -6.617294E-01  1.631900E+00  5.422402E-01
      2835   4 -6.634785E+00 -1.025047E+02 -4.381421E+00 -1.204772E+00  1.625044E+00  7.811576E-01
      2835   5  6.447128E+00 -7.127865E+01  3.306434E+00  8.912894E+00 -1.790212E+00  1.225234E+00
      2835   6 -3.667620E+00 -1.006138E+02 -1.074255E+00  8.371565E+00 -1.795696E+00  1.673113E+00
      2835   7  3.761828E+00 -7.289463E+01  6.051235E-01 -5.788736E-01 -1.742078E+00  1.222825E+00
      2835   8 -6.602554E+00 -1.024794E+02 -4.358044E+00 -1.120203E+00 -1.748929E+00  1.670460E+00
      2836   1  3.200295E+00  9.084349E+01  1.488834E+00  7.929667E+00  1.555638E+00 -8.058994E-01
      2836   2 -5.948729E+00  6.433119E+01 -2.495613E+00  8.485212E+00  1.560570E+00 -5.606190E-01
      2836   3  6.154915E+00  9.269069E+01  4.691541E+00 -7.233046E-01  1.509658E+00 -8.464359E-01
      2836   4 -3.251802E+00  6.592070E+01  1.058099E-01 -1.677592E-01  1.516485E+00 -5.916699E-01
      2836   5  3.252651E+00  9.101445E+01  1.561720E+00  7.935190E+00 -1.672971E+00 -1.663798E+00
      2836   6 -5.915242E+00  6.445927E+01 -2.442745E+00  8.488338E+00 -1.668033E+00 -1.201062E+00
      2836   7  6.190726E+00  9.285986E+01  4.775023E+00 -6.513200E-01 -1.506253E+00 -1.704705E+00
      2836   8 -3.237213E+00  6.604464E+01  1.637825E-01 -9.817251E-02 -1.499402E+00 -1.232397E+00
      2837   1  3.859504E+00  5.201008E+01  1.704149E+00  1.322268E+01  1.637984E+00 -4.026254E-01
      2837   2 -5.227729E+00  2.556068E+01 -2.137231E+00  1.349969E+01  1.635671E+00 -2.162592E-01
      2837   3  5.392603E+00  5.299099E+01  3.440762E+00  4.570261E+00  1.591864E+00 -4.263035E-01
      2837   4 -3.961938E+00  2.627429E+01 -1.024338E+00  4.847269E+00  1.590540E+00 -2.292802E-01
      2837   5  3.913266E+00  5.211982E+01  1.756485E+00  1.329423E+01 -1.641403E+00 -8.809097E-01
      2837   6 -5.195092E+00  2.562233E+01 -2.107212E+00  1.356999E+01 -1.643712E+00 -4.689715E-01
      2837   7  5.438467E+00  5.310031E+01  3.499574E+00  4.706808E+00 -1.466756E+00 -9.048041E-01
      2837   8 -3.939640E+00  2.633306E+01 -9.935397E-01  4.982563E+00 -1.468067E+00 -4.821114E-01
      2838   1  4.574597E+00  1.325362E+01  2.100492E+00  1.508497E+01  1.644975E+00 -8.736511E-02
      2838   2 -4.511463E+00 -1.318641E+01 -1.746345E+00  1.508595E+01  1.643330E+00  7.841393E-02
      2838   3  4.681285E+00  1.335835E+01  2.342913E+00  6.436637E+00  1.600218E+00 -9.248246E-02
      2838   4 -4.673494E+00 -1.335040E+01 -2.130936E+00  6.437618E+00  1.598643E+00  8.423243E-02
      2838   5  4.591844E+00  1.327971E+01  2.114092E+00  1.518049E+01 -1.630263E+00 -1.745111E-01
      2838   6 -4.515875E+00 -1.320966E+01 -1.755601E+00  1.518138E+01 -1.631908E+00  2.180314E-01
      2838   7  4.699138E+00  1.338524E+01  2.358569E+00  6.596758E+00 -1.453066E+00 -1.796752E-01
      2838   8 -4.679755E+00 -1.337530E+01 -2.143863E+00  6.597650E+00 -1.454641E+00  2.239030E-01
      2839   1  5.272083E+00 -2.549546E+01  2.482515E+00  1.347500E+01  1.635653E+00  2.074245E-01
      2839   2 -3.809350E+00 -5.192578E+01 -1.358604E+00  1.320293E+01  1.634736E+00  3.941088E-01
      2839   3  3.961369E+00 -2.626383E+01  1.232008E+00  4.829202E+00  1.590782E+00  2.210861E-01
      2839   4 -5.387243E+00 -5.296133E+01 -3.232531E+00  4.557130E+00  1.588990E+00  4.182624E-01
      2839   5  5.252094E+00 -2.555412E+01  2.456826E+00  1.354480E+01 -1.640268E+00  5.125683E-01
      2839   6 -3.850150E+00 -5.203181E+01 -1.406295E+00  1.327384E+01 -1.641188E+00  9.247155E-01
      2839   7  3.950499E+00 -2.632046E+01  1.203935E+00  4.964141E+00 -1.464470E+00  5.263547E-01
      2839   8 -5.421364E+00 -5.306777E+01 -3.288299E+00  4.693177E+00 -1.466273E+00  9.490896E-01
      2840   1  5.970436E+00 -6.425125E+01  2.823569E+00  8.466051E+00  1.559129E+00  5.522712E-01
      2840   2 -3.181699E+00 -9.076006E+01 -1.174736E+00  7.920749E+00  1.551090E+00  7.976944E-01
      2840   3  3.247434E+00 -6.588725E+01  9.324263E-02 -1.836317E-01  1.515345E+00  5.836029E-01
      2840   4 -6.161965E+00 -9.265332E+01 -4.505346E+00 -7.289339E-01  1.505427E+00  8.381455E-01
      2840   5  5.949684E+00 -6.437501E+01  2.775460E+00  8.468550E+00 -1.662756E+00  1.244864E+00
      2840   6 -3.220623E+00 -9.092507E+01 -1.242163E+00  7.925625E+00 -1.670802E+00  1.707380E+00
      2840   7  3.244623E+00 -6.600760E+01  3.854383E-02 -1.142440E-01 -1.494178E+00  1.276482E+00
      2840   8 -6.185298E+00 -9.281728E+01 -4.584847E+00 -6.571685E-01 -1.504120E+00  1.748201E+00
      2841   1  2.648314E+00  8.076311E+01  1.408207E+00  7.462099E+00  1.329861E+00 -8.789726E-01
      2841   2 -5.516151E+00  5.715166E+01 -2.195222E+00  8.020570E+00  1.338624E+00 -6.192368E-01
      2841   3  5.701196E+00  8.270274E+01  4.820754E+00 -2.358933E-01  1.368550E+00 -9.681697E-01
      2841   4 -2.737931E+00  5.881663E+01  5.764463E-01  3.225777E-01  1.380809E+00 -6.871639E-01
      2841   5  2.763481E+00  8.114710E+01  1.594647E+00  7.474200E+00 -1.523672E+00 -1.812741E+00
      2841   6 -5.446626E+00  5.743617E+01 -2.061441E+00  8.028247E+00 -1.514843E+00 -1.320857E+00
      2841   7  5.793528E+00  8.308271E+01  5.016626E+00 -1.807052E-01 -1.257473E+00 -1.902753E+00
      2841   8 -2.693750E+00  5.909461E+01  7.138051E-01  3.733419E-01 -1.245116E+00 -1.389404E+00
      2842   1  3.327345E+00  4.623590E+01  1.551249E+00  1.276380E+01  1.412887E+00 -4.496930E-01
      2842   2 -4.781650E+00  2.269594E+01 -1.938780E+00  1.304358E+01  1.412509E+00 -2.462267E-01
      2842   3  4.927925E+00  4.727877E+01  3.426907E+00  5.073797E+00  1.454129E+00 -5.011628E-01
      2842   4 -3.467669E+00  2.345222E+01 -7.318487E-01  5.353575E+00  1.455438E+00 -2.740041E-01
      2842   5  3.420146E+00  4.646863E+01  1.669653E+00  1.283570E+01 -1.476696E+00 -9.776655E-01
      2842   6 -4.739319E+00  2.281823E+01 -1.878168E+00  1.311334E+01 -1.477042E+00 -5.319340E-01
      2842   7  5.010215E+00  4.751025E+01  3.551673E+00  5.185684E+00 -1.197923E+00 -1.029605E+00
      2842   8 -3.438466E+00  2.357064E+01 -6.709830E-01  5.463326E+00 -1.196566E+00 -5.599651E-01
      2843   1  4.067444E+00  1.180251E+01  1.838850E+00  1.463774E+01  1.422547E+00 -1.045711E-01
      2843   2 -4.043307E+00 -1.173150E+01 -1.662982E+00  1.464111E+01  1.421001E+00  7.897281E-02
      2843   3  4.206764E+00  1.193510E+01  2.141515E+00  6.951574E+00  1.466151E+00 -1.147630E-01
      2843   4 -4.192324E+00 -1.188724E+01 -2.033104E+00  6.954948E+00  1.464697E+00  9.313305E-02
      2843   5  4.095777E+00  1.185290E+01  1.866705E+00  1.473154E+01 -1.460712E+00 -2.123860E-01
      2843   6 -4.066729E+00 -1.179450E+01 -1.694249E+00  1.473480E+01 -1.462256E+00  2.149036E-01
      2843   7  4.235755E+00  1.198644E+01  2.171871E+00  7.084503E+00 -1.178105E+00 -2.226710E-01
      2843   8 -4.217723E+00 -1.195193E+01 -2.068016E+00  7.087760E+00 -1.179557E+00  2.291932E-01
      2844   1  4.799309E+00 -2.262632E+01  2.109826E+00  1.303366E+01  1.412902E+00  2.206788E-01
      2844   2 -3.310406E+00 -4.616277E+01 -1.386100E+00  1.276103E+01  1.410251E+00  4.242828E-01
      2844   3  3.477139E+00 -2.340504E+01  8.362631E-01  5.345757E+00  1.456154E+00  2.524197E-01
      2844   4 -4.918918E+00 -4.722783E+01 -3.327793E+00  5.073132E+00  1.452014E+00  4.797027E-01
      2844   5  4.761599E+00 -2.276132E+01  2.045685E+00  1.310303E+01 -1.473409E+00  5.344227E-01
      2844   6 -3.398556E+00 -4.640815E+01 -1.507997E+00  1.283229E+01 -1.476089E+00  9.800753E-01
      2844   7  3.451159E+00 -2.353695E+01  7.706932E-01  5.455115E+00 -1.192824E+00  5.664535E-01
      2844   8 -4.997952E+00 -4.747273E+01 -3.457221E+00  5.184374E+00 -1.197006E+00  1.036001E+00
      2845   1  5.526747E+00 -5.708241E+01  2.350269E+00  8.012744E+00  1.337699E+00  5.937687E-01
      2845   2 -2.646426E+00 -8.070458E+01 -1.271470E+00  7.462401E+00  1.325943E+00  8.532085E-01
      2845   3  2.744363E+00 -5.876774E+01 -4.851194E-01  3.137515E-01  1.380417E+00  6.656612E-01
      2845   4 -5.702727E+00 -8.266383E+01 -4.745999E+00 -2.365919E-01  1.365344E+00  9.464260E-01
      2845   5  5.461628E+00 -5.737973E+01  2.212888E+00  8.020048E+00 -1.509754E+00  1.322900E+00
      2845   6 -2.757276E+00 -8.110161E+01 -1.461581E+00  7.473903E+00 -1.521574E+00  1.813861E+00
      2845   7  2.703255E+00 -5.905927E+01 -6.272157E-01  3.640828E-01 -1.240109E+00  1.395449E+00
      2845   8 -5.792070E+00 -8.305757E+01 -4.946664E+00 -1.820626E-01 -1.255276E+00  1.907930E+00
      2846   1  2.057709E+00  7.032332E+01  1.495463E+00  6.997683E+00  1.104279E+00 -1.006535E+00
      2846   2 -5.103756E+00  4.970099E+01 -1.753760E+00  7.565095E+00  1.119965E+00 -7.180286E-01
      2846   3  5.263113E+00  7.239765E+01  5.204483E+00  2.894761E-01  1.197803E+00 -1.171423E+00
      2846   4 -2.201677E+00  5.147200E+01  1.247501E+00  8.568884E-01  1.219970E+00 -8.432030E-01
      2846   5  2.276375E+00  7.103777E+01  1.849742E+00  7.015917E+00 -1.344917E+00 -2.046733E+00
      2846   6 -4.971092E+00  5.022892E+01 -1.499632E+00  7.575128E+00 -1.329004E+00 -1.500913E+00
      2846   7  5.446712E+00  7.310347E+01  5.565062E+00  3.187843E-01 -9.996770E-01 -2.213127E+00
      2846   8 -2.106852E+00  5.198852E+01  1.501464E+00  8.779952E-01 -9.772246E-01 -1.627230E+00
      2847   1  2.782903E+00  4.025115E+01  1.514883E+00  1.233017E+01  1.192678E+00 -5.261687E-01
      2847   2 -4.334019E+00  1.970238E+01 -1.659426E+00  1.261640E+01  1.195549E+00 -2.905044E-01
      2847   3  4.477647E+00  4.137532E+01  3.567376E+00  5.636421E+00  1.292352E+00 -6.210176E-01
      2847   4 -2.954629E+00  2.051120E+01 -3.427586E-01  5.922653E+00  1.298243E+00 -3.422160E-01
      2847   5  2.940145E+00  4.067543E+01  1.731558E+00  1.239657E+01 -1.275019E+00 -1.116927E+00
      2847   6 -4.269700E+00  1.992455E+01 -1.550384E+00  1.267898E+01 -1.272042E+00 -6.136801E-01
      2847   7  4.618995E+00  4.179642E+01  3.789353E+00  5.709490E+00 -9.134808E-01 -1.212643E+00
      2847   8 -2.909084E+00  2.072731E+01 -2.351363E-01  5.991899E+00 -9.074559E-01 -6.658640E-01
      2848   1  3.567377E+00  1.028346E+01  1.630942E+00  1.422164E+01  1.206626E+00 -1.250532E-01
      2848   2 -3.549936E+00 -1.025271E+01 -1.557258E+00  1.422805E+01  1.205096E+00  9.130359E-02
      2848   3  3.739527E+00  1.044284E+01  1.990054E+00  7.534367E+00  1.309875E+00 -1.448622E-01
      2848   4 -3.693776E+00 -1.040933E+01 -1.935458E+00  7.540775E+00  1.308255E+00  1.155169E-01
      2848   5  3.616140E+00  1.037898E+01  1.683311E+00  1.430613E+01 -1.252472E+00 -2.521367E-01
      2848   6 -3.595798E+00 -1.036325E+01 -1.614254E+00  1.431265E+01 -1.254005E+00  2.323712E-01
      2848   7  3.789851E+00  1.053981E+01  2.045698E+00  7.624352E+00 -8.867861E-01 -2.721265E-01
      2848   8 -3.740964E+00 -1.052129E+01 -1.995914E+00  7.630873E+00 -8.884100E-01  2.568056E-01
      2849   1  4.344708E+00 -1.967186E+01  1.728860E+00  1.261700E+01  1.196191E+00  2.567550E-01
      2849   2 -2.770765E+00 -4.021271E+01 -1.448536E+00  1.234123E+01  1.190488E+00  4.924199E-01
      2849   3  2.985565E+00 -2.048129E+01  3.898974E-01  5.926475E+00  1.298803E+00  3.128054E-01
      2849   4 -4.444903E+00 -4.133713E+01 -3.522489E+00  5.650709E+00  1.290103E+00  5.914285E-01
      2849   5  4.282710E+00 -1.990905E+01  1.615022E+00  1.267974E+01 -1.268573E+00  5.938019E-01
      2849   6 -2.925335E+00 -4.065120E+01 -1.669638E+00  1.240776E+01 -1.274381E+00  1.096741E+00
      2849   7  2.941759E+00 -2.071275E+01  2.769467E-01  5.996073E+00 -9.043689E-01  6.503642E-01
      2849   8 -4.584159E+00 -4.177278E+01 -3.749416E+00  5.724099E+00 -9.132015E-01  1.196654E+00
      2850   1  5.110144E+00 -4.966623E+01  1.811300E+00  7.565560E+00  1.119586E+00  6.843515E-01
      2850   2 -2.061103E+00 -7.030335E+01 -1.455735E+00  7.005125E+00  1.101271E+00  9.730537E-01
      2850   3  2.216803E+00 -5.144240E+01 -1.215927E+00  8.548557E-01  1.219812E+00  8.137193E-01
      2850   4 -5.257298E+00 -7.238237E+01 -5.189623E+00  2.944201E-01  1.195271E+00  1.142406E+00
      2850   5  4.979629E+00 -5.020871E+01  1.552505E+00  7.575770E+00 -1.324373E+00  1.480544E+00
      2850   6 -2.278118E+00 -7.103354E+01 -1.815157E+00  7.023216E+00 -1.342906E+00  2.026172E+00
      2850   7  2.122658E+00 -5.197419E+01 -1.475459E+00  8.758239E-01 -9.727671E-01  1.611093E+00
      2850   8 -5.440709E+00 -7.310464E+01 -5.556236E+00  3.232696E-01 -9.975837E-01  2.197071E+00
      2851   1  1.385005E+00  5.923125E+01  1.767344E+00  6.516870E+00  8.670335E-01 -1.248692E+00
      2851   2 -4.724809E+00  4.179065E+01 -1.158105E+00  7.112268E+00  8.960035E-01 -8.992170E-01
      2851   3  4.867918E+00  6.152729E+01  5.937925E+00  8.701850E-01  9.711452E-01 -1.547643E+00
      2851   4 -1.598349E+00  4.373024E+01  2.180752E+00  1.465583E+00  1.015090E+00 -1.123493E+00
      2851   5  1.792649E+00  6.052777E+01  2.402396E+00  6.545750E+00 -1.130478E+00 -2.450080E+00
      2851   6 -4.477037E+00  4.273828E+01 -7.070706E-01  7.122197E+00 -1.100747E+00 -1.796061E+00
      2851   7  5.204090E+00  6.280052E+01  6.566805E+00  8.568297E-01 -7.306317E-01 -2.751762E+00
      2851   8 -1.425304E+00  4.465133E+01  2.618018E+00  1.433276E+00 -6.857896E-01 -2.022386E+00
      2852   1  2.197356E+00  3.391896E+01  1.591610E+00  1.191357E+01  9.669053E-01 -6.628218E-01
      2852   2 -3.890404E+00  1.652117E+01 -1.303128E+00  1.220650E+01  9.754701E-01 -3.664531E-01
      2852   3  4.007535E+00  3.514522E+01  3.868959E+00  6.277229E+00  1.083580E+00 -8.316071E-01
      2852   4 -2.437188E+00  1.739046E+01  1.413067E-01  6.570156E+00  1.097113E+00 -4.583094E-01
      2852   5  2.468911E+00  3.466855E+01  1.967372E+00  1.196795E+01 -1.034397E+00 -1.336525E+00
      2852   6 -3.783025E+00  1.691186E+01 -1.115722E+00  1.225459E+01 -1.025580E+00 -7.350669E-01
      2852   7  4.255305E+00  3.588873E+01  4.248242E+00  6.286456E+00 -6.212704E-01 -1.506852E+00
      2852   8 -2.356854E+00  1.777182E+01  3.246266E-01  6.573096E+00 -6.074396E-01 -8.277623E-01
      2853   1  3.069151E+00  8.677172E+00  1.464410E+00  1.382539E+01  9.867701E-01 -1.569454E-01
      2853   2 -3.025807E+00 -8.725187E+00 -1.449759E+00  1.383693E+01  9.846726E-01  1.190716E-01
      2853   3  3.281130E+00  8.866159E+00  1.882390E+00  8.190360E+00  1.107397E+00 -1.928617E-01
      2853   4 -3.166134E+00 -8.888506E+00 -1.853826E+00  8.201893E+00  1.104610E+00  1.590573E-01
      2853   5  3.153211E+00  8.848056E+00  1.556017E+00  1.389363E+01 -1.006425E+00 -3.036759E-01
      2853   6 -3.103738E+00 -8.908416E+00 -1.544007E+00  1.390604E+01 -1.008557E+00  2.734486E-01
      2853   7  3.369411E+00  9.039749E+00  1.978794E+00  8.214723E+00 -5.931444E-01 -3.399203E-01
      2853   8 -3.243062E+00 -9.072247E+00 -1.950785E+00  8.227130E+00 -5.959728E-01  3.137996E-01
      2854   1  3.912478E+00 -1.656692E+01  1.310631E+00  1.222679E+01  9.748417E-01  3.279230E-01
      2854   2 -2.160556E+00 -3.392732E+01 -1.572420E+00  1.195052E+01  9.629928E-01  6.224989E-01
      2854   3  2.509153E+00 -1.741953E+01 -1.280810E-01  6.601740E+00  1.094462E+00  4.232486E-01
      2854   4 -3.919215E+00 -3.513526E+01 -3.840243E+00  6.325470E+00  1.076956E+00  7.931134E-01
      2854   5  3.809538E+00 -1.696849E+01  1.120569E+00  1.227765E+01 -1.024353E+00  7.036494E-01
      2854   6 -2.424476E+00 -3.468044E+01 -1.947532E+00  1.200854E+01 -1.036489E+00  1.301856E+00
      2854   7  2.435669E+00 -1.781077E+01 -3.131672E-01  6.609406E+00 -6.096026E-01  7.998456E-01
      2854   8 -4.156924E+00 -3.588130E+01 -4.217951E+00  6.340296E+00 -6.274472E-01  1.474028E+00
      2855   1  4.732765E+00 -4.180018E+01  1.163562E+00  7.128916E+00  8.945780E-01  8.584277E-01
      2855   2 -1.380949E+00 -5.924298E+01 -1.772682E+00  6.539617E+00  8.635857E-01  1.208421E+00
      2855   3  1.621812E+00 -4.373643E+01 -2.179646E+00  1.483075E+00  1.011954E+00  1.083806E+00
      2855   4 -4.847751E+00 -6.153508E+01 -5.946203E+00  8.937766E-01  9.666093E-01  1.508129E+00
      2855   5  4.490383E+00 -4.274966E+01  7.130828E-01  7.141449E+00 -1.097997E+00  1.760199E+00
      2855   6 -1.782515E+00 -6.053979E+01 -2.406449E+00  6.570315E+00 -1.129718E+00  2.414209E+00
      2855   7  1.451191E+00 -4.466066E+01 -2.617728E+00  1.453797E+00 -6.852761E-01  1.987636E+00
      2855   8 -5.180807E+00 -6.280989E+01 -6.575158E+00  8.826632E-01 -7.314812E-01  2.716654E+00
      2856   1  5.150137E-01  4.696091E+01  2.227997E+00  6.018538E+00  5.804733E-01 -1.735818E+00
      2856   2 -4.419032E+00  3.314089E+01 -3.988031E-01  6.614452E+00  6.397883E-01 -1.248834E+00
      2856   3  4.265497E+00  4.952350E+01  7.019478E+00  1.590222E+00  6.160543E-01 -2.309401E+00
      2856   4 -1.127314E+00  3.524472E+01  3.322225E+00  2.186137E+00  7.024578E-01 -1.667577E+00
      2856   5  1.318524E+00  4.944298E+01  3.406716E+00  6.070671E+00 -8.809535E-01 -3.184470E+00
      2856   6 -3.940032E+00  3.490652E+01  4.146518E-01  6.632303E+00 -8.198338E-01 -2.300095E+00
      2856   7  4.946949E+00  5.196198E+01  8.174968E+00  1.488887E+00 -4.657273E-01 -3.763291E+00
      2856   8 -7.745635E-01  3.696257E+01  4.102674E+00  2.050518E+00 -3.772717E-01 -2.722663E+00
      2857   1  1.539439E+00  2.705743E+01  1.774854E+00  1.141641E+01  7.010869E-01 -9.184674E-01
      2857   2 -3.475303E+00  1.301669E+01 -9.002165E-01  1.174178E+01  7.196906E-01 -5.028742E-01
      2857   3  3.568522E+00  2.843791E+01  4.347379E+00  6.918312E+00  7.481671E-01 -1.228507E+00
      2857   4 -1.858627E+00  1.398476E+01  7.100243E-01  7.243686E+00  7.800881E-01 -6.707690E-01
      2857   5  2.031252E+00  2.842334E+01  2.435414E+00  1.147129E+01 -7.758106E-01 -1.693445E+00
      2857   6 -3.280812E+00  1.372548E+01 -5.736132E-01  1.177981E+01 -7.563197E-01 -9.204212E-01
      2857   7  3.999964E+00  2.978261E+01  4.997619E+00  6.836222E+00 -3.870598E-01 -2.006316E+00
      2857   8 -1.728274E+00  1.466859E+01  1.017519E+00  7.144743E+00 -3.541299E-01 -1.089849E+00
      2858   1  2.549121E+00  6.908751E+00  1.305343E+00  1.338174E+01  7.267450E-01 -2.099748E-01
      2858   2 -2.439100E+00 -7.078568E+00 -1.334740E+00  1.340007E+01  7.225039E-01  1.746481E-01
      2858   3  2.801406E+00  7.124494E+00  1.772201E+00  8.897044E+00  7.812982E-01 -2.751229E-01
      2858   4 -2.575686E+00 -7.251696E+00 -1.775248E+00  8.915375E+00  7.747029E-01  2.480646E-01
      2858   5  2.699678E+00  7.216020E+00  1.464440E+00  1.344015E+01 -7.536388E-01 -3.732203E-01
      2858   6 -2.577500E+00 -7.410991E+00 -1.499145E+00  1.346146E+01 -7.580367E-01  3.487365E-01
      2858   7  2.963404E+00  7.437649E+00  1.939478E+00  8.822841E+00 -3.767810E-01 -4.389635E-01
      2858   8 -2.706198E+00 -7.581784E+00 -1.939760E+00  8.844151E+00 -3.835546E-01  4.228235E-01
      2859   1  3.529661E+00 -1.318104E+01  8.575485E-01  1.180244E+01  7.124732E-01  4.636367E-01
      2859   2 -1.441054E+00 -2.712281E+01 -1.769736E+00  1.150231E+01  6.883749E-01  8.685453E-01
      2859   3  1.991512E+00 -1.412092E+01 -7.372205E-01  7.331726E+00  7.644576E-01  6.368829E-01
      2859   4 -3.384364E+00 -2.846785E+01 -4.309880E+00  7.031598E+00  7.247447E-01  1.175967E+00
      2859   5  3.342600E+00 -1.390637E+01  5.271128E-01  1.185385E+01 -7.659837E-01  8.895942E-01
      2859   6 -1.909825E+00 -2.846947E+01 -2.417873E+00  1.157349E+01 -7.911224E-01  1.645288E+00
      2859   7  1.877755E+00 -1.481739E+01 -1.044786E+00  7.255885E+00 -3.782593E-01  1.064423E+00
      2859   8 -3.783532E+00 -2.978935E+01 -4.943780E+00  6.975519E+00 -4.191550E-01  1.955517E+00
      2860   1  4.430062E+00 -3.320134E+01  3.793235E-01  6.663050E+00  6.316522E-01  1.193617E+00
      2860   2 -4.870894E-01 -4.697845E+01 -2.234075E+00  6.071600E+00  5.718269E-01  1.676820E+00
      2860   3  1.155898E+00 -3.529651E+01 -3.330415E+00  2.247700E+00  6.859287E-01  1.604976E+00
      2860   4 -4.215583E+00 -4.952795E+01 -7.003916E+00  1.656250E+00  6.006011E-01  2.237967E+00
      2860   5  3.966415E+00 -3.493362E+01 -4.192908E-01  6.693081E+00 -8.262252E-01  2.242718E+00
      2860   6 -1.265362E+00 -4.940449E+01 -3.387673E+00  6.133908E+00 -8.877495E-01  3.119232E+00
      2860   7  8.114383E-01 -3.698403E+01 -4.099016E+00  2.130459E+00 -3.958126E-01  2.657834E+00
      2860   8 -4.878819E+00 -5.191338E+01 -8.137184E+00  1.571285E+00 -4.830722E-01  3.685505E+00
      2861   1 -2.422238E-01  3.426835E+01  3.330272E+00  4.980294E+00  1.715711E-01 -2.740352E+00
      2861   2 -4.108188E+00  2.406680E+01  6.452741E-01  5.744859E+00  2.852750E-01 -1.934612E+00
      2861   3  3.814061E+00  3.704195E+01  8.519303E+00  2.323034E+00 -5.664662E-02 -3.684684E+00
      2861   4 -6.252329E-01  2.626707E+01  4.496536E+00  3.087600E+00  1.333521E-01 -2.606315E+00
      2861   5  1.293702E+00  3.896444E+01  5.466938E+00  5.161256E+00 -6.221950E-01 -4.588671E+00
      2861   6 -3.219684E+00  2.731725E+01  2.069503E+00  5.814131E+00 -5.020023E-01 -3.200204E+00
      2861   7  5.024532E+00  4.158032E+01  1.045573E+01  2.115581E+00 -3.611140E-01 -5.516374E+00
      2861   8 -5.208861E-02  2.936990E+01  5.744080E+00  2.768457E+00 -1.659698E-01 -3.860080E+00
      2862   1  9.603347E-01  1.987978E+01  2.128452E+00  1.049942E+01  3.072783E-01 -1.403119E+00
      2862   2 -2.950280E+00  9.374731E+00 -4.018801E-01  1.089564E+01  3.515721E-01 -7.567935E-01
      2862   3  2.998586E+00  2.125330E+01  4.668584E+00  7.733592E+00  1.211476E-01 -1.891829E+00
      2862   4 -1.331212E+00  1.032906E+01  1.160157E+00  8.129817E+00  1.980254E-01 -1.018184E+00
      2862   5  1.813401E+00  2.233199E+01  3.249022E+00  1.060865E+01 -5.947707E-01 -2.298601E+00
      2862   6 -2.632029E+00  1.062658E+01  1.363393E-01  1.095718E+01 -5.477056E-01 -1.223841E+00
      2862   7  3.714542E+00  2.363794E+01  5.701047E+00  7.509105E+00 -4.234303E-01 -2.778705E+00
      2862   8 -1.142691E+00  1.152072E+01  1.627492E+00  7.857630E+00 -3.443550E-01 -1.480629E+00
      2863   1  2.034271E+00  5.066396E+00  1.151852E+00  1.258374E+01  3.454975E-01 -3.021835E-01
      2863   2 -1.808286E+00 -5.358239E+00 -1.232035E+00  1.260756E+01  3.358996E-01  2.935081E-01
      2863   3  2.272152E+00  5.264323E+00  1.573729E+00  9.823101E+00  1.826642E-01 -3.991386E-01
      2863   4 -1.937552E+00 -5.527459E+00 -1.666836E+00  9.846916E+00  1.681532E-01  4.184812E-01
      2863   5  2.297395E+00  5.592853E+00  1.413487E+00  1.266437E+01 -6.002297E-01 -4.743517E-01
      2863   6 -2.063715E+00 -6.000106E+00 -1.530588E+00  1.269537E+01 -6.102455E-01  4.985316E-01
      2863   7  2.555067E+00  5.797572E+00  1.838212E+00  9.576831E+00 -4.500553E-01 -5.695995E-01
      2863   8 -2.166726E+00 -6.156069E+00 -1.947456E+00  9.607838E+00 -4.648976E-01  6.213041E-01
      2864   1  3.062101E+00 -9.665805E+00  3.007985E-01  1.101812E+01  3.247842E-01  7.337254E-01
      2864   2 -7.627554E-01 -1.999832E+01 -2.116201E+00  1.065149E+01  2.694829E-01  1.340730E+00
      2864   3  1.505936E+00 -1.060689E+01 -1.279999E+00  8.288685E+00  1.510622E-01  1.014273E+00
      2864   4 -2.718374E+00 -2.133887E+01 -4.629060E+00  7.922060E+00  5.743253E-02  1.824385E+00
      2864   5  2.740378E+00 -1.100043E+01 -2.668345E-01  1.112694E+01 -5.918014E-01  1.225827E+00
      2864   6 -1.564452E+00 -2.240759E+01 -3.209106E+00  1.081642E+01 -6.503626E-01  2.239953E+00
      2864   7  1.341055E+00 -1.186947E+01 -1.764322E+00  8.094700E+00 -4.250512E-01  1.501434E+00
      2864   8 -3.356195E+00 -2.366905E+01 -5.622243E+00  7.784185E+00 -5.212658E-01  2.715091E+00
      2865   1  4.118196E+00 -2.418644E+01 -6.698678E-01  5.835749E+00  2.565917E-01  1.848473E+00
      2865   2  3.020035E-01 -3.428580E+01 -3.291150E+00  5.074269E+00  1.472211E-01  2.628648E+00
      2865   3  6.536665E-01 -2.637346E+01 -4.495391E+00  3.200474E+00  8.267965E-02  2.498577E+00
      2865   4 -3.718317E+00 -3.702861E+01 -8.413517E+00  2.438994E+00 -9.590861E-02  3.530392E+00
      2865   5  3.258177E+00 -2.733389E+01 -2.053269E+00  5.949184E+00 -5.402206E-01  3.103086E+00
      2865   6 -1.157858E+00 -3.876985E+01 -5.337419E+00  5.289033E+00 -6.554782E-01  4.447085E+00
      2865   7  7.804045E-02 -2.938665E+01 -5.715693E+00  2.952124E+00 -2.406237E-01  3.741743E+00
      2865   8 -4.883997E+00 -4.136862E+01 -1.027385E+01  2.291973E+00 -4.238801E-01  5.332951E+00
      2866   1 -1.502725E+00  1.929831E+01  4.090366E+00  3.864374E+00 -6.101600E-01 -4.681307E+00
      2866   2 -3.985016E+00  1.379546E+01  1.318921E+00  4.772110E+00 -3.229991E-01 -3.212435E+00
      2866   3  3.246973E+00  2.252513E+01  1.009672E+01  2.597493E+00 -1.555206E+00 -6.673651E+00
      2866   4 -8.536352E-02  1.617222E+01  5.341830E+00  3.505228E+00 -1.062590E+00 -4.583318E+00
      2866   5  1.581626E+00  2.901839E+01  8.128811E+00  4.433953E+00 -5.164618E-01 -6.824501E+00
      2866   6 -2.311689E+00  2.028498E+01  3.884514E+00  5.040919E+00 -2.180930E-01 -4.492127E+00
      2866   7  5.443520E+00  3.184375E+01  1.368476E+01  2.367539E+00 -7.250475E-01 -8.781764E+00
      2866   8  7.151263E-01  2.227525E+01  7.491943E+00  2.974505E+00 -2.248413E-01 -5.838872E+00
      2867   1  7.426340E-02  1.190430E+01  2.033873E+00  9.303461E+00 -3.791162E-01 -2.282052E+00
      2867   2 -2.580085E+00  5.286086E+00 -1.957391E-01  9.747516E+00 -2.617303E-01 -1.209073E+00
      2867   3  2.157508E+00  1.324257E+01  4.411513E+00  7.640942E+00 -1.196513E+00 -3.256275E+00
      2867   4 -8.900795E-01  6.231112E+00  1.264343E+00  8.084997E+00 -9.955961E-01 -1.721061E+00
      2867   5  1.670108E+00  1.668735E+01  4.021249E+00  9.660694E+00 -7.044273E-01 -3.095978E+00
      2867   6 -2.020705E+00  7.679316E+00  7.265698E-01  9.982466E+00 -5.824848E-01 -1.614003E+00
      2867   7  3.397546E+00  1.786528E+01  6.220256E+00  7.390582E+00 -1.174806E+00 -4.053047E+00
      2867   8 -6.795826E-01  8.470935E+00  2.024175E+00  7.712354E+00 -9.708034E-01 -2.116976E+00
      2868   1  1.419665E+00  3.049425E+00  8.347186E-01  1.146678E+01 -2.835945E-01 -4.512682E-01
      2868   2 -1.039429E+00 -3.317731E+00 -9.951040E-01  1.148516E+01 -3.046978E-01  5.461135E-01
      2868   3  1.594624E+00  3.193545E+00  1.140161E+00  9.827668E+00 -1.024174E+00 -6.262493E-01
      2868   4 -1.196044E+00 -3.505185E+00 -1.463335E+00  9.846049E+00 -1.058993E+00  8.296168E-01
      2868   5  1.899833E+00  3.990863E+00  1.272641E+00  1.170944E+01 -7.289972E-01 -5.788949E-01
      2868   6 -1.584125E+00 -4.743525E+00 -1.606163E+00  1.174790E+01 -7.508487E-01  7.670966E-01
      2868   7  2.133636E+00  4.158985E+00  1.599244E+00  9.467838E+00 -1.176445E+00 -7.507950E-01
      2868   8 -1.676058E+00 -4.901139E+00 -2.039610E+00  9.506299E+00 -1.211771E+00  1.045608E+00
      2869   1  2.772901E+00 -5.588927E+00  1.023201E-02  9.918822E+00 -3.330981E-01  1.260869E+00
      2869   2  2.299770E-01 -1.203429E+01 -2.020815E+00  9.501906E+00 -4.699619E-01  2.216236E+00
      2869   3  1.089693E+00 -6.572686E+00 -1.585757E+00  8.282065E+00 -1.114637E+00  1.851879E+00
      2869   4 -1.800816E+00 -1.336564E+01 -4.427835E+00  7.865149E+00 -1.337015E+00  3.188884E+00
      2869   5  2.116816E+00 -8.356393E+00 -1.060251E+00  1.030064E+01 -7.083635E-01  1.741237E+00
      2869   6 -1.283102E+00 -1.677613E+01 -3.973572E+00  1.000891E+01 -8.498922E-01  3.056647E+00
      2869   7  7.938789E-01 -9.181130E+00 -2.486438E+00  8.157498E+00 -1.182386E+00  2.321840E+00
      2869   8 -2.947503E+00 -1.794233E+01 -6.196510E+00  7.865769E+00 -1.407923E+00  4.012169E+00
      2870   1  3.981263E+00 -1.400481E+01 -1.345583E+00  4.878948E+00 -3.955256E-01  3.068112E+00
      2870   2  1.547431E+00 -1.946820E+01 -3.994967E+00  3.976955E+00 -6.608279E-01  4.440114E+00
      2870   3  1.077084E-01 -1.636512E+01 -5.339707E+00  3.608295E+00 -1.174280E+00  4.380480E+00
      2870   4 -3.122198E+00 -2.262458E+01 -9.846598E+00  2.706302E+00 -1.623267E+00  6.298975E+00
      2870   5  2.340365E+00 -2.023540E+01 -3.822893E+00  5.267484E+00 -3.365628E-01  4.335595E+00
      2870   6 -1.336928E+00 -2.854229E+01 -7.773640E+00  4.634390E+00 -6.118852E-01  6.514335E+00
      2870   7 -7.554576E-01 -2.225006E+01 -7.442607E+00  3.290940E+00 -4.274694E-01  5.624855E+00
      2870   8 -5.214808E+00 -3.133901E+01 -1.321815E+01  2.657846E+00 -8.832423E-01  8.340466E+00
      2871   1 -3.182278E+00  3.575129E+00  4.087297E+00  8.118369E-01 -3.304476E+00 -7.784929E+00
      2871   2 -4.484932E+00  2.576851E+00  7.433932E-01  1.230150E+00 -2.719933E+00 -5.282087E+00
      2871   3 -1.443342E+00  4.612273E+00  5.805507E+00  9.394979E-01 -7.216428E+00 -1.129590E+01
      2871   4 -3.174664E+00  3.185327E+00  1.461379E+00  1.357811E+00 -6.614045E+00 -7.841770E+00
      2871   5  1.952238E+00  2.046776E+01  1.071674E+01  4.040314E+00 -2.133199E+00 -8.367894E+00
      2871   6 -1.449648E+00  1.458502E+01  5.259854E+00  4.432512E+00 -1.548226E+00 -5.423813E+00
      2871   7  3.626146E+00  2.147189E+01  1.238995E+01  2.981150E+00 -5.611426E+00 -1.181704E+01
      2871   8 -1.968587E-01  1.516804E+01  5.950451E+00  3.373348E+00 -5.008928E+00 -7.938424E+00
      2872   1 -1.887487E+00  2.963879E+00  5.292627E-01  4.610782E+00 -3.005348E+00 -3.710517E+00
      2872   2 -2.850499E+00  1.007243E+00 -7.241433E-01  4.421379E+00 -2.838581E+00 -1.919752E+00
      2872   3 -2.525412E+00  2.643710E+00  9.995679E-02  4.194038E+00 -7.258933E+00 -5.551602E+00
      2872   4 -3.507772E+00  6.677262E-01 -1.198593E+00  4.004635E+00 -7.305051E+00 -2.748880E+00
      2872   5  1.437356E+00  1.208826E+01  4.260618E+00  8.391793E+00 -2.922590E+00 -3.674918E+00
      2872   6 -1.748258E+00  4.946176E+00  7.839898E-01  8.514037E+00 -2.760943E+00 -1.840930E+00
      2872   7  1.722276E+00  1.216442E+01  4.229562E+00  6.702634E+00 -7.087771E+00 -5.483585E+00
      2872   8 -1.482345E+00  5.003329E+00  7.085853E-01  6.824878E+00 -7.135261E+00 -2.655458E+00
      2873   1  8.323712E-01  1.288490E+00  3.482387E-01  5.884337E+00 -2.886924E+00 -6.544823E-01
      2873   2 -1.940462E-01 -1.151301E+00 -6.333614E-01  5.924632E+00 -2.926979E+00  1.011533E+00
      2873   3  8.509411E-01  1.239458E+00  1.662310E-01  5.291543E+00 -7.413422E+00 -8.513003E-01
      2873   4 -1.521196E-01 -1.176976E+00 -7.608702E-01  5.331837E+00 -7.452819E+00  1.530262E+00
      2873   5  1.434506E+00  2.368393E+00  8.486923E-01  1.027727E+01 -3.021094E+00 -5.618831E-01
      2873   6 -1.162604E+00 -3.737098E+00 -1.702852E+00  1.031660E+01 -3.061133E+00  1.098549E+00
      2873   7  1.454074E+00  2.320793E+00  6.704571E-01  8.779413E+00 -7.489342E+00 -7.552354E-01
      2873   8 -1.120091E+00 -3.761753E+00 -1.827548E+00  8.818745E+00 -7.528735E+00  1.608144E+00
      2874   1  3.189776E+00 -1.011588E+00  3.986946E-01  4.651354E+00 -2.969281E+00  2.175644E+00
      2874   2  2.308925E+00 -2.969541E+00 -5.795231E-01  4.863355E+00 -3.149989E+00  3.690041E+00
      2874   3  3.755520E+00 -8.015124E-01  5.332032E-01  4.199598E+00 -7.417868E+00  3.238627E+00
      2874   4  2.905135E+00 -2.728999E+00 -3.739288E-01  4.411599E+00 -7.363418E+00  5.524406E+00
      2874   5  1.629585E+00 -6.127083E+00 -1.606374E+00  9.089529E+00 -3.012273E+00  2.256525E+00
      2874   6 -9.443965E-01 -1.203665E+01 -4.276745E+00  8.957278E+00 -3.187323E+00  3.759744E+00
      2874   7  1.178668E+00 -6.352148E+00 -1.905676E+00  7.665448E+00 -7.410227E+00  3.300790E+00
      2874   8 -1.365384E+00 -1.223179E+01 -4.506213E+00  7.533197E+00 -7.354261E+00  5.561809E+00
      2875   1  4.504595E+00 -2.899172E+00 -8.157434E-01  1.336218E+00 -2.828268E+00  5.062694E+00
      2875   2  3.125990E+00 -4.288171E+00 -4.022094E+00  9.854295E-01 -3.324228E+00  7.298454E+00
      2875   3  3.333693E+00 -3.481566E+00 -1.586155E+00  1.331858E+00 -6.671052E+00  7.464626E+00
      2875   4  1.610975E+00 -5.214679E+00 -5.595436E+00  9.810699E-01 -7.080285E+00  1.047963E+01
      2875   5  1.421888E+00 -1.426866E+01 -5.157282E+00  4.721760E+00 -1.787472E+00  5.258090E+00
      2875   6 -1.676115E+00 -1.965855E+01 -1.009407E+01  4.244011E+00 -2.281346E+00  7.848430E+00
      2875   7 -1.444180E-01 -1.501910E+01 -6.092423E+00  3.743271E+00 -5.269159E+00  7.617729E+00
      2875   8 -3.580474E+00 -2.074704E+01 -1.181800E+01  3.265522E+00 -5.677834E+00  1.097359E+01
      2876   1 -9.041066E+00 -2.084442E+01 -3.357814E+00  1.141209E+01 -2.857961E-01  1.484134E+00
      2876   2 -5.677535E+00 -1.228674E+01 -7.037222E-01  1.165060E+01 -4.019133E-01  5.654169E-01
      2876   3 -9.410194E+00 -2.249524E+01 -4.027477E+00  1.077436E+01  2.147943E-02  8.107630E-01
      2876   4 -5.949423E+00 -1.373279E+01 -1.254020E+00  1.105946E+01 -9.280449E-02  2.145858E-01
      2876   5 -4.742241E+00 -1.480619E+01  2.416611E+00  1.466779E+01 -5.097593E-01  1.772202E+00
      2876   6 -2.511384E+00 -7.962549E+00  3.009160E+00  1.487797E+01 -7.028416E-01  8.775322E-01
      2876   7 -4.731584E+00 -1.600652E+01  1.851082E+00  1.433758E+01  1.121870E-01  1.241586E+00
      2876   8 -2.403315E+00 -9.008069E+00  2.613532E+00  1.458328E+01 -7.488881E-02  6.187082E-01
      2877   1 -1.374345E+01 -7.861221E+00 -2.108445E+00  1.592380E+01 -1.564785E-01  1.158434E-01
      2877   2 -1.078104E+01 -1.001417E+00  9.064350E-01  1.674763E+01 -2.278325E-01 -3.996200E-01
      2877   3 -1.418816E+01 -9.545980E+00 -2.763987E+00  1.493311E+01 -2.335051E-01 -1.138140E-01
      2877   4 -1.112096E+01 -2.457809E+00  3.718394E-01  1.579768E+01 -3.032880E-01 -3.667603E-01
      2877   5 -9.114844E+00 -4.235679E+00  1.068932E+00  1.848450E+01 -5.116429E-01  4.611852E-01
      2877   6 -6.986172E+00  1.356841E+00  2.571986E+00  1.921511E+01 -6.489524E-01  1.371518E-02
      2877   7 -9.101656E+00 -5.557143E+00  6.217314E-01  1.773071E+01 -3.656132E-01  2.673059E-01
      2877   8 -6.867457E+00  2.286870E-01  2.283232E+00  1.848889E+01 -4.977753E-01  4.414669E-02
      2878   1 -2.279524E+01 -1.556796E+00 -2.600649E+00  1.879059E+01  2.698059E-01 -9.005669E-01
      2878   2 -1.926132E+01  6.187112E+00  1.435163E+00  2.126077E+01  3.056162E-01 -1.865326E+00
      2878   3 -2.332624E+01 -3.098025E+00 -3.199716E+00  1.782022E+01 -4.916628E-02 -6.524676E-01
      2878   4 -1.987939E+01  4.420413E+00  7.713485E-01  2.022079E+01 -1.542433E-02 -1.238513E+00
      2878   5 -1.272601E+01  2.812127E+00  7.819408E-01  2.147077E+01 -7.031250E-01 -4.005839E-01
      2878   6 -1.024092E+01  9.045672E+00  2.832029E+00  2.366752E+01 -5.804859E-01 -1.074335E+00
      2878   7 -1.293686E+01  1.503656E+00  4.001977E-01  2.055862E+01 -6.875002E-01 -1.834687E-01
      2878   8 -1.049408E+01  7.565357E+00  2.481091E+00  2.268311E+01 -5.716374E-01 -5.420042E-01
      2879   1 -3.887103E+01  2.207654E+00 -4.431948E+00  2.385448E+01  1.783037E+00 -3.251750E+00
      2879   2 -3.518177E+01  8.775675E+00  1.297562E+00  3.088629E+01  2.139865E+00 -5.783273E+00
      2879   3 -4.014718E+01  6.953072E-02 -5.354425E+00  2.258455E+01  6.221338E-01 -1.899045E+00
      2879   4 -3.648385E+01  6.493883E+00  4.323183E-01  2.935302E+01  9.702662E-01 -3.008808E+00
      2879   5 -1.195292E+01  1.182118E+01  2.253641E+00  2.463263E+01 -9.653870E-01 -2.025602E+00
      2879   6 -1.111669E+01  1.522344E+01  1.638829E+00  3.088892E+01 -2.435285E-01 -4.102451E+00
      2879   7 -1.267270E+01  1.011046E+01  1.858032E+00  2.338044E+01 -6.396639E-01 -9.677037E-01
      2879   8 -1.170859E+01  1.353865E+01  1.643571E+00  2.938031E+01  5.370685E-02 -1.851809E+00
      2880   1 -6.858493E+01  6.100912E-01 -9.270692E+00  3.436530E+01  7.835706E-01 -7.722030E+00
      2880   2 -6.920021E+01 -2.783299E+00 -7.928255E+00  5.162651E+01  1.064449E+00 -1.152966E+01
      2880   3 -6.901452E+01 -2.410953E+00 -9.999025E+00  3.348891E+01 -3.581938E-01 -3.701812E+00
      2880   4 -6.988160E+01 -6.512424E+00 -8.787816E+00  4.970713E+01 -1.093902E-01 -5.499704E+00
      2880   5 -2.463006E+00  2.605977E+01  5.318553E+00  2.704795E+01 -9.431811E-01 -5.695395E+00
      2880   6 -6.638306E+00  1.942107E+01 -1.960416E+00  4.241298E+01  6.842330E-01 -8.993162E+00
      2880   7 -3.014671E+00  2.362038E+01  5.426586E+00  2.598584E+01  1.003829E-01 -2.587137E+00
      2880   8 -7.175089E+00  1.662140E+01 -1.442501E+00  4.038823E+01  1.622711E+00 -4.213169E+00
      2881   1 -9.653792E+00 -2.338419E+01 -4.713673E+00  1.057874E+01 -8.773349E-01  1.855475E+00
      2881   2 -6.046329E+00 -1.442324E+01 -1.649748E+00  1.088372E+01 -9.811905E-01  1.245425E+00
      2881   3 -9.992410E+00 -2.489864E+01 -5.323250E+00  1.088140E+01 -6.161878E-01  1.278037E+00
      2881   4 -6.270940E+00 -1.568903E+01 -2.127964E+00  1.119500E+01 -7.194379E-01  9.222124E-01
      2881   5 -4.674457E+00 -1.646686E+01  1.361616E+00  1.428321E+01 -1.424804E+00  2.588525E+00
      2881   6 -2.187462E+00 -9.309716E+00  2.494456E+00  1.454692E+01 -1.556946E+00  1.853755E+00
      2881   7 -4.762746E+00 -1.755151E+01  8.317976E-01  1.487198E+01 -8.289086E-01  2.123856E+00
      2881   8 -2.175966E+00 -1.021909E+01  2.121973E+00  1.513991E+01 -9.590423E-01  1.605744E+00
      2882   1 -1.443088E+01 -1.034113E+01 -3.090031E+00  1.457519E+01 -1.367635E+00  7.207106E-01
      2882   2 -1.121811E+01 -3.073912E+00  3.519953E-01  1.549237E+01 -1.338542E+00  1.326570E-01
      2882   3 -1.499710E+01 -1.164909E+01 -3.667664E+00  1.477833E+01 -1.498040E+00  4.929962E-01
      2882   4 -1.162104E+01 -4.016557E+00 -4.668921E-02  1.577364E+01 -1.466487E+00  1.694953E-01
      2882   5 -8.877372E+00 -5.973239E+00  6.048804E-01  1.749924E+01 -2.137435E+00  1.197433E+00
      2882   6 -6.610897E+00 -1.821138E-01  2.368671E+00  1.829347E+01 -2.223278E+00  4.673933E-01
      2882   7 -8.777502E+00 -6.791717E+00  3.382886E-01  1.800560E+01 -1.943735E+00  1.015493E+00
      2882   8 -6.366548E+00 -7.154369E-01  2.298523E+00  1.885906E+01 -2.021417E+00  5.167841E-01
      2883   1 -2.365707E+01 -3.758651E+00 -3.122010E+00  1.754861E+01 -1.145206E+00 -3.843053E-01
      2883   2 -2.007678E+01  3.851367E+00  1.202277E+00  2.000559E+01 -8.646854E-01 -1.226107E+00
      2883   3 -2.464572E+01 -4.712620E+00 -3.681678E+00  1.790660E+01 -1.539015E+00 -1.266802E-01
      2883   4 -2.086796E+01  3.335736E+00  8.625108E-01  2.051448E+01 -1.254340E+00 -5.711961E-01
      2883   5 -1.284180E+01  9.554020E-01  4.569421E-01  2.033401E+01 -2.499194E+00 -1.866979E-01
      2883   6 -1.044706E+01  6.846847E+00  2.547959E+00  2.247558E+01 -2.412755E+00 -1.183317E+00
      2883   7 -1.255318E+01  6.328935E-01  5.234372E-01  2.099647E+01 -2.406953E+00  6.475964E-02
      2883   8 -9.973172E+00  6.882258E+00  2.874110E+00  2.325059E+01 -2.306735E+00 -5.854189E-01
      2884   1 -4.085509E+01 -9.181542E-01 -5.656220E+00  2.232406E+01 -4.607874E-01 -1.953550E+00
      2884   2 -3.812442E+01  4.503848E+00 -1.975979E+00  2.899593E+01 -5.359059E-02 -3.065901E+00
      2884   3 -4.148631E+01 -1.123924E+00 -5.826042E+00  2.290016E+01 -9.607317E-01 -9.018637E-01
      2884   4 -3.856696E+01  4.699817E+00 -1.918616E+00  2.953906E+01 -5.551538E-01 -1.351797E+00
      2884   5 -1.275368E+01  9.276628E+00  2.036315E+00  2.306594E+01 -2.362883E+00 -1.996310E+00
      2884   6 -1.164781E+01  1.270618E+01  2.292995E+00  2.893766E+01 -1.880069E+00 -3.255471E+00
      2884   7 -1.208656E+01  9.606651E+00  2.604979E+00  2.382387E+01 -2.020203E+00 -1.082926E+00
      2884   8 -1.076729E+01  1.340642E+01  3.202755E+00  2.963256E+01 -1.542758E+00 -1.775550E+00
      2885   1 -7.054752E+01 -5.217558E+00 -1.453857E+01  3.320889E+01 -1.085720E+00 -3.397680E+00
      2885   2 -7.337273E+01 -1.102988E+01 -1.814361E+01  4.869737E+01 -1.029445E+00 -3.979755E+00
      2885   3 -6.847989E+01 -3.432743E+00 -1.321725E+01  3.330936E+01 -7.011847E-01 -1.469916E+00
      2885   4 -7.066154E+01 -7.776900E+00 -1.614527E+01  4.787598E+01 -6.726755E-01 -1.542620E+00
      2885   5 -2.834768E+00  2.261103E+01  6.389331E+00  2.568911E+01 -1.400166E+00 -4.134469E+00
      2885   6 -6.661311E+00  1.602560E+01  2.196194E-01  3.942210E+01 -4.690110E-02 -5.402755E+00
      2885   7 -1.792180E+00  2.364983E+01  7.562862E+00  2.636018E+01 -3.301727E-01 -2.466165E+00
      2885   8 -5.016408E+00  1.835881E+01  2.106453E+00  3.924081E+01  9.310119E-01 -3.282512E+00
      2886   1 -1.032664E+01 -2.634307E+01 -5.882504E+00  1.121192E+01 -1.728775E+00  1.981222E+00
      2886   2 -6.342700E+00 -1.662521E+01 -2.320565E+00  1.153092E+01 -1.882954E+00  1.871596E+00
      2886   3 -1.155668E+01 -3.027672E+01 -7.482300E+00  1.229966E+01 -1.490278E+00  1.400390E+00
      2886   4 -7.196455E+00 -1.970039E+01 -3.524535E+00  1.264496E+01 -1.643148E+00  1.589484E+00
      2886   5 -4.320501E+00 -1.761580E+01  1.145052E+00  1.529713E+01 -2.961377E+00  4.229190E+00
      2886   6 -1.767869E+00 -1.023251E+01  2.270533E+00  1.555942E+01 -3.182909E+00  3.605114E+00
      2886   7 -5.013090E+00 -2.065352E+01 -1.438379E-01  1.691809E+01 -2.219849E+00  3.740871E+00
      2886   8 -2.139706E+00 -1.258726E+01  1.367847E+00  1.719883E+01 -2.436995E+00  3.381907E+00
      2887   1 -1.511924E+01 -1.232501E+01 -3.750218E+00  1.520165E+01 -2.986922E+00  1.378269E+00
      2887   2 -1.164113E+01 -4.449114E+00 -3.241010E-02  1.621640E+01 -3.064697E+00  8.082997E-01
      2887   3 -1.574741E+01 -1.452085E+01 -4.606037E+00  1.668621E+01 -3.081845E+00  1.222758E+00
      2887   4 -1.186362E+01 -5.713850E+00 -4.670558E-01  1.772562E+01 -3.158522E+00  9.200071E-01
      2887   5 -8.397202E+00 -6.763080E+00  3.783210E-01  1.852800E+01 -4.520739E+00  2.669850E+00
      2887   6 -6.097224E+00 -8.392154E-01  2.121049E+00  1.939777E+01 -4.655015E+00  1.530559E+00
      2887   7 -8.458655E+00 -8.308948E+00 -1.327456E-01  2.055317E+01 -4.180743E+00  2.535945E+00
      2887   8 -5.820751E+00 -1.648487E+00  1.999803E+00  2.143672E+01 -4.311340E+00  1.643613E+00
      2888   1 -2.483823E+01 -5.045734E+00 -3.643066E+00  1.838129E+01 -3.499936E+00  3.364460E-01
      2888   2 -2.087191E+01  3.340204E+00  1.192052E+00  2.099948E+01 -3.511748E+00 -2.947516E-01
      2888   3 -2.479996E+01 -5.612628E+00 -3.771455E+00  1.996784E+01 -3.909783E+00  6.774249E-01
      2888   4 -2.039957E+01  3.762383E+00  1.521494E+00  2.259693E+01 -3.920975E+00  4.745993E-01
      2888   5 -1.231742E+01  4.263796E-01  2.013216E-01  2.159407E+01 -5.192544E+00  6.133383E-01
      2888   6 -9.860984E+00  6.511527E+00  2.304292E+00  2.386138E+01 -5.236226E+00 -6.500115E-01
      2888   7 -1.156414E+01  2.920967E-01  4.881821E-01  2.373237E+01 -4.944146E+00  9.496676E-01
      2888   8 -8.731676E+00  7.175042E+00  3.046769E+00  2.599345E+01 -4.985752E+00  7.064010E-02
      2889   1 -4.168711E+01 -9.792325E-01 -5.589110E+00  2.333774E+01 -3.363066E+00 -6.453268E-01
      2889   2 -3.873499E+01  5.182255E+00 -1.910223E+00  2.996383E+01 -3.023145E+00 -9.656686E-01
      2889   3 -4.159393E+01  5.095359E-02 -5.163576E+00  2.479652E+01 -3.695296E+00  4.892078E-01
      2889   4 -3.799572E+01  7.686099E+00 -8.046892E-01  3.144371E+01 -3.355096E+00  7.549511E-01
      2889   5 -1.205574E+01  9.138106E+00  1.781625E+00  2.440290E+01 -4.855493E+00 -1.579230E+00
      2889   6 -1.092919E+01  1.278394E+01  1.890961E+00  3.016020E+01 -4.529973E+00 -2.793879E+00
      2889   7 -1.053083E+01  1.056802E+01  2.964615E+00  2.651248E+01 -4.285415E+00 -5.521770E-01
      2889   8 -8.826963E+00  1.544735E+01  3.764831E+00  3.225200E+01 -3.958957E+00 -1.244430E+00
      2890   1 -6.784005E+01 -2.060442E+00 -1.293030E+01  3.345305E+01 -2.290126E+00 -1.018703E+00
      2890   2 -6.964558E+01 -5.303301E+00 -1.570588E+01  4.770277E+01 -1.558604E+00 -6.197588E-01
      2890   3 -6.696996E+01  1.741737E+00 -1.136510E+01  3.449170E+01 -1.758062E+00  8.778480E-01
      2890   4 -6.798005E+01  3.238117E-01 -1.331414E+01  4.845487E+01 -1.036395E+00  1.740187E+00
      2890   5 -2.181215E+00  2.315099E+01  5.918834E+00  2.670102E+01 -2.822695E+00 -3.753604E+00
      2890   6 -5.260870E+00  1.853454E+01  2.697595E-01  3.917223E+01 -1.584252E+00 -4.416858E+00
      2890   7 -3.641814E-02  2.692541E+01  8.242372E+00  2.832000E+01 -1.505444E+00 -2.042438E+00
      2890   8 -2.396701E+00  2.388336E+01  3.416819E+00  4.047925E+01 -3.000104E-01 -2.289267E+00
      2891   1 -1.115819E+01 -3.164305E+01 -5.707371E+00  1.374051E+01 -2.380495E+00  3.956507E+00
      2891   2 -6.816697E+00 -2.084865E+01 -2.030142E+00  1.410394E+01 -2.493517E+00  3.496243E+00
      2891   3 -1.409431E+01 -3.934544E+01 -8.872910E+00  1.713719E+01 -1.959900E+00  4.318393E+00
      2891   4 -8.988712E+00 -2.677655E+01 -4.423129E+00  1.750302E+01 -2.072484E+00  3.978909E+00
      2891   5 -5.491044E+00 -2.126667E+01 -2.355621E+00  1.827375E+01 -5.814431E+00  8.741197E+00
      2891   6 -2.583428E+00 -1.334390E+01 -5.863381E-01  1.857668E+01 -5.952100E+00  7.103942E+00
      2891   7 -7.589907E+00 -2.727448E+01 -4.699737E+00  2.264868E+01 -5.011722E+00  8.972199E+00
      2891   8 -4.074373E+00 -1.796175E+01 -2.294023E+00  2.295066E+01 -5.147908E+00  7.477373E+00
      2892   1 -1.558516E+01 -1.542479E+01 -3.450917E+00  1.839749E+01 -4.077030E+00  2.621985E+00
      2892   2 -1.180321E+01 -6.387304E+00  1.181082E-01  1.954043E+01 -4.022385E+00  1.718021E+00
      2892   3 -1.758716E+01 -2.000383E+01 -5.383312E+00  2.207770E+01 -3.885458E+00  3.108209E+00
      2892   4 -1.298028E+01 -9.043424E+00 -9.874341E-01  2.339531E+01 -3.825365E+00  2.245049E+00
      2892   5 -8.588189E+00 -8.844718E+00 -1.732329E+00  2.221151E+01 -8.001185E+00  5.268545E+00
      2892   6 -5.890489E+00 -2.229264E+00  6.445513E-01  2.312632E+01 -8.252527E+00  3.141605E+00
      2892   7 -8.932575E+00 -1.190345E+01 -2.611658E+00  2.697496E+01 -7.574077E+00  5.632878E+00
      2892   8 -5.587605E+00 -3.784190E+00  4.189818E-01  2.802770E+01 -7.807017E+00  3.590676E+00
      2893   1 -2.446658E+01 -5.940906E+00 -3.575546E+00  2.176296E+01 -4.979657E+00  1.155664E+00
      2893   2 -2.025048E+01  3.743747E+00  7.934523E-01  2.438272E+01 -5.192857E+00  7.197819E-01
      2893   3 -2.394692E+01 -6.741152E+00 -3.610990E+00  2.549822E+01 -4.955506E+00  1.734945E+00
      2893   4 -1.885454E+01  4.981006E+00  1.641443E+00  2.819364E+01 -5.165462E+00  1.439491E+00
      2893   5 -1.118117E+01 -9.535141E-02 -5.735650E-01  2.538246E+01 -9.100148E+00  1.679007E+00
      2893   6 -8.286844E+00  6.906966E+00  2.071878E+00  2.758400E+01 -9.495656E+00 -5.643363E-02
      2893   7 -9.493596E+00 -1.719202E-01  7.436637E-02  3.017840E+01 -8.659783E+00  2.219229E+00
      2893   8 -5.897690E+00  8.443248E+00  3.445552E+00  3.242596E+01 -9.044327E+00  6.515514E-01
      2894   1 -4.081680E+01  7.716238E-01 -5.477570E+00  2.650464E+01 -5.604577E+00  5.462874E-01
      2894   2 -3.633316E+01  9.725027E+00  5.144765E-01  3.278472E+01 -6.221917E+00  4.846290E-01
      2894   3 -3.694582E+01  4.297447E+00 -3.178556E+00  3.049191E+01 -6.235895E+00  1.629579E+00
      2894   4 -3.143695E+01  1.560409E+01  3.877687E+00  3.632366E+01 -6.864981E+00  2.277526E+00
      2894   5 -1.010497E+01  1.030086E+01  2.102496E+00  2.817414E+01 -8.823388E+00 -1.432616E+00
      2894   6 -8.263081E+00  1.527885E+01  3.264146E+00  3.369198E+01 -8.780982E+00 -3.281795E+00
      2894   7 -7.429150E+00  1.289995E+01  3.955146E+00  3.336596E+01 -8.138846E+00 -4.458501E-01
      2894   8 -4.702344E+00  1.981111E+01  6.133341E+00  3.847469E+01 -8.136120E+00 -1.647880E+00
      2895   1 -6.636212E+01  5.176653E+00 -8.596040E+00  3.542257E+01 -4.311913E+00  5.833630E-01
      2895   2 -6.462774E+01  8.078316E+00 -5.716451E+00  4.956073E+01 -2.839215E+00  1.961855E+00
      2895   3 -6.624057E+01  1.218843E+01 -6.281540E+00  3.832248E+01 -4.760242E+00  2.935539E+00
      2895   4 -6.193287E+01  2.104127E+01 -7.753879E-01  5.275700E+01 -3.281204E+00  5.261386E+00
      2895   5  2.020054E-01  2.687793E+01  8.081615E+00  2.972282E+01 -5.981003E+00 -5.339824E+00
      2895   6 -1.458573E+00  2.484863E+01  4.575651E+00  4.182597E+01 -4.864425E+00 -7.555530E+00
      2895   7  3.612626E+00  3.308968E+01  1.155784E+01  3.493789E+01 -4.778833E+00 -3.269945E+00
      2895   8  4.164722E+00  3.604343E+01  1.044442E+01  4.721825E+01 -3.640837E+00 -4.571918E+00
      2896   1 -1.025639E+01 -3.157268E+01 -3.326156E+00  1.122670E+01 -1.128731E+00  5.668914E-01
      2896   2 -6.692989E+00 -2.148303E+01 -1.537811E+00  1.214807E+01 -1.204914E+00  3.741374E-01
      2896   3 -1.027432E+01 -3.283609E+01 -3.801555E+00  1.083088E+01 -4.117889E-01  5.336026E-01
      2896   4 -6.717239E+00 -2.275279E+01 -2.027914E+00  1.164160E+01 -5.003978E-01  2.375467E-01
      2896   5 -4.835933E+00 -2.556166E+01  7.465357E-01  1.484850E+01 -6.206121E-01  1.011375E+00
      2896   6 -1.679717E+00 -1.648137E+01  2.186968E+00  1.568974E+01 -6.089581E-01  8.142120E-01
      2896   7 -5.050323E+00 -2.667594E+01  2.728369E-01  1.453217E+01  1.418349E-01  1.039514E+00
      2896   8 -1.905469E+00 -1.761524E+01  1.694988E+00  1.528510E+01  1.432339E-01  7.404936E-01
      2897   1 -1.103405E+01 -1.581247E+01 -2.487878E+00  1.580654E+01 -1.090548E+00  2.324521E-01
      2897   2 -8.470374E+00 -8.770755E+00 -9.840007E-01  1.748062E+01 -1.072358E+00 -5.078757E-02
      2897   3 -1.106216E+01 -1.715711E+01 -2.970351E+00  1.478763E+01 -7.941160E-01  5.863852E-02
      2897   4 -8.134341E+00 -9.339789E+00 -1.028271E+00  1.635816E+01 -7.873232E-01  3.886514E-02
      2897   5 -4.201054E+00 -1.135358E+01  1.399085E+00  1.840596E+01 -8.532572E-01  5.192235E-01
      2897   6 -2.351301E+00 -5.454178E+00  1.665525E+00  1.993078E+01 -7.545009E-01  9.714806E-02
      2897   7 -4.421490E+00 -1.250610E+01  9.288953E-01  1.765379E+01 -2.276112E-01  4.489633E-01
      2897   8 -2.281013E+00 -5.989455E+00  1.547179E+00  1.909668E+01 -1.382609E-01  2.164492E-01
      2898   1 -1.135582E+01 -5.872656E+00 -1.948466E+00  2.000591E+01 -1.282891E+00 -3.033264E-01
      2898   2 -9.454688E+00 -4.616059E-01 -1.022411E+00  2.221055E+01 -1.067640E+00 -6.453460E-01
      2898   3 -1.113208E+01 -5.951706E+00 -1.797352E+00  1.862752E+01 -1.069897E+00  1.441297E-02
      2898   4 -8.676288E+00  6.551109E-01 -2.182109E-01  2.073342E+01 -8.669135E-01  4.592430E-02
      2898   5 -4.034135E+00 -2.749905E+00  4.235120E-01  2.188272E+01 -1.076633E+00 -3.010851E-01
      2898   6 -2.916460E+00  1.528866E+00 -1.296751E-01  2.389071E+01 -7.746727E-01 -8.645381E-01
      2898   7 -4.212701E+00 -2.950345E+00  3.986975E-01  2.090093E+01 -4.437967E-01 -9.557692E-03
      2898   8 -2.651880E+00  2.281202E+00  3.698898E-01  2.283486E+01 -1.519595E-01 -2.972306E-01
      2899   1 -6.280241E+00  3.565297E+00 -3.302884E-01  2.073457E+01 -2.023538E+00 -6.914533E-01
      2899   2 -6.935931E+00  4.145989E+00 -3.096615E+00  2.263773E+01 -1.685729E+00 -7.285729E-01
      2899   3 -5.544115E+00  5.592216E+00  7.933991E-01  1.912001E+01 -1.232438E+00  1.157289E-01
      2899   4 -5.384098E+00  8.050432E+00 -1.131425E+00  2.093161E+01 -9.078896E-01  1.528318E-01
      2899   5 -1.062485E+00  4.842543E+00 -4.655025E-01  2.117840E+01 -1.259979E+00 -1.183801E+00
      2899   6 -1.976652E+00  5.002460E+00 -3.672643E+00  2.291365E+01 -8.284366E-01 -1.657345E+00
      2899   7 -1.013861E+00  6.189757E+00  1.965214E-01  2.021574E+01 -2.764901E-01 -5.328537E-01
      2899   8 -1.288629E+00  7.820316E+00 -2.349932E+00  2.188637E+01  1.441086E-01 -9.731330E-01
      2900   1  1.182275E+01  2.535734E+01  6.066694E+00  1.149134E+01 -2.929907E+00 -2.562569E-01
      2900   2  1.835940E+01  4.444153E+01  8.771342E+00  9.046132E+00 -3.110046E+00  2.176022E-01
      2900   3  1.335924E+01  2.965932E+01  8.126488E+00  1.046164E+01 -1.261229E+00  2.986969E-01
      2900   4  2.039536E+01  4.997687E+01  1.126268E+01  7.810198E+00 -1.470768E+00  4.008053E-01
      2900   5 -5.798993E-01  1.425015E+01 -3.165282E+00  1.845443E+01 -1.369222E+00 -1.627859E+00
      2900   6  5.422422E+00  3.160738E+01 -5.147684E-01  1.624486E+01 -1.341534E+00 -1.538560E+00
      2900   7 -1.407756E-01  1.724511E+01 -1.880658E+00  1.800872E+01  2.059159E-01 -1.200636E+00
      2900   8  6.236267E+00  3.553274E+01  1.088514E+00  1.564224E+01  2.093392E-01 -1.443144E+00
      2901   1 -9.853298E+00 -3.266148E+01 -3.722220E+00  1.018716E+01 -2.450135E+00  2.590543E+00
      2901   2 -6.359392E+00 -2.274790E+01 -1.989443E+00  1.096285E+01 -2.523992E+00  1.894128E+00
      2901   3 -1.103297E+01 -3.642393E+01 -5.356842E+00  1.066644E+01 -1.700493E+00  2.257868E+00
      2901   4 -7.285920E+00 -2.596295E+01 -3.327667E+00  1.144451E+01 -1.771940E+00  1.678530E+00
      2901   5 -3.966560E+00 -2.511037E+01  1.412653E+00  1.386877E+01 -2.320436E+00  4.012457E+00
      2901   6 -1.263302E+00 -1.672756E+01  2.040701E+00  1.456500E+01 -2.411793E+00  3.073852E+00
      2901   7 -4.666317E+00 -2.787222E+01  2.490242E-01  1.458185E+01 -1.358787E+00  3.853108E+00
      2901   8 -1.789120E+00 -1.911917E+01  1.086630E+00  1.527640E+01 -1.448160E+00  2.983358E+00
      2902   1 -1.074186E+01 -1.735259E+01 -2.970529E+00  1.390950E+01 -3.100030E+00  1.273353E+00
      2902   2 -7.811693E+00 -9.576274E+00 -9.796297E-01  1.542668E+01 -3.105315E+00  6.324845E-01
      2902   3 -1.128561E+01 -1.991285E+01 -3.941092E+00  1.434961E+01 -2.723016E+00  1.118537E+00
      2902   4 -7.807099E+00 -1.093231E+01 -1.326607E+00  1.583000E+01 -2.730775E+00  7.725455E-01
      2902   5 -4.031744E+00 -1.205819E+01  9.166350E-01  1.683954E+01 -2.994323E+00  2.197794E+00
      2902   6 -2.041940E+00 -5.929723E+00  1.420852E+00  1.822185E+01 -2.981635E+00  1.106045E+00
      2902   7 -4.349395E+00 -1.389872E+01  2.367684E-01  1.767703E+01 -2.317455E+00  2.142884E+00
      2902   8 -1.959299E+00 -6.898195E+00  1.203235E+00  1.902806E+01 -2.306805E+00  1.267512E+00
      2903   1 -1.096320E+01 -6.301006E+00 -1.782783E+00  1.759864E+01 -3.490567E+00  7.715597E-02
      2903   2 -8.514534E+00  2.391919E-01 -1.607724E-01  1.959985E+01 -3.436179E+00 -7.110315E-01
      2903   3 -1.050296E+01 -6.685568E+00 -1.625043E+00  1.802666E+01 -3.176812E+00  4.473727E-01
      2903   4 -7.427533E+00  1.231376E+00  7.094298E-01  1.994184E+01 -3.131435E+00  5.471787E-03
      2903   5 -4.304257E+00 -3.258470E+00  1.472125E-01  1.998318E+01 -3.378123E+00  1.953004E-01
      2903   6 -2.830563E+00  1.629036E+00  1.720208E-01  2.182148E+01 -3.258303E+00 -1.103891E+00
      2903   7 -4.062005E+00 -3.579744E+00  2.346977E-01  2.087890E+01 -2.729521E+00  5.284113E-01
      2903   8 -2.131411E+00  2.303295E+00  7.869718E-01  2.264892E+01 -2.617121E+00 -5.132421E-01
      2904   1 -5.433369E+00  5.269215E+00  1.118658E+00  1.785752E+01 -3.615379E+00 -1.305620E+00
      2904   2 -4.832820E+00  8.268907E+00  1.207955E-01  1.951527E+01 -3.594841E+00 -2.187041E+00
      2904   3 -3.895823E+00  7.322838E+00  2.529469E+00  1.809842E+01 -2.953073E+00 -3.594076E-01
      2904   4 -2.589553E+00  1.187205E+01  2.334492E+00  1.963861E+01 -2.945913E+00 -8.795958E-01
      2904   5 -1.520007E+00  5.235881E+00 -1.384517E-01  1.918057E+01 -3.264729E+00 -2.106060E+00
      2904   6 -1.863552E+00  6.738162E+00 -2.785882E+00  2.071620E+01 -3.147061E+00 -3.565247E+00
      2904   7 -5.990033E-01  6.623070E+00  8.285815E-01  1.997832E+01 -2.202172E+00 -1.360504E+00
      2904   8 -4.256328E-01  9.251481E+00 -1.221927E+00  2.142146E+01 -2.095520E+00 -2.560443E+00
      2905   1  1.383473E+01  2.988535E+01  1.002746E+01  9.334431E+00 -3.542535E+00 -2.741260E+00
      2905   2  2.159557E+01  5.097391E+01  1.480836E+01  6.531771E+00 -3.886840E+00 -3.261985E+00
      2905   3  1.555034E+01  3.368557E+01  1.220273E+01  9.687406E+00 -2.259775E+00 -1.449808E+00
      2905   4  2.353927E+01  5.527587E+01  1.724221E+01  6.763051E+00 -2.620750E+00 -1.952649E+00
      2905   5 -1.133040E+00  1.585740E+01 -2.450502E+00  1.697028E+01 -2.890115E+00 -4.455796E+00
      2905   6  5.428388E+00  3.436870E+01  9.096340E-01  1.445512E+01 -3.113385E+00 -5.235814E+00
      2905   7 -8.620127E-02  1.866622E+01 -8.652088E-01  1.759874E+01 -1.397568E+00 -3.472378E+00
      2905   8  6.625956E+00  3.750411E+01  2.670758E+00  1.498747E+01 -1.634564E+00 -4.274967E+00
      2906   1 -9.822849E+00 -3.429047E+01 -4.769660E+00  9.649707E+00 -4.679095E+00  5.747871E+00
      2906   2 -6.358293E+00 -2.423261E+01 -3.278994E+00  1.036338E+01 -4.845050E+00  4.643483E+00
      2906   3 -1.226508E+01 -4.168782E+01 -7.625288E+00  1.141078E+01 -3.728510E+00  5.991016E+00
      2906   4 -8.066605E+00 -2.996405E+01 -5.354135E+00  1.207730E+01 -3.897765E+00  5.055727E+00
      2906   5 -3.097347E+00 -2.346665E+01 -2.221054E-01  1.341077E+01 -4.983163E+00  8.322975E+00
      2906   6 -8.941792E-01 -1.600504E+01 -3.398228E-01  1.406312E+01 -5.124523E+00  6.529952E+00
      2906   7 -4.719048E+00 -2.880419E+01 -2.230808E+00  1.562031E+01 -3.831902E+00  8.665620E+00
      2906   8 -1.992916E+00 -2.016059E+01 -1.787308E+00  1.623110E+01 -3.975973E+00  6.981885E+00
      2907   1 -1.051619E+01 -1.849797E+01 -4.112208E+00  1.337588E+01 -6.169501E+00  3.461142E+00
      2907   2 -7.344699E+00 -1.032653E+01 -1.711990E+00  1.480079E+01 -6.212390E+00  2.153630E+00
      2907   3 -1.159618E+01 -2.260738E+01 -5.490592E+00  1.548151E+01 -5.739126E+00  3.831505E+00
      2907   4 -7.628229E+00 -1.257649E+01 -2.294977E+00  1.683573E+01 -5.788789E+00  2.576986E+00
      2907   5 -3.792312E+00 -1.152168E+01 -1.331848E+00  1.669457E+01 -6.381595E+00  4.849342E+00
      2907   6 -1.639487E+00 -5.735043E+00  5.759601E-02  1.801289E+01 -6.374013E+00  2.842997E+00
      2907   7 -4.508269E+00 -1.438502E+01 -2.259050E+00  1.938655E+01 -5.946709E+00  5.183872E+00
      2907   8 -1.806407E+00 -7.316427E+00 -3.214388E-01  2.064704E+01 -5.944692E+00  3.213445E+00
      2908   1 -1.019184E+01 -6.643370E+00 -2.171544E+00  1.700172E+01 -6.738110E+00  1.107357E+00
      2908   2 -7.487749E+00  3.877909E-01 -1.890557E-01  1.879649E+01 -6.799732E+00 -3.370571E-01
      2908   3 -9.648695E+00 -7.390930E+00 -2.052725E+00  1.909003E+01 -6.340384E+00  1.581319E+00
      2908   4 -6.127629E+00  1.538954E+00  7.542761E-01  2.078121E+01 -6.412400E+00  2.264539E-01
      2908   5 -3.931265E+00 -3.294073E+00 -6.309877E-01  1.991347E+01 -6.838297E+00  1.272032E+00
      2908   6 -2.276444E+00  1.344971E+00  2.460347E-01  2.158138E+01 -6.822461E+00 -9.102279E-01
      2908   7 -3.546628E+00 -3.835594E+00 -5.300636E-01  2.264010E+01 -6.405826E+00  1.679915E+00
      2908   8 -1.331986E+00  2.103499E+00  9.129730E-01  2.422387E+01 -6.398529E+00 -4.378055E-01
      2909   1 -4.188790E+00  5.831365E+00  1.380990E+00  1.686363E+01 -6.464434E+00 -1.525776E+00
      2909   2 -3.273044E+00  9.458862E+00  8.059770E-01  1.821058E+01 -6.638712E+00 -3.236841E+00
      2909   3 -2.007569E+00  8.577898E+00  3.040695E+00  1.884060E+01 -5.736286E+00 -9.750549E-01
      2909   4 -1.026242E-01  1.453908E+01  3.429331E+00  2.001344E+01 -5.929799E+00 -2.733752E+00
      2909   5 -9.594440E-01  4.699118E+00  6.585194E-01  1.891984E+01 -6.242773E+00 -2.683688E+00
      2909   6 -9.299093E-01  6.068397E+00 -6.123114E-01  2.021270E+01 -6.273714E+00 -5.218706E+00
      2909   7  4.043988E-01  6.454222E+00  1.743207E+00  2.172477E+01 -5.568847E+00 -2.226158E+00
      2909   8  1.118072E+00  9.440813E+00  1.135524E+00  2.287771E+01 -5.615589E+00 -4.809818E+00
      2910   1  1.414589E+01  3.073267E+01  1.014341E+01  8.096485E+00 -5.578707E+00 -4.611003E+00
      2910   2  2.197900E+01  5.229057E+01  1.469587E+01  4.950237E+00 -6.141122E+00 -5.782365E+00
      2910   3  1.756726E+01  3.774190E+01  1.340075E+01  9.415850E+00 -4.129713E+00 -4.332181E+00
      2910   4  2.662360E+01  6.217051E+01  1.915995E+01  6.042443E+00 -4.720935E+00 -5.571827E+00
      2910   5 -1.307617E+00  1.442864E+01 -3.388710E-01  1.615284E+01 -5.191997E+00 -7.215412E+00
      2910   6  4.812351E+00  3.186631E+01  2.623350E+00  1.339057E+01 -5.539748E+00 -9.335345E+00
      2910   7  7.281040E-01  1.916896E+01  1.799223E+00  1.836680E+01 -3.708003E+00 -7.057057E+00
      2910   8  7.738405E+00  3.869762E+01  5.638229E+00  1.542320E+01 -4.079419E+00 -9.261831E+00
      2911   1 -9.336959E+00 -3.197807E+01 -8.779512E+00  8.983289E+00 -8.347379E+00  1.124057E+01
      2911   2 -6.047851E+00 -2.327278E+01 -6.521102E+00  9.690974E+00 -8.403384E+00  8.872969E+00
      2911   3 -9.116020E+00 -3.283906E+01 -8.376062E+00  1.096852E+01 -7.951551E+00  1.294615E+01
      2911   4 -5.765598E+00 -2.388223E+01 -6.164821E+00  1.159556E+01 -8.016656E+00  1.017378E+01
      2911   5 -5.151641E+00 -2.379490E+01 -9.619765E+00  1.433713E+01 -7.397526E+00  1.133776E+01
      2911   6 -2.277605E+00 -1.688718E+01 -6.947363E+00  1.502956E+01 -7.383990E+00  8.930959E+00
      2911   7 -4.704665E+00 -2.362137E+01 -8.945580E+00  1.676124E+01 -7.324752E+00  1.268844E+01
      2911   8 -1.881983E+00 -1.674456E+01 -6.413442E+00  1.738937E+01 -7.318674E+00  9.962499E+00
      2912   1 -9.832910E+00 -1.770170E+01 -6.525462E+00  1.330752E+01 -1.062982E+01  6.556659E+00
      2912   2 -6.794470E+00 -1.050752E+01 -3.591519E+00  1.442849E+01 -1.093036E+01  3.970268E+00
      2912   3 -8.532848E+00 -1.769265E+01 -5.769351E+00  1.549847E+01 -1.065054E+01  7.506129E+00
      2912   4 -5.663342E+00 -1.080974E+01 -3.087237E+00  1.655666E+01 -1.095439E+01  4.628792E+00
      2912   5 -4.304596E+00 -1.185384E+01 -5.889673E+00  1.841857E+01 -9.781334E+00  6.568025E+00
      2912   6 -1.610184E+00 -6.095910E+00 -2.666232E+00  1.943234E+01 -1.005653E+01  4.028285E+00
      2912   7 -2.830902E+00 -1.127657E+01 -4.976567E+00  2.098164E+01 -1.006099E+01  7.319475E+00
      2912   8 -3.747736E-01 -6.006689E+00 -2.059349E+00  2.193801E+01 -1.033890E+01  4.557409E+00
      2913   1 -9.161172E+00 -6.999406E+00 -3.412988E+00  1.643615E+01 -1.168118E+01  2.102700E+00
      2913   2 -6.300100E+00 -8.363649E-02 -7.918513E-01  1.770651E+01 -1.209366E+01 -3.061376E-01
      2913   3 -7.674323E+00 -7.223292E+00 -2.846068E+00  1.826333E+01 -1.165813E+01  2.589157E+00
      2913   4 -4.778438E+00 -1.671649E-01 -2.492453E-01  1.913735E+01 -1.211713E+01 -1.310929E-02
      2913   5 -3.494677E+00 -3.469837E+00 -2.091181E+00  2.129722E+01 -1.058487E+01  2.130814E+00
      2913   6 -1.225118E+00  1.613854E+00  3.903151E-01  2.270000E+01 -1.064191E+01 -4.245342E-01
      2913   7 -2.949977E+00 -3.864778E+00 -1.892147E+00  2.360297E+01 -1.073478E+01  2.535910E+00
      2913   8 -7.565337E-01  1.089775E+00  4.647767E-01  2.469064E+01 -1.082995E+01 -1.681807E-01
      2914   1 -3.214663E+00  4.807607E+00  1.003333E+00  1.579895E+01 -1.127718E+01 -2.585700E+00
      2914   2 -2.505022E+00  7.479864E+00  6.965428E-01  1.681361E+01 -1.139673E+01 -6.183729E+00
      2914   3 -2.834063E+00  4.154643E+00  9.022594E-01  1.748082E+01 -1.104047E+01 -2.680151E+00
      2914   4 -2.240225E+00  6.771886E+00  2.644755E-01  1.802592E+01 -1.122003E+01 -7.077977E+00
      2914   5  9.028331E-02  4.906710E+00  2.172535E+00  2.050703E+01 -9.674878E+00 -2.631818E+00
      2914   6  1.133892E+00  6.713648E+00  3.844292E+00  2.178173E+01 -9.335759E+00 -5.918091E+00
      2914   7 -1.025917E+00  3.438180E+00  1.381246E+00  2.289398E+01 -1.009267E+01 -2.641061E+00
      2914   8 -2.038637E-01  4.904526E+00  2.655080E+00  2.380530E+01 -9.802734E+00 -6.547443E+00
      2915   1  1.366518E+01  2.680801E+01  9.658603E+00  6.107693E+00 -9.198191E+00 -9.733374E+00
      2915   2  2.006591E+01  4.427293E+01  1.352948E+01  2.255785E+00 -1.014200E+01 -1.413639E+01
      2915   3  1.384365E+01  2.502686E+01  8.647871E+00  7.655078E+00 -8.450570E+00 -1.147770E+01
      2915   4  1.930722E+01  4.057495E+01  1.131170E+01  3.380393E+00 -9.446182E+00 -1.700220E+01
      2915   5  9.733696E-01  1.504998E+01  6.373581E+00  1.715619E+01 -6.873626E+00 -8.994605E+00
      2915   6  7.920123E+00  3.172637E+01  1.285304E+01  1.390901E+01 -7.421539E+00 -1.244902E+01
      2915   7  1.607422E-01  1.266989E+01  4.981444E+00  1.911648E+01 -6.902809E+00 -1.028848E+01
      2915   8  6.237716E+00  2.753799E+01  1.036993E+01  1.553088E+01 -7.493179E+00 -1.462924E+01
      2916   1 -4.862483E+00 -3.071980E+01 -3.318820E-01  9.460629E+00 -1.211192E+00  1.083416E+00
      2916   2 -4.021959E+00 -2.708598E+01 -1.163956E+00  1.068749E+01 -1.084154E+00  8.953364E-01
      2916   3 -5.416445E+00 -3.186812E+01 -9.242316E-01  9.161092E+00 -3.531501E-01  1.046183E+00
      2916   4 -4.388009E+00 -2.780761E+01 -1.556618E+00  1.027711E+01 -2.366915E-01  8.498574E-01
      2916   5 -3.476605E-01 -2.732424E+01  2.565097E+00  1.103361E+01 -8.015648E-01  1.372392E+00
      2916   6  2.624794E-01 -2.415245E+01  1.427100E+00  1.217284E+01 -6.066563E-01  1.087455E+00
      2916   7 -1.418126E+00 -2.843158E+01  1.896692E+00  1.079179E+01  2.465237E-01  1.481200E+00
      2916   8 -6.704801E-01 -2.494110E+01  8.983737E-01  1.185867E+01  4.394803E-01  1.151940E+00
      2917   1 -5.794889E+00 -2.215787E+01 -1.888273E+00  1.377576E+01 -1.582397E+00  5.792354E-01
      2917   2 -2.681543E+00 -1.305453E+01 -6.137956E-01  1.519312E+01 -1.443619E+00  2.942022E-01
      2917   3 -6.066214E+00 -2.272315E+01 -2.181178E+00  1.299960E+01 -7.040897E-01  5.904002E-01
      2917   4 -2.649278E+00 -1.295101E+01 -5.635340E-01  1.435315E+01 -5.713880E-01  4.441434E-01
      2917   5 -7.764928E-01 -1.844086E+01  1.001266E+00  1.652663E+01 -1.495428E+00  6.013157E-01
      2917   6  1.790160E+00 -1.035926E+01  1.475175E+00  1.783938E+01 -1.317669E+00  2.302956E-01
      2917   7 -1.643479E+00 -1.924760E+01  4.914139E-01  1.572513E+01 -2.542464E-01  7.180027E-01
      2917   8  1.170510E+00 -1.059619E+01  1.219960E+00  1.700214E+01 -7.760894E-02  4.052957E-01
      2918   1 -3.529029E+00 -7.607855E+00 -1.026396E+00  1.644981E+01 -1.872677E+00  4.334138E-02
      2918   2 -4.729233E-01  1.450966E+00  1.018038E-01  1.711185E+01 -1.717292E+00 -2.396796E-01
      2918   3 -3.607762E+00 -7.145233E+00 -8.672101E-01  1.554950E+01 -9.566828E-01  2.846751E-01
      2918   4 -2.189266E-01  2.657044E+00  6.266299E-01  1.625631E+01 -7.979568E-01  1.027818E-01
      2918   5 -1.646561E+00 -6.592685E+00 -4.394869E-01  1.899094E+01 -1.770512E+00 -8.836372E-02
      2918   6  8.931738E-01  1.472394E+00 -3.878306E-02  1.960137E+01 -1.636553E+00 -4.640247E-01
      2918   7 -1.957508E+00 -6.347049E+00 -4.509593E-01  1.812163E+01 -5.034961E-01  1.201546E-01
      2918   8  8.565257E-01  2.351988E+00  2.301147E-01  1.877447E+01 -3.689214E-01 -2.281783E-01
      2919   1  1.463967E+00  9.726589E+00  1.094558E+00  1.286149E+01 -2.159432E+00 -3.432547E-01
      2919   2  5.452410E+00  2.145742E+01  2.658539E+00  1.176448E+01 -2.085750E+00 -4.581729E-01
      2919   3  1.653729E+00  1.137678E+01  1.766102E+00  1.226631E+01 -9.353499E-01  4.803495E-02
      2919   4  6.087240E+00  2.411018E+01  3.811077E+00  1.127237E+01 -8.536301E-01  3.108596E-02
      2919   5 -2.775377E+00  6.535069E+00 -1.901660E+00  1.620754E+01 -1.866426E+00 -6.832708E-01
      2919   6  5.741048E-01  1.700543E+01 -1.207085E+00  1.519085E+01 -1.844310E+00 -9.693303E-01
      2919   7 -2.278174E+00  8.032399E+00 -1.281243E+00  1.562364E+01 -2.789927E-01 -4.583787E-01
      2919   8  1.429641E+00  1.933225E+01 -2.217068E-01  1.468134E+01 -2.553932E-01 -7.319647E-01
      2920   1  2.383175E+00  2.855418E+01  1.354552E+00  8.672453E+00 -2.136731E+00 -3.208108E-01
      2920   2  4.869379E+00  3.721054E+01  9.855395E-01  7.940979E+00 -1.975890E+00  7.967670E-02
      2920   3  2.735022E+00  3.093868E+01  2.333294E+00  8.943604E+00 -5.372756E-01 -3.891313E-02
      2920   4  5.112593E+00  3.939519E+01  1.802024E+00  8.610441E+00 -3.410048E-01 -7.249062E-02
      2920   5 -1.504600E+00  2.438782E+01 -2.074192E+00  1.145877E+01 -1.064668E+00 -1.143432E+00
      2920   6  8.790642E-01  3.246091E+01 -2.201743E+00  1.076537E+01 -1.131106E+00 -8.111865E-01
      2920   7 -3.118617E-01  2.673111E+01 -9.842653E-01  1.155446E+01  4.670564E-01 -1.023860E+00
      2920   8  2.015728E+00  3.468326E+01 -1.177783E+00  1.116151E+01  4.071550E-01 -1.065329E+00
      2921   1 -3.784806E+00 -2.864768E+01  8.768152E-01  7.902783E+00 -3.211767E+00  4.876289E+00
      2921   2 -3.329791E+00 -2.535710E+01 -8.970519E-01  8.878844E+00 -3.250659E+00  3.863990E+00
      2921   3 -7.048447E+00 -3.716185E+01 -2.716374E+00  9.357700E+00 -1.991453E+00  4.796336E+00
      2921   4 -5.551928E+00 -3.150421E+01 -3.385617E+00  1.025319E+01 -2.036721E+00  4.080192E+00
      2921   5  7.835067E-01 -2.291584E+01  4.273545E+00  9.431045E+00 -3.002225E+00  6.470963E+00
      2921   6  4.946050E-01 -2.103760E+01  1.432303E+00  1.036056E+01 -3.008444E+00  4.964229E+00
      2921   7 -1.520103E+00 -2.849287E+01  1.899187E+00  1.121301E+01 -1.463022E+00  6.803338E+00
      2921   8 -1.152633E+00 -2.509382E+01 -2.749624E-01  1.208888E+01 -1.470325E+00  5.418269E+00
      2922   1 -5.393560E+00 -2.093342E+01 -2.039019E+00  1.145611E+01 -3.924272E+00  2.878602E+00
      2922   2 -2.283229E+00 -1.201708E+01 -5.875948E-01  1.271451E+01 -3.899485E+00  1.637071E+00
      2922   3 -6.974326E+00 -2.534303E+01 -3.780497E+00  1.291076E+01 -3.046920E+00  3.133988E+00
      2922   4 -2.912443E+00 -1.421351E+01 -1.370400E+00  1.410170E+01 -3.027618E+00  1.921202E+00
      2922   5 -1.101160E+00 -1.654822E+01  2.791793E-01  1.398309E+01 -3.939998E+00  3.592110E+00
      2922   6  1.343421E+00 -9.148810E+00  1.028372E+00  1.517632E+01 -3.887097E+00  1.972160E+00
      2922   7 -2.499157E+00 -1.959668E+01 -1.045310E+00  1.567791E+01 -2.923287E+00  3.946195E+00
      2922   8  5.713367E-01 -1.073802E+01  3.310056E-01  1.683055E+01 -2.871319E+00  2.272900E+00
      2923   1 -3.647292E+00 -6.997212E+00 -1.077727E+00  1.388946E+01 -4.368875E+00  6.168460E-01
      2923   2 -6.530113E-01  1.665473E+00  2.405243E-01  1.454347E+01 -4.379080E+00 -8.251712E-01
      2923   3 -3.689473E+00 -7.673400E+00 -1.216779E+00  1.539968E+01 -3.495189E+00  9.392452E-01
      2923   4  1.390699E-01  2.918700E+00  9.529301E-01  1.607399E+01 -3.502797E+00 -4.275953E-01
      2923   5 -1.953995E+00 -5.846311E+00 -6.162647E-01  1.628246E+01 -4.391688E+00  6.801189E-01
      2923   6  3.636794E-01  1.325745E+00 -6.273818E-02  1.688597E+01 -4.415201E+00 -1.117218E+00
      2923   7 -2.018008E+00 -6.298612E+00 -7.581728E-01  1.805846E+01 -3.336468E+00  9.578986E-01
      2923   8  8.305712E-01  2.109300E+00  3.291789E-01  1.867858E+01 -3.359539E+00 -8.574787E-01
      2924   1  8.151565E-01  9.600951E+00  1.120326E+00  1.058899E+01 -4.412208E+00 -1.819285E+00
      2924   2  4.902883E+00  2.154273E+01  2.804305E+00  9.496145E+00 -4.583565E+00 -3.085950E+00
      2924   3  2.280256E+00  1.245728E+01  2.509643E+00  1.213884E+01 -3.132909E+00 -1.497342E+00
      2924   4  7.427362E+00  2.690058E+01  5.223357E+00  1.095661E+01 -3.312069E+00 -2.957316E+00
      2924   5 -2.837909E+00  6.125287E+00 -1.494290E+00  1.378417E+01 -4.213835E+00 -2.403666E+00
      2924   6  5.770028E-01  1.634525E+01 -3.312147E-01  1.277880E+01 -4.345206E+00 -4.064567E+00
      2924   7 -1.609743E+00  8.094163E+00 -5.194008E-01  1.560229E+01 -2.859955E+00 -2.258280E+00
      2924   8  2.522948E+00  1.999398E+01  1.356419E+00  1.452257E+01 -2.992651E+00 -4.148308E+00
      2925   1  9.825494E-01  2.769123E+01  8.326038E-01  7.368748E+00 -4.116111E+00 -3.987649E+00
      2925   2  3.108790E+00  3.579719E+01 -1.858922E-01  7.183423E+00 -4.046657E+00 -4.853511E+00
      2925   3  3.784968E+00  3.482250E+01  3.857576E+00  8.779063E+00 -2.402682E+00 -4.042727E+00
      2925   4  7.105704E+00  4.570590E+01  4.043286E+00  8.737462E+00 -2.320468E+00 -4.928606E+00
      2925   5 -1.722868E+00  2.261116E+01 -1.732952E+00  9.878531E+00 -3.466263E+00 -5.401616E+00
      2925   6 -3.531137E-01  2.900176E+01 -3.557703E+00  9.670879E+00 -3.462193E+00 -6.786733E+00
      2925   7  2.764749E-01  2.733886E+01  2.927816E-01  1.166288E+01 -1.536801E+00 -5.753303E+00
      2925   8  2.437486E+00  3.557408E+01 -7.390622E-01  1.155770E+01 -1.530565E+00 -7.263263E+00
      2926   1 -3.084111E+00 -2.551018E+01 -2.016211E+00  5.424110E+00 -6.156714E+00  8.979316E+00
      2926   2 -2.378707E+00 -2.179950E+01 -3.375541E+00  6.174851E+00 -6.208290E+00  7.182257E+00
      2926   3 -6.527927E+00 -3.476191E+01 -5.373320E+00  8.126018E+00 -5.002657E+00  1.088603E+01
      2926   4 -4.283196E+00 -2.733367E+01 -5.319118E+00  8.467529E+00 -5.091763E+00  8.442788E+00
      2926   5  1.182566E+00 -1.738089E+01 -2.398968E-02  7.551006E+00 -5.585517E+00  9.712856E+00
      2926   6  1.075450E+00 -1.604708E+01 -1.714850E+00  8.437153E+00 -5.493591E+00  7.681140E+00
      2926   7 -1.065257E+00 -2.209231E+01 -2.044450E+00  1.066530E+01 -4.618722E+00  1.122708E+01
      2926   8 -3.016220E-01 -1.870800E+01 -2.883312E+00  1.129744E+01 -4.532391E+00  8.685572E+00
      2927   1 -4.534286E+00 -1.748819E+01 -4.027724E+00  8.985002E+00 -7.607329E+00  5.384942E+00
      2927   2 -1.547023E+00 -9.852905E+00 -1.705470E+00  1.011244E+01 -7.561430E+00  3.187619E+00
      2927   3 -5.732785E+00 -2.087102E+01 -5.198868E+00  1.152120E+01 -7.258174E+00  6.138018E+00
      2927   4 -2.220250E+00 -1.195775E+01 -2.403689E+00  1.239518E+01 -7.235662E+00  3.689021E+00
      2927   5 -8.330826E-01 -1.239561E+01 -2.166758E+00  1.211466E+01 -7.317974E+00  5.630739E+00
      2927   6  1.476160E+00 -6.542522E+00 -3.223686E-01  1.329633E+01 -7.182653E+00  3.311423E+00
      2927   7 -1.901838E+00 -1.403010E+01 -2.947434E+00  1.502745E+01 -7.036238E+00  6.213006E+00
      2927   8  5.974033E-01 -7.725882E+00 -9.208486E-01  1.605802E+01 -6.904404E+00  3.693449E+00
      2928   1 -3.101397E+00 -5.938819E+00 -1.678386E+00  1.146307E+01 -8.022640E+00  1.485199E+00
      2928   2 -5.364174E-01  8.119419E-01  1.207841E-01  1.203777E+01 -8.098107E+00 -8.701360E-01
      2928   3 -3.132818E+00 -7.013018E+00 -1.905263E+00  1.377183E+01 -7.654397E+00  1.882561E+00
      2928   4 -9.547448E-02  8.514509E-01  3.547450E-01  1.421673E+01 -7.740923E+00 -5.173850E-01
      2928   5 -1.423155E+00 -4.303191E+00 -1.084982E+00  1.464529E+01 -7.550642E+00  1.491528E+00
      2928   6  3.756425E-01  6.157410E-01 -7.923312E-03  1.523691E+01 -7.583820E+00 -1.072602E+00
      2928   7 -1.507054E+00 -4.878167E+00 -1.267021E+00  1.752094E+01 -7.122059E+00  1.785964E+00
      2928   8  4.203081E-01  3.424673E-01 -6.311524E-02  1.803022E+01 -7.156886E+00 -8.504918E-01
      2929   1  7.627603E-01  7.443734E+00  1.626753E+00  8.107460E+00 -7.602104E+00 -2.778139E+00
      2929   2  4.747421E+00  1.781082E+01  4.541870E+00  6.701609E+00 -7.912714E+00 -5.496273E+00
      2929   3  1.739028E+00  8.442439E+00  2.243381E+00  1.046478E+01 -7.111986E+00 -2.691162E+00
      2929   4  6.321557E+00  2.033107E+01  5.629844E+00  8.887308E+00 -7.437162E+00 -6.059684E+00
      2929   5 -2.364625E+00  4.157655E+00 -3.895804E-01  1.219835E+01 -7.052988E+00 -3.055138E+00
      2929   6  9.642973E-01  1.251090E+01  2.353582E+00  1.091661E+01 -7.307902E+00 -5.768328E+00
      2929   7 -1.456543E+00  4.449598E+00 -2.597454E-02  1.520124E+01 -6.707070E+00 -3.023035E+00
      2929   8  2.112521E+00  1.338203E+01  2.938468E+00  1.379250E+01 -6.964156E+00 -6.200408E+00
      2930   1 -1.437922E-01  2.296710E+01  2.869836E+00  4.343726E+00 -6.621766E+00 -7.732167E+00
      2930   2  1.981530E+00  3.053766E+01  2.383678E+00  4.366011E+00 -6.631859E+00 -1.019918E+01
      2930   3  1.608712E+00  2.720568E+01  4.360469E+00  6.358421E+00 -5.315928E+00 -9.167210E+00
      2930   4  5.009863E+00  3.797625E+01  4.927073E+00  6.796726E+00 -5.286599E+00 -1.282672E+01
      2930   5 -2.099855E+00  1.736589E+01  1.775338E+00  7.941767E+00 -5.486872E+00 -8.133401E+00
      2930   6 -6.110553E-01  2.259830E+01  1.505598E+00  7.774034E+00 -5.647704E+00 -1.058789E+01
      2930   7 -8.633772E-01  1.902561E+01  2.598477E+00  1.078561E+01 -4.431822E+00 -9.220648E+00
      2930   8  1.336163E+00  2.594966E+01  3.006223E+00  1.087574E+01 -4.586777E+00 -1.253540E+01
      2931   1 -1.750263E+00 -1.529015E+01 -9.124383E+00  1.558341E+00 -8.566684E+00  7.116898E+00
      2931   2 -4.322596E-01 -1.313313E+01 -6.888055E+00  1.916534E+00 -8.472376E+00  5.740546E+00
      2931   3  2.258295E+00 -5.717394E+00 -4.786692E+00  1.864686E-01 -9.314883E+00  8.218226E+00
      2931   4  3.280920E+00 -3.750154E+00 -3.345181E+00 -4.238656E-01 -9.312643E+00  4.261359E+00
      2931   5 -1.357075E+00 -1.429779E+01 -9.367900E+00  7.337440E+00 -7.250925E+00  6.257217E+00
      2931   6  1.596505E-01 -1.292747E+01 -5.682474E+00  8.218321E+00 -6.926121E+00  6.210258E+00
      2931   7  6.077367E-01 -7.294071E+00 -6.646403E+00  8.519261E+00 -8.522526E+00  6.384723E+00
      2931   8  1.842085E+00 -6.523940E+00 -3.302038E+00  8.927162E+00 -8.208539E+00  5.079728E+00
      2932   1 -2.216949E+00 -9.946926E+00 -5.700039E+00  4.827743E+00 -1.094022E+01  4.069948E+00
      2932   2 -7.137318E-02 -5.635345E+00 -2.859701E+00  4.730711E+00 -1.127485E+01  2.442605E+00
      2932   3  2.213500E+00 -1.478698E+00 -2.353055E+00  1.960943E+00 -1.175251E+01  2.055324E+00
      2932   4  2.763406E+00 -1.102609E+00 -8.961227E-01  1.164552E+00 -1.215025E+01  1.490064E+00
      2932   5 -6.894011E-01 -9.431275E+00 -3.778667E+00  1.172563E+01 -9.283566E+00  4.864325E+00
      2932   6  1.283532E+00 -4.991108E+00 -1.642388E+00  1.196269E+01 -9.460203E+00  2.815442E+00
      2932   7  2.379169E+00 -3.674608E+00 -1.192504E+00  1.186389E+01 -9.432420E+00  3.760008E+00
      2932   8  3.233367E+00 -1.869768E+00 -1.500205E-01  1.173343E+01 -9.616473E+00  2.293132E+00
      2933   1 -2.042182E+00 -3.676883E+00 -2.339630E+00  5.787855E+00 -1.173527E+01  1.234622E+00
      2933   2  7.278190E-02  8.520377E-01  1.813258E-01  6.185261E+00 -1.178734E+01 -3.686114E-01
      2933   3 -1.112265E+00 -2.079235E+00 -1.650713E+00  1.829283E+00 -1.249210E+01  9.750779E-01
      2933   4 -2.453817E-01 -6.228986E-01 -2.174385E-01  1.904104E+00 -1.257384E+01  1.697344E-01
      2933   5 -1.097320E+00 -3.179951E+00 -1.733465E+00  1.323662E+01 -9.678035E+00  1.338336E+00
      2933   6  7.262423E-01  1.070599E+00  9.452480E-02  1.378253E+01 -9.655851E+00 -6.130593E-01
      2933   7 -6.960360E-01 -2.153275E+00 -1.313226E+00  1.285518E+01 -9.739356E+00  1.195446E+00
      2933   8  1.970306E-01 -9.272737E-02 -3.968845E-01  1.323897E+01 -9.720658E+00 -3.229851E-01
      2934   1  6.267080E-01  4.953608E+00  2.281427E+00  3.163469E+00 -1.102408E+01 -1.755837E+00
      2934   2  3.838936E+00  1.137644E+01  6.566021E+00  2.662332E+00 -1.081891E+01 -3.788000E+00
      2934   3 -1.996342E+00  3.409982E-01  4.417408E-01 -4.522064E-01 -1.214592E+01 -4.389716E-01
      2934   4 -1.969115E-01  3.224525E+00  3.556316E+00 -6.497451E-01 -1.191437E+01 -1.215105E+00
      2934   5 -1.477120E+00  3.641815E+00  4.280403E-01  1.161599E+01 -9.170941E+00 -2.301782E+00
      2934   6  1.254494E+00  9.551022E+00  3.624213E+00  1.100439E+01 -9.031807E+00 -4.870981E+00
      2934   7 -3.419945E+00  2.936295E-01 -1.120368E+00  1.176098E+01 -9.512986E+00 -1.580594E+00
      2934   8 -1.776506E+00  3.635234E+00  1.016156E+00  1.131143E+01 -9.370752E+00 -3.465500E+00
      2935   1 -1.500827E+00  1.380139E+01  6.727922E+00  5.185952E-01 -8.270697E+00 -5.960773E+00
      2935   2  4.896207E-01  1.734018E+01  9.823953E+00  1.124320E+00 -8.401115E+00 -8.211837E+00
      2935   3 -5.175078E+00  3.536442E+00  3.042774E+00 -2.021509E+00 -9.314254E+00 -4.010738E+00
      2935   4 -5.017794E+00  3.355900E+00  3.747594E+00  2.124801E-01 -9.289104E+00 -9.229172E+00
      2935   5 -8.766023E-01  1.345830E+01  5.568977E+00  8.151716E+00 -6.655285E+00 -6.605761E+00
      2935   6  2.042775E+00  1.776751E+01  1.099103E+01  7.825947E+00 -7.175175E+00 -7.126415E+00
      2935   7 -2.030890E+00  6.625068E+00  3.231073E+00  8.930143E+00 -8.147266E+00 -5.187737E+00
      2935   8 -2.068912E-01  8.443961E+00  7.492176E+00  9.404026E+00 -8.648877E+00 -7.119594E+00
      2936   1 -1.568990E+00  4.243608E+00  5.778524E+00 -1.036265E+00  7.079699E+00 -1.104326E+01
      2936   2 -3.351631E+00  2.782504E+00  1.297493E+00 -1.433795E+00  6.491070E+00 -7.784283E+00
      2936   3 -3.161469E+00  3.318055E+00  4.285825E+00 -9.014068E-01  3.256213E+00 -7.606725E+00
      2936   4 -4.503760E+00  2.297300E+00  8.322758E-01 -1.298937E+00  2.668333E+00 -5.247554E+00
      2936   5  3.397065E+00  2.074725E+01  1.222418E+01 -3.011369E+00  5.419840E+00 -1.148054E+01
      2936   6 -3.642871E-01  1.467293E+01  5.760658E+00 -3.407802E+00  4.831206E+00 -7.786003E+00
      2936   7  1.794435E+00  1.982162E+01  1.074140E+01 -3.998855E+00  2.036080E+00 -8.104514E+00
      2936   8 -1.534322E+00  1.417991E+01  5.287264E+00 -4.395288E+00  1.448181E+00 -5.293942E+00
      2937   1 -2.718969E+00  2.289700E+00 -8.675911E-02 -4.373024E+00  6.957245E+00 -5.584092E+00
      2937   2 -3.605652E+00  5.196726E-01 -1.272342E+00 -4.176651E+00  6.914889E+00 -2.832041E+00
      2937   3 -1.975575E+00  2.703644E+00  5.496607E-01 -4.743515E+00  2.878224E+00 -3.732493E+00
      2937   4 -2.887700E+00  9.081752E-01 -6.952865E-01 -4.547141E+00  2.678913E+00 -1.952440E+00
      2937   5  1.164323E+00  1.169791E+01  3.898826E+00 -6.771004E+00  6.796124E+00 -5.433183E+00
      2937   6 -1.856590E+00  4.947791E+00  5.792320E-01 -6.804401E+00  6.754780E+00 -2.699696E+00
      2937   7  1.228431E+00  1.181905E+01  4.238527E+00 -8.363134E+00  2.766095E+00 -3.614188E+00
      2937   8 -1.817475E+00  5.043941E+00  8.606144E-01 -8.396531E+00  2.570559E+00 -1.835584E+00
      2938   1  6.679477E-01  1.167589E+00  1.051652E-01 -5.443270E+00  6.991104E+00 -9.297109E-01
      2938   2 -2.522471E-01 -1.070487E+00 -7.240745E-01 -5.450755E+00  7.020153E+00  1.515498E+00
      2938   3  7.551308E-01  1.267329E+00  3.504481E-01 -5.996014E+00  2.689136E+00 -6.832282E-01
      2938   4 -2.277522E-01 -1.033436E+00 -6.250642E-01 -6.003498E+00  2.716303E+00  1.004271E+00
      2938   5  1.335433E+00  2.484198E+00  6.991742E-01 -8.529177E+00  7.074978E+00 -8.247678E-01
      2938   6 -1.248199E+00 -3.635770E+00 -1.792964E+00 -8.539415E+00  7.104039E+00  1.564145E+00
      2938   7  1.412071E+00  2.578320E+00  9.362762E-01 -1.003897E+01  2.794609E+00 -5.826253E-01
      2938   8 -1.233146E+00 -3.603233E+00 -1.699559E+00 -1.004920E+01  2.821821E+00  1.061919E+00
      2939   1  3.877772E+00 -5.351764E-01  6.932622E-01 -4.247608E+00  7.011877E+00  3.250786E+00
      2939   2  3.046578E+00 -2.420952E+00 -1.916093E-01 -4.476880E+00  7.011663E+00  5.546469E+00
      2939   3  3.204494E+00 -8.238102E-01  4.044275E-01 -4.689918E+00  2.778045E+00  2.180315E+00
      2939   4  2.308621E+00 -2.774265E+00 -6.313629E-01 -4.919191E+00  2.979208E+00  3.705828E+00
      2939   5  1.521794E+00 -6.022263E+00 -1.659655E+00 -7.411080E+00  7.004877E+00  3.257538E+00
      2939   6 -1.000184E+00 -1.185376E+01 -4.234756E+00 -7.345552E+00  7.003365E+00  5.495062E+00
      2939   7  1.717479E+00 -5.938483E+00 -1.576072E+00 -8.824031E+00  2.789679E+00  2.205916E+00
      2939   8 -8.680404E-01 -1.183352E+01 -4.299434E+00 -8.758503E+00  2.985998E+00  3.686832E+00
      2940   1  3.434658E+00 -3.148899E+00 -1.477245E+00 -1.427898E+00  6.492344E+00  7.438977E+00
      2940   2  1.677199E+00 -4.815730E+00 -5.668612E+00 -1.083694E+00  6.946060E+00  1.031372E+01
      2940   3  4.497108E+00 -2.663910E+00 -9.230638E-01 -1.389886E+00  2.744981E+00  5.041885E+00
      2940   4  3.123223E+00 -3.947166E+00 -4.219422E+00 -1.045683E+00  3.256857E+00  7.166547E+00
      2940   5  1.622367E-01 -1.457770E+01 -5.888192E+00 -3.713797E+00  4.997037E+00  7.505072E+00
      2940   6 -3.244783E+00 -2.009021E+01 -1.173242E+01 -3.284452E+00  5.450379E+00  1.075900E+01
      2940   7  1.496335E+00 -1.397681E+01 -5.219330E+00 -4.612706E+00  1.640042E+00  5.150189E+00
      2940   8 -1.533864E+00 -1.911250E+01 -1.018431E+01 -4.183361E+00  2.150519E+00  7.667242E+00
      2941   1  3.317498E+00  2.233508E+01  1.036297E+01 -2.611347E+00  1.540691E+00 -6.529315E+00
      2941   2 -3.841411E-02  1.598925E+01  5.522414E+00 -3.528224E+00  1.040922E+00 -4.507385E+00
      2941   3 -1.492656E+00  1.906314E+01  4.266676E+00 -3.865371E+00  6.032707E-01 -4.563375E+00
      2941   4 -3.989720E+00  1.357617E+01  1.430102E+00 -4.782248E+00  3.139182E-01 -3.144671E+00
      2941   5  5.425005E+00  3.150581E+01  1.388208E+01 -2.397945E+00  6.699972E-01 -8.669260E+00
      2941   6  7.127515E-01  2.203750E+01  7.642884E+00 -3.006789E+00  1.624550E-01 -5.786855E+00
      2941   7  1.524473E+00  2.864503E+01  8.246674E+00 -4.428477E+00  4.755488E-01 -6.737935E+00
      2941   8 -2.344056E+00  2.002044E+01  3.976167E+00 -5.037322E+00  1.747178E-01 -4.448135E+00
      2942   1  2.129194E+00  1.306653E+01  4.514557E+00 -7.717572E+00  1.140503E+00 -3.220613E+00
      2942   2 -9.015406E-01  6.152189E+00  1.326453E+00 -8.156422E+00  9.285402E-01 -1.727015E+00
      2942   3  4.297669E-02  1.171656E+01  2.100872E+00 -9.346430E+00  3.443557E-01 -2.244533E+00
      2942   4 -2.585398E+00  5.204578E+00 -1.483923E-01 -9.785280E+00  2.186286E-01 -1.204013E+00
      2942   5  3.326232E+00  1.767897E+01  6.308487E+00 -7.446855E+00  1.080885E+00 -4.035269E+00
      2942   6 -7.142705E-01  8.428321E+00  2.090795E+00 -7.759462E+00  8.657364E-01 -2.132252E+00
      2942   7  1.608250E+00  1.649484E+01  4.079373E+00 -9.671254E+00  6.385006E-01 -3.076376E+00
      2942   8 -2.036977E+00  7.639468E+00  7.839905E-01 -9.983861E+00  5.080692E-01 -1.618458E+00
      2943   1  1.549065E+00  3.164004E+00  1.153987E+00 -9.898596E+00  9.226941E-01 -6.470673E-01
      2943   2 -1.224999E+00 -3.442659E+00 -1.486231E+00 -9.911317E+00  9.461110E-01  8.098085E-01
      2943   3  1.387302E+00  3.023581E+00  8.476747E-01 -1.150606E+01  2.215298E-01 -4.592267E-01
      2943   4 -1.048711E+00 -3.245030E+00 -1.003757E+00 -1.151878E+01  2.362836E-01  5.350463E-01
      2943   5  2.067182E+00  4.174348E+00  1.620492E+00 -9.475892E+00  1.040113E+00 -7.754312E-01
      2943   6 -1.735191E+00 -4.815050E+00 -2.064686E+00 -9.501295E+00  1.063850E+00  1.028454E+00
      2943   7  1.869038E+00  4.019586E+00  1.302761E+00 -1.169042E+01  6.367499E-01 -5.908981E-01
      2943   8 -1.601236E+00 -4.637714E+00 -1.607520E+00 -1.171582E+01  6.519763E-01  7.585302E-01
      2944   1  1.051198E+00 -6.461689E+00 -1.648411E+00 -8.322717E+00  1.016141E+00  1.829230E+00
      2944   2 -1.837279E+00 -1.319513E+01 -4.543232E+00 -7.900634E+00  1.244360E+00  3.157465E+00
      2944   3  2.757759E+00 -5.463246E+00 -2.682787E-02 -9.935364E+00  2.724002E-01  1.244483E+00
      2944   4  2.244094E-01 -1.184155E+01 -2.093018E+00 -9.513281E+00  4.102352E-01  2.188429E+00
      2944   5  7.949603E-01 -9.027148E+00 -2.524847E+00 -8.130251E+00  1.047688E+00  2.306946E+00
      2944   6 -2.950491E+00 -1.774270E+01 -6.294135E+00 -7.840483E+00  1.279246E+00  3.995963E+00
      2944   7  2.120072E+00 -8.196885E+00 -1.082417E+00 -1.025216E+01  6.168120E-01  1.732495E+00
      2944   8 -1.276504E+00 -1.656356E+01 -4.037664E+00 -9.962396E+00  7.595775E-01  3.043990E+00
      2945   1  7.035079E-02 -1.616420E+01 -5.506294E+00 -3.620146E+00  1.132461E+00  4.326277E+00
      2945   2 -3.183670E+00 -2.240852E+01 -1.010871E+01 -2.713807E+00  1.585868E+00  6.191298E+00
      2945   3  3.979516E+00 -1.377557E+01 -1.453379E+00 -4.874333E+00  3.727327E-01  3.020548E+00
      2945   4  1.533499E+00 -1.921189E+01 -4.170453E+00 -3.967994E+00  6.402337E-01  4.349993E+00
      2945   5 -7.592673E-01 -2.200748E+01 -7.588095E+00 -3.285139E+00  3.389021E-01  5.592710E+00
      2945   6 -5.219198E+00 -3.102579E+01 -1.343622E+01 -2.650951E+00  7.991769E-01  8.266085E+00
      2945   7  2.362275E+00 -1.996897E+01 -3.914596E+00 -5.231275E+00  2.759536E-01  4.309971E+00
      2945   8 -1.303879E+00 -2.819350E+01 -7.910577E+00 -4.597087E+00  5.535960E-01  6.457202E+00
      2946   1  3.846826E+00  3.691283E+01  8.698314E+00 -2.335999E+00  5.357667E-02 -3.603857E+00
      2946   2 -6.031163E-01  2.615562E+01  4.622383E+00 -3.103862E+00 -1.373260E-01 -2.558800E+00
      2946   3 -2.460772E-01  3.410814E+01  3.442280E+00 -4.981382E+00 -1.742253E-01 -2.667272E+00
      2946   4 -4.114063E+00  2.393289E+01  7.242469E-01 -5.749244E+00 -2.896112E-01 -1.888966E+00
      2946   5  5.037482E+00  4.141134E+01  1.061999E+01 -2.131236E+00  3.297152E-01 -5.461314E+00
      2946   6 -3.745989E-02  2.924813E+01  5.866726E+00 -2.788548E+00  1.337196E-01 -3.830309E+00
      2946   7  1.266930E+00  3.876331E+01  5.563766E+00 -5.157472E+00  5.979420E-01 -4.541221E+00
      2946   8 -3.236302E+00  2.717181E+01  2.144493E+00 -5.814784E+00  4.761335E-01 -3.172270E+00
      2947   1  3.004881E+00  2.116101E+01  4.756604E+00 -7.772850E+00 -1.453276E-01 -1.863690E+00
      2947   2 -1.319895E+00  1.028758E+01  1.214111E+00 -8.170974E+00 -2.283240E-01 -1.009671E+00
      2947   3  9.479451E-01  1.977200E+01  2.183493E+00 -1.051947E+01 -3.255816E-01 -1.373596E+00
      2947   4 -2.952065E+00  9.323335E+00 -3.678778E-01 -1.091760E+01 -3.734349E-01 -7.438838E-01
      2947   5  3.697612E+00  2.354200E+01  5.782536E+00 -7.541953E+00  3.734551E-01 -2.763455E+00
      2947   6 -1.148363E+00  1.149064E+01  1.680648E+00 -7.888630E+00  2.880887E-01 -1.479758E+00
      2947   7  1.789113E+00  2.222554E+01  3.302827E+00 -1.061819E+01  5.549686E-01 -2.281990E+00
      2947   8 -2.639575E+00  1.059147E+01  1.746091E-01 -1.096487E+01  5.041264E-01 -1.218651E+00
      2948   1  2.249560E+00  5.245499E+00  1.587331E+00 -9.869387E+00 -2.244942E-01 -4.006880E-01
      2948   2 -1.952621E+00 -5.490114E+00 -1.684328E+00 -9.889504E+00 -2.140748E-01  4.090665E-01
      2948   3  2.019015E+00  5.048703E+00  1.161890E+00 -1.260963E+01 -3.744270E-01 -2.984737E-01
      2948   4 -1.810662E+00 -5.314405E+00 -1.240590E+00 -1.262974E+01 -3.680280E-01  2.886974E-01
      2948   5  2.527106E+00  5.798580E+00  1.856566E+00 -9.601099E+00  3.826869E-01 -5.749407E-01
      2948   6 -2.188964E+00 -6.102609E+00 -1.962478E+00 -9.627101E+00  3.933775E-01  6.133703E-01
      2948   7  2.280932E+00  5.596811E+00  1.430178E+00 -1.266868E+01  5.498602E-01 -4.745263E-01
      2948   8 -2.069192E+00 -5.938432E+00 -1.534992E+00 -1.269469E+01  5.566012E-01  4.951208E-01
      2949   1  1.476987E+00 -1.054188E+01 -1.330166E+00 -8.319147E+00 -1.918739E-01  9.987747E-01
      2949   2 -2.747247E+00 -2.123493E+01 -4.717898E+00 -7.947260E+00 -9.912406E-02  1.800133E+00
      2949   3  3.054336E+00 -9.588437E+00  2.706310E-01 -1.103228E+01 -3.523318E-01  7.223222E-01
      2949   4 -7.651511E-01 -1.987674E+01 -2.172690E+00 -1.066040E+01 -2.980866E-01  1.319836E+00
      2949   5  1.317922E+00 -1.178506E+01 -1.807596E+00 -8.101667E+00  3.584875E-01  1.491256E+00
      2949   6 -3.381227E+00 -2.354985E+01 -5.706638E+00 -7.786148E+00  4.538342E-01  2.701374E+00
      2949   7  2.737833E+00 -1.090397E+01 -2.905556E-01 -1.111824E+01  5.425115E-01  1.219672E+00
      2949   8 -1.563695E+00 -2.227114E+01 -3.261817E+00 -1.080272E+01  6.000314E-01  2.229534E+00
      2950   1  6.244808E-01 -2.624555E+01 -4.617279E+00 -3.213299E+00 -9.569722E-02  2.460097E+00
      2950   2 -3.757307E+00 -3.687796E+01 -8.590829E+00 -2.447158E+00  8.397349E-02  3.461793E+00
      2950   3  4.119151E+00 -2.403622E+01 -7.474945E-01 -5.834922E+00 -2.651686E-01  1.814269E+00
      2950   4  3.026945E-01 -3.410329E+01 -3.401939E+00 -5.068781E+00 -1.555083E-01  2.567572E+00
      2950   5  6.281009E-02 -2.923552E+01 -5.828348E+00 -2.956762E+00  1.970254E-01  3.719034E+00
      2950   6 -4.902547E+00 -4.117875E+01 -1.043630E+01 -2.293111E+00  3.814177E-01  5.289215E+00
      2950   7  3.269573E+00 -2.716210E+01 -2.123721E+00 -5.935868E+00  5.084738E-01  3.084578E+00
      2950   8 -1.140407E+00 -3.854996E+01 -5.435797E+00 -5.272217E+00  6.240884E-01  4.410740E+00
      2951   1  4.286182E+00  4.945261E+01  7.137814E+00 -1.599938E+00 -6.176004E-01 -2.256534E+00
      2951   2 -1.111541E+00  3.518726E+01  3.410754E+00 -2.197458E+00 -7.059503E-01 -1.633176E+00
      2951   3  5.092529E-01  4.686677E+01  2.295296E+00 -6.019111E+00 -5.821946E-01 -1.683347E+00
      2951   4 -4.424295E+00  3.306560E+01 -3.486891E-01 -6.616631E+00 -6.431112E-01 -1.213060E+00
      2951   5  4.959526E+00  5.188709E+01  8.292409E+00 -1.497899E+00  4.472391E-01 -3.727982E+00
      2951   6 -7.639520E-01  3.690853E+01  4.192707E+00 -2.060699E+00  3.568109E-01 -2.701389E+00
      2951   7  1.306026E+00  4.934532E+01  3.473343E+00 -6.068414E+00  8.669648E-01 -3.149559E+00
      2951   8 -3.949037E+00  3.483518E+01  4.666095E-01 -6.631215E+00  8.042206E-01 -2.277436E+00
      2952   1  3.575406E+00  2.839159E+01  4.412009E+00 -6.940163E+00 -7.622265E-01 -1.205420E+00
      2952   2 -1.852503E+00  1.396342E+01  7.471476E-01 -7.266093E+00 -7.966266E-01 -6.601267E-01
      2952   3  1.532755E+00  2.699865E+01  1.811518E+00 -1.142543E+01 -7.117365E-01 -8.930135E-01
      2952   4 -3.477760E+00  1.298787E+01 -8.794256E-01 -1.175136E+01 -7.321976E-01 -4.889160E-01
      2952   5  4.001230E+00  2.974295E+01  5.064088E+00 -6.852303E+00  3.550642E-01 -1.993221E+00
      2952   6 -1.726344E+00  1.465772E+01  1.057401E+00 -7.160592E+00  3.196080E-01 -1.085064E+00
      2952   7  2.021582E+00  2.837228E+01  2.474842E+00 -1.147347E+01  7.515269E-01 -1.677961E+00
      2952   8 -3.284787E+00  1.370826E+01 -5.490323E-01 -1.178176E+01  7.301370E-01 -9.122894E-01
      2953   1  2.793965E+00  7.116964E+00  1.784008E+00 -8.922928E+00 -8.024572E-01 -2.720540E-01
      2953   2 -2.582230E+00 -7.230521E+00 -1.789158E+00 -8.939906E+00 -7.983162E-01  2.428873E-01
      2953   3  2.543260E+00  6.900103E+00  1.311845E+00 -1.339376E+01 -7.417168E-01 -2.033188E-01
      2953   4 -2.439479E+00 -7.053925E+00 -1.343258E+00 -1.341074E+01 -7.391885E-01  1.728498E-01
      2953   5  2.952627E+00  7.441796E+00  1.954199E+00 -8.838288E+00  3.378090E-01 -4.388160E-01
      2953   6 -2.716820E+00 -7.550200E+00 -1.951961E+00 -8.857308E+00  3.420721E-01  4.186088E-01
      2953   7  2.693654E+00  7.220393E+00  1.475162E+00 -1.344212E+01  7.248167E-01 -3.694530E-01
      2953   8 -2.578744E+00 -7.374554E+00 -1.504550E+00 -1.346114E+01  7.274524E-01  3.479315E-01
      2954   1  1.975886E+00 -1.408460E+01 -7.747021E-01 -7.352169E+00 -7.837926E-01  6.252163E-01
      2954   2 -3.401596E+00 -2.840853E+01 -4.375712E+00 -7.049462E+00 -7.450191E-01  1.154817E+00
      2954   3  3.527926E+00 -1.313598E+01  8.353405E-01 -1.181062E+01 -7.254916E-01  4.551233E-01
      2954   4 -1.439558E+00 -2.704991E+01 -1.809006E+00 -1.150792E+01 -7.022954E-01  8.501405E-01
      2954   5  1.864310E+00 -1.476895E+01 -1.078618E+00 -7.265134E+00  3.408844E-01  1.056646E+00
      2954   6 -3.799726E+00 -2.972009E+01 -5.007595E+00 -6.982142E+00  3.808380E-01  1.942371E+00
      2954   7  3.343172E+00 -1.384910E+01  5.086930E-01 -1.185146E+01  7.391170E-01  8.849993E-01
      2954   8 -1.907120E+00 -2.838649E+01 -2.454882E+00 -1.156847E+01  7.633510E-01  1.634911E+00
      2955   1  1.137156E+00 -3.522203E+01 -3.417314E+00 -2.259248E+00 -6.909045E-01  1.573216E+00
      2955   2 -4.237802E+00 -4.943544E+01 -7.120431E+00 -1.665598E+00 -6.055203E-01  2.186700E+00
      2955   3  4.432577E+00 -3.310999E+01  3.274034E-01 -6.663883E+00 -6.348666E-01  1.164940E+00
      2955   4 -4.823721E-01 -4.686339E+01 -2.302359E+00 -6.070233E+00 -5.752488E-01  1.629972E+00
      2955   5  7.983459E-01 -3.689656E+01 -4.182109E+00 -2.137862E+00  3.728408E-01  2.637299E+00
      2955   6 -4.893284E+00 -5.180241E+01 -8.248361E+00 -1.576822E+00  4.601769E-01  3.650154E+00
      2955   7  3.973480E+00 -3.482968E+01 -4.676394E-01 -6.688196E+00  8.099477E-01  2.225295E+00
      2955   8 -1.253939E+00 -4.927132E+01 -3.450733E+00 -6.127156E+00  8.712822E-01  3.088341E+00
      2956   1  4.878935E+00  6.149313E+01  6.008277E+00 -8.749810E-01 -9.723337E-01 -1.505645E+00
      2956   2 -1.590228E+00  4.370318E+01  2.234353E+00 -1.471021E+00 -1.017743E+00 -1.094815E+00
      2956   3  1.381087E+00  5.918343E+01  1.807108E+00 -6.516686E+00 -8.678743E-01 -1.204570E+00
      2956   4 -4.728710E+00  4.175284E+01 -1.128295E+00 -7.112725E+00 -8.981483E-01 -8.679317E-01
      2956   5  5.213359E+00  6.277373E+01  6.640162E+00 -8.601080E-01  7.199375E-01 -2.720605E+00
      2956   6 -1.418188E+00  4.463360E+01  2.675135E+00 -1.436992E+00  6.736210E-01 -2.002120E+00
      2956   7  1.787591E+00  6.048751E+01  2.445204E+00 -6.543489E+00  1.122688E+00 -2.416780E+00
      2956   8 -4.481308E+00  4.271003E+01 -6.736433E-01 -7.120373E+00  1.091645E+00 -1.773164E+00
      2957   1  4.012607E+00  3.512449E+01  3.909223E+00 -6.287025E+00 -1.091730E+00 -8.113536E-01
      2957   2 -2.434068E+00  1.738141E+01  1.633753E-01 -6.580174E+00 -1.106800E+00 -4.477511E-01
      2957   3  2.194088E+00  3.389033E+01  1.613884E+00 -1.191657E+01 -9.727202E-01 -6.397447E-01
      2957   4 -3.892480E+00  1.650736E+01 -1.291712E+00 -1.220972E+01 -9.825229E-01 -3.529642E-01
      2957   5  4.259421E+00  3.587806E+01  4.292023E+00 -6.291757E+00  6.022016E-01 -1.493153E+00
      2957   6 -2.354677E+00  1.777311E+01  3.499755E-01 -6.578240E+00  5.868158E-01 -8.211118E-01
      2957   7  2.465934E+00  3.465047E+01  1.993566E+00 -1.196638E+01  1.020400E+00 -1.319976E+00
      2957   8 -3.784767E+00  1.690893E+01 -1.100556E+00 -1.225286E+01  1.010329E+00 -7.254591E-01
      2958   1  3.279482E+00  8.864897E+00  1.889668E+00 -8.202372E+00 -1.118454E+00 -1.888619E-01
      2958   2 -3.169050E+00 -8.875983E+00 -1.864558E+00 -8.213399E+00 -1.116980E+00  1.548338E-01
      2958   3  3.067145E+00  8.674540E+00  1.467483E+00 -1.382990E+01 -9.943855E-01 -1.500509E-01
      2958   4 -3.025952E+00 -8.710905E+00 -1.457395E+00 -1.384093E+01 -9.933635E-01  1.175379E-01
      2958   5  3.367749E+00  9.049021E+00  1.989449E+00 -8.220500E+00  5.708621E-01 -3.378888E-01
      2958   6 -3.246568E+00 -9.050285E+00 -1.958967E+00 -8.232099E+00  5.723639E-01  3.102602E-01
      2958   7  3.152191E+00  8.856376E+00  1.562859E+00 -1.389223E+01  9.903078E-01 -2.987232E-01
      2958   8 -3.103443E+00 -8.884248E+00 -1.548633E+00 -1.390383E+01  9.913527E-01  2.726236E-01
      2959   1  2.502739E+00 -1.739841E+01 -1.530705E-01 -6.612402E+00 -1.103551E+00  4.125192E-01
      2959   2 -3.927295E+00 -3.510159E+01 -3.883336E+00 -6.335191E+00 -1.086835E+00  7.728330E-01
      2959   3  3.912641E+00 -1.654110E+01  1.294729E+00 -1.223036E+01 -9.808169E-01  3.197462E-01
      2959   4 -2.158936E+00 -3.388582E+01 -1.599137E+00 -1.195315E+01 -9.697126E-01  6.046009E-01
      2959   5  2.430642E+00 -1.777994E+01 -3.351690E-01 -6.614248E+00  5.894198E-01  7.917399E-01
      2959   6 -4.164129E+00 -3.583886E+01 -4.258817E+00 -6.344138E+00  6.064715E-01  1.459018E+00
      2959   7  3.811287E+00 -1.693286E+01  1.107796E+00 -1.227569E+01  1.010012E+00  6.981196E-01
      2959   8 -2.421752E+00 -3.463005E+01 -1.971812E+00 -1.200558E+01  1.021402E+00  1.289249E+00
      2960   1  1.611302E+00 -4.369478E+01 -2.235821E+00 -1.489924E+00 -1.013628E+00  1.054630E+00
      2960   2 -4.859925E+00 -6.148276E+01 -6.018599E+00 -8.994935E-01 -9.685998E-01  1.464200E+00
      2960   3  4.734877E+00 -4.174816E+01  1.129316E+00 -7.129616E+00 -8.954684E-01  8.317895E-01
      2960   4 -1.377457E+00 -5.917725E+01 -1.816046E+00 -6.539186E+00 -8.649738E-01  1.167626E+00
      2960   5  1.443827E+00 -4.460878E+01 -2.670792E+00 -1.458470E+00  6.735454E-01  1.965625E+00
      2960   6 -5.188887E+00 -6.274488E+01 -6.643739E+00 -8.864333E-01  7.194446E-01  2.682424E+00
      2960   7  4.494894E+00 -4.268769E+01  6.817786E-01 -7.139285E+00  1.089732E+00  1.740749E+00
      2960   8 -1.775650E+00 -6.046162E+01 -2.446103E+00 -6.567248E+00  1.120965E+00  2.383140E+00
      2961   1  5.268713E+00  7.238331E+01  5.244846E+00 -2.913096E-01 -1.198218E+00 -1.132574E+00
      2961   2 -2.198040E+00  5.146088E+01  1.278097E+00 -8.588273E-01 -1.221597E+00 -8.159925E-01
      2961   3  2.055236E+00  7.030112E+01  1.517692E+00 -6.996933E+00 -1.104366E+00 -9.650106E-01
      2961   4 -5.106531E+00  4.968368E+01 -1.737424E+00 -7.564450E+00 -1.121122E+00 -6.879730E-01
      2961   5  5.452407E+00  7.309905E+01  5.609016E+00 -3.193893E-01  9.938393E-01 -2.180896E+00
      2961   6 -2.102870E+00  5.198800E+01  1.535803E+00 -8.785243E-01  9.701679E-01 -1.605245E+00
      2961   7  2.274559E+00  7.102569E+01  1.875667E+00 -7.013749E+00  1.340903E+00 -2.011803E+00
      2961   8 -4.972947E+00  5.022241E+01 -1.479412E+00 -7.572884E+00  1.323915E+00 -1.476056E+00
      2962   1  4.480701E+00  4.136765E+01  3.590563E+00 -5.639627E+00 -1.296582E+00 -6.014421E-01
      2962   2 -2.953444E+00  2.050874E+01 -3.310118E-01 -5.925889E+00 -1.303567E+00 -3.318605E-01
      2962   3  2.781136E+00  4.023871E+01  1.527024E+00 -1.232985E+01 -1.195322E+00 -5.037108E-01
      2962   4 -4.335682E+00  1.969713E+01 -1.654119E+00 -1.261611E+01 -1.199171E+00 -2.773345E-01
      2962   5  4.622942E+00  4.179967E+01  3.816444E+00 -5.709383E+00  9.027575E-01 -1.197171E+00
      2962   6 -2.907223E+00  2.073538E+01 -2.198163E-01 -5.991676E+00  8.956343E-01 -6.579447E-01
      2962   7  2.939733E+00  4.067409E+01  1.747721E+00 -1.239305E+01  1.267632E+00 -1.098547E+00
      2962   8 -4.270206E+00  1.993003E+01 -1.541346E+00 -1.267535E+01  1.263674E+00 -6.029206E-01
      2963   1  3.739562E+00  1.044469E+01  1.993416E+00 -7.538534E+00 -1.315331E+00 -1.410014E-01
      2963   2 -3.695273E+00 -1.040100E+01 -1.943676E+00 -7.544806E+00 -1.314657E+00  1.108539E-01
      2963   3  3.566607E+00  1.028424E+01  1.631529E+00 -1.422182E+01 -1.210022E+00 -1.184603E-01
      2963   4 -3.550211E+00 -1.024344E+01 -1.563523E+00 -1.422809E+01 -1.209358E+00  8.921588E-02
      2963   5  3.791012E+00  1.055206E+01  2.052613E+00 -7.624438E+00  8.745423E-01 -2.694630E-01
      2963   6 -3.741723E+00 -1.050336E+01 -2.001084E+00 -7.630722E+00  8.752170E-01  2.526621E-01
      2963   7  3.616831E+00  1.039029E+01  1.687573E+00 -1.430246E+01  1.244082E+00 -2.467160E-01
      2963   8 -3.594982E+00 -1.034421E+01 -1.617307E+00 -1.430874E+01  1.244747E+00  2.308264E-01
      2964   1  2.982793E+00 -2.046836E+01  3.732450E-01 -5.930650E+00 -1.302850E+00  3.015121E-01
      2964   2 -4.449159E+00 -4.131788E+01 -3.550406E+00 -5.654605E+00 -1.294862E+00  5.705444E-01
      2964   3  4.345128E+00 -1.965629E+01  1.717805E+00 -1.261728E+01 -1.198554E+00  2.479553E-01
      2964   4 -2.769838E+00 -4.018883E+01 -1.466212E+00 -1.234124E+01 -1.193588E+00  4.739633E-01
      2964   5  2.940549E+00 -2.069019E+01  2.634823E-01 -5.996780E+00  8.936758E-01  6.408345E-01
      2964   6 -4.587065E+00 -4.174428E+01 -3.774476E+00 -5.724560E+00  9.017972E-01  1.179216E+00
      2964   7  4.284594E+00 -1.988388E+01  1.607152E+00 -1.267667E+01  1.261332E+00  5.867885E-01
      2964   8 -2.923139E+00 -4.061808E+01 -1.684417E+00 -1.240445E+01  1.266404E+00  1.081753E+00
      2965   1  2.211351E+00 -5.141899E+01 -1.251540E+00 -8.579084E-01 -1.220061E+00  7.847420E-01
      2965   2 -5.264036E+00 -7.235370E+01 -5.234779E+00 -2.970996E-01 -1.196094E+00  1.100908E+00
      2965   3  5.111567E+00 -4.963668E+01  1.789250E+00 -7.565353E+00 -1.119460E+00  6.578967E-01
      2965   4 -2.059234E+00 -7.026682E+01 -1.483289E+00 -7.004544E+00 -1.101827E+00  9.344041E-01
      2965   5  2.119291E+00 -5.194091E+01 -1.507910E+00 -8.776425E-01  9.667739E-01  1.586707E+00
      2965   6 -5.444822E+00 -7.306473E+01 -5.597792E+00 -3.248511E-01  9.910204E-01  2.161611E+00
      2965   7  4.982706E+00 -5.016945E+01  1.533529E+00 -7.573952E+00  1.320319E+00  1.458703E+00
      2965   8 -2.274039E+00 -7.098591E+01 -1.839161E+00 -7.021161E+00  1.338173E+00  1.993586E+00
      2966   1  5.703911E+00  8.269845E+01  4.842347E+00  2.356998E-01 -1.368394E+00 -9.302164E-01
      2966   2 -2.736516E+00  5.881358E+01  5.924510E-01 -3.226562E-01 -1.381645E+00 -6.601688E-01
      2966   3  2.646669E+00  8.075423E+01  1.418864E+00 -7.461019E+00 -1.329525E+00 -8.383730E-01
      2966   4 -5.518053E+00  5.714507E+01 -2.187719E+00 -8.019375E+00 -1.339200E+00 -5.894855E-01
      2966   5  5.797068E+00  8.308841E+01  5.041701E+00  1.813847E-01  1.254625E+00 -1.868892E+00
      2966   6 -2.691332E+00  5.910202E+01  7.334305E-01 -3.724448E-01  1.241272E+00 -1.365624E+00
      2966   7  2.762969E+00  8.114832E+01  1.608834E+00 -7.472121E+00  1.521978E+00 -1.776209E+00
      2966   8 -5.447206E+00  5.744015E+01 -2.050247E+00 -8.025951E+00  1.512234E+00 -1.294295E+00
      2967   1  4.929466E+00  4.727747E+01  3.438880E+00 -5.073558E+00 -1.455800E+00 -4.815854E-01
      2967   2 -3.467474E+00  2.345314E+01 -7.265878E-01 -5.353284E+00 -1.458027E+00 -2.637338E-01
      2967   3  3.326191E+00  4.623180E+01  1.556584E+00 -1.276179E+01 -1.413623E+00 -4.273352E-01
      2967   4 -4.782901E+00  2.269531E+01 -1.937238E+00 -1.304151E+01 -1.414111E+00 -2.332198E-01
      2967   5  5.013102E+00  4.751963E+01  3.567394E+00 -5.183114E+00  1.192589E+00 -1.012535E+00
      2967   6 -3.437044E+00  2.358201E+01 -6.621396E-01 -5.460638E+00  1.190312E+00 -5.511455E-01
      2967   7  3.420539E+00  4.647527E+01  1.678772E+00 -1.283143E+01  1.473439E+00 -9.577892E-01
      2967   8 -4.739131E+00  2.282813E+01 -1.872981E+00 -1.310895E+01  1.472918E+00 -5.203527E-01
      2968   1  4.206872E+00  1.193826E+01  2.142152E+00 -6.951495E+00 -1.468318E+00 -1.111461E-01
      2968   2 -4.193417E+00 -1.188117E+01 -2.039380E+00 -6.954848E+00 -1.467692E+00  8.787969E-02
      2968   3  4.066930E+00  1.180500E+01  1.837902E+00 -1.463561E+01 -1.423546E+00 -9.826097E-02
      2968   4 -4.043717E+00 -1.172479E+01 -1.667799E+00 -1.463896E+01 -1.422815E+00  7.633804E-02
      2968   5  4.237372E+00  1.200000E+01  2.176114E+00 -7.081638E+00  1.172060E+00 -2.197145E-01
      2968   6 -4.217485E+00 -1.193583E+01 -2.070914E+00 -7.084858E+00  1.172683E+00  2.243823E-01
      2968   7  4.096825E+00  1.186581E+01  1.869373E+00 -1.472674E+01  1.457021E+00 -2.067116E-01
      2968   8 -4.065745E+00 -1.177773E+01 -1.695651E+00 -1.472996E+01  1.457750E+00  2.127353E-01
      2969   1  3.475695E+00 -2.339661E+01  8.252352E-01 -5.346088E+00 -1.457523E+00  2.404056E-01
      2969   2 -4.921473E+00 -4.721647E+01 -3.345470E+00 -5.073455E+00 -1.454134E+00  4.580882E-01
      2969   3  4.799449E+00 -2.261632E+01  2.102440E+00 -1.303197E+01 -1.413388E+00  2.112565E-01
      2969   4 -3.310105E+00 -4.614857E+01 -1.397167E+00 -1.275934E+01 -1.411521E+00  4.052614E-01
      2969   5  3.451304E+00 -2.351849E+01  7.630740E-01 -5.453201E+00  1.187677E+00  5.556785E-01
      2969   6 -4.998952E+00 -4.745137E+01 -3.471571E+00 -5.182493E+00  1.191108E+00  1.016699E+00
      2969   7  4.763199E+00 -2.274134E+01  2.041680E+00 -1.309911E+01  1.470307E+00  5.262631E-01
      2969   8 -3.396816E+00 -4.638398E+01 -1.515737E+00 -1.282841E+01  1.472204E+00  9.633901E-01
      2970   1  2.741310E+00 -5.875437E+01 -5.071675E-01 -3.144677E-01 -1.380034E+00  6.363741E-01
      2970   2 -5.706805E+00 -8.264824E+01 -4.773674E+00  2.358958E-01 -1.365697E+00  9.057775E-01
      2970   3  5.527456E+00 -5.706531E+01  2.336866E+00 -8.011848E+00 -1.337172E+00  5.671488E-01
      2970   4 -2.645651E+00 -8.068418E+01 -1.287958E+00 -7.461484E+00 -1.326219E+00  8.154283E-01
      2970   5  2.701939E+00 -5.903557E+01 -6.458250E-01 -3.640124E-01  1.237283E+00  1.369202E+00
      2970   6 -5.794059E+00 -8.303079E+01 -4.970590E+00  1.820698E-01  1.251715E+00  1.871234E+00
      2970   7  5.463820E+00 -5.735239E+01  2.202879E+00 -8.018128E+00  1.508086E+00  1.299344E+00
      2970   8 -2.754659E+00 -8.107010E+01 -1.474342E+00 -7.472046E+00  1.519105E+00  1.780060E+00
      2971   1  6.156081E+00  9.269131E+01  4.701040E+00  7.240130E-01 -1.509238E+00 -8.090515E-01
      2971   2 -3.251370E+00  6.592163E+01  1.125498E-01  1.686750E-01 -1.516933E+00 -5.648255E-01
      2971   3  3.199035E+00  9.084127E+01  1.491295E+00 -7.928437E+00 -1.555205E+00 -7.660236E-01
      2971   4 -5.949968E+00  6.433004E+01 -2.494150E+00 -8.483775E+00 -1.560961E+00 -5.311727E-01
      2971   5  6.192875E+00  9.286994E+01  4.787720E+00  6.526363E-01  1.505271E+00 -1.670009E+00
      2971   6 -3.235598E+00  6.605551E+01  1.739087E-01  9.975095E-02  1.497552E+00 -1.207605E+00
      2971   7  3.252527E+00  9.102173E+01  1.567390E+00 -7.933219E+00  1.672731E+00 -1.626588E+00
      2971   8 -5.915137E+00  6.446811E+01 -2.437869E+00 -8.486104E+00  1.666968E+00 -1.173645E+00
      2972   1  5.393140E+00  5.299264E+01  3.445513E+00 -4.568181E+00 -1.592084E+00 -4.067554E-01
      2972   2 -3.962176E+00  2.627680E+01 -1.023031E+00 -4.845091E+00 -1.591601E+00 -2.191259E-01
      2972   3  3.858574E+00  5.201007E+01  1.704832E+00 -1.321978E+01 -1.637762E+00 -3.804279E-01
      2972   4 -5.228579E+00  2.556239E+01 -2.138000E+00 -1.349669E+01 -1.636268E+00 -2.034362E-01
      2972   5  5.440385E+00  5.311214E+01  3.507834E+00 -4.703053E+00  1.464735E+00 -8.868126E-01
      2972   6 -3.938471E+00  2.634583E+01 -9.887119E-01 -4.978684E+00  1.465206E+00 -4.727938E-01
      2972   7  3.913791E+00  5.213002E+01  1.760677E+00 -1.328965E+01  1.640632E+00 -8.602446E-01
      2972   8 -5.194454E+00  2.563432E+01 -2.104442E+00 -1.356528E+01  1.642122E+00 -4.569608E-01
      2973   1  4.681068E+00  1.336187E+01  2.341879E+00 -6.434235E+00 -1.600573E+00 -8.908461E-02
      2973   2 -4.674419E+00 -1.334562E+01 -2.135581E+00 -6.435221E+00 -1.599809E+00  7.856526E-02
      2973   3  4.574044E+00  1.325681E+01  2.098709E+00 -1.508159E+01 -1.644767E+00 -8.128936E-02
      2973   4 -4.511843E+00 -1.318108E+01 -1.749686E+00 -1.508258E+01 -1.643936E+00  7.543034E-02
      2973   5  4.700460E+00  1.339911E+01  2.361108E+00 -6.592350E+00  1.450765E+00 -1.765788E-01
      2973   6 -4.679140E+00 -1.336017E+01 -2.144951E+00 -6.593252E+00  1.451528E+00  2.186766E-01
      2973   7  4.592814E+00  1.329324E+01  2.115869E+00 -1.517510E+01  1.629355E+00 -1.687124E-01
      2973   8 -4.514724E+00 -1.319397E+01 -1.755379E+00 -1.517600E+01  1.630186E+00  2.155131E-01
      2974   1  3.960269E+00 -2.625799E+01  1.224914E+00 -4.827329E+00 -1.590792E+00  2.086070E-01
      2974   2 -5.389007E+00 -5.295425E+01 -3.243085E+00 -4.555349E+00 -1.589803E+00  3.962377E-01
      2974   3  5.271865E+00 -2.548856E+01  2.478091E+00 -1.347218E+01 -1.635274E+00  1.976497E-01
      2974   4 -3.809361E+00 -5.191677E+01 -1.364458E+00 -1.320020E+01 -1.635186E+00  3.748395E-01
      2974   5  3.950998E+00 -2.630418E+01  1.200432E+00 -4.960676E+00  1.462580E+00  5.148565E-01
      2974   6 -5.421445E+00 -5.305003E+01 -3.295192E+00 -4.689836E+00  1.463580E+00  9.287795E-01
      2974   7  5.253379E+00 -2.553680E+01  2.455971E+00 -1.354033E+01  1.639589E+00  5.037992E-01
      2974   8 -3.848564E+00 -5.201215E+01 -1.408489E+00 -1.326949E+01  1.639680E+00  9.071859E-01
      2975   1  3.245436E+00 -6.587936E+01  8.046465E-02  1.842573E-01 -1.514758E+00  5.541729E-01
      2975   2 -6.164634E+00 -9.264476E+01 -4.521038E+00  7.293995E-01 -1.505678E+00  7.980292E-01
      2975   3  5.970558E+00 -6.424092E+01  2.816802E+00 -8.464753E+00 -1.558560E+00  5.256705E-01
      2975   4 -3.181462E+00 -9.074827E+01 -1.182583E+00 -7.919611E+00 -1.551394E+00  7.605586E-01
      2975   5  3.244290E+00 -6.598878E+01  2.948528E-02  1.154218E-01  1.493227E+00  1.249277E+00
      2975   6 -6.186025E+00 -9.279713E+01 -4.596555E+00  6.581411E-01  1.502330E+00  1.710970E+00
      2975   7  5.951345E+00 -6.435379E+01  2.772405E+00 -8.466517E+00  1.662542E+00  1.220515E+00
      2975   8 -3.218563E+00 -9.090173E+01 -1.246018E+00 -7.923798E+00  1.669713E+00  1.673158E+00
      2976   1  6.625096E+00  1.024999E+02  4.769268E+00  1.185942E+00 -1.629067E+00 -7.246727E-01
      2976   2 -3.752867E+00  7.287441E+01 -1.984468E-01  6.291086E-01 -1.633739E+00 -4.969852E-01
      2976   3  3.736210E+00  1.007210E+02  1.728499E+00 -8.406047E+00 -1.784893E+00 -7.155549E-01
      2976   4 -6.394723E+00  7.134254E+01 -2.662814E+00 -8.962880E+00 -1.788543E+00 -4.884163E-01
      2976   5  6.625233E+00  1.025311E+02  4.773191E+00  1.102477E+00  1.751282E+00 -1.523153E+00
      2976   6 -3.752946E+00  7.290403E+01 -1.936386E-01  5.469376E-01  1.746613E+00 -1.087041E+00
      2976   7  3.749757E+00  1.007530E+02  1.721704E+00 -8.403380E+00  1.798428E+00 -1.513952E+00
      2976   8 -6.379136E+00  7.137522E+01 -2.663459E+00 -8.958920E+00  1.794790E+00 -1.078394E+00
      2977   1  5.870175E+00  5.857614E+01  3.590221E+00 -4.108317E+00 -1.712115E+00 -3.518588E-01
      2977   2 -4.448013E+00  2.900083E+01 -1.228425E+00 -4.383673E+00 -1.710074E+00 -1.830538E-01
      2977   3  4.393914E+00  5.764877E+01  1.975261E+00 -1.370509E+01 -1.869574E+00 -3.437729E-01
      2977   4 -5.669481E+00  2.832825E+01 -2.248869E+00 -1.398044E+01 -1.867048E+00 -1.757383E-01
      2977   5  5.895913E+00  5.861542E+01  3.606740E+00 -4.259356E+00  1.724058E+00 -7.869399E-01
      2977   6 -4.422886E+00  2.903755E+01 -1.211382E+00 -4.534099E+00  1.726100E+00 -4.031610E-01
      2977   7  4.425756E+00  5.768798E+01  1.985423E+00 -1.377023E+01  1.776084E+00 -7.787801E-01
      2977   8 -5.635923E+00  2.836723E+01 -2.232752E+00 -1.404497E+01  1.778616E+00 -3.957787E-01
      2978   1  5.162694E+00  1.471426E+01  2.599914E+00 -5.962227E+00 -1.718343E+00 -6.694886E-02
      2978   2 -5.146913E+00 -1.483550E+01 -2.215679E+00 -5.960130E+00 -1.717530E+00  8.145058E-02
      2978   3  5.096078E+00  1.464347E+01  2.430542E+00 -1.555054E+01 -1.875162E+00 -6.016614E-02
      2978   4 -4.957508E+00 -1.465028E+01 -1.787669E+00 -1.554844E+01 -1.874468E+00  8.754829E-02
      2978   5  5.178853E+00  1.474557E+01  2.613726E+00 -6.138045E+00  1.714377E+00 -1.293047E-01
      2978   6 -5.131198E+00 -1.480637E+01 -2.201170E+00 -6.136098E+00  1.715189E+00  2.351054E-01
      2978   7  5.110977E+00  1.467385E+01  2.442528E+00 -1.564043E+01  1.768073E+00 -1.224601E-01
      2978   8 -4.940715E+00 -1.461973E+01 -1.769529E+00 -1.563848E+01  1.768765E+00  2.412588E-01
      2979   1  4.439602E+00 -2.911405E+01  1.605226E+00 -4.343576E+00 -1.709018E+00  1.978032E-01
      2979   2 -5.855065E+00 -5.862906E+01 -3.195325E+00 -4.070244E+00 -1.709532E+00  3.672849E-01
      2979   3  5.762374E+00 -2.833614E+01  2.875492E+00 -1.392201E+01 -1.866008E+00  2.035188E-01
      2979   4 -4.276940E+00 -5.759579E+01 -1.329233E+00 -1.364868E+01 -1.867265E+00  3.726416E-01
      2979   5  4.446281E+00 -2.908981E+01  1.616640E+00 -4.493953E+00  1.723764E+00  5.093832E-01
      2979   6 -5.848214E+00 -5.860556E+01 -3.182600E+00 -4.221560E+00  1.723248E+00  8.943138E-01
      2979   7  5.760545E+00 -2.831362E+01  2.889684E+00 -1.398615E+01  1.776726E+00  5.151510E-01
      2979   8 -4.276264E+00 -5.757168E+01 -1.308288E+00 -1.371375E+01  1.775460E+00  8.997194E-01
      2980   1  3.729221E+00 -7.291327E+01  5.783019E-01  6.632177E-01 -1.631391E+00  5.130343E-01
      2980   2 -6.636692E+00 -1.025000E+02 -4.387982E+00  1.205996E+00 -1.625429E+00  7.417471E-01
      2980   3  6.431553E+00 -7.129291E+01  3.277166E+00 -8.915473E+00 -1.786568E+00  5.184006E-01
      2980   4 -3.686309E+00 -1.006316E+02 -1.110331E+00 -8.372694E+00 -1.781979E+00  7.474987E-01
      2980   5  3.761925E+00 -7.287830E+01  6.032900E-01  5.807841E-01  1.742320E+00  1.195528E+00
      2980   6 -6.602428E+00 -1.024625E+02 -4.360328E+00  1.121825E+00  1.748278E+00  1.633531E+00
      2980   7  6.448501E+00 -7.126048E+01  3.309474E+00 -8.910728E+00  1.790966E+00  1.200944E+00
      2980   8 -3.665535E+00 -1.005944E+02 -1.070070E+00 -8.369687E+00  1.795538E+00  1.639335E+00
      2981   1  7.107616E+00  1.121968E+02  5.027074E+00  1.627648E+00 -1.730160E+00 -6.507059E-01
      2981   2 -4.254930E+00  7.970795E+01 -3.591923E-01  1.065989E+00 -1.733363E+00 -4.357750E-01
      2981   3  4.272181E+00  1.104810E+02  2.143093E+00 -8.900644E+00 -2.018962E+00 -6.652684E-01
      2981   4 -6.852328E+00  7.823017E+01 -2.687754E+00 -9.462303E+00 -2.021798E+00 -4.434784E-01
      2981   5  7.086378E+00  1.121255E+02  4.970196E+00  1.535064E+00  1.996517E+00 -1.390192E+00
      2981   6 -4.258586E+00  7.967154E+01 -3.924062E-01  9.738693E-01  1.993322E+00 -9.742906E-01
      2981   7  4.262281E+00  1.104099E+02  2.075831E+00 -8.889362E+00  1.902029E+00 -1.404888E+00
      2981   8 -6.842472E+00  7.819622E+01 -2.726278E+00 -9.450557E+00  1.899205E+00 -9.820645E-01
      2982   1  6.357905E+00  6.404759E+01  3.864810E+00 -3.682168E+00 -1.816548E+00 -3.000741E-01
      2982   2 -4.934276E+00  3.161604E+01 -1.344249E+00 -3.957688E+00 -1.813833E+00 -1.442634E-01
      2982   3  4.935504E+00  6.317441E+01  2.376607E+00 -1.421695E+01 -2.108153E+00 -3.025574E-01
      2982   4 -6.111648E+00  3.098789E+01 -2.260719E+00 -1.449247E+01 -2.105400E+00 -1.393441E-01
      2982   5  6.374480E+00  6.404066E+01  3.852383E+00 -3.843715E+00  1.976979E+00 -6.893063E-01
      2982   6 -4.898952E+00  3.164660E+01 -1.331666E+00 -4.119186E+00  1.979695E+00 -3.266159E-01
      2982   7  4.956732E+00  6.316707E+01  2.358149E+00 -1.427389E+01  1.885549E+00 -6.918123E-01
      2982   8 -6.069433E+00  3.102027E+01 -2.248946E+00 -1.454936E+01  1.888303E+00 -3.216517E-01
      2983   1  5.649564E+00  1.597146E+01  2.925476E+00 -5.517235E+00 -1.821856E+00 -3.745645E-02
      2983   2 -5.617705E+00 -1.639954E+01 -2.261090E+00 -5.512366E+00 -1.821337E+00  9.853486E-02
      2983   3  5.630334E+00  1.594252E+01  2.848252E+00 -1.603426E+01 -2.113362E+00 -2.695681E-02
      2983   4 -5.390133E+00 -1.618167E+01 -1.762446E+00 -1.602939E+01 -2.113297E+00  1.168777E-01
      2983   5  5.670750E+00  1.601811E+01  2.944624E+00 -5.704304E+00  1.970153E+00 -6.781193E-02
      2983   6 -5.576899E+00 -1.631342E+01 -2.216017E+00 -5.700009E+00  1.970663E+00  2.765632E-01
      2983   7  5.649053E+00  1.598792E+01  2.865712E+00 -1.611633E+01  1.880295E+00 -5.721639E-02
      2983   8 -5.349542E+00 -1.609455E+01 -1.713801E+00 -1.611204E+01  1.880348E+00  2.950735E-01
      2984   1  4.913270E+00 -3.202498E+01  1.996977E+00 -3.872054E+00 -1.812809E+00  2.062162E-01
      2984   2 -6.320657E+00 -6.431736E+01 -3.157068E+00 -3.596002E+00 -1.814661E+00  3.644159E-01
      2984   3  6.267728E+00 -3.122081E+01  3.323109E+00 -1.436651E+01 -2.104599E+00  2.303895E-01
      2984   4 -4.718822E+00 -6.326581E+01 -1.253722E+00 -1.409046E+01 -2.107429E+00  3.966751E-01
      2984   5  4.940272E+00 -3.192171E+01  2.049061E+00 -4.033898E+00  1.978655E+00  5.369717E-01
      2984   6 -6.273564E+00 -6.417353E+01 -3.078572E+00 -3.759083E+00  1.976784E+00  9.040460E-01
      2984   7  6.285313E+00 -3.111953E+01  3.377968E+00 -1.442326E+01  1.888979E+00  5.613658E-01
      2984   8 -4.678887E+00 -6.312171E+01 -1.167180E+00 -1.414845E+01  1.886122E+00  9.365999E-01
      2985   1  4.196398E+00 -7.993832E+01  1.045323E+00  1.138934E+00 -1.731913E+00  5.025551E-01
      2985   2 -7.114191E+00 -1.122993E+02 -4.295621E+00  1.679969E+00 -1.728374E+00  7.217587E-01
      2985   3  6.901855E+00 -7.831136E+01  3.763068E+00 -9.351528E+00 -2.021642E+00  5.408427E-01
      2985   4 -4.166406E+00 -1.104301E+02 -1.012443E+00 -8.810493E+00 -2.019541E+00  7.684301E-01
      2985   5  4.264404E+00 -7.976177E+01  1.145863E+00  1.045994E+00  1.990543E+00  1.193535E+00
      2985   6 -7.025626E+00 -1.120810E+02 -4.168330E+00  1.585209E+00  1.994055E+00  1.617359E+00
      2985   7  6.953960E+00 -7.813736E+01  3.871027E+00 -9.339039E+00  1.898668E+00  1.232172E+00
      2985   8 -4.091528E+00 -1.102121E+02 -8.725685E-01 -8.799824E+00  1.900729E+00  1.664457E+00
      2986   1  7.597222E+00  1.218097E+02  5.477425E+00  2.059142E+00 -1.812163E+00 -5.683420E-01
      2986   2 -4.773504E+00  8.642320E+01 -3.718102E-01  1.488654E+00 -1.815148E+00 -3.655565E-01
      2986   3  4.807257E+00  1.201570E+02  2.758202E+00 -9.410756E+00 -2.256896E+00 -5.978356E-01
      2986   4 -7.334384E+00  8.499953E+01 -2.556500E+00 -9.981244E+00 -2.260056E+00 -3.815207E-01
      2986   5  7.569179E+00  1.216751E+02  5.380115E+00  1.958878E+00  2.243000E+00 -1.244231E+00
      2986   6 -4.767849E+00  8.635649E+01 -4.247370E-01  1.388168E+00  2.240009E+00 -8.476863E-01
      2986   7  4.789157E+00  1.200224E+02  2.651238E+00 -9.390295E+00  1.983749E+00 -1.273994E+00
      2986   8 -7.316694E+00  8.493499E+01 -2.614199E+00 -9.961004E+00  1.980582E+00 -8.637963E-01
      2987   1  6.838640E+00  6.939545E+01  4.268420E+00 -3.274747E+00 -1.903969E+00 -2.381600E-01
      2987   2 -5.439850E+00  3.410093E+01 -1.365364E+00 -3.558751E+00 -1.901492E+00 -9.289193E-02
      2987   3  5.447562E+00  6.857051E+01  2.909682E+00 -1.474476E+01 -2.352009E+00 -2.438491E-01
      2987   4 -6.594420E+00  3.351250E+01 -2.172251E+00 -1.502876E+01 -2.349746E+00 -8.403792E-02
      2987   5  6.859015E+00  6.937561E+01  4.244304E+00 -3.443555E+00  2.228296E+00 -5.761427E-01
      2987   6 -5.383593E+00  3.415379E+01 -1.342566E+00 -3.727829E+00  2.230765E+00 -2.308170E-01
      2987   7  5.472313E+00  6.855045E+01  2.880476E+00 -1.479158E+01  1.971948E+00 -5.818837E-01
      2987   8 -6.531627E+00  3.356729E+01 -2.149503E+00 -1.507585E+01  1.974201E+00 -2.218821E-01
      2988   1  6.126210E+00  1.710240E+01  3.329700E+00 -5.089132E+00 -1.909365E+00  6.902702E-03
      2988   2 -6.108200E+00 -1.809192E+01 -2.257349E+00 -5.090336E+00 -1.909861E+00  1.342786E-01
      2988   3  6.132667E+00  1.711126E+01  3.352768E+00 -1.653118E+01 -2.357069E+00  2.681086E-02
      2988   4 -5.861520E+00 -1.784283E+01 -1.673759E+00 -1.653238E+01 -2.358230E+00  1.698442E-01
      2988   5  6.162353E+00  1.719009E+01  3.367496E+00 -5.283045E+00  2.224511E+00  1.659172E-02
      2988   6 -6.033930E+00 -1.792647E+01 -2.170220E+00 -5.285092E+00  2.223992E+00  3.471992E-01
      2988   7  6.166033E+00  1.719782E+01  3.389560E+00 -1.660196E+01  1.971582E+00  3.668170E-02
      2988   8 -5.787831E+00 -1.767632E+01 -1.582515E+00 -1.660401E+01  1.970392E+00  3.830897E-01
      2989   1  5.373739E+00 -3.505183E+01  2.426028E+00 -3.405548E+00 -1.900960E+00  2.362141E-01
      2989   2 -6.795486E+00 -7.009553E+01 -3.094362E+00 -3.128695E+00 -1.904682E+00  3.873311E-01
      2989   3  6.767170E+00 -3.421028E+01  3.837778E+00 -1.480502E+01 -2.348813E+00  2.833188E-01
      2989   4 -5.159346E+00 -6.901126E+01 -1.116291E+00 -1.452816E+01 -2.354050E+00  4.503038E-01
      2989   5  5.428359E+00 -3.484954E+01  2.529031E+00 -3.574761E+00  2.233740E+00  5.986808E-01
      2989   6 -6.702252E+00 -6.981446E+01 -2.941424E+00 -3.299825E+00  2.229965E+00  9.551338E-01
      2989   7  6.810327E+00 -3.401067E+01  3.943309E+00 -1.485122E+01  1.982708E+00  6.462158E-01
      2989   8 -5.075358E+00 -6.873066E+01 -9.556526E-01 -1.457628E+01  1.977404E+00  1.018682E+00
      2990   1  4.640833E+00 -8.702693E+01  1.527044E+00  1.618973E+00 -1.816681E+00  5.206963E-01
      2990   2 -7.587353E+00 -1.220873E+02 -4.173227E+00  2.157991E+00 -1.815922E+00  7.339399E-01
      2990   3  7.368066E+00 -8.537418E+01  4.308999E+00 -9.759413E+00 -2.263008E+00  5.951315E-01
      2990   4 -4.620505E+00 -1.201949E+02 -8.321712E-01 -9.220395E+00 -2.264340E+00  8.238233E-01
      2990   5  4.749905E+00 -8.669410E+01  1.710969E+00  1.517629E+00  2.242193E+00  1.237855E+00
      2990   6 -7.440572E+00 -1.216776E+02 -3.940416E+00  2.054001E+00  2.242879E+00  1.653809E+00
      2990   7  7.458706E+00 -8.504482E+01  4.499757E+00 -9.738461E+00  1.990044E+00  1.312970E+00
      2990   8 -4.489968E+00 -1.197866E+02 -5.874198E-01 -9.202089E+00  1.988620E+00  1.744513E+00
      2991   1  8.060688E+00  1.312872E+02  6.115715E+00  2.514358E+00 -1.873693E+00 -4.631180E-01
      2991   2 -5.330678E+00  9.299594E+01 -2.309185E-01  1.932641E+00 -1.877725E+00 -2.738074E-01
      2991   3  5.317827E+00  1.297039E+02  3.581010E+00 -9.894477E+00 -2.499235E+00 -4.987697E-01
      2991   4 -7.855786E+00  9.163043E+01 -2.257534E+00 -1.047619E+01 -2.504324E+00 -2.901077E-01
      2991   5  8.041275E+00  1.311292E+02  5.999669E+00  2.404823E+00  2.490292E+00 -1.066996E+00
      2991   6 -5.302292E+00  9.293477E+01 -2.844153E-01  1.821768E+00  2.486206E+00 -6.929770E-01
      2991   7  5.305637E+00  1.295453E+02  3.455645E+00 -9.867510E+00  2.039205E+00 -1.102973E+00
      2991   8 -7.818188E+00  9.157062E+01 -2.315709E+00 -1.045056E+01  2.034052E+00 -7.094263E-01
      2992   1  7.248091E+00  7.459587E+01  4.794157E+00 -2.842207E+00 -1.972287E+00 -1.551161E-01
      2992   2 -6.013426E+00  3.646630E+01 -1.281326E+00 -3.161691E+00 -1.971167E+00 -2.015602E-02
      2992   3  5.800548E+00  7.378518E+01  3.539418E+00 -1.523518E+01 -2.601128E+00 -1.569417E-01
      2992   4 -7.233991E+00  3.588259E+01 -2.006453E+00 -1.555466E+01 -2.599283E+00 -1.787336E-03
      2992   5  7.288711E+00  7.459701E+01  4.777358E+00 -3.019312E+00  2.480059E+00 -4.362059E-01
      2992   6 -5.922938E+00  3.656842E+01 -1.232883E+00 -3.337878E+00  2.481215E+00 -1.087124E-01
      2992   7  5.851385E+00  7.378896E+01  3.521203E+00 -1.527487E+01  2.033366E+00 -4.380481E-01
      2992   8 -7.131213E+00  3.598942E+01 -1.954588E+00 -1.559344E+01  2.035254E+00 -9.017595E-02
      2993   1  6.532622E+00  1.811308E+01  3.821593E+00 -4.674920E+00 -1.978382E+00  7.352410E-02
      2993   2 -6.690209E+00 -1.993960E+01 -2.201825E+00 -4.717192E+00 -1.981236E+00  1.945029E-01
      2993   3  6.448142E+00  1.811287E+01  3.905355E+00 -1.704885E+01 -2.603885E+00  1.080099E-01
      2993   4 -6.539820E+00 -1.970495E+01 -1.570036E+00 -1.709112E+01 -2.606488E+00  2.528273E-01
      2993   5  6.596229E+00  1.826687E+01  3.892358E+00 -4.871922E+00  2.482266E+00  1.284169E-01
      2993   6 -6.569414E+00 -1.966829E+01 -2.057964E+00 -4.913877E+00  2.479425E+00  4.487727E-01
      2993   7  6.514751E+00  1.826827E+01  3.978503E+00 -1.710406E+01  2.045479E+00  1.632177E-01
      2993   8 -6.413878E+00 -1.942987E+01 -1.418787E+00 -1.714602E+01  2.042890E+00  5.076298E-01
      2994   1  5.792576E+00 -3.823315E+01  2.910519E+00 -2.972869E+00 -1.971847E+00  2.924697E-01
      2994   2 -7.332877E+00 -7.606731E+01 -3.006827E+00 -2.711575E+00 -1.978948E+00  4.391412E-01
      2994   3  7.175843E+00 -3.737074E+01  4.401938E+00 -1.528643E+01 -2.595566E+00  3.683826E-01
      2994   4 -5.709353E+00 -7.496465E+01 -9.548085E-01 -1.502514E+01 -2.604653E+00  5.392682E-01
      2994   5  5.883698E+00 -3.790590E+01  3.077573E+00 -3.144001E+00  2.494107E+00  6.943646E-01
      2994   6 -7.183581E+00 -7.562060E+01 -2.765325E+00 -2.885220E+00  2.486904E+00  1.044978E+00
      2994   7  7.254340E+00 -3.704644E+01  4.571789E+00 -1.531584E+01  2.063569E+00  7.709709E-01
      2994   8 -5.570488E+00 -7.451869E+01 -7.053898E-01 -1.505706E+01  2.054364E+00  1.146020E+00
      2995   1  5.039569E+00 -9.427144E+01  2.042822E+00  2.090502E+00 -1.886083E+00  5.696809E-01
      2995   2 -8.049431E+00 -1.318933E+02 -3.965336E+00  2.627401E+00 -1.889504E+00  7.796505E-01
      2995   3  7.799866E+00 -9.258139E+01  4.916004E+00 -1.013542E+01 -2.509185E+00  6.865622E-01
      2995   4 -5.050361E+00 -1.299645E+02 -5.350168E-01 -9.598516E+00 -2.516006E+00  9.180913E-01
      2995   5  5.197278E+00 -9.375545E+01  2.323071E+00  1.983338E+00  2.499900E+00  1.324307E+00
      2995   6 -7.838663E+00 -1.312697E+02 -3.615854E+00  2.515934E+00  2.496306E+00  1.736831E+00
      2995   7  7.933852E+00 -9.207094E+01  5.201524E+00 -1.010497E+01  2.068665E+00  1.442255E+00
      2995   8 -4.861135E+00 -1.293442E+02 -1.751755E-01 -9.572378E+00  2.061640E+00  1.876537E+00
      2996   1  8.389961E+00  1.403542E+02  6.856759E+00  3.089065E+00 -1.918811E+00 -3.231322E-01
      2996   2 -5.942215E+00  9.937570E+01  6.129911E-02  2.505116E+00 -1.925576E+00 -1.520830E-01
      2996   3  5.734880E+00  1.388631E+02  4.541713E+00 -1.019008E+01 -2.765507E+00 -3.481033E-01
      2996   4 -8.400438E+00  9.808152E+01 -1.794413E+00 -1.077403E+01 -2.775486E+00 -1.608133E-01
      2996   5  8.406274E+00  1.402473E+02  6.758237E+00  2.946330E+00  2.726717E+00 -8.462265E-01
      2996   6 -5.881955E+00  9.935393E+01  2.420991E-02  2.358313E+00  2.719738E+00 -5.080004E-01
      2996   7  5.749925E+00  1.387525E+02  4.431896E+00 -1.019233E+01  2.035168E+00 -8.714256E-01
      2996   8 -8.339648E+00  9.805778E+01 -1.838601E+00 -1.078035E+01  2.024946E+00 -5.168105E-01
      2997   1  7.454203E+00  7.964148E+01  5.412151E+00 -2.271656E+00 -2.024043E+00 -4.413420E-02
      2997   2 -6.752325E+00  3.878859E+01 -1.090046E+00 -2.653319E+00 -2.024537E+00  7.973802E-02
      2997   3  5.852611E+00  7.880070E+01  4.211122E+00 -1.555085E+01 -2.873036E+00 -3.787667E-02
      2997   4 -8.138327E+00  3.816339E+01 -1.788030E+00 -1.593251E+01 -2.872148E+00  1.107026E-01
      2997   5  7.533822E+00  7.968795E+01  5.418775E+00 -2.480267E+00  2.725881E+00 -2.716779E-01
      2997   6 -6.611439E+00  3.895885E+01 -1.003004E+00 -2.860182E+00  2.725479E+00  3.574083E-02
      2997   7  5.947856E+00  7.885245E+01  4.219743E+00 -1.560839E+01  2.047597E+00 -2.653632E-01
      2997   8 -7.979845E+00  3.834091E+01 -1.694396E+00 -1.598830E+01  2.048589E+00  6.698820E-02
      2998   1  6.674838E+00  1.908519E+01  4.375755E+00 -4.216817E+00 -2.029392E+00  1.680406E-01
      2998   2 -7.525575E+00 -2.178858E+01 -2.085186E+00 -4.391852E+00 -2.036928E+00  2.854154E-01
      2998   3  6.172858E+00  1.893212E+01  4.367514E+00 -1.750946E+01 -2.870566E+00  2.191610E-01
      2998   4 -7.797248E+00 -2.171134E+01 -1.556046E+00 -1.768449E+01 -2.873689E+00  3.668958E-01
      2998   5  6.786465E+00  1.932201E+01  4.492834E+00 -4.433645E+00  2.742443E+00  2.630912E-01
      2998   6 -7.340969E+00 -2.140193E+01 -1.874669E+00 -4.603095E+00  2.735201E+00  5.768052E-01
      2998   7  6.310307E+00  1.918058E+01  4.497549E+00 -1.756802E+01  2.084234E+00  3.146786E-01
      2998   8 -7.584717E+00 -2.131095E+01 -1.327665E+00 -1.773747E+01  2.081445E+00  6.590297E-01
      2999   1  6.069203E+00 -4.144513E+01  3.472235E+00 -2.659599E+00 -2.028028E+00  3.805475E-01
      2999   2 -8.143066E+00 -8.236875E+01 -2.978373E+00 -2.504890E+00 -2.042385E+00  5.230785E-01
      2999   3  7.119154E+00 -4.070358E+01  4.894130E+00 -1.597118E+01 -2.859880E+00  4.868397E-01
      2999   4 -6.855337E+00 -8.138942E+01 -1.001660E+00 -1.581647E+01 -2.872091E+00  6.667977E-01
      2999   5  6.206542E+00 -4.098249E+01  3.711151E+00 -2.838256E+00  2.757964E+00  8.181477E-01
      2999   6 -7.918835E+00 -8.172449E+01 -2.631442E+00 -2.680831E+00  2.743750E+00  1.163794E+00
      2999   7  7.265656E+00 -4.023435E+01  5.145851E+00 -1.598257E+01  2.115344E+00  9.254107E-01
      2999   8 -6.619769E+00 -8.073639E+01 -6.368559E-01 -1.582514E+01  2.103296E+00  1.308826E+00
      3000   1  5.326341E+00 -1.018057E+02  2.554651E+00  2.479927E+00 -1.947383E+00  6.503442E-01
      3000   2 -8.540137E+00 -1.417896E+02 -3.683032E+00  2.999590E+00 -1.957398E+00  8.555098E-01
      3000   3  8.059234E+00 -1.001087E+02  5.478414E+00 -1.053567E+01 -2.774772E+00  8.159355E-01
      3000   4 -5.575003E+00 -1.398604E+02 -2.173744E-01 -1.001601E+01 -2.787757E+00  1.043429E+00
      3000   5  5.538500E+00 -1.010810E+02  2.941967E+00  2.359074E+00  2.755518E+00  1.437672E+00
      3000   6 -8.270117E+00 -1.409505E+02 -3.217225E+00  2.874978E+00  2.745305E+00  1.840273E+00
      3000   7  8.250394E+00 -9.938818E+01  5.872738E+00 -1.051081E+01  2.112737E+00  1.604775E+00
      3000   8 -5.323862E+00 -1.390233E+02  2.603896E-01 -9.994904E+00  2.099527E+00  2.029909E+00
      3001   1  8.775755E+00  1.492174E+02  7.853593E+00  2.889494E+00 -1.953595E+00 -1.509571E-01
      3001   2 -6.759897E+00  1.049982E+02  2.872732E-01  2.256795E+00 -1.968137E+00 -1.813311E-02
      3001   3  6.420709E+00  1.479238E+02  5.896695E+00 -9.140912E+00 -2.703939E+00 -1.599416E-01
      3001   4 -8.961658E+00  1.038579E+02 -1.311960E+00 -9.773611E+00 -2.719412E+00 -2.016802E-03
      3001   5  8.810908E+00  1.491707E+02  7.776792E+00  2.853803E+00  2.955008E+00 -6.372411E-01
      3001   6 -6.656588E+00  1.050932E+02  2.960103E-01  2.219741E+00  2.940387E+00 -3.526843E-01
      3001   7  6.427255E+00  1.478699E+02  5.824319E+00 -9.360853E+00  2.347355E+00 -6.460675E-01
      3001   8 -8.889656E+00  1.039429E+02 -1.305096E+00 -9.994915E+00  2.331819E+00 -3.368518E-01
      3002   1  7.021731E+00  8.384829E+01  5.764233E+00 -2.484824E+00 -2.067329E+00  7.615330E-02
      3002   2 -7.768451E+00  4.115144E+01 -8.395185E-01 -3.047368E+00 -2.075932E+00  2.009246E-01
      3002   3  5.148932E+00  8.291926E+01  4.540255E+00 -1.418940E+01 -2.809656E+00  1.060051E-01
      3002   4 -9.458513E+00  4.040514E+01 -1.637110E+00 -1.475194E+01 -2.814683E+00  2.432017E-01
      3002   5  7.173818E+00  8.402758E+01  5.831035E+00 -2.570625E+00  2.976273E+00 -1.371955E-01
      3002   6 -7.573538E+00  4.140993E+01 -7.091681E-01 -3.127934E+00  2.967974E+00  1.669740E-01
      3002   7  5.290958E+00  8.309646E+01  4.610165E+00 -1.446946E+01  2.401322E+00 -1.078693E-01
      3002   8 -9.276879E+00  4.065833E+01 -1.511160E+00 -1.502676E+01  2.396537E+00  2.085067E-01
      3003   1  6.203752E+00  2.028391E+01  4.916729E+00 -4.876210E+00 -2.079281E+00  2.899210E-01
      3003   2 -8.892412E+00 -2.319856E+01 -1.921350E+00 -5.343938E+00 -2.095782E+00  4.082924E-01
      3003   3  4.932958E+00  1.979781E+01  4.567195E+00 -1.678195E+01 -2.808343E+00  3.460915E-01
      3003   4 -9.961012E+00 -2.348246E+01 -1.799099E+00 -1.724968E+01 -2.815827E+00  4.899950E-01
      3003   5  6.382500E+00  2.060044E+01  5.080410E+00 -4.948180E+00  3.009362E+00  3.946575E-01
      3003   6 -8.640402E+00 -2.273402E+01 -1.661478E+00 -5.402707E+00  2.993627E+00  7.125308E-01
      3003   7  5.124742E+00  2.011890E+01  4.733027E+00 -1.703540E+01  2.463837E+00  4.498389E-01
      3003   8 -9.699527E+00 -2.301692E+01 -1.545383E+00 -1.748993E+01  2.456962E+00  7.927949E-01
      3004   1  5.983421E+00 -4.412514E+01  4.142023E+00 -3.877852E+00 -2.087990E+00  5.052998E-01
      3004   2 -9.387639E+00 -8.829035E+01 -2.929638E+00 -3.915904E+00 -2.109353E+00  6.519577E-01
      3004   3  6.328309E+00 -4.371642E+01  5.159554E+00 -1.595465E+01 -2.799043E+00  6.089753E-01
      3004   4 -8.829708E+00 -8.766858E+01 -1.415007E+00 -1.599270E+01 -2.814641E+00  7.901318E-01
      3004   5  6.166124E+00 -4.359101E+01  4.424385E+00 -3.883870E+00  3.027391E+00  9.597384E-01
      3004   6 -9.111062E+00 -8.756134E+01 -2.529242E+00 -3.913482E+00  3.006519E+00  1.317249E+00
      3004   7  6.526191E+00 -4.318038E+01  5.433107E+00 -1.613400E+01  2.508727E+00  1.061588E+00
      3004   8 -8.541703E+00 -8.694141E+01 -1.032173E+00 -1.616362E+01  2.493518E+00  1.452990E+00
      3005   1  5.607624E+00 -1.091661E+02  3.132277E+00  1.498546E+00 -2.015579E+00  7.711773E-01
      3005   2 -9.547055E+00 -1.526748E+02 -3.874702E+00  2.095505E+00 -2.028236E+00  9.502332E-01
      3005   3  8.179932E+00 -1.075953E+02  5.795991E+00 -1.039362E+01 -2.725652E+00  9.365727E-01
      3005   4 -6.777888E+00 -1.509071E+02 -7.516514E-01 -9.796663E+00 -2.747638E+00  1.155500E+00
      3005   5  5.833422E+00 -1.083377E+02  3.569372E+00  1.528755E+00  3.005670E+00  1.585209E+00
      3005   6 -9.216961E+00 -1.516253E+02 -3.310987E+00  2.112055E+00  2.992220E+00  1.959779E+00
      3005   7  8.381891E+00 -1.067854E+02  6.195379E+00 -1.052672E+01  2.474358E+00  1.747692E+00
      3005   8 -6.475100E+00 -1.498796E+02 -2.337322E-01 -9.943421E+00  2.451743E+00  2.161432E+00
      3006   1  8.119753E+00  1.547822E+02  7.830849E+00  3.767275E+00 -2.238781E+00 -5.661876E-02
      3006   2 -7.655594E+00  1.096564E+02  3.720842E-01  3.224081E+00 -2.253447E+00  9.727395E-02
      3006   3  6.025973E+00  1.535997E+02  5.983036E+00 -8.542795E+00 -2.701227E+00  3.464768E-03
      3006   4 -9.610161E+00  1.086132E+02 -1.150900E+00 -9.085990E+00 -2.722947E+00  1.552377E-01
      3006   5  8.248858E+00  1.550732E+02  7.909722E+00  3.817839E+00  2.928325E+00 -5.403400E-01
      3006   6 -7.523549E+00  1.099443E+02  4.640221E-01  3.264318E+00  2.913274E+00 -2.506991E-01
      3006   7  6.104419E+00  1.538741E+02  6.056935E+00 -8.715535E+00  2.591818E+00 -4.813144E-01
      3006   8 -9.531227E+00  1.088818E+02 -1.069656E+00 -9.269056E+00  2.569837E+00 -1.937560E-01
      3007   1  5.905484E+00  8.778985E+01  5.930989E+00 -1.036051E+00 -2.343984E+00  1.974344E-01
      3007   2 -9.136741E+00  4.408903E+01 -5.089455E-01 -1.878813E+00 -2.358307E+00  3.171853E-01
      3007   3  3.185160E+00  8.648340E+01  4.296494E+00 -1.305597E+01 -2.815284E+00  2.567015E-01
      3007   4 -1.168550E+01  4.295415E+01 -1.743127E+00 -1.389874E+01 -2.826684E+00  3.821329E-01
      3007   5  6.096940E+00  8.811212E+01  6.061844E+00 -1.056385E+00  3.001239E+00 -3.945180E-02
      3007   6 -8.923452E+00  4.444977E+01 -3.437793E-01 -1.894868E+00  2.987075E+00  2.480456E-01
      3007   7  3.349388E+00  8.679648E+01  4.423932E+00 -1.328466E+01  2.682982E+00  1.877165E-02
      3007   8 -1.150246E+01  4.330268E+01 -1.588426E+00 -1.412314E+01  2.671690E+00  3.118495E-01
      3008   1  4.791113E+00  2.219620E+01  5.344739E+00 -4.423216E+00 -2.353106E+00  4.087352E-01
      3008   2 -1.103481E+01 -2.345234E+01 -1.759799E+00 -5.326698E+00 -2.373001E+00  5.391035E-01
      3008   3  2.198053E+00  2.111889E+01  4.346749E+00 -1.693135E+01 -2.804449E+00  4.811502E-01
      3008   4 -1.343343E+01 -2.433522E+01 -2.304087E+00 -1.783484E+01 -2.817665E+00  6.262393E-01
      3008   5  5.013629E+00  2.259631E+01  5.537151E+00 -4.413889E+00  3.066153E+00  4.707485E-01
      3008   6 -1.076936E+01 -2.296621E+01 -1.510312E+00 -5.307594E+00  3.046623E+00  7.916865E-01
      3008   7  2.401195E+00  2.151009E+01  4.528862E+00 -1.712783E+01  2.787050E+00  5.418883E-01
      3008   8 -1.319078E+01 -2.386140E+01 -2.072888E+00 -1.802154E+01  2.774081E+00  8.772880E-01
      3009   1  5.238638E+00 -4.572328E+01  4.774659E+00 -4.632761E+00 -2.364348E+00  6.405848E-01
      3009   2 -1.168790E+01 -9.401108E+01 -3.359343E+00 -5.060885E+00 -2.392091E+00  7.874689E-01
      3009   3  4.385896E+00 -4.585777E+01  5.179096E+00 -1.778623E+01 -2.805808E+00  7.437833E-01
      3009   4 -1.232457E+01 -9.392950E+01 -2.450740E+00 -1.821435E+01 -2.828093E+00  9.198304E-01
      3009   5  5.435720E+00 -4.519458E+01  5.030615E+00 -4.548827E+00  3.100056E+00  1.040689E+00
      3009   6 -1.141499E+01 -9.332117E+01 -3.011846E+00 -4.968960E+00  3.072611E+00  1.400038E+00
      3009   7  4.577211E+00 -4.533561E+01  5.419023E+00 -1.790162E+01  2.848640E+00  1.142070E+00
      3009   8 -1.206124E+01 -9.324993E+01 -2.128150E+00 -1.832175E+01  2.826556E+00  1.530068E+00
      3010   1  5.849902E+00 -1.162019E+02  3.520411E+00  5.607904E-01 -2.309901E+00  9.142255E-01
      3010   2 -1.070235E+01 -1.634232E+02 -4.432447E+00  1.134595E+00 -2.337867E+00  1.113647E+00
      3010   3  8.303533E+00 -1.147109E+02  6.036697E+00 -1.230236E+01 -2.742474E+00  1.067724E+00
      3010   4 -8.058492E+00 -1.617420E+02 -1.472296E+00 -1.172856E+01 -2.774812E+00  1.295732E+00
      3010   5  6.013016E+00 -1.154660E+02  3.862830E+00  6.983306E-01  3.033940E+00  1.673086E+00
      3010   6 -1.046609E+01 -1.625305E+02 -4.003044E+00  1.265736E+00  3.005735E+00  2.059719E+00
      3010   7  8.464176E+00 -1.139838E+02  6.352265E+00 -1.235966E+01  2.769826E+00  1.823882E+00
      3010   8 -7.828050E+00 -1.608614E+02 -1.077560E+00 -1.179225E+01  2.737326E+00  2.238598E+00
      3011   1  6.660966E+00  1.573563E+02  6.606901E+00  5.556770E+00 -2.475107E+00  1.064159E-01
      3011   2 -8.282283E+00  1.138367E+02  3.156467E-01  5.249211E+00 -2.496787E+00  1.831731E-01
      3011   3  5.162075E+00  1.563734E+02  4.829437E+00 -6.428671E+00 -2.703532E+00  2.007364E-01
      3011   4 -9.606517E+00  1.130285E+02 -1.054286E+00 -6.736230E+00 -2.731459E+00  2.743513E-01
      3011   5  6.781007E+00  1.577941E+02  6.749398E+00  5.664471E+00  2.927761E+00 -4.728997E-01
      3011   6 -8.164941E+00  1.142626E+02  4.610456E-01  5.347767E+00  2.905931E+00 -2.257631E-01
      3011   7  5.249095E+00  1.568030E+02  4.977768E+00 -6.539718E+00  2.848271E+00 -3.802400E-01
      3011   8 -9.525272E+00  1.134431E+02 -9.102288E-01 -6.856422E+00  2.820304E+00 -1.361904E-01
      3012   1  3.550728E+00  9.172657E+01  5.623165E+00  1.334087E+00 -2.562160E+00  2.635563E-01
      3012   2 -1.123543E+01  4.824391E+01 -1.813716E-01  1.658275E-01 -2.580178E+00  4.064099E-01
      3012   3 -1.868683E-01  8.994893E+01  3.435303E+00 -1.070176E+01 -2.719490E+00  3.541222E-01
      3012   4 -1.483734E+01  4.660196E+01 -2.052626E+00 -1.187002E+01 -2.739989E+00  4.984455E-01
      3012   5  3.747348E+00  9.218541E+01  5.806976E+00  1.391811E+00  3.044528E+00 -3.453296E-02
      3012   6 -1.103232E+01  4.871354E+01  1.328194E-02  2.199198E-01  3.026450E+00  2.407811E-01
      3012   7 -5.715924E-02  9.038219E+01  3.600757E+00 -1.085792E+01  3.005269E+00  5.443833E-02
      3012   8 -1.470353E+01  4.704362E+01 -1.881905E+00 -1.202981E+01  2.984754E+00  3.311961E-01
      3013   1  2.132787E+00  2.556992E+01  5.659581E+00 -3.689683E+00 -2.553424E+00  5.149787E-01
      3013   2 -1.429587E+01 -2.192424E+01 -1.608447E+00 -5.034031E+00 -2.572973E+00  6.687403E-01
      3013   3 -1.873031E+00  2.381948E+01  3.830597E+00 -1.671913E+01 -2.701959E+00  6.106599E-01
      3013   4 -1.812846E+01 -2.350146E+01 -3.033232E+00 -1.806348E+01 -2.720396E+00  7.729121E-01
      3013   5  2.352584E+00  2.606351E+01  5.871141E+00 -3.615911E+00  3.164781E+00  4.597893E-01
      3013   6 -1.405326E+01 -2.138299E+01 -1.368522E+00 -4.958631E+00  3.145259E+00  7.828169E-01
      3013   7 -1.718073E+00  2.428587E+01  4.016344E+00 -1.686828E+01  3.165865E+00  5.537858E-01
      3013   8 -1.795374E+01 -2.299044E+01 -2.826235E+00 -1.821100E+01  3.147435E+00  8.851544E-01
      3014   1  3.323364E+00 -4.557304E+01  5.359247E+00 -6.092048E+00 -2.564411E+00  7.934101E-01
      3014   2 -1.531540E+01 -9.834748E+01 -3.995514E+00 -7.169635E+00 -2.596422E+00  9.802524E-01
      3014   3  4.100437E-01 -4.667852E+01  4.587632E+00 -2.040919E+01 -2.701321E+00  9.052163E-01
      3014   4 -1.803017E+01 -9.925442E+01 -4.303858E+00 -2.148677E+01 -2.728398E+00  1.104426E+00
      3014   5  3.512311E+00 -4.502098E+01  5.591989E+00 -5.952897E+00  3.230779E+00  1.040475E+00
      3014   6 -1.509452E+01 -9.772728E+01 -3.724471E+00 -7.023260E+00  3.198886E+00  1.421384E+00
      3014   7  5.594656E-01 -4.614592E+01  4.795037E+00 -2.051119E+01  3.264674E+00  1.150313E+00
      3014   8 -1.785231E+01 -9.865717E+01 -4.066310E+00 -2.158155E+01  3.237629E+00  1.543371E+00
      3015   1  5.961131E+00 -1.229943E+02  3.729629E+00 -1.704374E+00 -2.541646E+00  1.095324E+00
      3015   2 -1.419166E+01 -1.790933E+02 -7.347316E+00 -1.232541E+00 -2.580073E+00  1.222863E+00
      3015   3  7.967508E+00 -1.217795E+02  5.772569E+00 -1.678089E+01 -2.745662E+00  1.232398E+00
      3015   4 -1.191346E+01 -1.776067E+02 -4.670136E+00 -1.630906E+01 -2.790550E+00  1.382815E+00
      3015   5  6.075032E+00 -1.223636E+02  3.978899E+00 -1.507833E+00  3.125302E+00  1.704790E+00
      3015   6 -1.402098E+01 -1.783389E+02 -7.032554E+00 -1.045456E+00  3.086719E+00  2.098158E+00
      3015   7  8.067040E+00 -1.211612E+02  5.994849E+00 -1.682597E+01  3.151793E+00  1.839450E+00
      3015   8 -1.176194E+01 -1.768694E+02 -4.393531E+00 -1.636360E+01  3.106865E+00  2.255294E+00
      3016   1  6.059562E-01  2.423303E+01  2.905222E+00 -3.903275E+00  3.913420E+00 -1.182126E+01
      3016   2 -1.082267E+00  1.892242E+01  2.588426E+00 -4.292037E+00  3.630284E+00 -8.252064E+00
      3016   3 -1.827969E+00  2.247157E+01 -5.323906E-01 -5.469740E+00  1.838579E+00 -1.005454E+01
      3016   4 -3.388682E+00  1.728847E+01 -5.516626E-01 -5.858502E+00  1.569115E+00 -6.831118E+00
      3016   5  3.132303E+00  3.249109E+01  6.154171E+00 -4.409774E+00  4.792391E+00 -1.302288E+01
      3016   6  7.064703E-01  2.546045E+01  5.098703E+00 -4.779113E+00  4.509169E+00 -9.330756E+00
      3016   7  7.592185E-01  3.076798E+01  2.783549E+00 -6.435691E+00  2.883444E+00 -1.128634E+01
      3016   8 -1.541283E+00  2.386267E+01  2.020520E+00 -6.805030E+00  2.613662E+00 -7.934091E+00
      3017   1  1.942630E+00  1.583838E+01  3.494039E+00 -7.786994E+00  5.995590E+00 -5.890237E+00
      3017   2 -1.633339E+00  6.925378E+00  4.871448E-01 -7.913566E+00  5.749807E+00 -3.006806E+00
      3017   3  6.389043E-01  1.475359E+01  1.181808E+00 -1.009494E+01  3.289901E+00 -4.799035E+00
      3017   4 -2.493520E+00  6.284136E+00 -7.901493E-01 -1.022151E+01  3.023302E+00 -2.470701E+00
      3017   5  3.195884E+00  2.080780E+01  5.370820E+00 -8.211970E+00  6.368936E+00 -6.768912E+00
      3017   6 -1.565713E+00  9.132028E+00  1.174599E+00 -8.368113E+00  6.123283E+00 -3.461944E+00
      3017   7  1.810158E+00  1.969685E+01  3.053409E+00 -1.125391E+01  4.081156E+00 -5.696355E+00
      3017   8 -2.515473E+00  8.457052E+00 -1.255599E-01 -1.141005E+01  3.815043E+00 -2.935000E+00
      3018   1  1.688044E+00  3.245536E+00  1.020667E+00 -9.908560E+00  6.119281E+00 -1.011213E+00
      3018   2 -1.348476E+00 -4.617840E+00 -1.237690E+00 -9.910457E+00  6.113611E+00  1.557416E+00
      3018   3  1.498322E+00  3.059095E+00  5.889179E-01 -1.199588E+01  3.314265E+00 -8.494468E-01
      3018   4 -1.181093E+00 -4.447176E+00 -8.361941E-01 -1.199778E+01  3.326111E+00  1.251569E+00
      3018   5  2.009056E+00  4.040353E+00  1.357410E+00 -1.064520E+01  6.622954E+00 -1.186466E+00
      3018   6 -2.026130E+00 -6.150267E+00 -1.902591E+00 -1.062221E+01  6.617174E+00  1.723289E+00
      3018   7  1.899012E+00  3.889855E+00  9.657969E-01 -1.335332E+01  4.162846E+00 -1.027464E+00
      3018   8 -1.785171E+00 -5.949761E+00 -1.475198E+00 -1.333033E+01  4.174283E+00  1.422667E+00
      3019   1  1.346781E+00 -8.167441E+00 -8.740440E-01 -8.865393E+00  5.983018E+00  3.387767E+00
      3019   2 -1.680784E+00 -1.575647E+01 -3.376901E+00 -8.663676E+00  6.179101E+00  5.819748E+00
      3019   3  2.415050E+00 -7.448094E+00  4.555105E-01 -1.083795E+01  3.237156E+00  2.757343E+00
      3019   4 -1.922664E-01 -1.461687E+01 -1.066765E+00 -1.063623E+01  3.491210E+00  4.770177E+00
      3019   5  8.622991E-01 -1.093550E+01 -1.854769E+00 -9.728217E+00  6.328088E+00  3.825138E+00
      3019   6 -3.061051E+00 -2.061119E+01 -5.256915E+00 -9.444146E+00  6.523808E+00  6.657743E+00
      3019   7  2.186988E+00 -1.011073E+01 -4.302150E-01 -1.225900E+01  3.979227E+00  3.205486E+00
      3019   8 -1.323294E+00 -1.937335E+01 -2.868535E+00 -1.197493E+01  4.231927E+00  5.626107E+00
      3020   1  7.434010E-01 -1.844636E+01 -2.576609E+00 -4.816060E+00  3.782388E+00  7.847625E+00
      3020   2 -6.064543E-01 -2.292071E+01 -2.601778E+00 -4.338321E+00  3.954086E+00  1.095591E+01
      3020   3  3.261574E+00 -1.675456E+01  5.445520E-01 -6.167213E+00  1.742398E+00  6.564067E+00
      3020   4  2.021803E+00 -2.111882E+01  7.762456E-01 -5.689474E+00  1.947858E+00  9.452233E+00
      3020   5 -1.238046E+00 -2.450913E+01 -5.001498E+00 -5.587377E+00  4.630781E+00  8.870923E+00
      3020   6 -3.057633E+00 -3.007861E+01 -5.497317E+00 -5.061674E+00  4.802267E+00  1.208484E+01
      3020   7  1.434663E+00 -2.276157E+01 -1.848999E+00 -7.237164E+00  2.738436E+00  7.609298E+00
      3020   8 -2.767214E-01 -2.822284E+01 -2.092344E+00 -6.711461E+00  2.943108E+00  1.060686E+01
      3021   1  1.055234E+00  3.173092E+01  2.212273E+00 -2.390453E+00  7.487781E-01 -1.155613E+01
      3021   2 -2.147293E+00  2.267283E+01  5.952783E-01 -2.874032E+00  4.967536E-01 -7.901657E+00
      3021   3 -7.986492E-01  3.071351E+01  6.747871E-01 -4.922630E+00  1.068867E-01 -9.848641E+00
      3021   4 -3.978969E+00  2.167762E+01 -8.903887E-01 -5.406209E+00 -1.165640E-01 -6.634165E+00
      3021   5  3.551684E+00  3.973923E+01  5.387938E+00 -2.560751E+00  1.856984E+00 -1.198675E+01
      3021   6 -5.892153E-01  2.849266E+01  2.831510E+00 -3.003737E+00  1.603935E+00 -8.295472E+00
      3021   7  1.804030E+00  3.877116E+01  3.908674E+00 -5.686937E+00  1.289481E+00 -1.030844E+01
      3021   8 -2.315042E+00  2.754641E+01  1.403179E+00 -6.129923E+00  1.064517E+00 -7.049638E+00
      3022   1  1.703664E+00  1.851651E+01  1.931165E+00 -7.498911E+00  1.751747E+00 -5.599874E+00
      3022   2 -1.847559E+00  8.815861E+00 -2.055999E-01 -7.723366E+00  1.509164E+00 -2.965754E+00
      3022   3  7.132883E-01  1.791438E+01  9.144626E-01 -1.015816E+01  5.063661E-01 -4.653389E+00
      3022   4 -2.704652E+00  8.347021E+00 -9.113069E-01 -1.038262E+01  3.446411E-01 -2.456284E+00
      3022   5  2.645588E+00  2.276819E+01  3.508570E+00 -7.880379E+00  2.726056E+00 -5.928280E+00
      3022   6 -1.841645E+00  1.088989E+01  4.294240E-01 -7.989968E+00  2.480575E+00 -3.152265E+00
      3022   7  2.002467E+00  2.231793E+01  2.650810E+00 -1.113213E+01  1.634770E+00 -4.997967E+00
      3022   8 -2.353760E+00  1.057064E+01 -1.226539E-01 -1.124172E+01  1.468765E+00 -2.651500E+00
      3023   1  2.041173E+00  4.508857E+00  1.038350E+00 -9.461599E+00  1.747784E+00 -1.115228E+00
      3023   2 -1.464769E+00 -5.135182E+00 -1.004087E+00 -9.492393E+00  1.766052E+00  1.306384E+00
      3023   3  1.865245E+00  4.386195E+00  8.054033E-01 -1.211595E+01  5.161259E-01 -9.263037E-01
      3023   4 -1.514608E+00 -5.131754E+00 -9.428225E-01 -1.214675E+01  5.327779E-01  1.056574E+00
      3023   5  2.523238E+00  5.483964E+00  1.480641E+00 -9.813505E+00  2.745303E+00 -1.200335E+00
      3023   6 -1.922120E+00 -6.346017E+00 -1.507238E+00 -9.846595E+00  2.763629E+00  1.356421E+00
      3023   7  2.340032E+00  5.358991E+00  1.247268E+00 -1.306242E+01  1.658197E+00 -1.014639E+00
      3023   8 -1.981390E+00 -6.347055E+00 -1.451428E+00 -1.309551E+01  1.674934E+00  1.110880E+00
      3024   1  2.052865E+00 -9.413372E+00  1.019235E-01 -8.241911E+00  1.694269E+00  3.069598E+00
      3024   2 -1.267810E+00 -1.850198E+01 -1.878381E+00 -8.038471E+00  1.942656E+00  5.465176E+00
      3024   3  2.816512E+00 -9.001627E+00  7.107610E-01 -1.073619E+01  4.657098E-01  2.523126E+00
      3024   4 -3.449127E-01 -1.793099E+01 -8.979600E-01 -1.053275E+01  6.407412E-01  4.546943E+00
      3024   5  1.992247E+00 -1.166042E+01 -5.995623E-01 -8.708275E+00  2.617043E+00  3.229183E+00
      3024   6 -2.126319E+00 -2.260317E+01 -3.385371E+00 -8.609043E+00  2.868059E+00  5.788909E+00
      3024   7  2.443143E+00 -1.138416E+01 -1.295718E-01 -1.171062E+01  1.561724E+00  2.692049E+00
      3024   8 -1.518894E+00 -2.217037E+01 -2.550146E+00 -1.161138E+01  1.740638E+00  4.886366E+00
      3025   1  1.949343E+00 -2.257467E+01 -7.756407E-01 -3.281979E+00  6.622669E-01  7.591541E+00
      3025   2 -1.049304E+00 -3.108803E+01 -2.257770E+00 -2.751474E+00  8.745531E-01  1.100530E+01
      3025   3  3.936497E+00 -2.150516E+01  8.022342E-01 -5.666757E+00 -6.659208E-03  6.401076E+00
      3025   4  9.813328E-01 -2.997504E+01 -5.784354E-01 -5.136252E+00  1.935147E-01  9.442845E+00
      3025   5  3.862465E-01 -2.808429E+01 -2.921147E+00 -3.580339E+00  1.723112E+00  7.995310E+00
      3025   6 -3.406631E+00 -3.844878E+01 -5.199586E+00 -3.067039E+00  1.935833E+00  1.146359E+01
      3025   7  2.341811E+00 -2.703204E+01 -1.369220E+00 -6.471560E+00  1.144289E+00  6.825187E+00
      3025   8 -1.408327E+00 -3.735379E+01 -3.547932E+00 -5.958261E+00  1.345104E+00  9.927829E+00
      3026   1  2.664465E+00  4.170569E+01  4.166668E+00 -2.026142E+00 -3.832828E-01 -8.593997E+00
      3026   2 -1.796299E+00  2.953034E+01  1.472814E+00 -2.614281E+00 -5.715161E-01 -6.043294E+00
      3026   3 -6.881833E-04  4.005788E+01  1.339103E+00 -5.362235E+00 -5.063285E-01 -7.388558E+00
      3026   4 -4.244755E+00  2.809922E+01 -8.491241E-01 -5.950374E+00 -6.388228E-01 -5.164010E+00
      3026   5  4.348970E+00  4.735340E+01  6.466704E+00 -1.922677E+00  8.529218E-01 -9.510860E+00
      3026   6 -8.209749E-01  3.354219E+01  3.044759E+00 -2.431634E+00  6.610407E-01 -6.733586E+00
      3026   7  1.911845E+00  4.581195E+01  3.765663E+00 -5.724459E+00  9.448911E-01 -8.326018E+00
      3026   8 -3.045107E+00  3.221374E+01  8.407048E-01 -6.233416E+00  8.077965E-01 -5.869326E+00
      3027   1  2.631669E+00  2.389138E+01  2.789012E+00 -7.487894E+00 -2.546539E-01 -4.366404E+00
      3027   2 -1.864566E+00  1.163748E+01  5.545445E-02 -7.794474E+00 -3.684303E-01 -2.335756E+00
      3027   3  1.198251E+00  2.298827E+01  1.212062E+00 -1.084261E+01 -5.338690E-01 -3.715687E+00
      3027   4 -3.070078E+00  1.096228E+01 -9.897139E-01 -1.114919E+01 -6.068541E-01 -1.983343E+00
      3027   5  3.491787E+00  2.692006E+01  4.012980E+00 -7.549028E+00  9.564835E-01 -4.887616E+00
      3027   6 -1.655017E+00  1.316805E+01  6.089668E-01 -7.797659E+00  8.400374E-01 -2.621604E+00
      3027   7  2.229333E+00  2.609515E+01  2.525750E+00 -1.133494E+01  8.957703E-01 -4.248018E+00
      3027   8 -2.693459E+00  1.256716E+01 -3.555692E-01 -1.158357E+01  8.194185E-01 -2.275213E+00
      3028   1  2.439527E+00  5.942526E+00  1.330487E+00 -9.551173E+00 -2.440730E-01 -9.196312E-01
      3028   2 -2.011289E+00 -6.236517E+00 -1.326523E+00 -9.581300E+00 -2.294302E-01  9.186453E-01
      3028   3  2.235354E+00  5.790465E+00  1.027790E+00 -1.289316E+01 -5.475106E-01 -7.830616E-01
      3028   4 -1.993956E+00 -6.167072E+00 -1.112373E+00 -1.292329E+01 -5.366647E-01  7.638238E-01
      3028   5  2.795926E+00  6.653807E+00  1.663608E+00 -9.661205E+00  9.777329E-01 -1.035565E+00
      3028   6 -2.290309E+00 -6.988551E+00 -1.648150E+00 -9.696726E+00  9.926242E-01  1.031561E+00
      3028   7  2.575486E+00  6.495878E+00  1.357616E+00 -1.342553E+01  8.851695E-01 -9.013293E-01
      3028   8 -2.293028E+00 -6.928759E+00 -1.446126E+00 -1.346105E+01  8.963288E-01  8.793852E-01
      3029   1  2.078027E+00 -1.192876E+01 -1.275797E-01 -8.061618E+00 -2.836716E-01  2.300403E+00
      3029   2 -2.296044E+00 -2.387139E+01 -2.765185E+00 -7.789820E+00 -1.545512E-01  4.237158E+00
      3029   3  3.176860E+00 -1.130007E+01  8.692155E-01 -1.133456E+01 -5.577016E-01  1.939344E+00
      3029   4 -9.609581E-01 -2.300645E+01 -1.217133E+00 -1.106276E+01 -4.728753E-01  3.604038E+00
      3029   5  1.910265E+00 -1.347646E+01 -6.735376E-01 -8.147785E+00  9.070802E-01  2.585498E+00
      3029   6 -3.058999E+00 -2.678726E+01 -3.926952E+00 -7.938911E+00  1.039099E+00  4.763804E+00
      3029   7  2.824897E+00 -1.292941E+01  2.353287E-01 -1.181770E+01  8.574628E-01  2.230608E+00
      3029   8 -1.912151E+00 -2.600799E+01 -2.476248E+00 -1.160883E+01  9.459448E-01  4.141503E+00
      3030   1  1.751831E+00 -2.950146E+01 -1.587667E+00 -2.831294E+00 -4.927774E-01  5.850922E+00
      3030   2 -2.614839E+00 -4.142607E+01 -4.218625E+00 -2.230442E+00 -3.179680E-01  8.323052E+00
      3030   3  4.251587E+00 -2.804103E+01  7.806715E-01 -6.099643E+00 -5.936312E-01  5.008142E+00
      3030   4  1.092858E-01 -3.974127E+01 -1.326759E+00 -5.498791E+00 -4.679989E-01  7.179531E+00
      3030   5  7.972900E-01 -3.335672E+01 -3.107852E+00 -2.723218E+00  7.193995E-01  6.550964E+00
      3030   6 -4.224911E+00 -4.679132E+01 -6.413919E+00 -2.192227E+00  8.974272E-01  9.255267E+00
      3030   7  3.101880E+00 -3.198658E+01 -8.453182E-01 -6.424312E+00  8.387715E-01  5.722585E+00
      3030   8 -1.699786E+00 -4.520065E+01 -3.636804E+00 -5.893321E+00  9.684625E-01  8.131286E+00
      3031   1  3.618636E+00  5.209958E+01  4.647462E+00 -1.437794E+00 -9.377678E-01 -6.278201E+00
      3031   2 -1.826976E+00  3.705138E+01  1.543624E+00 -1.975049E+00 -1.043057E+00 -4.496182E+00
      3031   3  6.222646E-01  5.015738E+01  1.169843E+00 -6.148214E+00 -8.204183E-01 -5.443062E+00
      3031   4 -4.531467E+00  3.540106E+01 -1.252942E+00 -6.685470E+00 -8.984312E-01 -3.880403E+00
      3031   5  4.716847E+00  5.568929E+01  6.207482E+00 -1.384200E+00  6.344648E-01 -7.329715E+00
      3031   6 -1.174357E+00  3.963133E+01  2.628096E+00 -1.886381E+00  5.270764E-01 -5.280585E+00
      3031   7  1.846085E+00  5.379481E+01  2.763339E+00 -6.325508E+00  9.819513E-01 -6.486826E+00
      3031   8 -3.750530E+00  3.803144E+01 -1.286738E-01 -6.827688E+00  9.020920E-01 -4.659091E+00
      3032   1  3.338282E+00  2.991372E+01  3.175952E+00 -6.865368E+00 -1.040594E+00 -3.291441E+00
      3032   2 -2.175133E+00  1.471684E+01 -5.223246E-03 -7.159302E+00 -1.093283E+00 -1.782044E+00
      3032   3  1.682808E+00  2.883498E+01  1.235653E+00 -1.161546E+01 -9.600987E-01 -2.832086E+00
      3032   4 -3.539164E+00  1.392956E+01 -1.265489E+00 -1.190939E+01 -9.959699E-01 -1.530688E+00
      3032   5  3.966583E+00  3.189913E+01  4.046281E+00 -6.997474E+00  5.162160E-01 -3.880761E+00
      3032   6 -1.970476E+00  1.574366E+01  4.115492E-01 -7.269781E+00  4.622324E-01 -2.105501E+00
      3032   7  2.387972E+00  3.084991E+01  2.127500E+00 -1.196388E+01  8.276246E-01 -3.417143E+00
      3032   8 -3.254940E+00  1.498859E+01 -8.208873E-01 -1.223619E+01  7.906150E-01 -1.851813E+00
      3033   1  2.868357E+00  7.506475E+00  1.569767E+00 -8.883282E+00 -1.069463E+00 -7.237965E-01
      3033   2 -2.605580E+00 -7.609930E+00 -1.560284E+00 -8.904270E+00 -1.061533E+00  6.579912E-01
      3033   3  2.654125E+00  7.333425E+00  1.207167E+00 -1.361326E+01 -1.002829E+00 -6.232836E-01
      3033   4 -2.530503E+00 -7.493671E+00 -1.247832E+00 -1.363425E+01 -9.975075E-01  5.543944E-01
      3033   5  3.102378E+00  7.982318E+00  1.801694E+00 -9.099337E+00  4.901941E-01 -8.534087E-01
      3033   6 -2.787537E+00 -8.075010E+00 -1.774028E+00 -9.123681E+00  4.983250E-01  7.921123E-01
      3033   7  2.876076E+00  7.803342E+00  1.431408E+00 -1.404096E+01  7.864979E-01 -7.519629E-01
      3033   8 -2.721846E+00 -7.961993E+00 -1.462997E+00 -1.406531E+01  7.919957E-01  6.875540E-01
      3034   1  2.322291E+00 -1.482706E+01 -2.778423E-02 -7.280839E+00 -1.064032E+00  1.705415E+00
      3034   2 -3.136124E+00 -2.988347E+01 -3.166099E+00 -7.014231E+00 -1.002243E+00  3.185242E+00
      3034   3  3.598672E+00 -1.407381E+01  1.206690E+00 -1.198900E+01 -9.823182E-01  1.454409E+00
      3034   4 -1.565028E+00 -2.883550E+01 -1.243954E+00 -1.172240E+01 -9.400601E-01  2.735618E+00
      3034   5  2.150490E+00 -1.583879E+01 -4.309967E-01 -7.419319E+00  4.835520E-01  2.034144E+00
      3034   6 -3.713729E+00 -3.181182E+01 -4.005361E+00 -7.177827E+00  5.468444E-01  3.781918E+00
      3034   7  3.336354E+00 -1.512241E+01  7.710645E-01 -1.233247E+01  7.991050E-01  1.780809E+00
      3034   8 -2.230414E+00 -3.079799E+01 -2.109248E+00 -1.209097E+01  8.426852E-01  3.328121E+00
      3035   1  1.829883E+00 -3.703970E+01 -1.613472E+00 -2.066215E+00 -1.016689E+00  4.373086E+00
      3035   2 -3.590717E+00 -5.201151E+01 -4.710332E+00 -1.528979E+00 -9.143091E-01  6.138509E+00
      3035   3  4.546372E+00 -3.537735E+01  1.211214E+00 -6.751431E+00 -8.858326E-01  3.772906E+00
      3035   4 -5.784907E-01 -5.005342E+01 -1.195591E+00 -6.214195E+00 -8.086646E-01  5.325621E+00
      3035   5  1.193691E+00 -3.955583E+01 -2.675479E+00 -2.000490E+00  5.424200E-01  5.166630E+00
      3035   6 -4.659967E+00 -5.550775E+01 -6.235749E+00 -1.495675E+00  6.467406E-01  7.201960E+00
      3035   7  3.791005E+00 -3.793993E+01  1.135425E-01 -6.908510E+00  9.068517E-01  4.560880E+00
      3035   8 -1.764171E+00 -5.359337E+01 -2.750269E+00 -6.403695E+00  9.857264E-01  6.381528E+00
      3036   1  4.457189E+00  6.289572E+01  4.630059E+00 -8.718596E-01 -1.177919E+00 -4.752682E+00
      3036   2 -2.036142E+00  4.471450E+01  1.166838E+00 -1.432057E+00 -1.237250E+00 -3.421277E+00
      3036   3  1.386472E+00  6.092419E+01  1.129013E+00 -6.605193E+00 -1.029027E+00 -4.268837E+00
      3036   4 -4.818508E+00  4.303132E+01 -1.661389E+00 -7.165390E+00 -1.067730E+00 -3.055444E+00
      3036   5  5.084699E+00  6.498227E+01  5.565371E+00 -9.260714E-01  7.808998E-01 -5.765581E+00
      3036   6 -1.653828E+00  4.625235E+01  1.833539E+00 -1.459741E+00  7.203120E-01 -4.179788E+00
      3036   7  2.111275E+00  6.304636E+01  2.085744E+00 -6.754202E+00  1.160179E+00 -5.277246E+00
      3036   8 -4.336225E+00  4.460746E+01 -9.670247E-01 -7.287872E+00  1.120411E+00 -3.810560E+00
      3037   1  3.877940E+00  3.597890E+01  3.196269E+00 -6.378381E+00 -1.320650E+00 -2.514776E+00
      3037   2 -2.620838E+00  1.780130E+01 -2.887194E-01 -6.658781E+00 -1.348198E+00 -1.369574E+00
      3037   3  2.268594E+00  3.491974E+01  1.275080E+00 -1.210727E+01 -1.146842E+00 -2.237780E+00
      3037   4 -3.938616E+00  1.703371E+01 -1.529584E+00 -1.238767E+01 -1.166619E+00 -1.217271E+00
      3037   5  4.272995E+00  3.718843E+01  3.745889E+00 -6.617402E+00  6.257106E-01 -3.085903E+00
      3037   6 -2.484061E+00  1.843185E+01 -2.105266E-02 -6.887808E+00  5.976896E-01 -1.683149E+00
      3037   7  2.700501E+00  3.614163E+01  1.829065E+00 -1.244948E+01  1.032930E+00 -2.806337E+00
      3037   8 -3.762281E+00  1.767933E+01 -1.251238E+00 -1.271989E+01  1.012753E+00 -1.529432E+00
      3038   1  3.307588E+00  9.078764E+00  1.743461E+00 -8.345772E+00 -1.368431E+00 -5.648501E-01
      3038   2 -3.181865E+00 -9.081904E+00 -1.727383E+00 -8.358015E+00 -1.364842E+00  4.884943E-01
      3038   3  3.124021E+00  8.919219E+00  1.395215E+00 -1.407093E+01 -1.191601E+00 -5.034025E-01
      3038   4 -3.073907E+00 -8.949922E+00 -1.395404E+00 -1.408317E+01 -1.188940E+00  4.264138E-01
      3038   5  3.447900E+00  9.369588E+00  1.887742E+00 -8.676933E+00  5.798784E-01 -6.899223E-01
      3038   6 -3.297582E+00 -9.364807E+00 -1.862803E+00 -8.690370E+00  5.835241E-01  6.208677E-01
      3038   7  3.259344E+00  9.207155E+00  1.534855E+00 -1.450386E+01  9.902472E-01 -6.279045E-01
      3038   8 -3.191906E+00 -9.233009E+00 -1.529150E+00 -1.451729E+01  9.929560E-01  5.582111E-01
      3039   1  2.695514E+00 -1.781163E+01  2.842620E-01 -6.698701E+00 -1.342693E+00  1.290845E+00
      3039   2 -3.785579E+00 -3.594153E+01 -3.189483E+00 -6.435222E+00 -1.310576E+00  2.429564E+00
      3039   3  3.964071E+00 -1.706006E+01  1.520944E+00 -1.241287E+01 -1.165183E+00  1.138714E+00
      3039   4 -2.224341E+00 -3.489728E+01 -1.269877E+00 -1.214939E+01 -1.141670E+00  2.154938E+00
      3039   5  2.575012E+00 -1.843488E+01  2.272928E-02 -6.934654E+00  5.991553E-01  1.612022E+00
      3039   6 -4.160188E+00 -3.713393E+01 -3.728887E+00 -6.682237E+00  6.317961E-01  3.009114E+00
      3039   7  3.800988E+00 -1.769963E+01  1.247594E+00 -1.274939E+01  1.011079E+00  1.458479E+00
      3039   8 -2.638814E+00 -3.610328E+01 -1.814761E+00 -1.249698E+01  1.035037E+00  2.731940E+00
      3040   1  2.049282E+00 -4.469501E+01 -1.197390E+00 -1.456061E+00 -1.232395E+00  3.333239E+00
      3040   2 -4.447738E+00 -6.287402E+01 -4.675112E+00 -8.999686E-01 -1.172587E+00  4.663406E+00
      3040   3  4.828477E+00 -4.300695E+01  1.650285E+00 -7.186504E+00 -1.065935E+00  2.970686E+00
      3040   4 -1.378761E+00 -6.089618E+01 -1.151278E+00 -6.630412E+00 -1.025765E+00  4.183127E+00
      3040   5  1.673866E+00 -4.621823E+01 -1.858788E+00 -1.488097E+00  7.185512E-01  4.100916E+00
      3040   6 -5.067885E+00 -6.494475E+01 -5.604770E+00 -9.572592E-01  7.795558E-01  5.686680E+00
      3040   7  4.357654E+00 -4.456644E+01  9.633732E-01 -7.313006E+00  1.116761E+00  3.734998E+00
      3040   8 -2.091624E+00 -6.300049E+01 -2.100176E+00 -6.782168E+00  1.157945E+00  5.201944E+00
      3041   1  5.009228E+00  7.315243E+01  4.434285E+00 -3.719468E-01 -1.335527E+00 -3.847399E+00
      3041   2 -2.458755E+00  5.203131E+01  6.621315E-01 -9.227593E-01 -1.362924E+00 -2.749630E+00
      3041   3  2.023980E+00  7.124796E+01  1.071288E+00 -7.069311E+00 -1.217035E+00 -3.570672E+00
      3041   4 -5.169203E+00  5.040164E+01 -2.059667E+00 -7.620123E+00 -1.233209E+00 -2.537746E+00
      3041   5  5.388184E+00  7.435959E+01  4.995112E+00 -4.939519E-01  1.016083E+00 -4.797590E+00
      3041   6 -2.217194E+00  5.293430E+01  1.069140E+00 -1.030333E+00  9.881841E-01 -3.461331E+00
      3041   7  2.459272E+00  7.247346E+01  1.636921E+00 -7.210787E+00  1.354939E+00 -4.518295E+00
      3041   8 -4.868756E+00  5.132552E+01 -1.641901E+00 -7.747168E+00  1.338366E+00 -3.247480E+00
      3042   1  4.398917E+00  4.185589E+01  3.179272E+00 -5.856842E+00 -1.433874E+00 -2.011586E+00
      3042   2 -3.068061E+00  2.074705E+01 -6.018198E-01 -6.135299E+00 -1.449016E+00 -1.092982E+00
      3042   3  2.826293E+00  4.082964E+01  1.331058E+00 -1.254867E+01 -1.285723E+00 -1.849898E+00
      3042   4 -4.361913E+00  1.999957E+01 -1.799565E+00 -1.282713E+01 -1.295775E+00 -1.003587E+00
      3042   5  4.629721E+00  4.256466E+01  3.509043E+00 -6.196333E+00  9.113054E-01 -2.547331E+00
      3042   6 -2.989201E+00  2.111795E+01 -4.406547E-01 -6.468245E+00  8.959353E-01 -1.386497E+00
      3042   7  3.082435E+00  4.154600E+01  1.660790E+00 -1.291700E+01  1.283175E+00 -2.384142E+00
      3042   8 -4.255128E+00  2.038065E+01 -1.632402E+00 -1.318891E+01  1.272942E+00 -1.296273E+00
      3043   1  3.751887E+00  1.056537E+01  1.899643E+00 -7.812647E+00 -1.474822E+00 -4.507026E-01
      3043   2 -3.704636E+00 -1.052380E+01 -1.866263E+00 -7.818940E+00 -1.472727E+00  3.854348E-01
      3043   3  3.597113E+00  1.042294E+01  1.579664E+00 -1.449996E+01 -1.318784E+00 -4.147487E-01
      3043   4 -3.579382E+00 -1.038620E+01 -1.532842E+00 -1.450625E+01 -1.316697E+00  3.476784E-01
      3043   5  3.835414E+00  1.073667E+01  1.986439E+00 -8.247276E+00  8.730443E-01 -5.664752E-01
      3043   6 -3.775842E+00 -1.069680E+01 -1.950936E+00 -8.253580E+00  8.751397E-01  5.130326E-01
      3043   7  3.679568E+00  1.059308E+01  1.663648E+00 -1.496523E+01  1.253903E+00 -5.301876E-01
      3043   8 -3.649061E+00 -1.055777E+01 -1.614265E+00 -1.497154E+01  1.255990E+00  4.749257E-01
      3044   1  3.097664E+00 -2.070957E+01  6.265535E-01 -6.140780E+00 -1.449688E+00  1.027250E+00
      3044   2 -4.366660E+00 -4.180774E+01 -3.156357E+00 -5.872196E+00 -1.431261E+00  1.944584E+00
      3044   3  4.371364E+00 -1.996287E+01  1.841853E+00 -1.282868E+01 -1.296812E+00  9.361278E-01
      3044   4 -2.814049E+00 -4.078212E+01 -1.290263E+00 -1.256010E+01 -1.283160E+00  1.781374E+00
      3044   5  3.027718E+00 -2.108334E+01  4.661312E-01 -6.474411E+00  8.924425E-01  1.332630E+00
      3044   6 -4.588158E+00 -4.251846E+01 -3.485002E+00 -6.211967E+00  9.110827E-01  2.492305E+00
      3044   7  4.275314E+00 -2.034596E+01  1.676456E+00 -1.319092E+01  1.269205E+00  1.240662E+00
      3044   8 -3.059063E+00 -4.149958E+01 -1.617844E+00 -1.292848E+01  1.283027E+00  2.327580E+00
      3045   1  2.469233E+00 -5.199275E+01 -6.547014E-01 -9.217870E-01 -1.363023E+00  2.681723E+00
      3045   2 -5.008476E+00 -7.312827E+01 -4.444873E+00 -3.768382E-01 -1.333460E+00  3.778288E+00
      3045   3  5.173405E+00 -5.035784E+01  2.090803E+00 -7.621445E+00 -1.233182E+00  2.468148E+00
      3045   4 -2.029730E+00 -7.121880E+01 -1.058695E+00 -7.076497E+00 -1.214100E+00  3.499202E+00
      3045   5  2.232376E+00 -5.290029E+01 -1.062740E+00 -1.029069E+00  9.828366E-01  3.405379E+00
      3045   6 -5.384006E+00 -7.434297E+01 -5.007995E+00 -4.975972E-01  1.012870E+00  4.740272E+00
      3045   7  4.881220E+00 -5.128468E+01  1.673777E+00 -7.749012E+00  1.332970E+00  3.189823E+00
      3045   8 -2.458041E+00 -7.245024E+01 -1.624860E+00 -7.217540E+00  1.352425E+00  4.458596E+00
      3046   1  5.517579E+00  8.308237E+01  4.305902E+00  1.036909E-01 -1.464790E+00 -3.306404E+00
      3046   2 -2.900845E+00  5.911282E+01  2.140377E-01 -4.455927E-01 -1.474636E+00 -2.334060E+00
      3046   3  2.596365E+00  8.123893E+01  1.082318E+00 -7.524704E+00 -1.412094E+00 -3.152043E+00
      3046   4 -5.560097E+00  5.753134E+01 -2.398301E+00 -8.073988E+00 -1.415769E+00 -2.215501E+00
      3046   5  5.748283E+00  8.376539E+01  4.631605E+00 -6.034260E-02  1.265294E+00 -4.198233E+00
      3046   6 -2.746733E+00  5.962717E+01  4.531068E-01 -6.016903E-01  1.255271E+00 -3.000281E+00
      3046   7  2.861805E+00  8.193135E+01  1.404610E+00 -7.663347E+00  1.527905E+00 -4.042440E+00
      3046   8 -5.368818E+00  5.805752E+01 -2.156970E+00 -8.204694E+00  1.524110E+00 -2.880622E+00
      3047   1  4.883173E+00  4.754483E+01  3.195707E+00 -5.369751E+00 -1.514643E+00 -1.692131E+00
      3047   2 -3.533358E+00  2.358091E+01 -8.954816E-01 -5.645108E+00 -1.521846E+00 -9.106926E-01
      3047   3  3.357406E+00  4.655935E+01  1.436555E+00 -1.299631E+01 -1.439928E+00 -1.601499E+00
      3047   4 -4.794106E+00  2.286045E+01 -2.036253E+00 -1.327167E+01 -1.444225E+00 -8.605568E-01
      3047   5  5.016228E+00  4.794438E+01  3.384405E+00 -5.776115E+00  1.214764E+00 -2.192187E+00
      3047   6 -3.486037E+00  2.379058E+01 -8.026757E-01 -6.047736E+00  1.207477E+00 -1.182384E+00
      3047   7  3.506481E+00  4.696269E+01  1.621862E+00 -1.338317E+01  1.501916E+00 -2.100714E+00
      3047   8 -4.728303E+00  2.307637E+01 -1.941099E+00 -1.365479E+01  1.497561E+00 -1.131783E+00
      3048   1  4.209963E+00  1.200100E+01  2.073385E+00 -7.313059E+00 -1.542519E+00 -3.690411E-01
      3048   2 -4.197246E+00 -1.194865E+01 -2.000997E+00 -7.316067E+00 -1.540389E+00  3.293401E-01
      3048   3  4.078816E+00  1.187576E+01  1.787052E+00 -1.493719E+01 -1.461152E+00 -3.489080E-01
      3048   4 -4.062248E+00 -1.180775E+01 -1.666328E+00 -1.494020E+01 -1.458672E+00  3.080000E-01
      3048   5  4.261296E+00  1.209896E+01  2.124193E+00 -7.821161E+00  1.191520E+00 -4.731957E-01
      3048   6 -4.233563E+00 -1.204500E+01 -2.048042E+00 -7.823720E+00  1.193640E+00  4.545415E-01
      3048   7  4.130653E+00  1.197329E+01  1.835939E+00 -1.542703E+01  1.486275E+00 -4.528758E-01
      3048   8 -4.095592E+00 -1.190206E+01 -1.709530E+00 -1.542959E+01  1.488748E+00  4.330034E-01
      3049   1  3.539870E+00 -2.352934E+01  9.636727E-01 -5.637366E+00 -1.523030E+00  8.706591E-01
      3049   2 -4.876286E+00 -4.748796E+01 -3.131555E+00 -5.368383E+00 -1.511932E+00  1.651189E+00
      3049   3  4.803093E+00 -2.279390E+01  2.151915E+00 -1.326151E+01 -1.444966E+00  8.193192E-01
      3049   4 -3.348438E+00 -4.648790E+01 -1.325856E+00 -1.299253E+01 -1.436045E+00  1.559361E+00
      3049   5  3.505942E+00 -2.373808E+01  8.739452E-01 -6.039391E+00  1.203497E+00  1.163273E+00
      3049   6 -4.995920E+00 -4.788654E+01 -3.317133E+00 -5.773207E+00  1.214658E+00  2.171828E+00
      3049   7  4.754299E+00 -2.300721E+01  2.061819E+00 -1.364404E+01  1.493706E+00  1.111457E+00
      3049   8 -3.480482E+00 -4.688859E+01 -1.506072E+00 -1.337786E+01  1.502669E+00  2.079148E+00
      3050   1  2.903365E+00 -5.905811E+01 -1.583504E-01 -4.367894E-01 -1.474569E+00  2.291712E+00
      3050   2 -5.523030E+00 -8.303701E+01 -4.267443E+00  1.051611E-01 -1.461252E+00  3.261124E+00
      3050   3  5.560819E+00 -5.746405E+01  2.497753E+00 -8.065858E+00 -1.414951E+00  2.171893E+00
      3050   4 -2.604824E+00 -8.118219E+01 -1.002916E+00 -7.523907E+00 -1.407109E+00  3.105318E+00
      3050   5  2.760619E+00 -5.957261E+01 -3.952183E-01 -5.920936E-01  1.249452E+00  2.978015E+00
      3050   6 -5.742689E+00 -8.372097E+01 -4.591219E+00 -5.718408E-02  1.262927E+00  4.172003E+00
      3050   7  5.384398E+00 -5.798875E+01  2.260534E+00 -8.195995E+00  1.518066E+00  2.857083E+00
      3050   8 -2.855737E+00 -8.187393E+01 -1.321397E+00 -7.661085E+00  1.526015E+00  4.014751E+00
      3051   1  6.005388E+00  9.281456E+01  4.292879E+00  5.593453E-01 -1.581653E+00 -2.964758E+00
      3051   2 -3.357962E+00  6.603937E+01 -1.430935E-01  8.827751E-03 -1.581904E+00 -2.064942E+00
      3051   3  3.132577E+00  9.102195E+01  1.190304E+00 -7.981801E+00 -1.619397E+00 -2.884616E+00
      3051   4 -5.978791E+00  6.449873E+01 -2.657710E+00 -8.532318E+00 -1.616509E+00 -2.003187E+00
      3051   5  6.147586E+00  9.317707E+01  4.465879E+00  3.700130E-01  1.509856E+00 -3.808038E+00
      3051   6 -3.254425E+00  6.631593E+01 -1.301252E-02 -1.764682E-01  1.509565E+00 -2.691967E+00
      3051   7  3.296771E+00  9.138867E+01  1.355365E+00 -8.115579E+00  1.673388E+00 -3.727152E+00
      3051   8 -5.850920E+00  6.478185E+01 -2.530112E+00 -8.662061E+00  1.676264E+00 -2.629638E+00
      3052   1  5.365729E+00  5.311347E+01  3.288002E+00 -4.913730E+00 -1.596387E+00 -1.480034E+00
      3052   2 -3.996882E+00  2.633466E+01 -1.141896E+00 -5.188198E+00 -1.599089E+00 -7.818487E-01
      3052   3  3.877919E+00  5.216420E+01  1.611596E+00 -1.345701E+01 -1.620410E+00 -1.432396E+00
      3052   4 -5.230888E+00  2.563920E+01 -2.226092E+00 -1.373148E+01 -1.621627E+00 -7.543961E-01
      3052   5  5.440873E+00  5.332465E+01  3.385883E+00 -5.360242E+00  1.498506E+00 -1.948168E+00
      3052   6 -3.963891E+00  2.645178E+01 -1.090457E+00 -5.632801E+00  1.495786E+00 -1.032142E+00
      3052   7  3.963162E+00  5.237682E+01  1.704164E+00 -1.385020E+01  1.677241E+00 -1.900088E+00
      3052   8 -5.185441E+00  2.576011E+01 -2.174470E+00 -1.412275E+01  1.676018E+00 -1.004435E+00
      3053   1  4.676742E+00  1.339128E+01  2.276197E+00 -6.850345E+00 -1.613703E+00 -3.018830E-01
      3053   2 -4.672896E+00 -1.336718E+01 -2.130800E+00 -6.851060E+00 -1.611002E+00  3.112226E-01
      3053   3  4.568819E+00  1.328476E+01  2.029053E+00 -1.539001E+01 -1.633629E+00 -2.892585E-01
      3053   4 -4.526233E+00 -1.321911E+01 -1.783910E+00 -1.539072E+01 -1.630595E+00  3.035208E-01
      3053   5  4.714216E+00  1.345449E+01  2.308720E+00 -7.402875E+00  1.487393E+00 -3.924601E-01
      3053   6 -4.677857E+00 -1.339868E+01 -2.145016E+00 -7.403161E+00  1.490089E+00  4.391583E-01
      3053   7  4.606797E+00  1.334763E+01  2.059927E+00 -1.588942E+01  1.670877E+00 -3.797184E-01
      3053   8 -4.528328E+00 -1.324860E+01 -1.794261E+00 -1.588971E+01  1.673910E+00  4.313850E-01
      3054   1  3.991405E+00 -2.630778E+01  1.282736E+00 -5.169869E+00 -1.599540E+00  7.909410E-01
      3054   2 -5.364355E+00 -5.306515E+01 -3.145757E+00 -4.899860E+00 -1.591751E+00  1.488450E+00
      3054   3  5.253519E+00 -2.557546E+01  2.461684E+00 -1.370599E+01 -1.621570E+00  7.685507E-01
      3054   4 -3.849066E+00 -5.207966E+01 -1.376069E+00 -1.343599E+01 -1.614662E+00  1.446257E+00
      3054   5  3.989691E+00 -2.639321E+01  1.249234E+00 -5.613830E+00  1.491916E+00  1.078394E+00
      3054   6 -5.407476E+00 -5.324292E+01 -3.224947E+00 -5.344954E+00  1.499716E+00  1.993199E+00
      3054   7  5.242535E+00 -2.566309E+01  2.430130E+00 -1.409622E+01  1.672143E+00  1.055796E+00
      3054   8 -3.899109E+00 -5.225727E+01 -1.447829E+00 -1.382734E+01  1.679054E+00  1.950614E+00
      3055   1  3.347980E+00 -6.598634E+01  2.749153E-01  2.466910E-02 -1.580615E+00  2.072154E+00
      3055   2 -6.017788E+00 -9.275491E+01 -4.175740E+00  5.652408E-01 -1.575744E+00  2.969352E+00
      3055   3  5.976619E+00 -6.441838E+01  2.872805E+00 -8.512042E+00 -1.614466E+00  2.016269E+00
      3055   4 -3.138801E+00 -9.093661E+01 -9.937047E-01 -7.971470E+00 -1.612284E+00  2.895865E+00
      3055   5  3.275016E+00 -6.622854E+01  1.633944E-01 -1.602258E-01  1.503152E+00  2.735077E+00
      3055   6 -6.127879E+00 -9.307950E+01 -4.328619E+00  3.768888E-01  1.508057E+00  3.847120E+00
      3055   7  5.881994E+00 -6.466576E+01  2.765656E+00 -8.640443E+00  1.669270E+00  2.678673E+00
      3055   8 -3.268229E+00 -9.126406E+01 -1.136791E+00 -8.103328E+00  1.671462E+00  3.772951E+00
      3056   1  6.488755E+00  1.024341E+02  4.404256E+00  9.990823E-01 -1.687999E+00 -2.720292E+00
      3056   2 -3.823886E+00  7.286568E+01 -4.027696E-01  4.446272E-01 -1.683486E+00 -1.867179E+00
      3056   3  3.649844E+00  1.006831E+02  1.406537E+00 -8.446593E+00 -1.837681E+00 -2.684290E+00
      3056   4 -6.418376E+00  7.135911E+01 -2.830172E+00 -9.001048E+00 -1.831867E+00 -1.838028E+00
      3056   5  6.581174E+00  1.026042E+02  4.477497E+00  7.944180E-01  1.749569E+00 -3.521779E+00
      3056   6 -3.743852E+00  7.300575E+01 -3.408067E-01  2.416367E-01  1.754086E+00 -2.459149E+00
      3056   7  3.756787E+00  1.008545E+02  1.469474E+00 -8.572967E+00  1.794169E+00 -3.485443E+00
      3056   8 -6.321550E+00  7.150271E+01 -2.773221E+00 -9.125748E+00  1.800000E+00 -2.429727E+00
      3057   1  5.851288E+00  5.859826E+01  3.463427E+00 -4.484028E+00 -1.681103E+00 -1.318388E+00
      3057   2 -4.461943E+00  2.901927E+01 -1.335020E+00 -4.758370E+00 -1.681640E+00 -6.721753E-01
      3057   3  4.397954E+00  5.768323E+01  1.866643E+00 -1.393459E+01 -1.822898E+00 -1.294092E+00
      3057   4 -5.669801E+00  2.834971E+01 -2.359027E+00 -1.420893E+01 -1.823059E+00 -6.542930E-01
      3057   5  5.897238E+00  5.870623E+01  3.506591E+00 -4.952448E+00  1.762182E+00 -1.756649E+00
      3057   6 -4.427529E+00  2.909921E+01 -1.302280E+00 -5.226308E+00  1.761646E+00 -9.000137E-01
      3057   7  4.449462E+00  5.779086E+01  1.903151E+00 -1.432412E+01  1.815511E+00 -1.732128E+00
      3057   8 -5.627552E+00  2.843159E+01 -2.327629E+00 -1.459798E+01  1.815354E+00 -8.819655E-01
      3058   1  5.150351E+00  1.473232E+01  2.516346E+00 -6.411372E+00 -1.692064E+00 -2.303702E-01
      3058   2 -5.140735E+00 -1.480662E+01 -2.248335E+00 -6.409504E+00 -1.688925E+00  3.304512E-01
      3058   3  5.070831E+00  1.464914E+01  2.318582E+00 -1.585315E+01 -1.831782E+00 -2.169299E-01
      3058   4 -4.974229E+00 -1.464378E+01 -1.872039E+00 -1.585128E+01 -1.828694E+00  3.381693E-01
      3058   5  5.189692E+00  1.479840E+01  2.547465E+00 -6.987941E+00  1.758481E+00 -3.039951E-01
      3058   6 -5.111595E+00 -1.476546E+01 -2.226303E+00 -6.986138E+00  1.761619E+00  4.677228E-01
      3058   7  5.109096E+00  1.471429E+01  2.347721E+00 -1.635005E+01  1.814334E+00 -2.904301E-01
      3058   8 -4.943883E+00 -1.460125E+01 -1.846660E+00 -1.634825E+01  1.817421E+00  4.755126E-01
      3059   1  4.446495E+00 -2.908489E+01  1.594848E+00 -4.718059E+00 -1.681176E+00  7.727283E-01
      3059   2 -5.842491E+00 -5.860045E+01 -3.186216E+00 -4.446265E+00 -1.674788E+00  1.420230E+00
      3059   3  5.719560E+00 -2.834513E+01  2.787671E+00 -1.414939E+01 -1.821993E+00  7.763893E-01
      3059   4 -4.324500E+00 -5.761576E+01 -1.421900E+00 -1.387760E+01 -1.816143E+00  1.418529E+00
      3059   5  4.479519E+00 -2.905663E+01  1.615235E+00 -5.185594E+00  1.757818E+00  1.064042E+00
      3059   6 -5.818978E+00 -5.859549E+01 -3.174231E+00 -4.914493E+00  1.764205E+00  1.921499E+00
      3059   7  5.744798E+00 -2.831840E+01  2.810728E+00 -1.453691E+01  1.811662E+00  1.067737E+00
      3059   8 -4.306500E+00 -5.761006E+01 -1.401941E+00 -1.426581E+01  1.817504E+00  1.919782E+00
      3060   1  3.791887E+00 -7.285169E+01  6.617557E-01  4.782912E-01 -1.680921E+00  1.970042E+00
      3060   2 -6.508672E+00 -1.023760E+02 -4.149105E+00  1.017963E+00 -1.680294E+00  2.824654E+00
      3060   3  6.408313E+00 -7.129418E+01  3.237033E+00 -8.951673E+00 -1.828627E+00  1.964699E+00
      3060   4 -3.649209E+00 -1.005755E+02 -1.006743E+00 -8.412001E+00 -1.829560E+00  2.814722E+00
      3060   5  3.780680E+00 -7.287464E+01  6.560022E-01  2.750695E-01  1.746698E+00  2.624417E+00
      3060   6 -6.527904E+00 -1.024188E+02 -4.161783E+00  8.127347E-01  1.747320E+00  3.687366E+00
      3060   7  6.380323E+00 -7.132028E+01  3.237580E+00 -9.073921E+00  1.792117E+00  2.619024E+00
      3060   8 -3.682969E+00 -1.006191E+02 -1.007858E+00 -8.536256E+00  1.791164E+00  3.677342E+00
      3061   1  6.972432E+00  1.119930E+02  4.643678E+00  1.424875E+00 -1.781889E+00 -2.503672E+00
      3061   2 -4.303505E+00  7.961580E+01 -5.655913E-01  8.638104E-01 -1.775714E+00 -1.686045E+00
      3061   3  4.158221E+00  1.102797E+02  1.746819E+00 -8.926060E+00 -2.064356E+00 -2.489274E+00
      3061   4 -6.879518E+00  7.814068E+01 -2.906654E+00 -9.487124E+00 -2.058271E+00 -1.670255E+00
      3061   5  7.047105E+00  1.120680E+02  4.658629E+00  1.210931E+00  1.988040E+00 -3.264371E+00
      3061   6 -4.221509E+00  7.970173E+01 -5.371331E-01  6.497513E-01  1.994213E+00 -2.242510E+00
      3061   7  4.241979E+00  1.103539E+02  1.749973E+00 -9.043085E+00  1.893711E+00 -3.249840E+00
      3061   8 -6.786227E+00  7.822800E+01 -2.884835E+00 -9.604265E+00  1.899794E+00 -2.226574E+00
      3062   1  6.339820E+00  6.401018E+01  3.724646E+00 -4.076099E+00 -1.762664E+00 -1.163101E+00
      3062   2 -4.934321E+00  3.162566E+01 -1.471304E+00 -4.351877E+00 -1.762962E+00 -5.520203E-01
      3062   3  4.918129E+00  6.312961E+01  2.211091E+00 -1.443151E+01 -2.040557E+00 -1.145502E+00
      3062   4 -6.116869E+00  3.098423E+01 -2.426859E+00 -1.470729E+01 -2.041553E+00 -5.308703E-01
      3062   5  6.381488E+00  6.408742E+01  3.744295E+00 -4.554937E+00  2.014365E+00 -1.569746E+00
      3062   6 -4.881147E+00  3.172353E+01 -1.433940E+00 -4.831613E+00  2.014053E+00 -7.535810E-01
      3062   7  4.961042E+00  6.320486E+01  2.222882E+00 -1.481069E+01  1.925347E+00 -1.551984E+00
      3062   8 -6.060231E+00  3.108234E+01 -2.392176E+00 -1.508737E+01  1.924331E+00 -7.322347E-01
      3063   1  5.627418E+00  1.600438E+01  2.801426E+00 -5.985804E+00 -1.770383E+00 -1.350008E-01
      3063   2 -5.607961E+00 -1.630270E+01 -2.342765E+00 -5.982144E+00 -1.767624E+00  3.932367E-01
      3063   3  5.579722E+00  1.594950E+01  2.666195E+00 -1.632224E+01 -2.047123E+00 -1.106518E-01
      3063   4 -5.415792E+00 -1.611771E+01 -1.918311E+00 -1.631858E+01 -2.045274E+00  4.227745E-01
      3063   5  5.685039E+00  1.611786E+01  2.850724E+00 -6.573325E+00  2.014696E+00 -1.861910E-01
      3063   6 -5.535660E+00 -1.616119E+01 -2.272560E+00 -6.570835E+00  2.017438E+00  5.477821E-01
      3063   7  5.632690E+00  1.606067E+01  2.712434E+00 -1.680823E+01  1.927399E+00 -1.616160E-01
      3063   8 -5.345919E+00 -1.597629E+01 -1.845971E+00 -1.680574E+01  1.929223E+00  5.775940E-01
      3064   1  4.899994E+00 -3.190365E+01  1.916251E+00 -4.266674E+00 -1.761141E+00  8.127091E-01
      3064   2 -6.315984E+00 -6.414473E+01 -3.229264E+00 -3.992851E+00 -1.755884E+00  1.430491E+00
      3064   3  6.195211E+00 -3.114571E+01  3.147490E+00 -1.458025E+01 -2.038388E+00  8.462322E-01
      3064   4 -4.781496E+00 -6.314752E+01 -1.439725E+00 -1.430643E+01 -2.034279E+00  1.469714E+00
      3064   5  4.976430E+00 -3.174377E+01  1.999125E+00 -4.746316E+00  2.010930E+00  1.117681E+00
      3064   6 -6.223896E+00 -6.395454E+01 -3.124526E+00 -4.473970E+00  2.016165E+00  1.940700E+00
      3064   7  6.261272E+00 -3.098840E+01  3.232192E+00 -1.495794E+01  1.922606E+00  1.151515E+00
      3064   8 -4.697562E+00 -6.295768E+01 -1.327977E+00 -1.468559E+01  1.926682E+00  1.980286E+00
      3065   1  4.228723E+00 -7.970745E+01  1.031902E+00  9.352705E-01 -1.771864E+00  1.960255E+00
      3065   2 -6.996854E+00 -1.119489E+02 -4.145246E+00  1.473010E+00 -1.774024E+00  2.789812E+00
      3065   3  6.844253E+00 -7.814704E+01  3.617729E+00 -9.373779E+00 -2.053461E+00  2.003721E+00
      3065   4 -4.142988E+00 -1.101501E+02 -1.003302E+00 -8.836039E+00 -2.057345E+00  2.839173E+00
      3065   5  4.282468E+00 -7.951616E+01  1.131368E+00  7.201717E-01  1.986435E+00  2.620415E+00
      3065   6 -6.927097E+00 -1.117264E+02 -4.023580E+00  1.255694E+00  1.984242E+00  3.654410E+00
      3065   7  6.880615E+00 -7.795912E+01  3.723340E+00 -9.486715E+00  1.892980E+00  2.664284E+00
      3065   8 -4.088402E+00 -1.099288E+02 -8.703300E-01 -8.951193E+00  1.889047E+00  3.704230E+00
      3066   1  7.453724E+00  1.215142E+02  5.022084E+00  1.843558E+00 -1.860725E+00 -2.261487E+00
      3066   2 -4.808407E+00  8.628973E+01 -6.272515E-01  1.272054E+00 -1.855494E+00 -1.477878E+00
      3066   3  4.657668E+00  1.198395E+02  2.235865E+00 -9.420290E+00 -2.297874E+00 -2.247322E+00
      3066   4 -7.372836E+00  8.484668E+01 -2.873009E+00 -9.991794E+00 -2.294175E+00 -1.456662E+00
      3066   5  7.543412E+00  1.215877E+02  5.019692E+00  1.623454E+00  2.228148E+00 -2.975668E+00
      3066   6 -4.696885E+00  8.640325E+01 -5.968324E-01  1.049980E+00  2.233324E+00 -1.993236E+00
      3066   7  4.750960E+00  1.199102E+02  2.220281E+00 -9.528008E+00  1.972500E+00 -2.961372E+00
      3066   8 -7.255561E+00  8.495947E+01 -2.850766E+00 -1.010148E+01  1.976130E+00 -1.971824E+00
      3067   1  6.816176E+00  6.933856E+01  4.074696E+00 -3.679977E+00 -1.834477E+00 -9.777515E-01
      3067   2 -5.430095E+00  3.413694E+01 -1.544590E+00 -3.965136E+00 -1.836581E+00 -3.949908E-01
      3067   3  5.405217E+00  6.848712E+01  2.647533E+00 -1.494041E+01 -2.268303E+00 -9.499287E-01
      3067   4 -6.607598E+00  3.351896E+01 -2.427024E+00 -1.522557E+01 -2.272092E+00 -3.561671E-01
      3067   5  6.879775E+00  6.945927E+01  4.103385E+00 -4.162435E+00  2.262956E+00 -1.346937E+00
      3067   6 -5.336977E+00  3.431546E+01 -1.475318E+00 -4.449761E+00  2.260792E+00 -5.636461E-01
      3067   7  5.466438E+00  6.860452E+01  2.667570E+00 -1.530558E+01  2.012074E+00 -1.318856E+00
      3067   8 -6.514693E+00  3.369634E+01 -2.361349E+00 -1.559290E+01  2.008209E+00 -5.244620E-01
      3068   1  6.092280E+00  1.718330E+01  3.140004E+00 -5.567789E+00 -1.840086E+00  3.880253E-03
      3068   2 -6.095060E+00 -1.789615E+01 -2.405015E+00 -5.571155E+00 -1.839538E+00  5.108557E-01
      3068   3  6.053929E+00  1.715155E+01  3.072535E+00 -1.679720E+01 -2.271397E+00  5.203920E-02
      3068   4 -5.898189E+00 -1.769267E+01 -1.923636E+00 -1.680057E+01 -2.273016E+00  5.735179E-01
      3068   5  6.187026E+00  1.740030E+01  3.231878E+00 -6.157200E+00  2.266624E+00 -1.737700E-02
      3068   6 -5.963977E+00 -1.760551E+01 -2.265656E+00 -6.163353E+00  2.267095E+00  6.917670E-01
      3068   7  6.139053E+00  1.736429E+01  3.159811E+00 -1.726523E+01  2.019648E+00  3.122888E-02
      3068   8 -5.774546E+00 -1.740411E+01 -1.783781E+00 -1.727138E+01  2.017932E+00  7.550108E-01
      3069   1  5.341272E+00 -3.480909E+01  2.263084E+00 -3.811787E+00 -1.831706E+00  9.164705E-01
      3069   2 -6.796929E+00 -6.975248E+01 -3.254204E+00 -3.538944E+00 -1.829129E+00  1.517656E+00
      3069   3  6.658952E+00 -3.402677E+01  3.553140E+00 -1.499856E+01 -2.262803E+00  9.900475E-01
      3069   4 -5.243538E+00 -6.873444E+01 -1.414155E+00 -1.472572E+01 -2.263198E+00  1.606549E+00
      3069   5  5.475008E+00 -3.447371E+01  2.427281E+00 -4.295573E+00  2.261330E+00  1.245544E+00
      3069   6 -6.625271E+00 -6.933978E+01 -3.040913E+00 -4.026551E+00  2.263801E+00  2.049347E+00
      3069   7  6.774608E+00 -3.369712E+01  3.716320E+00 -1.536034E+01  2.014900E+00  1.319804E+00
      3069   8 -5.087772E+00 -6.832529E+01 -1.196778E+00 -1.509132E+01  2.014373E+00  2.139065E+00
      3070   1  4.646856E+00 -8.660269E+01  1.413634E+00  1.400848E+00 -1.850030E+00  2.036580E+00
      3070   2 -7.478605E+00 -1.214930E+02 -4.114306E+00  1.934733E+00 -1.855827E+00  2.853124E+00
      3070   3  7.269294E+00 -8.502781E+01  4.040790E+00 -9.766119E+00 -2.285470E+00  2.136500E+00
      3070   4 -4.620065E+00 -1.196820E+02 -9.362456E-01 -9.232234E+00 -2.294507E+00  2.967854E+00
      3070   5  4.777719E+00 -8.616346E+01  1.633288E+00  1.177669E+00  2.228167E+00  2.716714E+00
      3070   6 -7.310782E+00 -1.209787E+02 -3.846502E+00  1.707388E+00  2.222255E+00  3.736193E+00
      3070   7  7.376450E+00 -8.459456E+01  4.264234E+00 -9.868103E+00  1.977664E+00  2.817562E+00
      3070   8 -4.473758E+00 -1.191715E+02 -6.595392E-01 -9.338385E+00  1.968482E+00  3.851988E+00
      3071   1  7.904322E+00  1.309543E+02  5.543389E+00  2.283578E+00 -1.922703E+00 -1.948918E+00
      3071   2 -5.358446E+00  9.286642E+01 -5.779481E-01  1.698281E+00 -1.921458E+00 -1.207462E+00
      3071   3  5.127953E+00  1.293264E+02  2.893323E+00 -9.894051E+00 -2.538705E+00 -1.910427E+00
      3071   4 -7.913008E+00  9.146030E+01 -2.710464E+00 -1.047935E+01 -2.541218E+00 -1.160763E+00
      3071   5  8.047233E+00  1.311344E+02  5.571688E+00  2.056798E+00  2.469384E+00 -2.604133E+00
      3071   6 -5.188255E+00  9.309487E+01 -5.071023E-01  1.466668E+00  2.470435E+00 -1.672100E+00
      3071   7  5.265790E+00  1.295002E+02  2.905896E+00 -9.998598E+00  2.025400E+00 -2.565285E+00
      3071   8 -7.745832E+00  9.168456E+01 -2.650541E+00 -1.058873E+01  2.022658E+00 -1.624968E+00
      3072   1  7.222685E+00  7.456232E+01  4.511043E+00 -3.258973E+00 -1.891594E+00 -7.334660E-01
      3072   2 -5.993250E+00  3.656348E+01 -1.543234E+00 -3.578048E+00 -1.897941E+00 -1.799423E-01
      3072   3  5.746448E+00  7.371216E+01  3.153397E+00 -1.541589E+01 -2.503518E+00 -6.778221E-01
      3072   4 -7.242737E+00  3.594007E+01 -2.371797E+00 -1.573497E+01 -2.511691E+00 -1.080655E-01
      3072   5  7.338639E+00  7.480523E+01  4.584648E+00 -3.741777E+00  2.512329E+00 -1.056889E+00
      3072   6 -5.834280E+00  3.689116E+01 -1.411006E+00 -4.063200E+00  2.505888E+00 -3.081364E-01
      3072   7  5.860956E+00  7.395243E+01  3.219653E+00 -1.576662E+01  2.076398E+00 -1.000729E+00
      3072   8 -7.083109E+00  3.626721E+01 -2.242008E+00 -1.608804E+01  2.068115E+00 -2.355925E-01
      3073   1  6.488027E+00  1.827574E+01  3.540564E+00 -5.154872E+00 -1.892747E+00  2.029664E-01
      3073   2 -6.667993E+00 -1.960480E+01 -2.432298E+00 -5.198167E+00 -1.897803E+00  6.955690E-01
      3073   3  6.353301E+00  1.822596E+01  3.509371E+00 -1.728315E+01 -2.495636E+00  2.896956E-01
      3073   4 -6.571035E+00 -1.942290E+01 -1.922894E+00 -1.732645E+01 -2.503824E+00  8.066427E-01
      3073   5  6.641523E+00  1.866058E+01  3.703314E+00 -5.736125E+00  2.523778E+00  2.193917E-01
      3073   6 -6.455580E+00 -1.909843E+01 -2.194685E+00 -5.783448E+00  2.518560E+00  9.118723E-01
      3073   7  6.494588E+00  1.860565E+01  3.667135E+00 -1.772245E+01  2.100844E+00  3.069258E-01
      3073   8 -6.368680E+00 -1.891953E+01 -1.685249E+00 -1.776978E+01  2.092465E+00  1.023977E+00
      3074   1  5.740672E+00 -3.782797E+01  2.650389E+00 -3.379435E+00 -1.885394E+00  1.093326E+00
      3074   2 -7.336562E+00 -7.550590E+01 -3.262455E+00 -3.124349E+00 -1.889720E+00  1.687417E+00
      3074   3  7.032830E+00 -3.703632E+01  3.997044E+00 -1.544698E+01 -2.485636E+00  1.222762E+00
      3074   4 -5.809901E+00 -7.447976E+01 -1.368629E+00 -1.519189E+01 -2.495910E+00  1.842674E+00
      3074   5  5.948107E+00 -3.725123E+01  2.922886E+00 -3.856836E+00  2.518601E+00  1.456863E+00
      3074   6 -7.067214E+00 -7.480084E+01 -2.911905E+00 -3.609400E+00  2.513968E+00  2.253323E+00
      3074   7  7.210050E+00 -3.647032E+01  4.263950E+00 -1.578114E+01  2.100519E+00  1.587500E+00
      3074   8 -5.568592E+00 -7.378326E+01 -1.018592E+00 -1.553370E+01  2.089883E+00  2.410022E+00
      3075   1  5.021053E+00 -9.360786E+01  1.822089E+00  1.862899E+00 -1.913254E+00  2.201977E+00
      3075   2 -7.950910E+00 -1.310186E+02 -4.007047E+00  2.390845E+00 -1.926107E+00  3.013690E+00
      3075   3  7.657012E+00 -9.200780E+01  4.519639E+00 -1.012521E+01 -2.520633E+00  2.374273E+00
      3075   4 -5.078548E+00 -1.291821E+02 -7.578902E-01 -9.597268E+00 -2.540060E+00  3.206714E+00
      3075   5  5.246940E+00 -9.285373E+01  2.189740E+00  1.635595E+00  2.476547E+00  2.916528E+00
      3075   6 -7.672837E+00 -1.301590E+02 -3.570939E+00  2.155086E+00  2.463355E+00  3.931978E+00
      3075   7  7.845104E+00 -9.126551E+01  4.885643E+00 -1.021638E+01  2.052783E+00  3.090423E+00
      3075   8 -4.836077E+00 -1.283322E+02 -3.183110E-01 -9.696885E+00  2.032955E+00  4.126794E+00
      3076   1  8.240887E+00  1.401018E+02  6.161467E+00  2.809302E+00 -1.968604E+00 -1.525594E+00
      3076   2 -5.972255E+00  9.929702E+01 -4.109112E-01  2.216294E+00 -1.975621E+00 -8.547421E-01
      3076   3  5.521268E+00  1.385457E+02  3.694251E+00 -1.023486E+01 -2.791454E+00 -1.431631E+00
      3076   4 -8.488940E+00  9.794391E+01 -2.404616E+00 -1.082787E+01 -2.805966E+00 -7.625855E-01
      3076   5  8.481748E+00  1.405238E+02  6.280148E+00  2.573248E+00  2.704248E+00 -2.105085E+00
      3076   6 -5.721141E+00  9.972465E+01 -2.636612E-01  1.970601E+00  2.696724E+00 -1.260382E+00
      3076   7  5.741718E+00  1.389554E+02  3.792104E+00 -1.035323E+01  2.036439E+00 -2.010250E+00
      3076   8 -8.256353E+00  9.836105E+01 -2.273798E+00 -1.095587E+01  2.021350E+00 -1.167370E+00
      3077   1  7.434944E+00  7.966334E+01  5.010773E+00 -2.729280E+00 -1.927986E+00 -4.188005E-01
      3077   2 -6.711731E+00  3.897548E+01 -1.456944E+00 -3.110756E+00 -1.941687E+00  1.013626E-01
      3077   3  5.798556E+00  7.877547E+01  3.687578E+00 -1.574870E+01 -2.735519E+00 -3.196417E-01
      3077   4 -8.130453E+00  3.830527E+01 -2.272251E+00 -1.613018E+01 -2.753974E+00  2.214578E-01
      3077   5  7.632025E+00  8.009950E+01  5.162435E+00 -3.205535E+00  2.766096E+00 -6.919858E-01
      3077   6 -6.459531E+00  3.952060E+01 -1.230517E+00 -3.593125E+00  2.752073E+00  1.619866E-02
      3077   7  5.983853E+00  7.920484E+01  3.828418E+00 -1.607907E+01  2.125520E+00 -5.919068E-01
      3077   8 -7.888016E+00  3.884563E+01 -2.051932E+00 -1.646666E+01  2.106699E+00  1.374084E-01
      3078   1  6.638972E+00  1.935772E+01  3.988546E+00 -4.716418E+00 -1.917036E+00  4.694085E-01
      3078   2 -7.476902E+00 -2.129569E+01 -2.410959E+00 -4.884776E+00 -1.933393E+00  9.547653E-01
      3078   3  6.115680E+00  1.916477E+01  3.868674E+00 -1.773405E+01 -2.707326E+00  6.091736E-01
      3078   4 -7.770811E+00 -2.125925E+01 -1.995603E+00 -1.790241E+01 -2.725785E+00  1.127333E+00
      3078   5  6.879487E+00  1.997643E+01  4.252745E+00 -5.276865E+00  2.798293E+00  5.258563E-01
      3078   6 -7.157586E+00 -2.051381E+01 -2.047255E+00 -5.447925E+00  2.781793E+00  1.210083E+00
      3078   7  6.352827E+00  1.978233E+01  4.132398E+00 -1.813379E+01  2.184431E+00  6.669185E-01
      3078   8 -7.452734E+00 -2.047640E+01 -1.627406E+00 -1.830485E+01  2.165811E+00  1.384252E+00
      3079   1  6.004552E+00 -4.085344E+01  3.105447E+00 -3.065757E+00 -1.912964E+00  1.349785E+00
      3079   2 -8.121328E+00 -8.152155E+01 -3.312706E+00 -2.909196E+00 -1.931815E+00  1.943643E+00
      3079   3  6.997645E+00 -4.016754E+01  4.398681E+00 -1.608569E+01 -2.693834E+00  1.549824E+00
      3079   4 -6.889590E+00 -8.059701E+01 -1.462634E+00 -1.592913E+01 -2.716710E+00  2.185932E+00
      3079   5  6.302716E+00 -3.997307E+01  3.512454E+00 -3.513546E+00  2.795746E+00  1.753825E+00
      3079   6 -7.725513E+00 -8.043487E+01 -2.786508E+00 -3.362161E+00  2.776623E+00  2.555131E+00
      3079   7  7.277482E+00 -3.929261E+01  4.805886E+00 -1.636095E+01  2.198856E+00  1.955721E+00
      3079   8 -6.509887E+00 -7.951355E+01 -9.310705E-01 -1.620956E+01  2.175670E+00  2.799669E+00
      3080   1  5.292090E+00 -1.008429E+02  2.241322E+00  2.237419E+00 -1.962211E+00  2.453196E+00
      3080   2 -8.457113E+00 -1.406137E+02 -3.818591E+00  2.747443E+00 -1.988475E+00  3.251462E+00
      3080   3  7.912507E+00 -9.922323E+01  5.019824E+00 -1.052711E+01 -2.755594E+00  2.718198E+00
      3080   4 -5.597306E+00 -1.387546E+02 -4.815114E-01 -1.001708E+01 -2.791514E+00  3.536268E+00
      3080   5  5.629723E+00 -9.969094E+01  2.790181E+00  2.020829E+00  2.734598E+00  3.216225E+00
      3080   6 -8.065077E+00 -1.393564E+02 -3.193722E+00  2.518437E+00  2.707680E+00  4.221060E+00
      3080   7  8.199859E+00 -9.808820E+01  5.562498E+00 -1.060157E+01  2.125764E+00  3.483687E+00
      3080   8 -5.253328E+00 -1.375120E+02  1.423569E-01 -1.010396E+01  2.089101E+00  4.508509E+00
      3081   1  8.580552E+00  1.490390E+02  6.991354E+00  2.806863E+00 -1.967467E+00 -1.062595E+00
      3081   2 -6.781536E+00  1.051081E+02 -2.847374E-01  2.170035E+00 -1.989028E+00 -4.860631E-01
      3081   3  6.104357E+00  1.476643E+02  4.885420E+00 -9.547394E+00 -2.707758E+00 -9.287783E-01
      3081   4 -9.093767E+00  1.038974E+02 -2.008088E+00 -1.018422E+01 -2.733599E+00 -3.381530E-01
      3081   5  8.887973E+00  1.496880E+02  7.199825E+00  2.720865E+00  2.979148E+00 -1.570988E+00
      3081   6 -6.430552E+00  1.058407E+02 -1.465914E-02  2.077958E+00  2.957234E+00 -8.380082E-01
      3081   7  6.368913E+00  1.483004E+02  5.093372E+00 -9.830538E+00  2.397673E+00 -1.439458E+00
      3081   8 -8.788449E+00  1.046143E+02 -1.745067E+00 -1.047345E+01  2.371552E+00 -6.926254E-01
      3082   1  7.060212E+00  8.408995E+01  5.294839E+00 -2.707920E+00 -1.898648E+00 -9.050711E-02
      3082   2 -7.701810E+00  4.148077E+01 -1.302728E+00 -3.265219E+00 -1.931111E+00  4.136396E-01
      3082   3  5.116205E+00  8.310993E+01  3.972126E+00 -1.475012E+01 -2.597844E+00  6.604876E-02
      3082   4 -9.461488E+00  4.068508E+01 -2.195339E+00 -1.530742E+01 -2.633801E+00  5.797231E-01
      3082   5  7.372229E+00  8.484698E+01  5.578786E+00 -2.990417E+00  3.092367E+00 -3.210031E-01
      3082   6 -7.354277E+00  4.230039E+01 -9.629807E-01 -3.552680E+00  3.059616E+00  3.585014E-01
      3082   7  5.388000E+00  8.385224E+01  4.247200E+00 -1.523004E+01  2.569918E+00 -1.671222E-01
      3082   8 -9.157327E+00  4.148683E+01 -1.871815E+00 -1.579231E+01  2.533732E+00  5.217470E-01
      3083   1  6.215203E+00  2.068422E+01  4.437269E+00 -5.099594E+00 -1.874578E+00  7.795355E-01
      3083   2 -8.796558E+00 -2.257919E+01 -2.338533E+00 -5.548764E+00 -1.910916E+00  1.275035E+00
      3083   3  4.925956E+00  2.017192E+01  4.018872E+00 -1.731671E+01 -2.543722E+00  9.605196E-01
      3083   4 -9.879134E+00 -2.288481E+01 -2.274700E+00 -1.776588E+01 -2.578855E+00  1.487201E+00
      3083   5  6.561864E+00  2.157069E+01  4.817284E+00 -5.434065E+00  3.157882E+00  8.611667E-01
      3083   6 -8.366396E+00 -2.152062E+01 -1.852274E+00 -5.881524E+00  3.121643E+00  1.554970E+00
      3083   7  5.253045E+00  2.104932E+01  4.388207E+00 -1.782458E+01  2.684774E+00  1.039058E+00
      3083   8 -9.472075E+00 -2.183885E+01 -1.807360E+00 -1.827204E+01  2.649719E+00  1.763510E+00
      3084   1  5.929355E+00 -4.341458E+01  3.675233E+00 -3.960291E+00 -1.877762E+00  1.683729E+00
      3084   2 -9.338444E+00 -8.729374E+01 -3.338266E+00 -3.988621E+00 -1.914859E+00  2.304803E+00
      3084   3  6.278541E+00 -4.301639E+01  4.653348E+00 -1.633296E+01 -2.524831E+00  1.923013E+00
      3084   4 -8.764671E+00 -8.667097E+01 -1.836114E+00 -1.636129E+01 -2.565184E+00  2.586994E+00
      3084   5  6.320043E+00 -4.225541E+01  4.202411E+00 -4.155338E+00  3.164382E+00  2.115397E+00
      3084   6 -8.837789E+00 -8.590270E+01 -2.676407E+00 -4.188293E+00  3.127017E+00  2.952710E+00
      3084   7  6.646063E+00 -4.187140E+01  5.156442E+00 -1.668946E+01  2.728649E+00  2.350592E+00
      3084   8 -8.291020E+00 -8.529794E+01 -1.207293E+00 -1.672241E+01  2.688083E+00  3.230079E+00
      3085   1  5.539206E+00 -1.080098E+02  2.757031E+00  1.532816E+00 -1.971228E+00  2.815040E+00
      3085   2 -9.394457E+00 -1.510914E+02 -3.940220E+00  2.098169E+00 -2.016207E+00  3.587961E+00
      3085   3  8.075846E+00 -1.064511E+02  5.416118E+00 -1.063946E+01 -2.652736E+00  3.129275E+00
      3085   4 -6.629577E+00 -1.493045E+02 -7.485732E-01 -1.007411E+01 -2.722259E+00  3.946836E+00
      3085   5  5.936436E+00 -1.065252E+02  3.439640E+00  1.522035E+00  3.060392E+00  3.622564E+00
      3085   6 -8.883267E+00 -1.493661E+02 -3.118535E+00  2.052520E+00  3.013386E+00  4.615328E+00
      3085   7  8.381344E+00 -1.050139E+02  6.032555E+00 -1.080604E+01  2.593127E+00  3.931431E+00
      3085   8 -6.214018E+00 -1.476304E+02 -2.160540E-03 -1.027556E+01  2.521998E+00  4.968071E+00
      3086   1  8.000523E+00  1.551425E+02  7.023434E+00  3.818319E+00 -2.215278E+00 -6.904739E-01
      3086   2 -7.685703E+00  1.100867E+02 -2.081723E-01  3.253932E+00 -2.244601E+00 -1.381736E-01
      3086   3  5.777385E+00  1.538956E+02  5.090282E+00 -8.882244E+00 -2.694981E+00 -4.535525E-01
      3086   4 -9.761498E+00  1.089872E+02 -1.797522E+00 -9.446630E+00 -2.737783E+00  8.861656E-02
      3086   5  8.441855E+00  1.562777E+02  7.449165E+00  3.776123E+00  3.016071E+00 -1.165383E+00
      3086   6 -7.258159E+00  1.111793E+02  2.141703E-01  3.192589E+00  2.986034E+00 -4.740757E-01
      3086   7  6.138840E+00  1.550016E+02  5.498532E+00 -9.157902E+00  2.676194E+00 -9.325105E-01
      3086   8 -9.416349E+00  1.100481E+02 -1.398535E+00 -9.741437E+00  2.632909E+00 -2.511609E-01
      3087   1  5.961443E+00  8.827981E+01  5.448949E+00 -1.157072E+00 -2.082032E+00  2.371822E-01
      3087   2 -9.077068E+00  4.461119E+01 -1.010802E+00 -1.995481E+00 -2.131982E+00  7.103731E-01
      3087   3  3.170878E+00  8.693949E+01  3.771778E+00 -1.353785E+01 -2.538635E+00  4.622948E-01
      3087   4 -1.170156E+01  4.343694E+01 -2.300479E+00 -1.437626E+01 -2.591321E+00  9.410335E-01
      3087   5  6.345912E+00  8.935064E+01  5.862356E+00 -1.404400E+00  3.223587E+00  9.835476E-03
      3087   6 -8.671986E+00  4.571839E+01 -5.650605E-01 -2.246696E+00  3.173492E+00  6.405978E-01
      3087   7  3.503574E+00  8.799059E+01  4.171219E+00 -1.399349E+01  2.923486E+00  2.311013E-01
      3087   8 -1.135109E+01  4.452158E+01 -1.875324E+00 -1.483578E+01  2.870702E+00  8.673167E-01
      3088   1  4.850121E+00  2.277127E+01  4.841839E+00 -4.508668E+00 -2.022379E+00  1.068530E+00
      3088   2 -1.092166E+01 -2.273934E+01 -2.220163E+00 -5.399024E+00 -2.075554E+00  1.573843E+00
      3088   3  2.202873E+00  2.166412E+01  3.798587E+00 -1.736891E+01 -2.431829E+00  1.309916E+00
      3088   4 -1.336754E+01 -2.364512E+01 -2.793550E+00 -1.825926E+01 -2.485275E+00  1.838983E+00
      3088   5  5.279540E+00  2.393650E+01  5.324631E+00 -4.769164E+00  3.362180E+00  1.126695E+00
      3088   6 -1.043097E+01 -2.144534E+01 -1.661881E+00 -5.659904E+00  3.308991E+00  1.823976E+00
      3088   7  2.583434E+00  2.280795E+01  4.258880E+00 -1.782328E+01  3.139601E+00  1.363956E+00
      3088   8 -1.292914E+01 -2.237597E+01 -2.265795E+00 -1.871402E+01  3.086146E+00  2.084585E+00
      3089   1  5.220427E+00 -4.494239E+01  4.283336E+00 -4.559314E+00 -2.014868E+00  1.995058E+00
      3089   2 -1.159528E+01 -9.295814E+01 -3.753271E+00 -4.979678E+00 -2.074868E+00  2.640525E+00
      3089   3  4.357503E+00 -4.507819E+01  4.693607E+00 -1.805144E+01 -2.392539E+00  2.284474E+00
      3089   4 -1.222175E+01 -9.285748E+01 -2.791271E+00 -1.847180E+01 -2.458336E+00  2.972511E+00
      3089   5  5.664851E+00 -4.356484E+01  4.867507E+00 -4.663653E+00  3.411036E+00  2.398248E+00
      3089   6 -1.104763E+01 -9.135641E+01 -3.049182E+00 -5.092251E+00  3.350729E+00  3.269907E+00
      3089   7  4.747450E+00 -4.372799E+01  5.241101E+00 -1.833712E+01  3.250111E+00  2.682718E+00
      3089   8 -1.173261E+01 -9.128714E+01 -2.133288E+00 -1.876572E+01  3.184107E+00  3.596219E+00
      3090   1  5.742435E+00 -1.150489E+02  3.171612E+00  7.742209E-01 -2.193171E+00  3.168128E+00
      3090   2 -1.057125E+01 -1.618849E+02 -4.371324E+00  1.325753E+00 -2.281594E+00  3.964096E+00
      3090   3  8.233483E+00 -1.135119E+02  5.803999E+00 -1.242483E+01 -2.612556E+00  3.527086E+00
      3090   4 -7.837150E+00 -1.601048E+02 -1.171813E+00 -1.187330E+01 -2.726498E+00  4.354175E+00
      3090   5  6.074054E+00 -1.134250E+02  3.833656E+00  8.530550E-01  3.227919E+00  3.965158E+00
      3090   6 -1.016045E+01 -1.600934E+02 -3.612942E+00  1.368337E+00  3.138145E+00  4.992960E+00
      3090   7  8.468447E+00 -1.119374E+02  6.397881E+00 -1.253656E+01  3.030648E+00  4.317982E+00
      3090   8 -7.527157E+00 -1.583669E+02 -4.912845E-01 -1.202128E+01  2.915792E+00  5.376374E+00
      3091   1  6.496370E+00  1.579842E+02  5.847667E+00  5.707655E+00 -2.445745E+00 -3.502177E-01
      3091   2 -8.363953E+00  1.145274E+02 -2.298875E-01  5.379286E+00 -2.494338E+00  1.518850E-01
      3091   3  4.948073E+00  1.570039E+02  4.128303E+00 -6.658603E+00 -2.637736E+00 -4.838739E-02
      3091   4 -9.786191E+00  1.136731E+02 -1.655112E+00 -6.986972E+00 -2.702102E+00  4.464661E-01
      3091   5  6.937613E+00  1.593910E+02  6.379652E+00  5.724568E+00  3.028626E+00 -8.681290E-01
      3091   6 -7.935215E+00  1.159010E+02  2.935158E-01  5.373790E+00  2.979665E+00 -2.468092E-01
      3091   7  5.312495E+00  1.583832E+02  4.645406E+00 -6.865723E+00  2.952563E+00 -5.714560E-01
      3091   8 -9.436428E+00  1.150171E+02 -1.151618E+00 -7.216501E+00  2.888098E+00  4.273848E-02
      3092   1  3.600652E+00  9.248503E+01  5.184839E+00  1.354124E+00 -2.269130E+00  4.976882E-01
      3092   2 -1.119977E+01  4.900027E+01 -6.651505E-01  1.783724E-01 -2.331607E+00  9.403373E-01
      3092   3 -2.873905E-01  9.063075E+01  2.891952E+00 -1.105010E+01 -2.440165E+00  7.917924E-01
      3092   4 -1.494263E+01  4.729118E+01 -2.619267E+00 -1.222585E+01 -2.507456E+00  1.240388E+00
      3092   5  4.030857E+00  9.385874E+01  5.712705E+00  1.200532E+00  3.308437E+00  1.930104E-01
      3092   6 -1.075351E+01  5.040694E+01 -1.167067E-01  1.794150E-02  3.245848E+00  7.733001E-01
      3092   7  6.550466E-02  9.197454E+01  3.397391E+00 -1.141189E+01  3.270437E+00  4.820893E-01
      3092   8 -1.457615E+01  4.866544E+01 -2.099038E+00 -1.259448E+01  3.203116E+00  1.068224E+00
      3093   1  2.189238E+00  2.636594E+01  5.182221E+00 -3.647736E+00 -2.136139E+00  1.289598E+00
      3093   2 -1.419398E+01 -2.102876E+01 -2.033799E+00 -4.992015E+00 -2.200612E+00  1.801147E+00
      3093   3 -1.942013E+00  2.455997E+01  3.293552E+00 -1.705832E+01 -2.247104E+00  1.598795E+00
      3093   4 -1.813780E+01 -2.264730E+01 -3.485117E+00 -1.840259E+01 -2.315599E+00  2.129385E+00
      3093   5  2.661215E+00  2.782237E+01  5.758234E+00 -3.801191E+00  3.575100E+00  1.238078E+00
      3093   6 -1.367705E+01 -1.947329E+01 -1.407003E+00 -5.151183E+00  3.510533E+00  1.927586E+00
      3093   7 -1.557311E+00  2.597960E+01  3.834180E+00 -1.742109E+01  3.633700E+00  1.541992E+00
      3093   8 -1.771135E+01 -2.113183E+01 -2.901179E+00 -1.877109E+01  3.565179E+00  2.250215E+00
      3094   1  3.334661E+00 -4.463954E+01  4.942633E+00 -5.902744E+00 -2.086348E+00  2.240028E+00
      3094   2 -1.521227E+01 -9.724465E+01 -4.275360E+00 -6.975736E+00 -2.171444E+00  2.927523E+00
      3094   3  3.699111E-01 -4.574827E+01  4.211602E+00 -2.063083E+01 -2.151512E+00  2.584982E+00
      3094   4 -1.793317E+01 -9.810954E+01 -4.437415E+00 -2.170382E+01 -2.246394E+00  3.299105E+00
      3094   5  3.781167E+00 -4.304429E+01  5.566622E+00 -5.897186E+00  3.724464E+00  2.516361E+00
      3094   6 -1.470333E+01 -9.551131E+01 -3.581350E+00 -6.984081E+00  3.639140E+00  3.435416E+00
      3094   7  7.122990E-01 -4.420041E+01  4.781749E+00 -2.084802E+01  3.876982E+00  2.855421E+00
      3094   8 -1.753252E+01 -9.642775E+01 -3.806968E+00 -2.193491E+01  3.782039E+00  3.800649E+00
      3095   1  5.890324E+00 -1.218140E+02  3.568064E+00 -1.380046E+00 -2.344950E+00  3.487222E+00
      3095   2 -1.397387E+01 -1.775041E+02 -6.955806E+00 -9.374234E-01 -2.481758E+00  4.328854E+00
      3095   3  7.940209E+00 -1.205298E+02  5.799034E+00 -1.687257E+01 -2.420805E+00  3.878655E+00
      3095   4 -1.166811E+01 -1.759640E+02 -4.127796E+00 -1.642995E+01 -2.588372E+00  4.747894E+00
      3095   5  6.110643E+00 -1.201214E+02  4.170683E+00 -1.218789E+00  3.472074E+00  4.168807E+00
      3095   6 -1.368876E+01 -1.756682E+02 -6.280425E+00 -8.198619E-01  3.334547E+00  5.253412E+00
      3095   7  8.037120E+00 -1.188969E+02  6.325656E+00 -1.694613E+01  3.624586E+00  4.553552E+00
      3095   8 -1.151078E+01 -1.741923E+02 -3.538614E+00 -1.654720E+01  3.456827E+00  5.665292E+00
      3096   1  1.049244E-01  3.228072E+01 -2.436144E+00 -4.748988E+00  1.028039E+00 -8.708653E+00
      3096   2 -1.285136E+00  2.591316E+01 -7.021215E-01 -5.154170E+00  9.891999E-01 -6.165797E+00
      3096   3 -1.275890E+00  3.162188E+01 -3.251477E+00 -6.966264E+00  7.788884E-02 -8.007620E+00
      3096   4 -2.793320E+00  2.512695E+01 -1.814649E+00 -7.371446E+00 -4.375399E-02 -5.485510E+00
      3096   5  1.378800E+00  3.559067E+01 -1.059762E+00 -5.203767E+00  2.996526E+00 -8.820870E+00
      3096   6 -5.342434E-02  2.912370E+01  6.331288E-01 -5.723199E+00  2.958190E+00 -6.395046E+00
      3096   7 -3.836561E-01  3.476937E+01 -2.034945E+00 -7.484393E+00  1.983772E+00 -8.131470E+00
      3096   8 -1.941136E+00  2.817715E+01 -6.343169E-01 -8.003826E+00  1.864006E+00 -5.726049E+00
      3097   1  1.779721E+00  2.141137E+01  1.385734E+00 -8.641129E+00  2.591210E+00 -4.454191E+00
      3097   2 -2.392045E+00  9.507599E+00 -6.163791E-01 -8.807039E+00  2.500591E+00 -2.320852E+00
      3097   3  9.825229E-01  2.090980E+01  5.110212E-01 -1.208543E+01  1.278015E+00 -3.871440E+00
      3097   4 -3.157821E+00  9.037447E+00 -1.417773E+00 -1.225134E+01  1.188955E+00 -1.983829E+00
      3097   5  2.587852E+00  2.405599E+01  2.424504E+00 -9.419199E+00  3.962315E+00 -4.715152E+00
      3097   6 -2.092673E+00  1.096537E+01 -8.662201E-02 -9.582958E+00  3.871687E+00 -2.551418E+00
      3097   7  1.793387E+00  2.355824E+01  1.559809E+00 -1.322878E+01  2.716482E+00 -4.142072E+00
      3097   8 -2.856238E+00  1.049852E+01 -8.792151E-01 -1.339254E+01  2.627387E+00 -2.219988E+00
      3098   1  1.984889E+00  4.349995E+00  1.064634E+00 -1.122461E+01  3.027549E+00 -8.536058E-01
      3098   2 -1.818475E+00 -6.379839E+00 -8.834124E-01 -1.117982E+01  3.008462E+00  1.021649E+00
      3098   3  1.937994E+00  4.223292E+00  6.891862E-01 -1.431007E+01  1.579578E+00 -7.113671E-01
      3098   4 -1.727750E+00 -6.368922E+00 -9.377474E-01 -1.426528E+01  1.585466E+00  8.774545E-01
      3098   5  2.197758E+00  5.002601E+00  1.326241E+00 -1.210261E+01  4.201224E+00 -1.026074E+00
      3098   6 -2.199254E+00 -7.111297E+00 -1.216568E+00 -1.202336E+01  4.181985E+00  9.775084E-01
      3098   7  2.265584E+00  4.926834E+00  1.005857E+00 -1.559818E+01  2.906461E+00 -8.861957E-01
      3098   8 -1.996092E+00 -7.051729E+00 -1.221169E+00 -1.551893E+01  2.911783E+00  8.357074E-01
      3099   1  1.777275E+00 -1.123250E+01  4.647725E-01 -1.035335E+01  2.587909E+00  2.412406E+00
      3099   2 -1.686481E+00 -2.108503E+01 -1.228539E+00 -1.002269E+01  2.648575E+00  4.336771E+00
      3099   3  2.863271E+00 -1.073568E+01  1.034845E+00 -1.319930E+01  1.275579E+00  2.088759E+00
      3099   4 -4.543051E-01 -2.044204E+01 -3.173819E-01 -1.286864E+01  1.369415E+00  3.809283E+00
      3099   5  1.378891E+00 -1.267929E+01 -8.936038E-02 -1.123006E+01  3.708808E+00  2.464907E+00
      3099   6 -2.507631E+00 -2.351710E+01 -2.206623E+00 -1.085364E+01  3.769273E+00  4.524972E+00
      3099   7  2.626493E+00 -1.211373E+01  5.482347E-01 -1.437884E+01  2.557561E+00  2.146631E+00
      3099   8 -1.116276E+00 -2.280779E+01 -1.233603E+00 -1.400242E+01  2.650644E+00  4.006237E+00
      3100   1  5.232404E-01 -2.484328E+01  4.238127E-01 -6.079865E+00  1.043432E+00  5.886137E+00
      3100   2 -4.262542E-01 -2.973718E+01  2.152725E+00 -5.492229E+00  1.063700E+00  8.194718E+00
      3100   3  2.606320E+00 -2.380728E+01  1.794084E+00 -7.836938E+00  3.752933E-02  5.294338E+00
      3100   4  1.646106E+00 -2.871189E+01  3.497985E+00 -7.249302E+00  1.444642E-01  7.631060E+00
      3100   5 -6.031054E-01 -2.765985E+01 -7.616997E-01 -6.685144E+00  2.732758E+00  6.120336E+00
      3100   6 -1.494292E+00 -3.241778E+01  1.025607E+00 -5.977927E+00  2.752499E+00  8.418885E+00
      3100   7  1.885906E+00 -2.645225E+01  7.746182E-01 -8.436691E+00  1.759781E+00  5.538358E+00
      3100   8  9.841776E-01 -3.122072E+01  2.537328E+00 -7.729474E+00  1.864751E+00  7.864581E+00
      3101   1  1.900375E+00  4.092997E+01  3.539500E-01 -2.702916E+00 -4.588456E-01 -9.193989E+00
      3101   2 -1.756158E+00  2.957501E+01 -4.795336E-01 -3.120740E+00 -6.029898E-01 -6.130796E+00
      3101   3  3.542817E-01  4.012837E+01 -7.719525E-01 -6.132255E+00 -6.147929E-01 -8.493243E+00
      3101   4 -3.394901E+00  2.868077E+01 -1.821620E+00 -6.550079E+00 -7.383273E-01 -5.571126E+00
      3101   5  2.682374E+00  4.403241E+01  1.533962E+00 -2.937253E+00  1.405037E+00 -9.442119E+00
      3101   6 -1.262909E+00  3.199940E+01  4.160295E-01 -3.326640E+00  1.260175E+00 -6.459238E+00
      3101   7  1.208497E+00  4.326407E+01  4.466981E-01 -6.600813E+00  1.219297E+00 -8.753003E+00
      3101   8 -2.827898E+00  3.113995E+01 -8.838300E-01 -6.990200E+00  1.094703E+00 -5.908856E+00
      3102   1  1.848851E+00  2.369498E+01  1.263236E+00 -8.305307E+00  4.366455E-01 -4.268746E+00
      3102   2 -2.468673E+00  1.134689E+01 -7.804292E-01 -8.369257E+00  3.492688E-01 -2.244724E+00
      3102   3  1.324021E+00  2.328410E+01  4.184634E-01 -1.188260E+01 -1.873948E-01 -3.829975E+00
      3102   4 -2.872277E+00  1.105724E+01 -1.342341E+00 -1.194655E+01 -2.659280E-01 -1.995179E+00
      3102   5  2.378946E+00  2.565835E+01  2.030915E+00 -9.099736E+00  1.938506E+00 -4.583357E+00
      3102   6 -2.334430E+00  1.239224E+01 -4.142297E-01 -9.151484E+00  1.850821E+00 -2.441237E+00
      3102   7  1.894842E+00  2.526801E+01  1.213884E+00 -1.297393E+01  1.453953E+00 -4.151868E+00
      3102   8 -2.699320E+00  1.212111E+01 -9.530946E-01 -1.302568E+01  1.374965E+00 -2.195834E+00
      3103   1  2.561060E+00  5.786962E+00  1.171710E+00 -1.029228E+01  6.545387E-01 -8.595019E-01
      3103   2 -1.858664E+00 -6.688715E+00 -1.085027E+00 -1.032621E+01  6.711950E-01  9.009718E-01
      3103   3  2.348972E+00  5.635330E+00  8.783563E-01 -1.388089E+01 -5.702840E-02 -7.591375E-01
      3103   4 -1.924505E+00 -6.694100E+00 -1.037136E+00 -1.391481E+01 -4.040754E-02  7.829947E-01
      3103   5  2.841605E+00  6.304964E+00  1.417688E+00 -1.126016E+01  2.083158E+00 -9.607668E-01
      3103   6 -2.035100E+00 -7.230211E+00 -1.302818E+00 -1.129414E+01  2.099815E+00  9.418336E-01
      3103   7  2.629340E+00  6.154264E+00  1.127619E+00 -1.518226E+01  1.530048E+00 -8.620681E-01
      3103   8 -2.103544E+00 -7.237091E+00 -1.257306E+00 -1.521623E+01  1.546671E+00  8.258145E-01
      3104   1  2.654228E+00 -1.215429E+01  6.598104E-01 -9.190457E+00  4.317176E-01  2.250322E+00
      3104   2 -1.299126E+00 -2.348334E+01 -1.188979E+00 -9.133016E+00  5.401756E-01  4.176342E+00
      3104   3  2.988088E+00 -1.192278E+01  1.097653E+00 -1.247603E+01 -2.055195E-01  1.990845E+00
      3104   4 -7.978959E-01 -2.308446E+01 -3.606085E-01 -1.241859E+01 -1.058334E-01  3.748620E+00
      3104   5  2.592660E+00 -1.320666E+01  3.162900E-01 -1.005403E+01  1.826682E+00  2.401701E+00
      3104   6 -1.714726E+00 -2.535402E+01 -1.894303E+00 -1.000870E+01  1.935446E+00  4.487532E+00
      3104   7  2.888598E+00 -1.299286E+01  7.329879E-01 -1.360537E+01  1.366868E+00  2.146530E+00
      3104   8 -1.254196E+00 -2.497563E+01 -1.093558E+00 -1.356003E+01  1.467005E+00  4.066909E+00
      3105   1  1.456668E+00 -2.911300E+01  1.951966E-01 -3.784460E+00 -5.127963E-01  5.965545E+00
      3105   2 -1.880316E+00 -3.951557E+01 -5.255066E-01 -3.284968E+00 -3.777251E-01  8.927718E+00
      3105   3  3.385114E+00 -2.807456E+01  1.728188E+00 -6.931898E+00 -6.775842E-01  5.435120E+00
      3105   4  1.409041E-02 -3.851118E+01  9.280609E-01 -6.432406E+00 -5.573273E-01  8.284947E+00
      3105   5  9.920487E-01 -3.141052E+01 -6.558338E-01 -4.059256E+00  1.219942E+00  6.325201E+00
      3105   6 -2.576265E+00 -4.235445E+01 -1.606286E+00 -3.580204E+00  1.355529E+00  9.259976E+00
      3105   7  2.875811E+00 -3.039476E+01  8.462821E-01 -7.400245E+00  1.073293E+00  5.803580E+00
      3105   8 -7.259766E-01 -4.137216E+01 -1.822760E-01 -6.921193E+00  1.194311E+00  8.627873E+00
      3106   1  2.801742E+00  4.809520E+01  1.930778E+00 -1.947163E+00 -9.259602E-01 -8.463217E+00
      3106   2 -2.040799E+00  3.409961E+01 -2.154355E-01 -2.417940E+00 -1.032754E+00 -5.743692E+00
      3106   3  8.460868E-01  4.697839E+01  1.637458E-01 -6.024481E+00 -8.309388E-01 -7.737608E+00
      3106   4 -3.930373E+00  3.304889E+01 -1.828279E+00 -6.495257E+00 -9.186326E-01 -5.192706E+00
      3106   5  3.772382E+00  5.138938E+01  3.263955E+00 -2.116015E+00  9.114913E-01 -8.957919E+00
      3106   6 -1.435767E+00  3.654631E+01  7.465327E-01 -2.560439E+00  8.034838E-01 -6.166510E+00
      3106   7  1.883608E+00  5.030586E+01  1.541001E+00 -6.480418E+00  1.101328E+00 -8.244351E+00
      3106   8 -3.259557E+00  3.552777E+01 -8.247913E-01 -6.924842E+00  1.012103E+00 -5.624668E+00
      3107   1  2.704922E+00  2.741051E+01  1.696813E+00 -7.872741E+00 -7.327812E-01 -4.046506E+00
      3107   2 -2.211045E+00  1.339227E+01 -6.714960E-01 -8.092481E+00 -7.957967E-01 -2.129230E+00
      3107   3  1.674458E+00  2.677159E+01  5.975353E-01 -1.192744E+01 -8.242908E-01 -3.628166E+00
      3107   4 -3.099073E+00  1.289578E+01 -1.438422E+00 -1.214718E+01 -8.714896E-01 -1.898664E+00
      3107   5  3.272698E+00  2.931555E+01  2.476699E+00 -8.692516E+00  9.956081E-01 -4.390687E+00
      3107   6 -2.040946E+00  1.438146E+01 -3.013592E-01 -8.890433E+00  9.315871E-01 -2.330457E+00
      3107   7  2.305599E+00  2.870706E+01  1.415492E+00 -1.305036E+01  1.058329E+00 -3.979290E+00
      3107   8 -2.867973E+00  1.391304E+01 -1.035730E+00 -1.324828E+01  1.009862E+00 -2.103717E+00
      3108   1  2.750242E+00  6.815954E+00  1.241864E+00 -1.008180E+01 -6.478116E-01 -8.306173E-01
      3108   2 -2.170496E+00 -7.157413E+00 -1.187228E+00 -1.012096E+01 -6.321984E-01  7.999844E-01
      3108   3  2.537815E+00  6.673306E+00  9.787987E-01 -1.411439E+01 -8.002649E-01 -7.397929E-01
      3108   4 -2.217958E+00 -7.135097E+00 -1.065376E+00 -1.415355E+01 -7.879645E-01  6.968002E-01
      3108   5  3.004371E+00  7.286192E+00  1.469125E+00 -1.111623E+01  1.039016E+00 -9.194642E-01
      3108   6 -2.328380E+00 -7.634559E+00 -1.385962E+00 -1.115996E+01  1.054840E+00  8.752104E-01
      3108   7  2.776889E+00  7.137948E+00  1.202462E+00 -1.545938E+01  1.057856E+00 -8.301472E-01
      3108   8 -2.393636E+00 -7.620576E+00 -1.274096E+00 -1.550311E+01  1.070422E+00  7.737386E-01
      3109   1  2.503582E+00 -1.371074E+01  6.114759E-01 -8.488777E+00 -7.494700E-01  2.081670E+00
      3109   2 -2.241910E+00 -2.725684E+01 -1.660733E+00 -8.312999E+00 -6.654328E-01  3.952700E+00
      3109   3  3.247755E+00 -1.327977E+01  1.303850E+00 -1.240910E+01 -8.441869E-01  1.842766E+00
      3109   4 -1.331013E+00 -2.665915E+01 -5.793339E-01 -1.223332E+01 -7.806601E-01  3.537009E+00
      3109   5  2.399765E+00 -1.470416E+01  2.607039E-01 -9.329907E+00  9.311559E-01  2.277198E+00
      3109   6 -2.722211E+00 -2.911459E+01 -2.402119E+00 -9.182429E+00  1.016497E+00  4.312826E+00
      3109   7  3.060201E+00 -1.431094E+01  9.109936E-01 -1.353737E+01  1.010576E+00  2.042258E+00
      3109   8 -1.897817E+00 -2.855741E+01 -1.369260E+00 -1.338989E+01  1.075747E+00  3.904033E+00
      3110   1  1.969485E+00 -3.390487E+01  2.607070E-02 -2.748155E+00 -9.863044E-01  5.624673E+00
      3110   2 -2.741647E+00 -4.750542E+01 -2.077160E+00 -2.252080E+00 -8.783675E-01  8.321558E+00
      3110   3  3.974812E+00 -3.278347E+01  1.758743E+00 -6.708033E+00 -8.925497E-01  5.083530E+00
      3110   4 -6.416658E-01 -4.628936E+01 -1.236268E-01 -6.211958E+00 -8.038458E-01  7.614463E+00
      3110   5  1.392584E+00 -3.630205E+01 -9.166641E-01 -2.921515E+00  7.951348E-01  6.080776E+00
      3110   6 -3.668027E+00 -5.071002E+01 -3.377395E+00 -2.451977E+00  9.042943E-01  8.875277E+00
      3110   7  3.332261E+00 -3.521313E+01  7.733808E-01 -7.155658E+00  1.007322E+00  5.548613E+00
      3110   8 -1.635265E+00 -4.952802E+01 -1.470155E+00 -6.686120E+00  1.097568E+00  8.179916E+00
      3111   1  3.563283E+00  5.612976E+01  2.874053E+00 -1.452226E+00 -1.210796E+00 -7.116736E+00
      3111   2 -2.131134E+00  3.991439E+01  1.080274E-01 -1.933462E+00 -1.284690E+00 -4.853895E+00
      3111   3  1.164598E+00  5.466029E+01  3.745107E-01 -6.530941E+00 -9.906276E-01 -6.504714E+00
      3111   4 -4.353350E+00  3.862139E+01 -1.979753E+00 -7.012177E+00 -1.047705E+00 -4.395452E+00
      3111   5  4.374231E+00  5.879721E+01  4.022335E+00 -1.696327E+00  7.798125E-01 -7.837742E+00
      3111   6 -1.635070E+00  4.186553E+01  9.230183E-01 -2.155584E+00  7.046031E-01 -5.409129E+00
      3111   7  2.057027E+00  5.735850E+01  1.543834E+00 -6.919559E+00  1.127704E+00 -7.219947E+00
      3111   8 -3.774140E+00  4.060495E+01 -1.139838E+00 -7.378816E+00  1.069470E+00 -4.946362E+00
      3112   1  3.344876E+00  3.215188E+01  2.200158E+00 -7.383261E+00 -1.287013E+00 -3.434299E+00
      3112   2 -2.395711E+00  1.584722E+01 -6.304708E-01 -7.642459E+00 -1.322009E+00 -1.818730E+00
      3112   3  2.011524E+00  3.131901E+01  7.572791E-01 -1.248279E+01 -1.111610E+00 -3.089176E+00
      3112   4 -3.526928E+00  1.521648E+01 -1.601700E+00 -1.274199E+01 -1.135821E+00 -1.629626E+00
      3112   5  3.836269E+00  3.367167E+01  2.865551E+00 -8.310067E+00  6.844131E-01 -3.859924E+00
      3112   6 -2.225995E+00  1.663751E+01 -3.078394E-01 -8.555169E+00  6.485736E-01 -2.056028E+00
      3112   7  2.553971E+00  3.285821E+01  1.436332E+00 -1.355697E+01  1.009852E+00 -3.511546E+00
      3112   8 -3.304251E+00  1.602810E+01 -1.260959E+00 -1.380208E+01  9.848990E-01 -1.865141E+00
      3113   1  3.030572E+00  8.063827E+00  1.423597E+00 -9.601843E+00 -1.289865E+00 -7.239107E-01
      3113   2 -2.681853E+00 -8.158083E+00 -1.395910E+00 -9.628657E+00 -1.280500E+00  6.516209E-01
      3113   3  2.836213E+00  7.921243E+00  1.142674E+00 -1.467502E+01 -1.135383E+00 -6.490637E-01
      3113   4 -2.664121E+00 -8.088576E+00 -1.181954E+00 -1.470184E+01 -1.128615E+00  5.703308E-01
      3113   5  3.219372E+00  8.428868E+00  1.603819E+00 -1.076371E+01  6.671427E-01 -8.201667E-01
      3113   6 -2.815740E+00 -8.523855E+00 -1.560499E+00 -1.079392E+01  6.767112E-01  7.523746E-01
      3113   7  3.013518E+00  8.280798E+00  1.316105E+00 -1.598466E+01  9.804110E-01 -7.446138E-01
      3113   8 -2.807502E+00 -8.457833E+00 -1.348665E+00 -1.601487E+01  9.873577E-01  6.703178E-01
      3114   1  2.592156E+00 -1.594679E+01  5.982045E-01 -7.808381E+00 -1.306547E+00  1.741139E+00
      3114   2 -3.076443E+00 -3.205685E+01 -2.187074E+00 -7.582903E+00 -1.258830E+00  3.342228E+00
      3114   3  3.617540E+00 -1.535679E+01  1.539516E+00 -1.284872E+01 -1.129394E+00  1.547175E+00
      3114   4 -1.839301E+00 -3.125508E+01 -7.516611E-01 -1.262324E+01 -1.095871E+00  2.996569E+00
      3114   5  2.459105E+00 -1.673988E+01  2.846344E-01 -8.737859E+00  6.475812E-01  1.985881E+00
      3114   6 -3.523445E+00 -3.356040E+01 -2.836683E+00 -8.530932E+00  6.964093E-01  3.783341E+00
      3114   7  3.417753E+00 -1.617706E+01  1.202078E+00 -1.392072E+01  9.828669E-01  1.790087E+00
      3114   8 -2.351042E+00 -3.278382E+01 -1.420478E+00 -1.371379E+01  1.017366E+00  3.434422E+00
      3115   1  2.133939E+00 -3.983938E+01 -2.086097E-01 -2.058896E+00 -1.270874E+00  4.758302E+00
      3115   2 -3.528761E+00 -5.594859E+01 -2.975065E+00 -1.574014E+00 -1.194645E+00  7.026001E+00
      3115   3  4.393829E+00 -3.851574E+01  1.943609E+00 -7.101679E+00 -1.041709E+00  4.300753E+00
      3115   4 -1.081190E+00 -5.443728E+01 -3.849217E-01 -6.616797E+00 -9.822382E-01  6.414456E+00
      3115   5  1.648819E+00 -4.178362E+01 -1.021686E+00 -2.289049E+00  6.993385E-01  5.335557E+00
      3115   6 -4.330462E+00 -5.861194E+01 -4.124299E+00 -1.826069E+00  7.768790E-01  7.778830E+00
      3115   7  3.825942E+00 -4.049211E+01  1.106226E+00 -7.477208E+00  1.065607E+00  4.873692E+00
      3115   8 -1.963888E+00 -5.713098E+01 -1.554333E+00 -7.014228E+00  1.126231E+00  7.161516E+00
      3116   1  4.303501E+00  6.518517E+01  3.367461E+00 -1.059597E+00 -1.314267E+00 -5.922024E+00
      3116   2 -2.314422E+00  4.636933E+01  1.235532E-01 -1.575818E+00 -1.357537E+00 -4.012574E+00
      3116   3  1.665524E+00  6.354396E+01  5.347432E-01 -6.947823E+00 -1.122887E+00 -5.517305E+00
      3116   4 -4.728443E+00  4.495208E+01 -2.186598E+00 -7.464044E+00 -1.150033E+00 -3.707379E+00
      3116   5  4.855968E+00  6.696483E+01  4.162971E+00 -1.376010E+00  9.054148E-01 -6.725695E+00
      3116   6 -1.970926E+00  4.767987E+01  6.916097E-01 -1.871157E+00  8.611464E-01 -4.614951E+00
      3116   7  2.296404E+00  6.535241E+01  1.347804E+00 -7.333621E+00  1.266522E+00 -6.317158E+00
      3116   8 -4.304420E+00  4.629352E+01 -1.596061E+00 -7.828768E+00  1.238530E+00 -4.306877E+00
      3117   1  3.840937E+00  3.730277E+01  2.471819E+00 -7.071827E+00 -1.440685E+00 -2.827214E+00
      3117   2 -2.774816E+00  1.846952E+01 -7.474456E-01 -7.335143E+00 -1.458118E+00 -1.498200E+00
      3117   3  2.446522E+00  3.641679E+01  9.129674E-01 -1.296950E+01 -1.226125E+00 -2.596846E+00
      3117   4 -3.942343E+00  1.781043E+01 -1.776892E+00 -1.323282E+01 -1.236387E+00 -1.372740E+00
      3117   5  4.192967E+00  3.833171E+01  2.940254E+00 -8.080244E+00  7.914257E-01 -3.281177E+00
      3117   6 -2.642493E+00  1.900454E+01 -5.174422E-01 -8.334187E+00  7.735493E-01 -1.747983E+00
      3117   7  2.833478E+00  3.745798E+01  1.387303E+00 -1.405395E+01  1.178402E+00 -3.048636E+00
      3117   8 -3.772953E+00  1.835984E+01 -1.535994E+00 -1.430789E+01  1.167764E+00 -1.621339E+00
      3118   1  3.384498E+00  9.404471E+00  1.613024E+00 -9.253240E+00 -1.470870E+00 -6.019005E-01
      3118   2 -3.222028E+00 -9.406969E+00 -1.597288E+00 -9.267556E+00 -1.466016E+00  5.178221E-01
      3118   3  3.225641E+00  9.273256E+00  1.334500E+00 -1.514485E+01 -1.253051E+00 -5.529053E-01
      3118   4 -3.150746E+00 -9.308045E+00 -1.338823E+00 -1.515916E+01 -1.249120E+00  4.628176E-01
      3118   5  3.505659E+00  9.643260E+00  1.732862E+00 -1.050251E+01  7.601038E-01 -7.011965E-01
      3118   6 -3.318994E+00 -9.658153E+00 -1.714570E+00 -1.051804E+01  7.650153E-01  6.254824E-01
      3118   7  3.342171E+00  9.509465E+00  1.450368E+00 -1.646907E+01  1.153195E+00 -6.517392E-01
      3118   8 -3.250173E+00 -9.559639E+00 -1.455010E+00 -1.648459E+01  1.157174E+00  5.699591E-01
      3119   1  2.871134E+00 -1.848136E+01  7.367217E-01 -7.386259E+00 -1.457046E+00  1.413153E+00
      3119   2 -3.721560E+00 -3.725279E+01 -2.467496E+00 -7.141763E+00 -1.432630E+00  2.739522E+00
      3119   3  3.985324E+00 -1.783927E+01  1.762848E+00 -1.326523E+01 -1.237210E+00  1.282066E+00
      3119   4 -2.377519E+00 -3.638085E+01 -9.050512E-01 -1.302073E+01 -1.220882E+00  2.504572E+00
      3119   5  2.753797E+00 -1.903134E+01  5.056286E-01 -8.390046E+00  7.697360E-01  1.672221E+00
      3119   6 -4.056738E+00 -3.829209E+01 -2.935398E+00 -8.156121E+00  7.946524E-01  3.205287E+00
      3119   7  3.827600E+00 -1.840500E+01  1.519620E+00 -1.434391E+01  1.164506E+00  1.539898E+00
      3119   8 -2.750916E+00 -3.743373E+01 -1.380029E+00 -1.410998E+01  1.181259E+00  2.968121E+00
      3120   1  2.330277E+00 -4.634380E+01 -1.663087E-01 -1.605977E+00 -1.356988E+00  3.925668E+00
      3120   2 -4.291711E+00 -6.515887E+01 -3.424535E+00 -1.091887E+00 -1.310836E+00  5.839911E+00
      3120   3  4.752471E+00 -4.491426E+01  2.176632E+00 -7.491869E+00 -1.150351E+00  3.615472E+00
      3120   4 -1.642634E+00 -6.350244E+01 -5.522002E-01 -6.977779E+00 -1.119839E+00  5.428001E+00
      3120   5  1.988190E+00 -4.767295E+01 -7.411757E-01 -1.901894E+00  8.556052E-01  4.541750E+00
      3120   6 -4.847244E+00 -6.696733E+01 -4.231571E+00 -1.408246E+00  9.027247E-01  6.659972E+00
      3120   7  4.332188E+00 -4.627323E+01  1.580560E+00 -7.859932E+00  1.234512E+00  4.228629E+00
      3120   8 -2.274223E+00 -6.533859E+01 -1.375449E+00 -7.366283E+00  1.265844E+00  6.244177E+00
      3121   1  4.883339E+00  7.442646E+01  3.571331E+00 -6.704599E-01 -1.411480E+00 -5.070065E+00
      3121   2 -2.642372E+00  5.296058E+01 -4.848538E-02 -1.196825E+00 -1.428727E+00 -3.383227E+00
      3121   3  2.169230E+00  7.272871E+01  6.262682E-01 -7.399717E+00 -1.275025E+00 -4.823719E+00
      3121   4 -5.117317E+00  5.150199E+01 -2.435502E+00 -7.926083E+00 -1.282391E+00 -3.198758E+00
      3121   5  5.253170E+00  7.552921E+01  4.086976E+00 -1.036746E+00  1.105386E+00 -5.896374E+00
      3121   6 -2.404741E+00  5.376938E+01  3.204306E-01 -1.550198E+00  1.087689E+00 -3.998334E+00
      3121   7  2.590087E+00  7.384828E+01  1.146974E+00 -7.780472E+00  1.425475E+00 -5.647704E+00
      3121   8 -4.826405E+00  5.232987E+01 -2.056261E+00 -8.293923E+00  1.417752E+00 -3.812125E+00
      3122   1  4.338028E+00  4.259414E+01  2.664708E+00 -6.713815E+00 -1.494202E+00 -2.357263E+00
      3122   2 -3.181739E+00  2.111711E+01 -9.241582E-01 -6.980789E+00 -1.499756E+00 -1.241118E+00
      3122   3  2.913569E+00  4.168518E+01  1.059304E+00 -1.345132E+01 -1.326436E+00 -2.218905E+00
      3122   4 -4.370019E+00  2.044433E+01 -1.978480E+00 -1.371829E+01 -1.326672E+00 -1.166859E+00
      3122   5  4.568052E+00  4.322297E+01  2.963611E+00 -7.794199E+00  1.038305E+00 -2.818676E+00
      3122   6 -3.088137E+00  2.144197E+01 -7.760233E-01 -8.054224E+00  1.032509E+00 -1.493828E+00
      3122   7  3.170360E+00  4.232266E+01  1.360294E+00 -1.454887E+01  1.387215E+00 -2.679012E+00
      3122   8 -4.247423E+00  2.078007E+01 -1.823060E+00 -1.480890E+01  1.386787E+00 -1.418869E+00
      3123   1  3.786889E+00  1.074371E+01  1.797790E+00 -8.888204E+00 -1.516265E+00 -4.968250E-01
      3123   2 -3.725714E+00 -1.072181E+01 -1.778707E+00 -8.894432E+00 -1.512913E+00  4.204758E-01
      3123   3  3.652762E+00  1.062160E+01  1.524906E+00 -1.562361E+01 -1.338680E+00 -4.694402E-01
      3123   4 -3.623183E+00 -1.060725E+01 -1.499387E+00 -1.562984E+01 -1.335159E+00  3.838982E-01
      3123   5  3.859440E+00  1.088000E+01  1.869374E+00 -1.021070E+01  1.019275E+00 -5.966039E-01
      3123   6 -3.789338E+00 -1.088888E+01 -1.857673E+00 -1.021671E+01  1.022619E+00  5.298114E-01
      3123   7  3.725186E+00  1.075724E+01  1.594404E+00 -1.696313E+01  1.378450E+00 -5.689608E-01
      3123   8 -3.684701E+00 -1.077275E+01 -1.575231E+00 -1.696913E+01  1.381965E+00  4.928888E-01
      3124   1  3.219628E+00 -2.110100E+01  9.333611E-01 -6.987195E+00 -1.501808E+00  1.164439E+00
      3124   2 -4.295399E+00 -4.256452E+01 -2.653204E+00 -6.729213E+00 -1.490641E+00  2.279683E+00
      3124   3  4.388127E+00 -2.043063E+01  1.999407E+00 -1.372047E+01 -1.328383E+00  1.080994E+00
      3124   4 -2.890399E+00 -4.165766E+01 -1.035321E+00 -1.346249E+01 -1.321848E+00  2.132158E+00
      3124   5  3.130719E+00 -2.145842E+01  7.760269E-01 -8.060589E+00  1.028900E+00  1.426809E+00
      3124   6 -4.520707E+00 -4.322584E+01 -2.961303E+00 -7.808661E+00  1.040277E+00  2.751035E+00
      3124   7  4.273607E+00 -2.079743E+01  1.836429E+00 -1.481105E+01  1.383795E+00  1.342577E+00
      3124   8 -3.139087E+00 -4.232612E+01 -1.343859E+00 -1.455912E+01  1.390497E+00  2.602119E+00
      3125   1  2.655707E+00 -5.294462E+01  4.362111E-02 -1.194995E+00 -1.430192E+00  3.304623E+00
      3125   2 -4.880173E+00 -7.442936E+01 -3.591245E+00 -6.726617E-01 -1.408925E+00  4.989568E+00
      3125   3  5.127922E+00 -5.148098E+01  2.450219E+00 -7.928442E+00 -1.283019E+00  3.110357E+00
      3125   4 -2.169213E+00 -7.272697E+01 -6.275746E-01 -7.406109E+00 -1.270523E+00  4.731681E+00
      3125   5  2.415346E+00 -5.379146E+01 -3.383862E-01 -1.547096E+00  1.083040E+00  3.929669E+00
      3125   6 -5.256133E+00 -7.557809E+01 -4.123354E+00 -1.036226E+00  1.104707E+00  5.825531E+00
      3125   7  4.839366E+00 -5.234466E+01  2.060263E+00 -8.297151E+00  1.413620E+00  3.733571E+00
      3125   8 -2.591117E+00 -7.389030E+01 -1.162378E+00 -7.786281E+00  1.426433E+00  5.565212E+00
      3126   1  5.421367E+00  8.374774E+01  3.700492E+00 -2.636313E-01 -1.512069E+00 -4.502413E+00
      3126   2 -3.016103E+00  5.959794E+01 -2.746114E-01 -7.993633E-01 -1.513512E+00 -2.953378E+00
      3126   3  2.671447E+00  8.203226E+01  7.321535E-01 -7.848349E+00 -1.450888E+00 -4.365233E+00
      3126   4 -5.524696E+00  5.812379E+01 -2.679854E+00 -8.384081E+00 -1.446668E+00 -2.853240E+00
      3126   5  5.659041E+00  8.437754E+01  4.008328E+00 -6.609993E-01  1.324178E+00 -5.325133E+00
      3126   6 -2.858100E+00  6.005125E+01 -5.584901E-02 -1.189331E+00  1.322570E+00 -3.564749E+00
      3126   7  2.941944E+00  8.267107E+01  1.037175E+00 -8.221149E+00  1.571208E+00 -5.186659E+00
      3126   8 -5.331594E+00  5.858838E+01 -2.458595E+00 -8.749481E+00  1.575315E+00 -3.463666E+00
      3127   1  4.823945E+00  4.792283E+01  2.830012E+00 -6.333752E+00 -1.543047E+00 -2.029756E+00
      3127   2 -3.609059E+00  2.376567E+01 -1.122844E+00 -6.602412E+00 -1.540074E+00 -1.055406E+00
      3127   3  3.393079E+00  4.701072E+01  1.220508E+00 -1.392418E+01 -1.458269E+00 -1.956355E+00
      3127   4 -4.802395E+00  2.309109E+01 -2.178111E+00 -1.419284E+01 -1.451959E+00 -1.018011E+00
      3127   5  4.969852E+00  4.826818E+01  3.003883E+00 -7.456894E+00  1.304475E+00 -2.487629E+00
      3127   6 -3.540678E+00  2.393938E+01 -1.035755E+00 -7.721194E+00  1.307351E+00 -1.305267E+00
      3127   7  3.557132E+00  4.736103E+01  1.392758E+00 -1.502140E+01  1.571886E+00 -2.413536E+00
      3127   8 -4.713629E+00  2.327200E+01 -2.087415E+00 -1.528570E+01  1.578129E+00 -1.267519E+00
      3128   1  4.223938E+00  1.208621E+01  1.989563E+00 -8.505657E+00 -1.548584E+00 -4.143041E-01
      3128   2 -4.203080E+00 -1.206275E+01 -1.951544E+00 -8.507703E+00 -1.544836E+00  3.628679E-01
      3128   3  4.105201E+00  1.197142E+01  1.725677E+00 -1.609501E+01 -1.455352E+00 -4.029903E-01
      3128   4 -4.084816E+00 -1.194053E+01 -1.662426E+00 -1.609706E+01 -1.450871E+00  3.389322E-01
      3128   5  4.265580E+00  1.214817E+01  2.026307E+00 -9.873631E+00  1.302506E+00 -5.120669E-01
      3128   6 -4.237468E+00 -1.216896E+01 -2.000063E+00 -9.874719E+00  1.306232E+00  4.726341E-01
      3128   7  4.149060E+00  1.203373E+01  1.761363E+00 -1.743613E+01  1.577941E+00 -5.006463E-01
      3128   8 -4.114752E+00 -1.204416E+01 -1.706788E+00 -1.743722E+01  1.582407E+00  4.484726E-01
      3129   1  3.621312E+00 -2.374365E+01  1.156832E+00 -6.593231E+00 -1.541607E+00  1.003334E+00
      3129   2 -4.809588E+00 -4.789376E+01 -2.796060E+00 -6.328931E+00 -1.537580E+00  1.975947E+00
      3129   3  4.813018E+00 -2.306229E+01  2.236356E+00 -1.418127E+01 -1.452738E+00  9.533164E-01
      3129   4 -3.381040E+00 -4.697555E+01 -1.163904E+00 -1.391697E+01 -1.450501E+00  1.889923E+00
      3129   5  3.558000E+00 -2.396255E+01  1.057046E+00 -7.710315E+00  1.304396E+00  1.264979E+00
      3129   6 -4.950409E+00 -4.828428E+01 -2.982583E+00 -7.448353E+00  1.308475E+00  2.445005E+00
      3129   7  4.736350E+00 -2.328529E+01  2.136210E+00 -1.527246E+01  1.575383E+00  1.214490E+00
      3129   8 -3.532983E+00 -4.736795E+01 -1.345573E+00 -1.501050E+01  1.577656E+00  2.358170E+00
      3130   1  3.022982E+00 -5.957231E+01  3.011860E-01 -7.889833E-01 -1.513774E+00  2.896372E+00
      3130   2 -5.421445E+00 -8.373185E+01 -3.687362E+00 -2.586555E-01 -1.506216E+00  4.438407E+00
      3130   3  5.524753E+00 -5.809454E+01  2.725292E+00 -8.375047E+00 -1.445760E+00  2.783313E+00
      3130   4 -2.680325E+00 -8.201474E+01 -7.047741E-01 -7.844719E+00 -1.442378E+00  4.287494E+00
      3130   5  2.865539E+00 -6.007381E+01  6.755252E-02 -1.177565E+00  1.318025E+00  3.518086E+00
      3130   6 -5.660092E+00 -8.441350E+01 -4.011525E+00 -6.526937E-01  1.325705E+00  5.269772E+00
      3130   7  5.338995E+00 -5.860436E+01  2.492275E+00 -8.740062E+00  1.570366E+00  3.403961E+00
      3130   8 -2.945029E+00 -8.270244E+01 -1.023053E+00 -8.215191E+00  1.573832E+00  5.117436E+00
      3131   1  5.933031E+00  9.310333E+01  3.838558E+00  1.508584E-01 -1.613756E+00 -4.123070E+00
      3131   2 -3.423931E+00  6.625054E+01 -4.985242E-01 -3.927240E-01 -1.606279E+00 -2.661699E+00
      3131   3  3.165748E+00  9.138565E+01  8.802342E-01 -8.294798E+00 -1.646343E+00 -4.058330E+00
      3131   4 -5.951583E+00  6.477249E+01 -2.897708E+00 -8.838381E+00 -1.635897E+00 -2.617250E+00
      3131   5  6.081204E+00  9.341543E+01  3.997421E+00 -2.644400E-01  1.544709E+00 -4.934631E+00
      3131   6 -3.318625E+00  6.646673E+01 -3.866449E-01 -8.041410E-01  1.552147E+00 -3.264208E+00
      3131   7  3.335300E+00  9.170189E+01  1.031542E+00 -8.656545E+00  1.696412E+00 -4.869281E+00
      3131   8 -5.822637E+00  6.499509E+01 -2.788109E+00 -9.196246E+00  1.706848E+00 -3.219340E+00
      3132   1  5.311826E+00  5.326988E+01  3.009688E+00 -5.939971E+00 -1.607028E+00 -1.803163E+00
      3132   2 -4.043923E+00  2.641060E+01 -1.316862E+00 -6.210887E+00 -1.598745E+00 -9.189702E-01
      3132   3  3.879701E+00  5.236086E+01  1.411764E+00 -1.438935E+01 -1.625060E+00 -1.772411E+00
      3132   4 -5.239843E+00  2.573779E+01 -2.363641E+00 -1.466026E+01 -1.614798E+00 -9.053480E-01
      3132   5  5.403324E+00  5.342773E+01  3.096031E+00 -7.083196E+00  1.557325E+00 -2.253743E+00
      3132   6 -3.989051E+00  2.648705E+01 -1.271202E+00 -7.351526E+00  1.565582E+00 -1.163524E+00
      3132   7  3.983535E+00  5.252121E+01  1.494112E+00 -1.547503E+01  1.720681E+00 -2.222701E+00
      3132   8 -5.170406E+00  2.581897E+01 -2.316777E+00 -1.574336E+01  1.730936E+00 -1.149774E+00
      3133   1  4.680935E+00  1.342766E+01  2.193907E+00 -8.111196E+00 -1.598959E+00 -3.437430E-01
      3133   2 -4.665415E+00 -1.341406E+01 -2.118879E+00 -8.110898E+00 -1.593911E+00  3.436139E-01
      3133   3  4.574029E+00  1.332018E+01  1.942544E+00 -1.655663E+01 -1.611447E+00 -3.421583E-01
      3133   4 -4.537070E+00 -1.328629E+01 -1.821324E+00 -1.655633E+01 -1.605501E+00  3.294417E-01
      3133   5  4.707531E+00  1.344577E+01  2.209729E+00 -9.499705E+00  1.568114E+00 -4.377868E-01
      3133   6 -4.672740E+00 -1.347105E+01 -2.141020E+00 -9.498233E+00  1.573151E+00  4.547467E-01
      3133   7  4.603530E+00  1.333895E+01  1.957672E+00 -1.788592E+01  1.736225E+00 -4.361870E-01
      3133   8 -4.539272E+00 -1.334040E+01 -1.838981E+00 -1.788445E+01  1.742168E+00  4.404409E-01
      3134   1  4.048313E+00 -2.639389E+01  1.387573E+00 -6.190846E+00 -1.599006E+00  9.181099E-01
      3134   2 -5.298240E+00 -5.322769E+01 -2.933799E+00 -5.922476E+00 -1.597540E+00  1.800305E+00
      3134   3  5.254584E+00 -2.570581E+01  2.474885E+00 -1.463236E+01 -1.614239E+00  8.920369E-01
      3134   4 -3.857064E+00 -5.230471E+01 -1.298376E+00 -1.436399E+01 -1.612953E+00  1.757475E+00
      3134   5  4.011329E+00 -2.650930E+01  1.335166E+00 -7.329180E+00  1.562763E+00  1.179337E+00
      3134   6 -5.371101E+00 -5.342278E+01 -3.026118E+00 -7.061044E+00  1.564231E+00  2.266420E+00
      3134   7  5.211166E+00 -2.582237E+01  2.425101E+00 -1.571277E+01  1.727888E+00  1.153018E+00
      3134   8 -3.934143E+00 -5.249873E+01 -1.382903E+00 -1.544463E+01  1.729175E+00  2.223186E+00
      3135   1  3.423223E+00 -6.620210E+01  5.645520E-01 -3.759485E-01 -1.604506E+00  2.654951E+00
      3135   2 -5.933401E+00 -9.304246E+01 -3.783827E+00  1.592168E-01 -1.603230E+00  4.107691E+00
      3135   3  5.938438E+00 -6.472023E+01  2.988893E+00 -8.815771E+00 -1.632724E+00  2.598669E+00
      3135   4 -3.181749E+00 -9.132416E+01 -8.078009E-01 -8.280606E+00 -1.632862E+00  4.031414E+00
      3135   5  3.332445E+00 -6.645637E+01  4.452504E-01 -7.862519E-01  1.546531E+00  3.271558E+00
      3135   6 -6.066424E+00 -9.339125E+01 -3.949436E+00 -2.529348E-01  1.547826E+00  4.930563E+00
      3135   7  5.831244E+00 -6.497773E+01  2.875255E+00 -9.172207E+00  1.700055E+00  3.214745E+00
      3135   8 -3.328959E+00 -9.167394E+01 -9.625430E-01 -8.638890E+00  1.699922E+00  4.853566E+00
      3136   1  6.432340E+00  1.024895E+02  4.018804E+00  5.660369E-01 -1.711345E+00 -3.846228E+00
      3136   2 -3.854485E+00  7.291464E+01 -6.957227E-01  1.453824E-02 -1.699298E+00 -2.444316E+00
      3136   3  3.651082E+00  1.007732E+02  1.078823E+00 -8.744776E+00 -1.856344E+00 -3.827522E+00
      3136   4 -6.398132E+00  7.143588E+01 -3.081278E+00 -9.296274E+00 -1.842895E+00 -2.434196E+00
      3136   5  6.524923E+00  1.025972E+02  4.073403E+00  1.409784E-01  1.765506E+00 -4.645760E+00
      3136   6 -3.777913E+00  7.298390E+01 -6.560405E-01 -4.086878E-01  1.777558E+00 -3.036848E+00
      3136   7  3.758556E+00  1.008823E+02  1.123317E+00 -9.093566E+00  1.802572E+00 -4.626878E+00
      3136   8 -6.304428E+00  7.150882E+01 -3.046472E+00 -9.643232E+00  1.816039E+00 -3.026632E+00
      3137   1  5.802187E+00  5.862828E+01  3.219080E+00 -5.542268E+00 -1.681657E+00 -1.628514E+00
      3137   2 -4.486627E+00  2.904719E+01 -1.495879E+00 -5.815476E+00 -1.670305E+00 -8.016139E-01
      3137   3  4.371703E+00  5.772533E+01  1.639741E+00 -1.485511E+01 -1.818249E+00 -1.623050E+00
      3137   4 -5.682619E+00  2.837874E+01 -2.528071E+00 -1.512832E+01 -1.805897E+00 -8.002853E-01
      3137   5  5.863971E+00  5.867416E+01  3.248344E+00 -6.691032E+00  1.796154E+00 -2.070500E+00
      3137   6 -4.432142E+00  2.907496E+01 -1.472834E+00 -6.962934E+00  1.807509E+00 -1.039301E+00
      3137   7  4.441704E+00  5.777200E+01  1.663413E+00 -1.592203E+01  1.838991E+00 -2.064984E+00
      3137   8 -5.617705E+00  2.840951E+01 -2.505457E+00 -1.619393E+01  1.851356E+00 -1.037960E+00
      3138   1  5.150723E+00  1.476247E+01  2.415289E+00 -7.706677E+00 -1.664785E+00 -2.676722E-01
      3138   2 -5.120029E+00 -1.477842E+01 -2.279654E+00 -7.704601E+00 -1.658279E+00  3.641830E-01
      3138   3  5.056092E+00  1.466383E+01  2.181121E+00 -1.700884E+01 -1.798019E+00 -2.686794E-01
      3138   4 -4.981545E+00 -1.464395E+01 -1.969887E+00 -1.700676E+01 -1.790885E+00  3.609306E-01
      3138   5  5.176837E+00  1.476970E+01  2.424684E+00 -9.099480E+00  1.814246E+00 -3.562400E-01
      3138   6 -5.097511E+00 -1.478066E+01 -2.272782E+00 -9.096582E+00  1.820754E+00  4.787200E-01
      3138   7  5.083933E+00  1.467126E+01  2.189430E+00 -1.831753E+01  1.859293E+00 -3.572566E-01
      3138   8 -4.955102E+00 -1.464379E+01 -1.958972E+00 -1.831463E+01  1.866436E+00  4.754369E-01
      3139   1  4.490450E+00 -2.905291E+01  1.622991E+00 -5.773754E+00 -1.669064E+00  8.980388E-01
      3139   2 -5.771065E+00 -5.856287E+01 -3.072093E+00 -5.502757E+00 -1.667725E+00  1.724705E+00
      3139   3  5.708011E+00 -2.835861E+01  2.719747E+00 -1.506544E+01 -1.803616E+00  8.928111E-01
      3139   4 -4.321139E+00 -5.763621E+01 -1.433154E+00 -1.479445E+01 -1.801953E+00  1.716326E+00
      3139   5  4.483971E+00 -2.907461E+01  1.616343E+00 -6.918830E+00  1.804116E+00  1.161018E+00
      3139   6 -5.782919E+00 -5.859818E+01 -3.083047E+00 -6.647411E+00  1.805457E+00  2.190132E+00
      3139   7  5.697239E+00 -2.838053E+01  2.716681E+00 -1.612764E+01  1.847251E+00  1.155741E+00
      3139   8 -4.335095E+00 -5.766955E+01 -1.435412E+00 -1.585622E+01  1.848918E+00  2.181674E+00
      3140   1  3.841293E+00 -7.282771E+01  8.229198E-01  4.802432E-02 -1.694922E+00  2.538400E+00
      3140   2 -6.429020E+00 -1.023443E+02 -3.894883E+00  5.848089E-01 -1.695683E+00  3.934792E+00
      3140   3  6.359606E+00 -7.134587E+01  3.244067E+00 -9.242607E+00 -1.836634E+00  2.526424E+00
      3140   4 -3.677879E+00 -1.006296E+02 -9.304730E-01 -8.705823E+00 -1.837684E+00  3.916139E+00
      3140   5  3.810713E+00 -7.288415E+01  8.010306E-01 -3.747543E-01  1.769585E+00  3.152173E+00
      3140   6 -6.471885E+00 -1.024305E+02 -3.927986E+00  1.616521E-01  1.768822E+00  4.751403E+00
      3140   7  6.317457E+00 -7.140347E+01  3.229876E+00 -9.586921E+00  1.806018E+00  3.140084E+00
      3140   8 -3.730118E+00 -1.007148E+02 -9.507535E-01 -9.050514E+00  1.804964E+00  4.732574E+00
      3141   1  6.926764E+00  1.119219E+02  4.256513E+00  9.774671E-01 -1.800003E+00 -3.601088E+00
      3141   2 -4.305861E+00  7.959267E+01 -8.563349E-01  4.163530E-01 -1.786077E+00 -2.245169E+00
      3141   3  4.127293E+00  1.102059E+02  1.335923E+00 -9.206374E+00 -2.076781E+00 -3.606960E+00
      3141   4 -6.869132E+00  7.811286E+01 -3.225792E+00 -9.767488E+00 -2.062626E+00 -2.251323E+00
      3141   5  6.995473E+00  1.119192E+02  4.245328E+00  5.479075E-01  1.989668E+00 -4.388361E+00
      3141   6 -4.233032E+00  7.959336E+01 -8.571666E-01 -1.290689E-02  2.003598E+00 -2.826647E+00
      3141   7  4.206200E+00  1.102027E+02  1.312878E+00 -9.541129E+00  1.892950E+00 -4.394287E+00
      3141   8 -6.783877E+00  7.811527E+01 -3.233285E+00 -1.010194E+01  1.907112E+00 -2.832859E+00
      3142   1  6.294578E+00  6.399425E+01  3.465569E+00 -5.147478E+00 -1.757067E+00 -1.460462E+00
      3142   2 -4.939440E+00  3.166741E+01 -1.654313E+00 -5.424507E+00 -1.744412E+00 -6.725191E-01
      3142   3  4.863041E+00  6.309763E+01  1.908366E+00 -1.532949E+01 -2.028531E+00 -1.464767E+00
      3142   4 -6.137829E+00  3.100393E+01 -2.667506E+00 -1.560652E+01 -2.015917E+00 -6.714916E-01
      3142   5  6.350052E+00  6.399635E+01  3.465846E+00 -6.293149E+00  2.028984E+00 -1.892219E+00
      3142   6 -4.868897E+00  3.169851E+01 -1.632817E+00 -6.570233E+00  2.041638E+00 -9.010302E-01
      3142   7  4.922407E+00  6.309872E+01  1.901410E+00 -1.637336E+01  1.934993E+00 -1.896565E+00
      3142   8 -6.061196E+00  3.103623E+01 -2.648111E+00 -1.665044E+01  1.947605E+00 -8.999929E-01
      3143   1  5.627479E+00  1.607996E+01  2.657412E+00 -7.294300E+00 -1.734787E+00 -1.654421E-01
      3143   2 -5.572565E+00 -1.616607E+01 -2.430032E+00 -7.292392E+00 -1.727540E+00  4.319755E-01
      3143   3  5.541564E+00  1.599036E+01  2.444660E+00 -1.745371E+01 -2.003827E+00 -1.595914E-01
      3143   4 -5.427386E+00 -1.602458E+01 -2.103562E+00 -1.745180E+01 -1.996895E+00  4.456705E-01
      3143   5  5.668701E+00  1.611843E+01  2.678152E+00 -8.682158E+00  2.050251E+00 -2.458028E-01
      3143   6 -5.511391E+00 -1.608715E+01 -2.383243E+00 -8.680662E+00  2.057492E+00  5.531226E-01
      3143   7  5.580474E+00  1.602734E+01  2.462749E+00 -1.873683E+01  1.956947E+00 -2.398969E-01
      3143   8 -5.366344E+00 -1.594496E+01 -2.054338E+00 -1.873533E+01  1.963870E+00  5.669467E-01
      3144   1  4.939186E+00 -3.172967E+01  1.866165E+00 -5.338606E+00 -1.741052E+00  9.410415E-01
      3144   2 -6.233474E+00 -6.390045E+01 -3.205254E+00 -5.066966E+00 -1.739386E+00  1.734418E+00
      3144   3  6.164475E+00 -3.102889E+01  2.976809E+00 -1.547490E+01 -2.010601E+00  9.602774E-01
      3144   4 -4.778471E+00 -6.296995E+01 -1.558611E+00 -1.520326E+01 -2.009270E+00  1.760948E+00
      3144   5  4.972276E+00 -3.164018E+01  1.913482E+00 -6.482750E+00  2.036874E+00  1.209258E+00
      3144   6 -6.181539E+00 -6.377305E+01 -3.133031E+00 -6.211548E+00  2.038534E+00  2.202928E+00
      3144   7  6.190419E+00 -3.094081E+01  3.026587E+00 -1.651522E+01  1.941905E+00  1.228675E+00
      3144   8 -4.731515E+00 -6.284180E+01 -1.478872E+00 -1.624402E+01  1.943226E+00  2.229708E+00
      3145   1  4.265354E+00 -7.944462E+01  1.081223E+00  4.859135E-01 -1.778141E+00  2.523200E+00
      3145   2 -6.911760E+00 -1.116126E+02 -4.007815E+00  1.020353E+00 -1.779529E+00  3.884817E+00
      3145   3  6.776387E+00 -7.796553E+01  3.500479E+00 -9.646895E+00 -2.051651E+00  2.554023E+00
      3145   4 -4.171415E+00 -1.099042E+02 -1.053500E+00 -9.112456E+00 -2.053593E+00  3.920074E+00
      3145   5  4.298255E+00 -7.930745E+01  1.156431E+00  5.541071E-02  1.991609E+00  3.138186E+00
      3145   6 -6.865627E+00 -1.114506E+02 -3.913325E+00  5.891264E-01  1.990210E+00  4.699689E+00
      3145   7  6.796643E+00 -7.782998E+01  3.582936E+00 -9.977174E+00  1.892367E+00  3.169300E+00
      3145   8 -4.135765E+00 -1.097417E+02 -9.467140E-01 -9.443459E+00  1.890409E+00  4.735279E+00
      3146   1  7.417114E+00  1.214216E+02  4.565367E+00  1.387302E+00 -1.876072E+00 -3.325571E+00
      3146   2 -4.784871E+00  8.628666E+01 -9.729973E-01  8.124387E-01 -1.862687E+00 -2.014509E+00
      3146   3  4.589018E+00  1.197035E+02  1.666482E+00 -9.682976E+00 -2.305862E+00 -3.333312E+00
      3146   4 -7.377738E+00  8.480379E+01 -3.323014E+00 -1.025784E+01 -2.293872E+00 -2.017471E+00
      3146   5  7.498024E+00  1.214091E+02  4.530432E+00  9.566740E-01  2.220537E+00 -4.097467E+00
      3146   6 -4.686096E+00  8.630450E+01 -9.787363E-01  3.799873E-01  2.233871E+00 -2.581277E+00
      3146   7  4.673623E+00  1.196878E+02  1.617220E+00 -1.000419E+01  1.968977E+00 -4.105280E+00
      3146   8 -7.273049E+00  8.482067E+01 -3.337903E+00 -1.058088E+01  1.980903E+00 -2.584267E+00
      3147   1  6.775817E+00  6.936161E+01  3.753213E+00 -4.753269E+00 -1.824764E+00 -1.257927E+00
      3147   2 -5.414581E+00  3.426638E+01 -1.786221E+00 -5.042064E+00 -1.812976E+00 -5.019718E-01
      3147   3  5.320624E+00  6.846405E+01  2.216543E+00 -1.580998E+01 -2.249935E+00 -1.254594E+00
      3147   4 -6.637740E+00  3.360085E+01 -2.781475E+00 -1.609878E+01 -2.239558E+00 -4.862140E-01
      3147   5  6.851533E+00  6.939661E+01  3.756414E+00 -5.890547E+00  2.263596E+00 -1.675449E+00
      3147   6 -5.306128E+00  3.436659E+01 -1.739105E+00 -6.181187E+00  2.275332E+00 -7.168726E-01
      3147   7  5.394763E+00  6.849579E+01  2.210457E+00 -1.682842E+01  2.013905E+00 -1.672084E+00
      3147   8 -6.528673E+00  3.370000E+01 -2.738539E+00 -1.711906E+01  2.024217E+00 -7.009663E-01
      3148   1  6.094359E+00  1.737241E+01  2.924703E+00 -6.874959E+00 -1.798236E+00 -1.481028E-02
      3148   2 -6.041260E+00 -1.758856E+01 -2.566391E+00 -6.883215E+00 -1.792503E+00  5.601839E-01
      3148   3  5.987994E+00  1.728198E+01  2.729653E+00 -1.789330E+01 -2.219498E+00  1.155162E-02
      3148   4 -5.918412E+00 -1.744977E+01 -2.226614E+00 -1.790156E+01 -2.216030E+00  6.030931E-01
      3148   5  6.169284E+00  1.750134E+01  2.980946E+00 -8.252046E+00  2.285760E+00 -8.222820E-02
      3148   6 -5.925614E+00 -1.737566E+01 -2.458387E+00 -8.263262E+00  2.291411E+00  6.930760E-01
      3148   7  6.052529E+00  1.740604E+01  2.780033E+00 -1.914675E+01  2.037537E+00 -5.561765E-02
      3148   8 -5.810995E+00 -1.723958E+01 -2.119428E+00 -1.915797E+01  2.040901E+00  7.363898E-01
      3149   1  5.380773E+00 -3.443469E+01  2.122777E+00 -4.887711E+00 -1.805583E+00  1.054270E+00
      3149   2 -6.698653E+00 -6.924989E+01 -3.326775E+00 -4.621414E+00 -1.805523E+00  1.829146E+00
      3149   3  6.598405E+00 -3.373125E+01  3.249947E+00 -1.586282E+01 -2.226819E+00  1.109209E+00
      3149   4 -5.253832E+00 -6.831926E+01 -1.669499E+00 -1.559652E+01 -2.229532E+00  1.900401E+00
      3149   5  5.468013E+00 -3.418559E+01  2.243578E+00 -6.027219E+00  2.268959E+00  1.333151E+00
      3149   6 -6.571218E+00 -6.891794E+01 -3.154836E+00 -5.764547E+00  2.268919E+00  2.306565E+00
      3149   7  6.668102E+00 -3.348796E+01  3.368939E+00 -1.687938E+01  2.018999E+00  1.388608E+00
      3149   8 -5.141797E+00 -6.799098E+01 -1.494368E+00 -1.661670E+01  2.016159E+00  2.378492E+00
      3150   1  4.679944E+00 -8.605290E+01  1.348716E+00  9.381227E-01 -1.849598E+00  2.604574E+00
      3150   2 -7.382115E+00 -1.208137E+02 -4.097361E+00  1.465190E+00 -1.852785E+00  3.948208E+00
      3150   3  7.172071E+00 -8.457848E+01  3.771302E+00 -1.001910E+01 -2.274289E+00  2.687175E+00
      3150   4 -4.663263E+00 -1.191125E+02 -1.145751E+00 -9.492030E+00 -2.279818E+00  4.045489E+00
      3150   5  4.789887E+00 -8.568265E+01  1.537301E+00  5.013114E-01  2.216051E+00  3.227164E+00
      3150   6 -7.235202E+00 -1.203681E+02 -3.860885E+00  1.025318E+00  2.212780E+00  4.768873E+00
      3150   7  7.261832E+00 -8.421306E+01  3.964014E+00 -1.033518E+01  1.962194E+00  3.310544E+00
      3150   8 -4.534394E+00 -1.186696E+02 -9.001585E-01 -9.811169E+00  1.956558E+00  4.867072E+00
      3151   1  7.882179E+00  1.309741E+02  4.953001E+00  1.817805E+00 -1.938331E+00 -2.958974E+00
      3151   2 -5.310366E+00  9.298822E+01 -1.036310E+00  1.223768E+00 -1.929212E+00 -1.707324E+00
      3151   3  5.017987E+00  1.292569E+02  2.093299E+00 -1.015051E+01 -2.546653E+00 -2.936899E+00
      3151   4 -7.941812E+00  9.150380E+01 -3.352937E+00 -1.074455E+01 -2.542015E+00 -1.682183E+00
      3151   5  8.024723E+00  1.310919E+02  4.953191E+00  1.386247E+00  2.458594E+00 -3.704432E+00
      3151   6 -5.149598E+00  9.313229E+01 -1.001616E+00  7.863521E-01  2.467478E+00 -2.249830E+00
      3151   7  5.151596E+00  1.293663E+02  2.074265E+00 -1.046641E+01  2.025332E+00 -3.682149E+00
      3151   8 -7.787784E+00  9.164162E+01 -3.332345E+00 -1.106630E+01  2.029692E+00 -2.224451E+00
      3152   1  7.193319E+00  7.471933E+01  4.079996E+00 -4.328400E+00 -1.879589E+00 -9.852917E-01
      3152   2 -5.950615E+00  3.686626E+01 -1.880050E+00 -4.652289E+00 -1.872281E+00 -2.643112E-01
      3152   3  5.644019E+00  7.379542E+01  2.549615E+00 -1.625609E+01 -2.480841E+00 -9.526150E-01
      3152   4 -7.270134E+00  3.617214E+01 -2.874274E+00 -1.657998E+01 -2.476911E+00 -2.141159E-01
      3152   5  7.322369E+00  7.488302E+01  4.126456E+00 -5.453705E+00  2.504108E+00 -1.379894E+00
      3152   6 -5.775166E+00  3.712214E+01 -1.771118E+00 -5.782009E+00  2.511239E+00 -4.577860E-01
      3152   7  5.764227E+00  7.395287E+01  2.584114E+00 -1.724805E+01  2.075242E+00 -1.346909E+00
      3152   8 -7.101359E+00  3.642395E+01 -2.772247E+00 -1.757635E+01  2.078963E+00 -4.071173E-01
      3153   1  6.495047E+00  1.866125E+01  3.223121E+00 -6.444617E+00 -1.846176E+00  2.045867E-01
      3153   2 -6.586639E+00 -1.903463E+01 -2.686625E+00 -6.495969E+00 -1.847120E+00  7.646587E-01
      3153   3  6.263764E+00  1.852912E+01  3.013982E+00 -1.832648E+01 -2.436680E+00  2.706927E-01
      3153   4 -6.590586E+00 -1.893942E+01 -2.365315E+00 -1.837783E+01 -2.442993E+00  8.567152E-01
      3153   5  6.626504E+00  1.896270E+01  3.347743E+00 -7.804475E+00  2.528808E+00  1.577290E-01
      3153   6 -6.392382E+00 -1.860254E+01 -2.483301E+00 -7.862846E+00  2.527582E+00  9.172396E-01
      3153   7  6.372803E+00  1.882066E+01  3.127958E+00 -1.954287E+01  2.108428E+00  2.244586E-01
      3153   8 -6.416602E+00 -1.851510E+01 -2.167632E+00 -1.960124E+01  2.101782E+00  1.010164E+00
      3154   1  5.781581E+00 -3.716037E+01  2.402582E+00 -4.443581E+00 -1.855473E+00  1.250866E+00
      3154   2 -7.217063E+00 -7.464393E+01 -3.442672E+00 -4.202551E+00 -1.862916E+00  2.019136E+00
      3154   3  6.931438E+00 -3.647592E+01  3.534233E+00 -1.626304E+01 -2.444420E+00  1.362014E+00
      3154   4 -5.841505E+00 -7.373378E+01 -1.784383E+00 -1.602201E+01 -2.459423E+00  2.156493E+00
      3154   5  5.942182E+00 -3.666645E+01  2.629440E+00 -5.574734E+00  2.506782E+00  1.548930E+00
      3154   6 -6.993241E+00 -7.401828E+01 -3.136805E+00 -5.343584E+00  2.498942E+00  2.515228E+00
      3154   7  7.054516E+00 -3.599627E+01  3.751036E+00 -1.725099E+01  2.086392E+00  1.661126E+00
      3154   8 -5.653076E+00 -7.312027E+01 -1.483604E+00 -1.701984E+01  2.070921E+00  2.653881E+00
      3155   1  5.057423E+00 -9.267365E+01  1.631924E+00  1.391952E+00 -1.908204E+00  2.790993E+00
      3155   2 -7.845789E+00 -1.299209E+02 -4.131499E+00  1.905081E+00 -1.917614E+00  4.131477E+00
      3155   3  7.518219E+00 -9.120366E+01  4.071120E+00 -1.035952E+01 -2.504007E+00  2.946327E+00
      3155   4 -5.157727E+00 -1.282237E+02 -1.162017E+00 -9.846386E+00 -2.520251E+00  4.309717E+00
      3155   5  5.268793E+00 -9.198124E+01  1.969162E+00  9.480339E-01  2.444566E+00  3.432488E+00
      3155   6 -7.577591E+00 -1.291118E+02 -3.721536E+00  1.452231E+00  2.434798E+00  4.972190E+00
      3155   7  7.690344E+00 -9.052414E+01  4.404597E+00 -1.066500E+01  2.018447E+00  3.589287E+00
      3155   8 -4.926630E+00 -1.274253E+02 -7.508124E-01 -1.016080E+01  2.001780E+00  5.152111E+00
      3156   1  8.250870E+00  1.404234E+02  5.395146E+00  2.333149E+00 -1.988756E+00 -2.436540E+00
      3156   2 -5.908591E+00  9.965462E+01 -1.034235E+00  1.721641E+00 -1.990732E+00 -1.292554E+00
      3156   3  5.379524E+00  1.387329E+02  2.631200E+00 -1.051183E+01 -2.802197E+00 -2.340487E+00
      3156   4 -8.556317E+00  9.818765E+01 -3.276401E+00 -1.112334E+01 -2.815371E+00 -1.208545E+00
      3156   5  8.515983E+00  1.408641E+02  5.510873E+00  1.908221E+00  2.698812E+00 -3.131343E+00
      3156   6 -5.651704E+00  1.000556E+02 -9.062207E-01  1.282076E+00  2.696066E+00 -1.793346E+00
      3156   7  5.607358E+00  1.391532E+02  2.716488E+00 -1.083179E+01  2.052017E+00 -3.034384E+00
      3156   8 -8.334600E+00  9.857039E+01 -3.173904E+00 -1.145793E+01  2.037967E+00 -1.708544E+00
      3157   1  7.423280E+00  8.004779E+01  4.429376E+00 -3.778532E+00 -1.913926E+00 -6.256924E-01
      3157   2 -6.629954E+00  3.954859E+01 -1.915542E+00 -4.173393E+00 -1.918660E+00  5.222304E-02
      3157   3  5.671292E+00  7.905824E+01  2.882861E+00 -1.654463E+01 -2.702990E+00 -5.377897E-01
      3157   4 -8.158392E+00  3.878259E+01 -2.940440E+00 -1.693949E+01 -2.718323E+00  1.628061E-01
      3157   5  7.637093E+00  8.045124E+01  4.564741E+00 -4.872878E+00  2.755752E+00 -9.836059E-01
      3157   6 -6.356298E+00  4.007117E+01 -1.699827E+00 -5.281591E+00  2.750289E+00 -1.093515E-01
      3157   7  5.847264E+00  7.944322E+01  2.994504E+00 -1.749134E+01  2.132687E+00 -8.948741E-01
      3157   8 -7.920469E+00  3.928881E+01 -2.743528E+00 -1.790006E+01  2.116525E+00  2.274543E-03
      3158   1  6.667421E+00  2.003682E+01  3.549638E+00 -5.964803E+00 -1.865579E+00  5.029963E-01
      3158   2 -7.352802E+00 -2.037222E+01 -2.775396E+00 -6.141307E+00 -1.883559E+00  1.056617E+00
      3158   3  6.041322E+00  1.975154E+01  3.224776E+00 -1.870332E+01 -2.634455E+00  6.346985E-01
      3158   4 -7.753048E+00 -2.043165E+01 -2.573265E+00 -1.887983E+01 -2.661841E+00  1.223337E+00
      3158   5  6.885560E+00  2.062094E+01  3.786774E+00 -7.289161E+00  2.792065E+00  4.861974E-01
      3158   6 -7.050475E+00 -1.961238E+01 -2.433352E+00 -7.477960E+00  2.773438E+00  1.239013E+00
      3158   7  6.223600E+00  2.032012E+01  3.446011E+00 -1.986488E+01  2.190583E+00  6.191418E-01
      3158   8 -7.484451E+00 -1.968522E+01 -2.242152E+00 -2.005368E+01  2.162461E+00  1.407306E+00
      3159   1  6.049568E+00 -3.979482E+01  2.733054E+00 -4.078344E+00 -1.879990E+00  1.543660E+00
      3159   2 -7.956835E+00 -8.015326E+01 -3.596513E+00 -3.933916E+00 -1.906494E+00  2.320666E+00
      3159   3  6.900443E+00 -3.922282E+01  3.788839E+00 -1.679911E+01 -2.640464E+00  1.739183E+00
      3159   4 -6.876473E+00 -7.935178E+01 -2.005258E+00 -1.665468E+01 -2.677633E+00  2.559862E+00
      3159   5  6.308622E+00 -3.893942E+01  3.110659E+00 -5.179145E+00  2.763315E+00  1.873254E+00
      3159   6 -7.596376E+00 -7.908230E+01 -3.096451E+00 -5.048655E+00  2.736078E+00  2.853217E+00
      3159   7  7.111699E+00 -3.838595E+01  4.152478E+00 -1.772646E+01  2.172870E+00  2.070621E+00
      3159   8 -6.561647E+00 -7.829718E+01 -1.514111E+00 -1.759597E+01  2.134867E+00  3.094669E+00
      3160   1  5.339172E+00 -9.938314E+01  1.925449E+00  1.783787E+00 -1.956431E+00  3.095424E+00
      3160   2 -8.352916E+00 -1.390005E+02 -4.097498E+00  2.270347E+00 -1.981500E+00  4.435094E+00
      3160   3  7.746392E+00 -9.791541E+01  4.410642E+00 -1.073096E+01 -2.736739E+00  3.360871E+00
      3160   4 -5.708618E+00 -1.372957E+02 -1.059125E+00 -1.024440E+01 -2.775455E+00  4.728589E+00
      3160   5  5.690326E+00 -9.821142E+01  2.473311E+00  1.347057E+00  2.680737E+00  3.778576E+00
      3160   6 -7.930465E+00 -1.376842E+02 -3.456592E+00  1.815782E+00  2.654729E+00  5.326741E+00
      3160   7  8.029680E+00 -9.676867E+01  4.943128E+00 -1.101569E+01  2.076600E+00  4.046527E+00
      3160   8 -5.351798E+00 -1.360021E+02 -4.283767E-01 -1.054697E+01  2.036817E+00  5.623004E+00
      3161   1  8.527924E+00  1.496350E+02  5.937823E+00  2.590517E+00 -1.979856E+00 -1.822635E+00
      3161   2 -6.696200E+00  1.058909E+02 -1.065192E+00  1.939017E+00 -2.004175E+00 -8.249311E-01
      3161   3  5.818901E+00  1.480868E+02  3.486329E+00 -1.011397E+01 -2.753849E+00 -1.631445E+00
      3161   4 -9.216187E+00  1.045318E+02 -3.075601E+00 -1.076547E+01 -2.790588E+00 -6.390815E-01
      3161   5  8.928511E+00  1.505293E+02  6.232169E+00  2.328650E+00  3.010504E+00 -2.430504E+00
      3161   6 -6.291512E+00  1.067746E+02 -7.465409E-01  1.660013E+00  2.985190E+00 -1.259345E+00
      3161   7  6.142108E+00  1.489544E+02  3.768930E+00 -1.059692E+01  2.424650E+00 -2.242487E+00
      3161   8 -8.892017E+00  1.053856E+02 -2.776016E+00 -1.126556E+01  2.387122E+00 -1.076580E+00
      3162   1  7.102581E+00  8.493319E+01  4.603897E+00 -3.415106E+00 -1.860109E+00 -2.250226E-01
      3162   2 -7.591314E+00  4.244100E+01 -1.883562E+00 -3.986801E+00 -1.895797E+00  4.162540E-01
      3162   3  4.971632E+00  8.382091E+01  3.027241E+00 -1.579813E+01 -2.581981E+00 -3.683979E-02
      3162   4 -9.528301E+00  4.152268E+01 -3.007639E+00 -1.636982E+01 -2.632487E+00  6.161515E-01
      3162   5  7.453308E+00  8.580940E+01  4.923585E+00 -4.284147E+00  3.113213E+00 -5.303002E-01
      3162   6 -7.200794E+00  4.338933E+01 -1.503350E+00 -4.876286E+00  3.076337E+00  2.903294E-01
      3162   7  5.233226E+00  8.466222E+01  3.319740E+00 -1.686151E+01  2.585213E+00 -3.452406E-01
      3162   8 -9.230133E+00  4.243289E+01 -2.662128E+00 -1.745365E+01  2.533765E+00  4.869093E-01
      3163   1  6.287711E+00  2.173926E+01  3.881682E+00 -5.954869E+00 -1.790399E+00  8.587369E-01
      3163   2 -8.623781E+00 -2.126543E+01 -2.818602E+00 -6.408755E+00 -1.843550E+00  1.426346E+00
      3163   3  4.867010E+00  2.112731E+01  3.262553E+00 -1.846926E+01 -2.470665E+00  1.076443E+00
      3163   4 -9.831550E+00 -2.166444E+01 -2.940889E+00 -1.892314E+01 -2.537438E+00  1.680991E+00
      3163   5  6.620681E+00  2.273995E+01  4.281031E+00 -7.033862E+00  3.178435E+00  8.712349E-01
      3163   6 -8.197291E+00 -2.006928E+01 -2.302975E+00 -7.506543E+00  3.124192E+00  1.637669E+00
      3163   7  5.116589E+00  2.209231E+01  3.626334E+00 -1.971328E+01  2.709396E+00  1.085328E+00
      3163   8 -9.491985E+00 -2.050752E+01 -2.469077E+00 -2.018596E+01  2.641757E+00  1.888088E+00
      3164   1  5.987541E+00 -4.196364E+01  3.170226E+00 -4.541209E+00 -1.812908E+00  1.936398E+00
      3164   2 -9.148316E+00 -8.549303E+01 -3.753232E+00 -4.585759E+00 -1.872834E+00  2.762277E+00
      3164   3  6.219063E+00 -4.165273E+01  3.975051E+00 -1.718939E+01 -2.470145E+00  2.223098E+00
      3164   4 -8.684693E+00 -8.495003E+01 -2.406839E+00 -1.723394E+01 -2.549310E+00  3.099613E+00
      3164   5  6.359748E+00 -4.065693E+01  3.725370E+00 -5.390147E+00  3.150646E+00  2.300126E+00
      3164   6 -8.652706E+00 -8.392320E+01 -3.049878E+00 -5.461243E+00  3.089178E+00  3.343559E+00
      3164   7  6.498607E+00 -4.038925E+01  4.478771E+00 -1.818849E+01  2.721857E+00  2.582067E+00
      3164   8 -8.285598E+00 -8.342727E+01 -1.763897E+00 -1.825959E+01  2.641469E+00  3.675296E+00
      3165   1  5.544115E+00 -1.060565E+02  2.309269E+00  1.428129E+00 -1.950196E+00  3.563946E+00
      3165   2 -9.214130E+00 -1.487224E+02 -4.219030E+00  1.927526E+00 -2.006294E+00  4.928265E+00
      3165   3  7.883329E+00 -1.046071E+02  4.801282E+00 -1.100359E+01 -2.656367E+00  3.943961E+00
      3165   4 -6.616770E+00 -1.470148E+02 -1.124673E+00 -1.050419E+01 -2.748502E+00  5.374250E+00
      3165   5  6.020929E+00 -1.043182E+02  3.082442E+00  1.193412E+00  3.021933E+00  4.313707E+00
      3165   6 -8.580091E+00 -1.466448E+02 -3.261041E+00  1.643086E+00  2.962946E+00  5.920768E+00
      3165   7  8.215783E+00 -1.029382E+02  5.487866E+00 -1.136565E+01  2.566411E+00  4.687416E+00
      3165   8 -6.131375E+00 -1.450109E+02 -2.632708E-01 -1.091598E+01  2.471985E+00  6.359351E+00
      3166   1  8.001674E+00  1.564960E+02  5.903247E+00  3.682554E+00 -2.252072E+00 -1.218439E+00
      3166   2 -7.619201E+00  1.114252E+02 -1.095518E+00  3.077878E+00 -2.301532E+00 -3.277218E-01
      3166   3  5.578687E+00  1.551505E+02  3.841071E+00 -9.436226E+00 -2.753640E+00 -8.453481E-01
      3166   4 -9.914800E+00  1.102070E+02 -2.860457E+00 -1.004090E+01 -2.830765E+00  5.428255E-03
      3166   5  8.628395E+00  1.582196E+02  6.560443E+00  3.476012E+00  3.062002E+00 -1.693644E+00
      3166   6 -7.068594E+00  1.129625E+02 -5.057038E-01  2.833164E+00  3.011120E+00 -6.878040E-01
      3166   7  6.061475E+00  1.568175E+02  4.453569E+00 -9.914066E+00  2.690715E+00 -1.326744E+00
      3166   8 -9.510239E+00  1.116856E+02 -2.320272E+00 -1.055691E+01  2.612626E+00 -3.601824E-01
      3167   1  5.986161E+00  8.960928E+01  4.651808E+00 -1.784850E+00 -2.051806E+00  2.103782E-01
      3167   2 -8.988622E+00  4.603523E+01 -1.690094E+00 -2.639514E+00 -2.127303E+00  7.897775E-01
      3167   3  3.016584E+00  8.816257E+01  2.799044E+00 -1.452468E+01 -2.523401E+00  5.322565E-01
      3167   4 -1.179726E+01  4.474948E+01 -3.167323E+00 -1.537935E+01 -2.620144E+00  1.120802E+00
      3167   5  6.445713E+00  9.106618E+01  5.199604E+00 -2.569212E+00  3.262708E+00 -5.320663E-02
      3167   6 -8.501867E+00  4.754458E+01 -1.104062E+00 -3.453191E+00  3.186119E+00  6.747055E-01
      3167   7  3.343264E+00  8.956542E+01  3.299521E+00 -1.551259E+01  2.951388E+00  2.633303E-01
      3167   8 -1.144604E+01  4.620209E+01 -2.634841E+00 -1.639657E+01  2.853905E+00  1.000237E+00
      3168   1  4.951027E+00  2.428991E+01  4.215754E+00 -5.220283E+00 -1.922538E+00  1.214319E+00
      3168   2 -1.073319E+01 -2.100659E+01 -2.768482E+00 -6.123608E+00 -2.021840E+00  1.794788E+00
      3168   3  2.126425E+00  2.307489E+01  2.990284E+00 -1.841138E+01 -2.323965E+00  1.561062E+00
      3168   4 -1.334782E+01 -2.201163E+01 -3.504005E+00 -1.931470E+01 -2.447355E+00  2.175332E+00
      3168   5  5.381080E+00  2.584091E+01  4.809371E+00 -6.183466E+00  3.426324E+00  1.224939E+00
      3168   6 -1.022239E+01 -1.928157E+01 -2.079720E+00 -7.120026E+00  3.325784E+00  2.000292E+00
      3168   7  2.403692E+00  2.456048E+01  3.518669E+00 -1.955490E+01  3.228484E+00  1.565928E+00
      3168   8 -1.299329E+01 -2.035550E+01 -2.888606E+00 -2.049146E+01  3.104255E+00  2.374520E+00
      3169   1  5.303322E+00 -4.307582E+01  3.733247E+00 -4.973054E+00 -1.927313E+00  2.334029E+00
      3169   2 -1.135442E+01 -9.071126E+01 -4.157121E+00 -5.419473E+00 -2.040802E+00  3.226791E+00
      3169   3  4.287528E+00 -4.329617E+01  4.014552E+00 -1.877239E+01 -2.279602E+00  2.747540E+00
      3169   4 -1.210455E+01 -9.066594E+01 -3.255929E+00 -1.921881E+01 -2.421881E+00  3.696574E+00
      3169   5  5.754751E+00 -4.124117E+01  4.452603E+00 -5.703905E+00  3.456593E+00  2.701369E+00
      3169   6 -1.077287E+01 -8.859120E+01 -3.289432E+00 -6.190047E+00  3.341623E+00  3.841394E+00
      3169   7  4.583268E+00 -4.153181E+01  4.655292E+00 -1.966575E+01  3.356580E+00  3.108018E+00
      3169   8 -1.168309E+01 -8.862058E+01 -2.477144E+00 -2.015190E+01  3.213298E+00  4.303381E+00
      3170   1  5.660248E+00 -1.127120E+02  2.733743E+00  8.407122E-01 -2.176102E+00  4.091167E+00
      3170   2 -1.044409E+01 -1.591467E+02 -4.512702E+00  1.318644E+00 -2.299598E+00  5.559923E+00
      3170   3  8.005556E+00 -1.112183E+02  5.367465E+00 -1.267025E+01 -2.587013E+00  4.607033E+00
      3170   4 -7.782229E+00 -1.573364E+02 -1.140366E+00 -1.219232E+01 -2.757706E+00  6.145419E+00
      3170   5  6.153655E+00 -1.104418E+02  3.639026E+00  7.395096E-01  3.261571E+00  4.904162E+00
      3170   6 -9.790295E+00 -1.565239E+02 -3.425334E+00  1.152321E+00  3.135649E+00  6.667673E+00
      3170   7  8.303435E+00 -1.090400E+02  6.161926E+00 -1.291240E+01  3.146245E+00  5.411468E+00
      3170   8 -7.329219E+00 -1.548108E+02 -1.760772E-01 -1.249959E+01  2.973908E+00  7.243454E+00
      3171   1  6.470837E+00  1.598610E+02  4.878928E+00  5.673127E+00 -2.501443E+00 -6.438412E-01
      3171   2 -8.354122E+00  1.163869E+02 -1.063432E+00  5.296061E+00 -2.596897E+00  1.016480E-01
      3171   3  4.831789E+00  1.588939E+02  3.294048E+00 -7.088945E+00 -2.710102E+00 -1.513413E-01
      3171   4 -9.927128E+00  1.154857E+02 -2.494214E+00 -7.466010E+00 -2.840921E+00  5.702302E-01
      3171   5  7.089125E+00  1.620615E+02  5.706358E+00  5.521299E+00  3.027540E+00 -1.058815E+00
      3171   6 -7.783838E+00  1.184734E+02 -2.820098E-01  5.095438E+00  2.931284E+00 -2.531200E-01
      3171   7  5.283199E+00  1.610272E+02  4.064604E+00 -7.486052E+00  2.890491E+00 -5.744890E-01
      3171   8 -9.524818E+00  1.175040E+02 -1.772223E+00 -7.911913E+00  2.759457E+00  2.076853E-01
      3172   1  3.623300E+00  9.436462E+01  4.422799E+00  9.094198E-01 -2.247098E+00  5.636298E-01
      3172   2 -1.112355E+01  5.097518E+01 -1.343921E+00 -2.893564E-01 -2.368521E+00  1.080299E+00
      3172   3 -4.446789E-01  9.243267E+01  2.050937E+00 -1.184970E+01 -2.430398E+00  1.030116E+00
      3172   4 -1.507370E+01  4.916105E+01 -3.440849E+00 -1.304848E+01 -2.578412E+00  1.564976E+00
      3172   5  4.136231E+00  9.641914E+01  5.180069E+00  2.743962E-01  3.339603E+00  2.707209E-01
      3172   6 -1.057030E+01  5.312022E+01 -5.427676E-01 -9.610701E-01  3.217578E+00  8.961857E-01
      3172   7 -1.056964E-01  9.441577E+01  2.744087E+00 -1.267732E+01  3.273439E+00  7.294650E-01
      3172   8 -1.469635E+01  5.123272E+01 -2.708379E+00 -1.391279E+01  3.125264E+00  1.372819E+00
      3173   1  2.273492E+00  2.843049E+01  4.552211E+00 -4.151820E+00 -2.000868E+00  1.483626E+00
      3173   2 -1.401820E+01 -1.876186E+01 -2.561081E+00 -5.522684E+00 -2.156153E+00  2.068869E+00
      3173   3 -2.096874E+00  2.650278E+01  2.496890E+00 -1.791682E+01 -2.089998E+00  1.988207E+00
      3173   4 -1.818840E+01 -2.048940E+01 -4.149362E+00 -1.928768E+01 -2.281720E+00  2.609633E+00
      3173   5  2.734801E+00  3.061609E+01  5.342525E+00 -4.948261E+00  3.705309E+00  1.407026E+00
      3173   6 -1.347746E+01 -1.639697E+01 -1.685292E+00 -6.369400E+00  3.549198E+00  2.177205E+00
      3173   7 -1.865532E+00  2.859074E+01  3.191671E+00 -1.890034E+01  3.805176E+00  1.903233E+00
      3173   8 -1.788096E+01 -1.822549E+01 -3.376856E+00 -2.032148E+01  3.613233E+00  2.708994E+00
      3174   1  3.410236E+00 -4.226708E+01  4.454513E+00 -6.106783E+00 -1.924197E+00  2.641603E+00
      3174   2 -1.497379E+01 -9.455982E+01 -4.532846E+00 -7.214878E+00 -2.102295E+00  3.621100E+00
      3174   3  2.409915E-01 -4.346188E+01  3.641094E+00 -2.121175E+01 -1.924055E+00  3.212175E+00
      3174   4 -1.784709E+01 -9.545868E+01 -4.655728E+00 -2.231984E+01 -2.133559E+00  4.236922E+00
      3174   5  3.898079E+00 -3.980501E+01  5.350727E+00 -6.675269E+00  3.913541E+00  2.917645E+00
      3174   6 -1.438559E+01 -9.187252E+01 -3.527324E+00 -7.826696E+00  3.734732E+00  4.170389E+00
      3174   7  5.283707E-01 -4.108844E+01  4.442354E+00 -2.197860E+01  4.186058E+00  3.478747E+00
      3174   8 -1.746427E+01 -9.286491E+01 -3.756622E+00 -2.313002E+01  3.976363E+00  4.775990E+00
      3175   1  5.762950E+00 -1.190621E+02  3.389013E+00 -1.133318E+00 -2.276290E+00  4.572612E+00
      3175   2 -1.375763E+01 -1.742359E+02 -6.505757E+00 -7.808253E-01 -2.488697E+00  6.192694E+00
      3175   3  7.693171E+00 -1.177600E+02  5.799241E+00 -1.701540E+01 -2.285538E+00  5.228442E+00
      3175   4 -1.144282E+01 -1.725492E+02 -3.198165E+00 -1.666291E+01 -2.557572E+00  6.912580E+00
      3175   5  6.184505E+00 -1.162853E+02  4.381186E+00 -1.050102E+00  3.701915E+00  5.351931E+00
      3175   6 -1.319478E+01 -1.711411E+02 -5.360668E+00 -7.798793E-01  3.488156E+00  7.327222E+00
      3175   7  7.858615E+00 -1.151008E+02  6.655381E+00 -1.712016E+01  4.040916E+00  5.996877E+00
      3175   8 -1.114247E+01 -1.695784E+02 -2.204003E+00 -1.684994E+01  3.768520E+00  8.035160E+00
      3176   1  1.547460E+00  3.700055E+01 -1.085499E+00 -5.602399E+00 -6.798320E-01 -3.112836E+00
      3176   2 -4.522620E-01  2.989885E+01 -6.495475E-01 -6.177412E+00 -8.439630E-01 -1.925973E+00
      3176   3 -4.636004E-01  3.604402E+01 -2.262876E+00 -7.941553E+00 -8.091295E-01 -2.754837E+00
      3176   4 -2.408831E+00  2.899681E+01 -1.699778E+00 -8.516566E+00 -1.002554E+00 -1.614530E+00
      3176   5  1.539515E+00  3.836956E+01 -6.754841E-01 -6.266226E+00  8.518566E-01 -3.263050E+00
      3176   6 -5.541907E-01  3.104900E+01 -3.339448E-01 -6.880528E+00  6.878987E-01 -2.027189E+00
      3176   7 -6.272918E-01  3.734781E+01 -1.914520E+00 -8.701931E+00  7.936292E-01 -2.910827E+00
      3176   8 -2.667385E+00  3.008086E+01 -1.447886E+00 -9.316232E+00  6.008504E-01 -1.720770E+00
      3177   1  2.153280E+00  2.454845E+01  9.803736E-01 -1.015235E+01 -1.887497E-02 -1.248224E+00
      3177   2 -2.415996E+00  1.116652E+01 -8.686104E-01 -1.034333E+01 -5.199890E-02 -5.834427E-01
      3177   3  1.427103E+00  2.417252E+01  4.534351E-01 -1.419278E+01 -3.197818E-01 -1.012139E+00
      3177   4 -3.202428E+00  1.073033E+01 -1.536144E+00 -1.438376E+01 -4.086654E-01 -5.066830E-01
      3177   5  2.480312E+00  2.559367E+01  1.393208E+00 -1.140846E+01  1.690390E+00 -1.350881E+00
      3177   6 -2.409141E+00  1.146419E+01 -7.754776E-01 -1.167423E+01  1.657595E+00 -7.390361E-01
      3177   7  1.501963E+00  2.511071E+01  7.616764E-01 -1.571430E+01  1.364083E+00 -1.118605E+00
      3177   8 -3.446772E+00  1.092194E+01 -1.545337E+00 -1.598007E+01  1.276428E+00 -6.635146E-01
      3178   1  2.276593E+00  5.114345E+00  1.122476E+00 -1.299437E+01  1.816935E-01 -1.535355E-01
      3178   2 -2.072669E+00 -7.355243E+00 -9.054725E-01 -1.291871E+01  2.897282E-01  3.562119E-01
      3178   3  2.354276E+00  5.053261E+00  8.411768E-01 -1.671739E+01 -1.917025E-01 -1.790788E-01
      3178   4 -1.911925E+00 -7.333268E+00 -9.929665E-01 -1.664172E+01 -1.153651E-01  2.104966E-01
      3178   5  2.700289E+00  5.198605E+00  1.276553E+00 -1.458093E+01  1.642206E+00 -3.010614E-01
      3178   6 -1.891226E+00 -7.835588E+00 -9.943030E-01 -1.454778E+01  1.750428E+00  2.836622E-01
      3178   7  2.645943E+00  5.082458E+00  9.437448E-01 -1.851520E+01  1.364505E+00 -3.261926E-01
      3178   8 -1.863852E+00 -7.870015E+00 -1.136433E+00 -1.848205E+01  1.441541E+00  1.402977E-01
      3179   1  1.826894E+00 -1.302354E+01  7.376891E-01 -1.212985E+01 -1.250777E-01  7.773061E-01
      3179   2 -1.952749E+00 -2.408977E+01 -7.948933E-01 -1.173316E+01  6.590253E-02  1.418009E+00
      3179   3  3.073007E+00 -1.250493E+01  1.220297E+00 -1.547061E+01 -4.419220E-01  5.387343E-01
      3179   4 -6.391724E-01 -2.350369E+01 -1.548685E-01 -1.507392E+01 -2.431877E-01  1.045921E+00
      3179   5  2.190272E+00 -1.378193E+01  6.194629E-01 -1.373693E+01  1.289849E+00  7.545677E-01
      3179   6 -1.858379E+00 -2.547531E+01 -1.182659E+00 -1.332984E+01  1.480783E+00  1.456382E+00
      3179   7  3.491620E+00 -1.323939E+01  1.126573E+00 -1.729936E+01  1.057947E+00  5.198447E-01
      3179   8 -4.906558E-01 -2.486640E+01 -5.206716E-01 -1.689227E+01  1.256510E+00  1.090296E+00
      3180   1 -2.214973E-01 -2.851670E+01  3.693438E-01 -7.271836E+00 -7.186740E-01  2.088093E+00
      3180   2 -1.678937E+00 -3.381662E+01  8.111303E-01 -6.516352E+00 -4.932102E-01  3.278094E+00
      3180   3  2.339224E+00 -2.734148E+01  1.726025E+00 -9.033539E+00 -9.257388E-01  1.665851E+00
      3180   4  1.075606E+00 -3.244758E+01  2.620064E+00 -8.278054E+00 -6.893486E-01  2.852344E+00
      3180   5 -7.081654E-02 -3.007063E+01 -5.302188E-02 -8.293009E+00  4.793409E-01  2.212275E+00
      3180   6 -1.536458E+00 -3.538816E+01  3.790376E-01 -7.522870E+00  7.047402E-01  3.575600E+00
      3180   7  2.575268E+00 -2.886007E+01  1.336062E+00 -1.008798E+01  4.638424E-01  1.796844E+00
      3180   8  1.300322E+00 -3.398691E+01  2.213077E+00 -9.317844E+00  6.999918E-01  3.156718E+00
      3181   1  2.543514E+00  4.541577E+01  1.108963E+00 -3.515710E+00 -9.651336E-01 -4.423142E+00
      3181   2 -1.739176E+00  3.284475E+01 -5.956584E-01 -3.875746E+00 -1.159776E+00 -2.643921E+00
      3181   3  8.507283E-01  4.438326E+01 -6.399385E-01 -7.315748E+00 -8.822335E-01 -3.922724E+00
      3181   4 -3.288475E+00  3.195574E+01 -2.009757E+00 -7.675785E+00 -1.038674E+00 -2.204573E+00
      3181   5  2.677135E+00  4.740104E+01  1.776152E+00 -4.870960E+00  7.331872E-01 -4.920497E+00
      3181   6 -1.733274E+00  3.453849E+01 -6.266312E-02 -5.179759E+00  5.372519E-01 -3.010911E+00
      3181   7  1.141206E+00  4.644071E+01  1.109848E-01 -8.809643E+00  9.771384E-01 -4.428151E+00
      3181   8 -3.128031E+00  3.371933E+01 -1.398429E+00 -9.118443E+00  8.187890E-01 -2.578651E+00
      3182   1  2.041370E+00  2.628556E+01  1.054375E+00 -1.014607E+01 -6.274221E-01 -1.684648E+00
      3182   2 -2.667658E+00  1.265636E+01 -1.013184E+00 -1.018420E+01 -7.331499E-01 -8.430855E-01
      3182   3  1.615261E+00  2.592937E+01  2.931892E-01 -1.423580E+01 -7.672914E-01 -1.333504E+00
      3182   4 -2.991202E+00  1.240273E+01 -1.535051E+00 -1.427393E+01 -8.545786E-01 -6.718480E-01
      3182   5  2.291317E+00  2.774414E+01  1.584755E+00 -1.222030E+01  1.098838E+00 -1.968125E+00
      3182   6 -2.783120E+00  1.326695E+01 -8.528422E-01 -1.223369E+01  9.924860E-01 -1.028766E+00
      3182   7  1.948780E+00  2.742657E+01  8.687190E-01 -1.660197E+01  1.080349E+00 -1.622646E+00
      3182   8 -3.024747E+00  1.305029E+01 -1.333420E+00 -1.661536E+01  9.921399E-01 -8.602912E-01
      3183   1  2.939293E+00  6.476428E+00  1.274065E+00 -1.241012E+01 -5.451148E-01 -2.903802E-01
      3183   2 -1.949131E+00 -7.456505E+00 -1.087749E+00 -1.245347E+01 -4.847224E-01  3.780767E-01
      3183   3  2.688763E+00  6.305402E+00  9.545081E-01 -1.655686E+01 -7.281412E-01 -2.471442E-01
      3183   4 -2.056931E+00 -7.484801E+00 -1.074269E+00 -1.660021E+01 -6.863880E-01  2.515126E-01
      3183   5  3.289476E+00  6.794342E+00  1.481030E+00 -1.459419E+01  1.106620E+00 -3.914489E-01
      3183   6 -1.945384E+00 -7.940501E+00 -1.233662E+00 -1.466254E+01  1.167643E+00  4.103757E-01
      3183   7  2.956916E+00  6.589187E+00  1.129740E+00 -1.902116E+01  1.077139E+00 -3.489104E-01
      3183   8 -2.137517E+00 -8.005228E+00 -1.257287E+00 -1.908951E+01  1.119824E+00  2.858534E-01
      3184   1  3.043155E+00 -1.353528E+01  9.466060E-01 -1.117650E+01 -7.434938E-01  9.160381E-01
      3184   2 -1.251993E+00 -2.599103E+01 -9.147983E-01 -1.115909E+01 -5.512246E-01  1.717319E+00
      3184   3  3.242660E+00 -1.336770E+01  1.305677E+00 -1.491799E+01 -8.585963E-01  6.709844E-01
      3184   4 -8.884330E-01 -2.565941E+01 -1.729297E-01 -1.490057E+01 -7.133324E-01  1.318346E+00
      3184   5  3.388393E+00 -1.432915E+01  8.035904E-01 -1.338858E+01  8.554490E-01  1.052752E+00
      3184   6 -1.221966E+00 -2.751299E+01 -1.380427E+00 -1.343421E+01  1.049309E+00  2.005931E+00
      3184   7  3.380849E+00 -1.425163E+01  1.069513E+00 -1.738381E+01  9.141653E-01  8.116512E-01
      3184   8 -1.068101E+00 -2.727407E+01 -7.378823E-01 -1.742944E+01  1.061778E+00  1.613394E+00
      3185   1  1.470624E+00 -3.228486E+01  2.816050E-01 -4.688526E+00 -1.098717E+00  2.672007E+00
      3185   2 -2.433166E+00 -4.372585E+01 -1.290042E+00 -4.243355E+00 -8.712351E-01  4.478982E+00
      3185   3  3.345794E+00 -3.122610E+01  1.935639E+00 -8.144188E+00 -1.008229E+00  2.198224E+00
      3185   4 -3.429122E-01 -4.245200E+01  8.658550E-01 -7.699017E+00 -8.336745E-01  3.954733E+00
      3185   5  1.546733E+00 -3.407643E+01 -2.592237E-01 -6.139952E+00  4.495020E-01  3.087235E+00
      3185   6 -2.465864E+00 -4.576159E+01 -1.949384E+00 -5.765768E+00  6.787751E-01  5.088233E+00
      3185   7  3.206570E+00 -3.311407E+01  1.288807E+00 -9.715356E+00  7.624216E-01  2.621095E+00
      3185   8 -5.944125E-01 -4.458762E+01  9.241284E-02 -9.341172E+00  9.396213E-01  4.572441E+00
      3186   1  3.280007E+00  5.225765E+01  1.829377E+00 -2.747908E+00 -1.102904E+00 -4.400718E+00
      3186   2 -1.956449E+00  3.715000E+01 -5.178309E-01 -3.160047E+00 -1.226524E+00 -2.624105E+00
      3186   3  1.394518E+00  5.112799E+01 -5.065941E-02 -7.273658E+00 -9.218020E-01 -4.006087E+00
      3186   4 -3.727676E+00  3.613461E+01 -2.131255E+00 -7.685797E+00 -9.998906E-01 -2.293083E+00
      3186   5  3.484797E+00  5.387752E+01  2.437049E+00 -4.304574E+00  8.638053E-01 -4.928308E+00
      3186   6 -1.886689E+00  3.846422E+01 -5.460129E-02 -4.655646E+00  7.373716E-01 -3.045598E+00
      3186   7  1.785899E+00  5.283302E+01  6.542743E-01 -8.984043E+00  1.182143E+00 -4.540043E+00
      3186   8 -3.473167E+00  3.753214E+01 -1.575065E+00 -9.335115E+00  1.100507E+00 -2.719916E+00
      3187   1  2.949508E+00  2.980451E+01  1.496254E+00 -9.906298E+00 -1.084810E+00 -1.676397E+00
      3187   2 -2.335943E+00  1.459022E+01 -9.076268E-01 -1.008500E+01 -1.151173E+00 -8.638216E-01
      3187   3  2.024291E+00  2.920702E+01  4.298429E-01 -1.445848E+01 -9.594912E-01 -1.413503E+00
      3187   4 -3.110879E+00  1.414301E+01 -1.623384E+00 -1.463718E+01 -1.003134E+00 -7.234476E-01
      3187   5  3.173773E+00  3.092046E+01  1.935983E+00 -1.240293E+01  8.648119E-01 -2.007102E+00
      3187   6 -2.367451E+00  1.512174E+01 -7.360511E-01 -1.255116E+01  7.970444E-01 -1.052585E+00
      3187   7  2.344230E+00  3.036721E+01  9.213821E-01 -1.718290E+01  1.154173E+00 -1.748448E+00
      3187   8 -3.049138E+00  1.471636E+01 -1.405655E+00 -1.733113E+01  1.108760E+00 -9.144754E-01
      3188   1  3.037865E+00  7.419084E+00  1.277769E+00 -1.243936E+01 -1.063396E+00 -3.263555E-01
      3188   2 -2.259656E+00 -7.786175E+00 -1.175376E+00 -1.248996E+01 -1.031974E+00  3.294540E-01
      3188   3  2.787941E+00  7.261945E+00  1.003896E+00 -1.698187E+01 -9.655394E-01 -2.775646E-01
      3188   4 -2.348785E+00 -7.782519E+00 -1.074059E+00 -1.703246E+01 -9.445292E-01  2.505555E-01
      3188   5  3.268705E+00  7.708074E+00  1.443095E+00 -1.502028E+01  8.578628E-01 -4.076520E-01
      3188   6 -2.295638E+00 -8.106523E+00 -1.290119E+00 -1.508483E+01  8.899278E-01  3.998204E-01
      3188   7  2.971981E+00  7.531685E+00  1.151855E+00 -1.979688E+01  1.127188E+00 -3.596482E-01
      3188   8 -2.434161E+00 -8.124711E+00 -1.212222E+00 -1.986143E+01  1.149010E+00  3.221947E-01
      3189   1  2.760630E+00 -1.493553E+01  8.719499E-01 -1.056897E+01 -1.151708E+00  8.598480E-01
      3189   2 -2.318791E+00 -2.958806E+01 -1.406915E+00 -1.045066E+01 -1.041740E+00  1.653102E+00
      3189   3  3.336738E+00 -1.457639E+01  1.492975E+00 -1.495806E+01 -1.003560E+00  6.940631E-01
      3189   4 -1.566976E+00 -2.905322E+01 -3.759078E-01 -1.483975E+01 -9.315330E-01  1.377628E+00
      3189   5  2.919920E+00 -1.550948E+01  7.265135E-01 -1.311302E+01  7.488235E-01  1.045712E+00
      3189   6 -2.391030E+00 -3.068778E+01 -1.798356E+00 -1.304559E+01  8.611354E-01  2.002850E+00
      3189   7  3.333096E+00 -1.522198E+01  1.271675E+00 -1.771118E+01  1.082606E+00  8.826020E-01
      3189   8 -1.804982E+00 -3.022741E+01 -8.498264E-01 -1.764376E+01  1.157589E+00  1.731820E+00
      3190   1  1.930073E+00 -3.690162E+01  3.352182E-01 -3.557027E+00 -1.206527E+00  2.605004E+00
      3190   2 -3.155809E+00 -5.156156E+01 -1.957783E+00 -3.123186E+00 -1.069979E+00  4.412394E+00
      3190   3  3.813715E+00 -3.581361E+01  2.078285E+00 -7.946546E+00 -9.897146E-01  2.266467E+00
      3190   4 -1.122294E+00 -5.032367E+01  1.349851E-01 -7.512705E+00 -9.053676E-01  4.011255E+00
      3190   5  1.903481E+00 -3.822764E+01 -1.231824E-01 -5.118869E+00  7.023572E-01  3.065203E+00
      3190   6 -3.317606E+00 -5.319071E+01 -2.563737E+00 -4.755040E+00  8.421298E-01  5.010468E+00
      3190   7  3.573653E+00 -3.723565E+01  1.513300E+00 -9.658617E+00  1.086708E+00  2.732127E+00
      3190   8 -1.499980E+00 -5.205126E+01 -5.831943E-01 -9.294787E+00  1.175122E+00  4.615799E+00
      3191   1  3.779043E+00  5.923554E+01  2.319168E+00 -2.387165E+00 -1.290783E+00 -3.945293E+00
      3191   2 -2.182590E+00  4.214036E+01 -4.577685E-01 -2.828619E+00 -1.343012E+00 -2.302422E+00
      3191   3  1.641232E+00  5.793633E+01  1.262960E-01 -7.674612E+00 -1.032250E+00 -3.659440E+00
      3191   4 -4.157468E+00  4.100409E+01 -2.270463E+00 -8.116066E+00 -1.064367E+00 -2.081479E+00
      3191   5  4.057938E+00  6.047067E+01  2.865771E+00 -4.034042E+00  8.962244E-01 -4.561714E+00
      3191   6 -2.046018E+00  4.306068E+01 -7.076519E-02 -4.448774E+00  8.423958E-01 -2.769360E+00
      3191   7  2.015629E+00  5.920872E+01  7.015878E-01 -9.352408E+00  1.266835E+00 -4.273120E+00
      3191   8 -3.923831E+00  4.196323E+01 -1.851126E+00 -9.767140E+00  1.233311E+00 -2.546298E+00
      3192   1  3.483132E+00  3.389960E+01  1.824086E+00 -9.652663E+00 -1.347657E+00 -1.448115E+00
      3192   2 -2.487997E+00  1.673267E+01 -9.127505E-01 -9.886381E+00 -1.374850E+00 -7.569770E-01
      3192   3  2.320931E+00  3.318138E+01  5.922255E-01 -1.496968E+01 -1.096031E+00 -1.278650E+00
      3192   4 -3.479588E+00  1.618506E+01 -1.746519E+00 -1.520340E+01 -1.110398E+00 -6.632398E-01
      3192   5  3.671335E+00  3.464108E+01  2.156098E+00 -1.239737E+01  8.647112E-01 -1.802819E+00
      3192   6 -2.464289E+00  1.710843E+01 -7.633250E-01 -1.261405E+01  8.364979E-01 -9.545363E-01
      3192   7  2.568932E+00  3.394638E+01  9.428290E-01 -1.775854E+01  1.235493E+00 -1.631729E+00
      3192   8 -3.394445E+00  1.658597E+01 -1.574685E+00 -1.797522E+01  1.220228E+00 -8.599003E-01
      3193   1  3.201287E+00  8.499264E+00  1.393142E+00 -1.223319E+01 -1.361049E+00 -2.981493E-01
      3193   2 -2.747992E+00 -8.598108E+00 -1.340415E+00 -1.226690E+01 -1.346617E+00  2.642528E-01
      3193   3  3.002693E+00  8.364710E+00  1.143224E+00 -1.752755E+01 -1.113804E+00 -2.623127E-01
      3193   4 -2.767228E+00 -8.553304E+00 -1.171833E+00 -1.756126E+01 -1.104048E+00  2.176306E-01
      3193   5  3.333903E+00  8.696073E+00  1.503897E+00 -1.508946E+01  8.368639E-01 -3.776391E-01
      3193   6 -2.793978E+00 -8.799020E+00 -1.427283E+00 -1.512939E+01  8.516683E-01  3.501903E-01
      3193   7  3.115084E+00  8.552377E+00  1.243731E+00 -2.043661E+01  1.210897E+00 -3.414589E-01
      3193   8 -2.831721E+00 -8.761639E+00 -1.264936E+00 -2.047653E+01  1.220980E+00  3.031210E-01
      3194   1  2.752914E+00 -1.684128E+01  8.928204E-01 -1.008689E+01 -1.377316E+00  7.204003E-01
      3194   2 -3.131000E+00 -3.377694E+01 -1.784572E+00 -9.896107E+00 -1.330771E+00  1.404216E+00
      3194   3  3.611923E+00 -1.634469E+01  1.689119E+00 -1.533549E+01 -1.112459E+00  6.181420E-01
      3194   4 -2.090865E+00 -3.309922E+01 -5.656460E-01 -1.514471E+01 -1.085221E+00  1.232416E+00
      3194   5  2.784831E+00 -1.722600E+01  7.559908E-01 -1.284655E+01  8.183656E-01  9.276363E-01
      3194   6 -3.252085E+00 -3.449946E+01 -2.093609E+00 -1.268141E+01  8.664451E-01  1.777419E+00
      3194   7  3.555509E+00 -1.676604E+01  1.518540E+00 -1.813222E+01  1.211059E+00  8.243974E-01
      3194   8 -2.298544E+00 -3.385663E+01 -9.043814E-01 -1.796709E+01  1.239648E+00  1.603971E+00
      3195   1  2.208104E+00 -4.205250E+01  3.646110E-01 -2.974361E+00 -1.340162E+00  2.262584E+00
      3195   2 -3.716635E+00 -5.903841E+01 -2.398617E+00 -2.530102E+00 -1.283655E+00  3.923873E+00
      3195   3  4.221147E+00 -4.088339E+01  2.248598E+00 -8.227436E+00 -1.062735E+00  2.041357E+00
      3195   4 -1.528862E+00 -5.769457E+01 -1.069244E-01 -7.783177E+00 -1.028311E+00  3.637150E+00
      3195   5  2.088120E+00 -4.296810E+01 -1.997667E-02 -4.620195E+00  8.338327E-01  2.755091E+00
      3195   6 -3.981048E+00 -6.027248E+01 -2.946161E+00 -4.205277E+00  8.920954E-01  4.576361E+00
      3195   7  3.995665E+00 -4.184127E+01  1.828589E+00 -9.905247E+00  1.232991E+00  2.531743E+00
      3195   8 -1.897096E+00 -5.896924E+01 -6.859794E-01 -9.490329E+00  1.268959E+00  4.286888E+00
      3196   1  4.346061E+00  6.710901E+01  2.750162E+00 -2.100267E+00 -1.350342E+00 -3.437247E+00
      3196   2 -2.412456E+00  4.775301E+01 -4.222258E-01 -2.581615E+00 -1.368538E+00 -1.944038E+00
      3196   3  1.976729E+00  6.565407E+01  2.696886E-01 -8.082958E+00 -1.152940E+00 -3.268098E+00
      3196   4 -4.583951E+00  4.649591E+01 -2.441077E+00 -8.564306E+00 -1.158667E+00 -1.819654E+00
      3196   5  4.552228E+00  6.786714E+01  3.123338E+00 -3.767803E+00  1.040698E+00 -4.129179E+00
      3196   6 -2.307953E+00  4.829052E+01 -1.673110E-01 -4.232584E+00  1.021717E+00 -2.457914E+00
      3196   7  2.245273E+00  6.643472E+01  6.555510E-01 -9.749629E+00  1.380151E+00 -3.958408E+00
      3196   8 -4.415173E+00  4.705783E+01 -2.169051E+00 -1.021441E+01  1.373759E+00 -2.332337E+00
      3197   1  3.906468E+00  3.840149E+01  2.108056E+00 -9.472261E+00 -1.406480E+00 -1.189418E+00
      3197   2 -2.836948E+00  1.902343E+01 -9.919356E-01 -9.720052E+00 -1.413408E+00 -6.209644E-01
      3197   3  2.654646E+00  3.762039E+01  7.561937E-01 -1.547260E+01 -1.189441E+00 -1.097152E+00
      3197   4 -3.895261E+00  1.843583E+01 -1.892277E+00 -1.572039E+01 -1.190792E+00 -5.716838E-01
      3197   5  4.035637E+00  3.882249E+01  2.319796E+00 -1.227224E+01  1.019203E+00 -1.574393E+00
      3197   6 -2.805623E+00  1.923236E+01 -8.942750E-01 -1.251262E+01  1.011924E+00 -8.318304E-01
      3197   7  2.811936E+00  3.805110E+01  9.721667E-01 -1.826932E+01  1.374863E+00 -1.481242E+00
      3197   8 -3.833960E+00  1.865633E+01 -1.786054E+00 -1.850970E+01  1.373215E+00 -7.820773E-01
      3198   1  3.471541E+00  9.664171E+00  1.558491E+00 -1.203227E+01 -1.423258E+00 -2.480482E-01
      3198   2 -3.263418E+00 -9.690658E+00 -1.536545E+00 -1.204898E+01 -1.416623E+00  2.023246E-01
      3198   3  3.323925E+00  9.548285E+00  1.319821E+00 -1.802559E+01 -1.200894E+00 -2.306365E-01
      3198   4 -3.215306E+00 -9.610816E+00 -1.318516E+00 -1.804230E+01 -1.195785E+00  1.756534E-01
      3198   5  3.537604E+00  9.761892E+00  1.617670E+00 -1.496775E+01  9.996853E-01 -3.307128E-01
      3198   6 -3.297528E+00 -9.810251E+00 -1.593959E+00 -1.498648E+01  1.006416E+00  2.958037E-01
      3198   7  3.382956E+00  9.642488E+00  1.374304E+00 -2.095925E+01  1.362604E+00 -3.131343E-01
      3198   8 -3.254570E+00 -9.732050E+00 -1.376247E+00 -2.097798E+01  1.367794E+00  2.688768E-01
      3199   1  2.961530E+00 -1.906294E+01  9.818564E-01 -9.781781E+00 -1.416779E+00  5.744545E-01
      3199   2 -3.752581E+00 -3.836619E+01 -2.095256E+00 -9.555199E+00 -1.401008E+00  1.140760E+00
      3199   3  3.962013E+00 -1.849288E+01  1.881567E+00 -1.576051E+01 -1.193036E+00  5.170571E-01
      3199   4 -2.555505E+00 -3.759954E+01 -7.368287E-01 -1.553393E+01 -1.184399E+00  1.043499E+00
      3199   5  2.947526E+00 -1.929572E+01  8.808554E-01 -1.258566E+01  1.005010E+00  7.970630E-01
      3199   6 -3.858401E+00 -3.879672E+01 -2.304567E+00 -1.236856E+01  1.021230E+00  1.540012E+00
      3199   7  3.912017E+00 -1.873973E+01  1.769656E+00 -1.855744E+01  1.369925E+00  7.391152E-01
      3199   8 -2.695432E+00 -3.804225E+01 -9.526505E-01 -1.834033E+01  1.378943E+00  1.441820E+00
      3200   1  2.436680E+00 -4.775225E+01  3.829753E-01 -2.615268E+00 -1.370291E+00  1.896722E+00
      3200   2 -4.324052E+00 -6.711398E+01 -2.791067E+00 -2.134797E+00 -1.350030E+00  3.395744E+00
      3200   3  4.622832E+00 -4.647882E+01  2.441579E+00 -8.599628E+00 -1.159470E+00  1.768296E+00
      3200   4 -1.938208E+00 -6.564086E+01 -2.665150E-01 -8.119157E+00 -1.150872E+00  3.222033E+00
      3200   5  2.331868E+00 -4.830587E+01  1.212187E-01 -4.273661E+00  1.021005E+00  2.426417E+00
      3200   6 -4.531680E+00 -6.789075E+01 -3.172393E+00 -3.808686E+00  1.042000E+00  4.105169E+00
      3200   7  4.457470E+00 -4.705516E+01  2.164628E+00 -1.025779E+01  1.375436E+00  2.296759E+00
      3200   8 -2.204471E+00 -6.643844E+01 -6.585680E-01 -9.792814E+00  1.384657E+00  3.929793E+00
      3201   1  4.882513E+00  7.552379E+01  3.060209E+00 -1.771099E+00 -1.442113E+00 -3.024867E+00
      3201   2 -2.716826E+00  5.373461E+01 -4.817357E-01 -2.276887E+00 -1.440167E+00 -1.646277E+00
      3201   3  2.368930E+00  7.397103E+01  3.979131E-01 -8.510020E+00 -1.305829E+00 -2.941980E+00
      3201   4 -5.014278E+00  5.239797E+01 -2.639726E+00 -9.015809E+00 -1.297895E+00 -1.592518E+00
      3201   5  5.017624E+00  7.591837E+01  3.285920E+00 -3.416856E+00  1.200419E+00 -3.765798E+00
      3201   6 -2.649777E+00  5.398372E+01 -3.374332E-01 -3.914689E+00  1.202088E+00 -2.194416E+00
      3201   7  2.538230E+00  7.437570E+01  6.230780E-01 -1.012818E+01  1.494730E+00 -3.682116E+00
      3201   8 -4.910967E+00  5.265925E+01 -2.491134E+00 -1.062602E+01  1.502445E+00 -2.140142E+00
      3202   1  4.353525E+00  4.319683E+01  2.360822E+00 -9.206411E+00 -1.462998E+00 -9.699072E-01
      3202   2 -3.223992E+00  2.141337E+01 -1.114114E+00 -9.462474E+00 -1.460941E+00 -5.006209E-01
      3202   3  3.041869E+00  4.237160E+01  9.217244E-01 -1.595297E+01 -1.307416E+00 -9.340582E-01
      3202   4 -4.326633E+00  2.079716E+01 -2.065508E+00 -1.620904E+01 -1.302474E+00 -4.845743E-01
      3202   5  4.416244E+00  4.337198E+01  2.469144E+00 -1.199012E+01  1.207811E+00 -1.379379E+00
      3202   6 -3.210420E+00  2.148676E+01 -1.067846E+00 -1.224235E+01  1.209734E+00 -7.240355E-01
      3202   7  3.120879E+00  4.255121E+01  1.028619E+00 -1.869736E+01  1.515483E+00 -1.343186E+00
      3202   8 -4.294765E+00  2.087701E+01 -2.015990E+00 -1.894959E+01  1.520319E+00 -7.078350E-01
      3203   1  3.826015E+00  1.086815E+01  1.741612E+00 -1.176331E+01 -1.469711E+00 -1.989792E-01
      3203   2 -3.747768E+00 -1.090660E+01 -1.729582E+00 -1.176918E+01 -1.465528E+00  1.558351E-01
      3203   3  3.707989E+00  1.076128E+01  1.503403E+00 -1.850751E+01 -1.307257E+00 -1.973775E-01
      3203   4 -3.657123E+00 -1.080480E+01 -1.480892E+00 -1.851338E+01 -1.302970E+00  1.377749E-01
      3203   5  3.851173E+00  1.088762E+01  1.762908E+00 -1.468852E+01  1.201051E+00 -2.863050E-01
      3203   6 -3.771460E+00 -1.098823E+01 -1.770022E+00 -1.469425E+01  1.205229E+00  2.542540E-01
      3203   7  3.732846E+00  1.078008E+01  1.522771E+00 -2.139324E+01  1.515318E+00 -2.846879E-01
      3203   8 -3.679115E+00 -1.088510E+01 -1.518592E+00 -2.139898E+01  1.519601E+00  2.360206E-01
      3204   1  3.271509E+00 -2.145965E+01  1.114379E+00 -9.469031E+00 -1.463393E+00  4.571129E-01
      3204   2 -4.298558E+00 -4.322530E+01 -2.353526E+00 -9.220254E+00 -1.458890E+00  9.254047E-01
      3204   3  4.361634E+00 -2.084211E+01  2.082714E+00 -1.621068E+01 -1.304175E+00  4.251897E-01
      3204   4 -2.999289E+00 -4.239862E+01 -8.971878E-01 -1.596190E+01 -1.301562E+00  8.752691E-01
      3204   5  3.253341E+00 -2.159558E+01  1.047027E+00 -1.224947E+01  1.207004E+00  6.916352E-01
      3204   6 -4.362710E+00 -4.345561E+01 -2.479777E+00 -1.200320E+01  1.211595E+00  1.346024E+00
      3204   7  4.329866E+00 -2.098243E+01  2.014339E+00 -1.894985E+01  1.518450E+00  6.594059E-01
      3204   8 -3.075035E+00 -4.263131E+01 -1.019783E+00 -1.870359E+01  1.521132E+00  1.295408E+00
      3205   1  2.731840E+00 -5.378224E+01  4.729393E-01 -2.272635E+00 -1.441940E+00  1.600252E+00
      3205   2 -4.876066E+00 -7.559529E+01 -3.073699E+00 -1.767808E+00 -1.439890E+00  2.975677E+00
      3205   3  5.037463E+00 -5.243561E+01  2.656084E+00 -9.018821E+00 -1.298875E+00  1.532647E+00
      3205   4 -2.355726E+00 -7.403394E+01 -3.895494E-01 -8.513994E+00 -1.300560E+00  2.878558E+00
      3205   5  2.654001E+00 -5.408884E+01  3.072417E-01 -3.908551E+00  1.202522E+00  2.159102E+00
      3205   6 -5.022669E+00 -7.604908E+01 -3.321421E+00 -3.408685E+00  1.204744E+00  3.726083E+00
      3205   7  4.933365E+00 -5.275003E+01  2.490591E+00 -1.062756E+01  1.502536E+00  2.090849E+00
      3205   8 -2.526530E+00 -7.449349E+01 -6.322627E-01 -1.012769E+01  1.500988E+00  3.628033E+00
      3206   1  5.410090E+00  8.429600E+01  3.313498E+00 -1.396442E+00 -1.541997E+00 -2.732706E+00
      3206   2 -3.063368E+00  5.996138E+01 -5.967362E-01 -1.920627E+00 -1.530340E+00 -1.435915E+00
      3206   3  2.800780E+00  8.268246E+01  5.443283E-01 -8.929094E+00 -1.480846E+00 -2.709658E+00
      3206   4 -5.448641E+00  5.857187E+01 -2.843154E+00 -9.453278E+00 -1.466266E+00 -1.429654E+00
      3206   5  5.481495E+00  8.442881E+01  3.419392E+00 -3.014200E+00  1.377476E+00 -3.501104E+00
      3206   6 -3.032074E+00  6.000947E+01 -5.398277E-01 -3.534500E+00  1.389045E+00 -2.005370E+00
      3206   7  2.893218E+00  8.281953E+01  6.434060E-01 -1.049629E+01  1.603549E+00 -3.477835E+00
      3206   8 -5.394167E+00  5.862637E+01 -2.788049E+00 -1.101659E+01  1.618071E+00 -1.999048E+00
      3207   1  4.820971E+00  4.819049E+01  2.593990E+00 -8.869067E+00 -1.531125E+00 -8.140546E-01
      3207   2 -3.628600E+00  2.388213E+01 -1.262884E+00 -9.131024E+00 -1.524426E+00 -4.118900E-01
      3207   3  3.469318E+00  4.733646E+01  1.098880E+00 -1.640059E+01 -1.457101E+00 -8.160839E-01
      3207   4 -4.762046E+00  2.324631E+01 -2.248845E+00 -1.666255E+01 -1.448886E+00 -4.197842E-01
      3207   5  4.834896E+00  4.819692E+01  2.624853E+00 -1.160999E+01  1.406878E+00 -1.239882E+00
      3207   6 -3.632846E+00  2.385480E+01 -1.258834E+00 -1.186993E+01  1.413533E+00 -6.442622E-01
      3207   7  3.493531E+00  4.734466E+01  1.125370E+00 -1.907731E+01  1.640932E+00 -1.241930E+00
      3207   8 -4.753912E+00  2.322284E+01 -2.244286E+00 -1.933725E+01  1.649116E+00 -6.522321E-01
      3208   1  4.237578E+00  1.211227E+01  1.936180E+00 -1.142769E+01 -1.526449E+00 -1.592725E-01
      3208   2 -4.208372E+00 -1.218649E+01 -1.918220E+00 -1.142795E+01 -1.521903E+00  1.287270E-01
      3208   3  4.133442E+00  1.200863E+01  1.694843E+00 -1.895638E+01 -1.447361E+00 -1.710588E-01
      3208   4 -4.095409E+00 -1.207304E+01 -1.652993E+00 -1.895664E+01 -1.441830E+00  1.121720E-01
      3208   5  4.237018E+00  1.206904E+01  1.928361E+00 -1.431147E+01  1.410843E+00 -2.503969E-01
      3208   6 -4.224884E+00 -1.225835E+01 -1.950591E+00 -1.431043E+01  1.415359E+00  2.300436E-01
      3208   7  4.136209E+00  1.196626E+01  1.686564E+00 -2.177461E+01  1.649034E+00 -2.622963E-01
      3208   8 -4.106513E+00 -1.214195E+01 -1.680967E+00 -2.177357E+01  1.654545E+00  2.133299E-01
      3209   1  3.646138E+00 -2.395837E+01  1.276470E+00 -9.117617E+00 -1.526005E+00  3.810158E-01
      3209   2 -4.799450E+00 -4.825687E+01 -2.576986E+00 -8.856108E+00 -1.524086E+00  7.822822E-01
      3209   3  4.788278E+00 -2.331300E+01  2.285543E+00 -1.664635E+01 -1.450047E+00  3.609253E-01
      3209   4 -3.440137E+00 -4.739433E+01 -1.061175E+00 -1.638484E+01 -1.447265E+00  7.573011E-01
      3209   5  3.631970E+00 -2.404534E+01  1.232083E+00 -1.185130E+01  1.411460E+00  6.232346E-01
      3209   6 -4.829817E+00 -4.837303E+01 -2.646174E+00 -1.158865E+01  1.413353E+00  1.217012E+00
      3209   7  4.772244E+00 -2.339928E+01  2.245339E+00 -1.931464E+01  1.646646E+00  6.029515E-01
      3209   8 -3.470287E+00 -4.750772E+01 -1.121321E+00 -1.905199E+01  1.649410E+00  1.191791E+00
      3210   1  3.073011E+00 -6.003287E+01  6.085286E-01 -1.905860E+00 -1.531313E+00  1.400733E+00
      3210   2 -5.404594E+00 -8.437750E+01 -3.305521E+00 -1.382943E+00 -1.534765E+00  2.689104E+00
      3210   3  5.461941E+00 -5.863730E+01  2.871508E+00 -9.441293E+00 -1.466547E+00  1.367754E+00
      3210   4 -2.794072E+00 -8.276034E+01 -5.254946E-01 -8.918376E+00 -1.469856E+00  2.639167E+00
      3210   5  3.024010E+00 -6.019011E+01  5.131602E-01 -3.512876E+00  1.387889E+00  1.977954E+00
      3210   6 -5.493974E+00 -8.462018E+01 -3.450047E+00 -2.989769E+00  1.384433E+00  3.463108E+00
      3210   7  5.403293E+00 -5.879511E+01  2.783887E+00 -1.099794E+01  1.615695E+00  1.944659E+00
      3210   8 -2.890975E+00 -8.300146E+01 -6.573148E-01 -1.047483E+01  1.612383E+00  3.412692E+00
      3211   1  5.923110E+00  9.328856E+01  3.544365E+00 -9.974009E-01 -1.641655E+00 -2.533378E+00
      3211   2 -3.445915E+00  6.634407E+01 -7.412246E-01 -1.534723E+00 -1.625123E+00 -1.293089E+00
      3211   3  3.251752E+00  9.163792E+01  7.136029E-01 -9.344193E+00 -1.672778E+00 -2.553479E+00
      3211   4 -5.889588E+00  6.492111E+01 -3.040724E+00 -9.881515E+00 -1.654289E+00 -1.320416E+00
      3211   5  5.943794E+00  9.322774E+01  3.552421E+00 -2.590434E+00  1.565413E+00 -3.317105E+00
      3211   6 -3.442614E+00  6.624667E+01 -7.545284E-01 -3.125155E+00  1.581919E+00 -1.875045E+00
      3211   7  3.289480E+00  9.157956E+01  7.127972E-01 -1.086698E+01  1.702123E+00 -3.337398E+00
      3211   8 -5.867060E+00  6.482835E+01 -3.057795E+00 -1.140170E+01  1.720605E+00 -1.902634E+00
      3212   1  5.302374E+00  5.331754E+01  2.821001E+00 -8.485885E+00 -1.610207E+00 -7.073477E-01
      3212   2 -4.044177E+00  2.640875E+01 -1.425376E+00 -8.752633E+00 -1.600903E+00 -3.473614E-01
      3212   3  3.923202E+00  5.244509E+01  1.292022E+00 -1.682640E+01 -1.633835E+00 -7.363021E-01
      3212   4 -5.200216E+00  2.575944E+01 -2.433714E+00 -1.709314E+01 -1.623232E+00 -3.735378E-01
      3212   5  5.280318E+00  5.320186E+01  2.790859E+00 -1.118075E+01  1.607337E+00 -1.143122E+00
      3212   6 -4.063618E+00  2.630306E+01 -1.456801E+00 -1.144577E+01  1.616625E+00 -5.855281E-01
      3212   7  3.910531E+00  5.233074E+01  1.256908E+00 -1.943857E+01  1.747738E+00 -1.172354E+00
      3212   8 -5.208134E+00  2.565721E+01 -2.465118E+00 -1.970359E+01  1.758337E+00 -6.119556E-01
      3213   1  4.683181E+00  1.338981E+01  2.139015E+00 -1.104360E+01 -1.597338E+00 -1.255234E-01
      3213   2 -4.655286E+00 -1.349634E+01 -2.103053E+00 -1.104098E+01 -1.590940E+00  1.205627E-01
      3213   3  4.585478E+00  1.328713E+01  1.894449E+00 -1.937719E+01 -1.617666E+00 -1.491071E-01
      3213   4 -4.531195E+00 -1.337723E+01 -1.830100E+00 -1.937457E+01 -1.609783E+00  1.012847E-01
      3213   5  4.665680E+00  1.329358E+01  2.107312E+00 -1.387896E+01  1.617829E+00 -2.194729E-01
      3213   6 -4.667111E+00 -1.357546E+01 -2.132954E+00 -1.387436E+01  1.624209E+00  2.230152E-01
      3213   7  4.573369E+00  1.319263E+01  1.863113E+00 -2.212802E+01  1.760428E+00 -2.432827E-01
      3213   8 -4.535500E+00 -1.345249E+01 -1.854671E+00 -2.212343E+01  1.768306E+00  2.035524E-01
      3214   1  4.059772E+00 -2.651141E+01  1.457216E+00 -8.726231E+00 -1.601868E+00  3.421622E-01
      3214   2 -5.275418E+00 -5.339034E+01 -2.781154E+00 -8.457255E+00 -1.598158E+00  7.014970E-01
      3214   3  5.231479E+00 -2.585066E+01  2.488004E+00 -1.705796E+01 -1.623876E+00  3.258135E-01
      3214   4 -3.882503E+00 -5.250838E+01 -1.234213E+00 -1.678898E+01 -1.618236E+00  6.888457E-01
      3214   5  4.051389E+00 -2.657914E+01  1.428080E+00 -1.141056E+01  1.613471E+00  5.882037E-01
      3214   6 -5.279330E+00 -5.344377E+01 -2.809681E+00 -1.113903E+01  1.617156E+00  1.143429E+00
      3214   7  5.225705E+00 -2.591575E+01  2.465056E+00 -1.965854E+01  1.753969E+00  5.716983E-01
      3214   8 -3.881685E+00 -5.255706E+01 -1.251605E+00 -1.938700E+01  1.759601E+00  1.130657E+00
      3215   1  3.456165E+00 -6.640881E+01  7.741092E-01 -1.512755E+00 -1.624884E+00  1.282951E+00
      3215   2 -5.907220E+00 -9.333432E+01 -3.511665E+00 -9.792696E-01 -1.627621E+00  2.512178E+00
      3215   3  5.891397E+00 -6.498702E+01  3.078205E+00 -9.853210E+00 -1.653020E+00  1.269084E+00
      3215   4 -3.247912E+00 -9.168845E+01 -6.847253E-01 -9.319725E+00 -1.653980E+00  2.491293E+00
      3215   5  3.430894E+00 -6.647724E+01  7.309770E-01 -3.093081E+00  1.578284E+00  1.869266E+00
      3215   6 -5.949413E+00 -9.343832E+01 -3.575632E+00 -2.557234E+00  1.575523E+00  3.297065E+00
      3215   7  5.863405E+00 -6.505298E+01  3.045992E+00 -1.136309E+01  1.715164E+00  1.855267E+00
      3215   8 -3.290677E+00 -9.178783E+01 -7.327596E-01 -1.082725E+01  1.714198E+00  3.275980E+00
      3216   1  6.427826E+00  1.024336E+02  3.774763E+00 -5.887060E-01 -1.736184E+00 -2.387783E+00
      3216   2 -3.853041E+00  7.283438E+01 -8.956011E-01 -1.136631E+00 -1.716168E+00 -1.187362E+00
      3216   3  3.709759E+00  1.007564E+02  9.021493E-01 -9.763202E+00 -1.878287E+00 -2.442680E+00
      3216   4 -6.340853E+00  7.138743E+01 -3.230953E+00 -1.031113E+01 -1.856058E+00 -1.241738E+00
      3216   5  6.409173E+00  1.022154E+02  3.698255E+00 -2.163008E+00  1.762174E+00 -3.182118E+00
      3216   6 -3.869846E+00  7.261943E+01 -9.691829E-01 -2.707993E+00  1.782198E+00 -1.777743E+00
      3216   7  3.709490E+00  1.005411E+02  8.171458E-01 -1.124972E+01  1.789529E+00 -3.237541E+00
      3216   8 -6.337067E+00  7.117765E+01 -3.307880E+00 -1.179470E+01  1.811787E+00 -1.832640E+00
      3217   1  5.792835E+00  5.853713E+01  3.051321E+00 -8.081052E+00 -1.692752E+00 -6.258812E-01
      3217   2 -4.468312E+00  2.897762E+01 -1.592997E+00 -8.351709E+00 -1.681094E+00 -2.923067E-01
      3217   3  4.393732E+00  5.765218E+01  1.500589E+00 -1.724606E+01 -1.830088E+00 -6.767352E-01
      3217   4 -5.641509E+00  2.831858E+01 -2.616615E+00 -1.751672E+01 -1.816848E+00 -3.340617E-01
      3217   5  5.743862E+00  5.832209E+01  2.969079E+00 -1.073569E+01  1.809568E+00 -1.068356E+00
      3217   6 -4.498358E+00  2.880569E+01 -1.655255E+00 -1.100425E+01  1.821232E+00 -5.346488E-01
      3217   7  4.355437E+00  5.743898E+01  1.413804E+00 -1.980229E+01  1.838090E+00 -1.119698E+00
      3217   8 -5.658710E+00  2.815065E+01 -2.678361E+00 -2.007084E+01  1.851351E+00 -5.768042E-01
      3218   1  5.150459E+00  1.469501E+01  2.349802E+00 -1.062885E+01 -1.674500E+00 -8.935099E-02
      3218   2 -5.093167E+00 -1.481648E+01 -2.284125E+00 -1.062482E+01 -1.665444E+00  1.315599E-01
      3218   3  5.055106E+00  1.459201E+01  2.101806E+00 -1.977938E+01 -1.809446E+00 -1.238397E-01
      3218   4 -4.964496E+00 -1.469546E+01 -2.009399E+00 -1.977535E+01 -1.798670E+00  1.078241E-01
      3218   5  5.120916E+00  1.455121E+01  2.297137E+00 -1.342013E+01  1.823374E+00 -1.857939E-01
      3218   6 -5.100493E+00 -1.490949E+01 -2.313526E+00 -1.341382E+01  1.832437E+00  2.335885E-01
      3218   7  5.031917E+00  1.445033E+01  2.049878E+00 -2.247031E+01  1.852748E+00 -2.206133E-01
      3218   8 -4.963320E+00 -1.478420E+01 -2.033050E+00 -2.246400E+01  1.863547E+00  2.096251E-01
      3219   1  4.498978E+00 -2.908657E+01  1.650380E+00 -8.302560E+00 -1.681486E+00  3.346606E-01
      3219   2 -5.732321E+00 -5.856788E+01 -2.972633E+00 -8.029938E+00 -1.674342E+00  6.686315E-01
      3219   3  5.683982E+00 -2.841945E+01  2.689101E+00 -1.744462E+01 -1.816872E+00  3.185675E-01
      3219   4 -4.324863E+00 -5.767831E+01 -1.414854E+00 -1.717199E+01 -1.807548E+00  6.626653E-01
      3219   5  4.495985E+00 -2.914838E+01  1.632633E+00 -1.094365E+01  1.815529E+00  5.814704E-01
      3219   6 -5.714350E+00 -5.858182E+01 -2.968375E+00 -1.066813E+01  1.822681E+00  1.112519E+00
      3219   7  5.684592E+00 -2.847819E+01  2.677988E+00 -1.998622E+01  1.843219E+00  5.652229E-01
      3219   8 -4.301157E+00 -5.768705E+01 -1.398985E+00 -1.971070E+01  1.852571E+00  1.106496E+00
      3220   1  3.868051E+00 -7.283728E+01  9.575542E-01 -1.097899E+00 -1.713833E+00  1.226141E+00
      3220   2 -6.387360E+00 -1.023616E+02 -3.702855E+00 -5.605650E-01 -1.713327E+00  2.415316E+00
      3220   3  6.318885E+00 -7.140719E+01  3.273681E+00 -1.024891E+01 -1.851839E+00  1.224377E+00
      3220   4 -3.712637E+00 -1.007076E+02 -8.643193E-01 -9.711580E+00 -1.849108E+00  2.414905E+00
      3220   5  3.862870E+00 -7.284486E+01  9.577672E-01 -2.656474E+00  1.774916E+00  1.814754E+00
      3220   6 -6.389057E+00 -1.023621E+02 -3.698112E+00 -2.116183E+00  1.775429E+00  3.202248E+00
      3220   7  6.312846E+00 -7.141150E+01  3.285663E+00 -1.171888E+01  1.801279E+00  1.812973E+00
      3220   8 -3.713046E+00 -1.007027E+02 -8.427967E-01 -1.117859E+01  1.804039E+00  3.201834E+00
      3221   1  6.932723E+00  1.117183E+02  4.019568E+00 -1.782931E-01 -1.822544E+00 -2.259438E+00
      3221   2 -4.277825E+00  7.941705E+01 -1.047695E+00 -7.375907E-01 -1.798575E+00 -1.090218E+00
      3221   3  4.166407E+00  1.100144E+02  1.106390E+00 -1.019450E+01 -2.095361E+00 -2.345159E+00
      3221   4 -6.810571E+00  7.794677E+01 -3.415876E+00 -1.075380E+01 -2.068465E+00 -1.168710E+00
      3221   5  6.885545E+00  1.113622E+02  3.866969E+00 -1.738584E+00  1.968232E+00 -3.064552E+00
      3221   6 -4.305896E+00  7.909931E+01 -1.174921E+00 -2.293991E+00  1.992259E+00 -1.688299E+00
      3221   7  4.141002E+00  1.096627E+02  9.465569E-01 -1.165062E+01  1.866808E+00 -3.151096E+00
      3221   8 -6.814629E+00  7.763563E+01 -3.545111E+00 -1.220603E+01  1.893791E+00 -1.767543E+00
      3222   1  6.291252E+00  6.383340E+01  3.292207E+00 -7.669799E+00 -1.771194E+00 -5.467574E-01
      3222   2 -4.899027E+00  3.158383E+01 -1.759160E+00 -7.946020E+00 -1.756772E+00 -2.312138E-01
      3222   3  4.868490E+00  6.293536E+01  1.721503E+00 -1.767110E+01 -2.039573E+00 -6.171003E-01
      3222   4 -6.093836E+00  3.091375E+01 -2.797975E+00 -1.794732E+01 -2.023310E+00 -2.865222E-01
      3222   5  6.222307E+00  6.353102E+01  3.163217E+00 -1.029096E+01  2.016947E+00 -9.950417E-01
      3222   6 -4.933422E+00  3.135596E+01 -1.847486E+00 -1.056474E+01  2.031407E+00 -4.772823E-01
      3222   7  4.811479E+00  6.263533E+01  1.588413E+00 -2.017848E+01  1.915327E+00 -1.066059E+00
      3222   8 -6.114112E+00  3.069040E+01 -2.885301E+00 -2.045225E+01  1.931644E+00 -5.331212E-01
      3223   1  5.631546E+00  1.602742E+01  2.569531E+00 -1.019619E+01 -1.748926E+00 -4.050404E-02
      3223   2 -5.524911E+00 -1.613115E+01 -2.460097E+00 -1.019414E+01 -1.737001E+00  1.649810E-01
      3223   3  5.527575E+00  1.591954E+01  2.313905E+00 -2.017034E+01 -2.014965E+00 -8.429351E-02
      3223   4 -5.404035E+00 -1.601418E+01 -2.191079E+00 -2.016828E+01 -2.001553E+00  1.376277E-01
      3223   5  5.594082E+00  1.584385E+01  2.499359E+00 -1.295047E+01  2.031740E+00 -1.395368E-01
      3223   6 -5.525095E+00 -1.623375E+01 -2.486958E+00 -1.294643E+01  2.043695E+00  2.654418E-01
      3223   7  5.495489E+00  1.573767E+01  2.244015E+00 -2.280933E+01  1.929908E+00 -1.837462E-01
      3223   8 -5.396685E+00 -1.611293E+01 -2.212627E+00 -2.280530E+01  1.943364E+00  2.378262E-01
      3224   1  4.953417E+00 -3.165925E+01  1.852925E+00 -7.853428E+00 -1.756461E+00  3.568656E-01
      3224   2 -6.173497E+00 -6.374311E+01 -3.152922E+00 -7.581499E+00 -1.745670E+00  6.756191E-01
      3224   3  6.134909E+00 -3.099432E+01  2.887847E+00 -1.780613E+01 -2.022259E+00  3.412600E-01
      3224   4 -4.770269E+00 -6.285645E+01 -1.600616E+00 -1.753420E+01 -2.009614E+00  6.756726E-01
      3224   5  4.957096E+00 -3.171372E+01  1.847363E+00 -1.045969E+01  2.020707E+00  6.023513E-01
      3224   6 -6.134149E+00 -6.372031E+01 -3.116867E+00 -1.018530E+01  2.031536E+00  1.117826E+00
      3224   7  6.140771E+00 -3.104634E+01  2.888289E+00 -2.029829E+01  1.916573E+00  5.865960E-01
      3224   8 -4.726611E+00 -6.282907E+01 -1.553596E+00 -2.002390E+01  1.929273E+00  1.117881E+00
      3225   1  4.296098E+00 -7.925887E+01  1.153325E+00 -6.646400E-01 -1.792588E+00  1.217736E+00
      3225   2 -6.845956E+00 -1.113673E+02 -3.878413E+00 -1.301648E-01 -1.788295E+00  2.380073E+00
      3225   3  6.734339E+00 -7.783594E+01  3.458175E+00 -1.062182E+01 -2.058870E+00  1.226806E+00
      3225   4 -4.186290E+00 -1.097230E+02 -1.056906E+00 -1.008734E+01 -2.052435E+00  2.398118E+00
      3225   5  4.310860E+00 -7.921051E+01  1.195327E+00 -2.206932E+00  1.978002E+00  1.803803E+00
      3225   6 -6.808853E+00 -1.112728E+02 -3.808130E+00 -1.669612E+00  1.982339E+00  3.162452E+00
      3225   7  6.747935E+00 -7.778446E+01  3.511759E+00 -1.205832E+01  1.873193E+00  1.812961E+00
      3225   8 -4.148230E+00 -1.096232E+02 -9.700873E-01 -1.152100E+01  1.879692E+00  3.180670E+00
      3226   1  7.442821E+00  1.211702E+02  4.291628E+00  2.350205E-01 -1.898696E+00 -2.114379E+00
      3226   2 -4.721379E+00  8.610312E+01 -1.188598E+00 -3.406309E-01 -1.869832E+00 -9.758514E-01
      3226   3  4.610298E+00  1.194312E+02  1.327520E+00 -1.064183E+01 -2.323256E+00 -2.227259E+00
      3226   4 -7.315365E+00  8.460267E+01 -3.596120E+00 -1.121749E+01 -2.290827E+00 -1.075288E+00
      3226   5  7.380003E+00  1.206955E+02  4.071876E+00 -1.311808E+00  2.185756E+00 -2.932404E+00
      3226   6 -4.748643E+00  8.569968E+01 -1.361116E+00 -1.882722E+00  2.214751E+00 -1.582094E+00
      3226   7  4.572442E+00  1.189622E+02  1.101684E+00 -1.206855E+01  1.935687E+00 -3.046367E+00
      3226   8 -7.315381E+00  8.420718E+01 -3.769385E+00 -1.263947E+01  1.968281E+00 -1.682484E+00
      3227   1  6.786741E+00  6.921100E+01  3.548220E+00 -7.252685E+00 -1.839753E+00 -4.492907E-01
      3227   2 -5.343694E+00  3.424136E+01 -1.916926E+00 -7.543395E+00 -1.822712E+00 -1.492280E-01
      3227   3  5.311530E+00  6.828803E+01  1.946883E+00 -1.809928E+01 -2.258245E+00 -5.357567E-01
      3227   4 -6.588833E+00  3.354847E+01 -2.981430E+00 -1.838999E+01 -2.239926E+00 -2.137013E-01
      3227   5  6.705442E+00  6.883724E+01  3.379315E+00 -9.842564E+00  2.233189E+00 -9.031274E-01
      3227   6 -5.372712E+00  3.397833E+01 -2.022285E+00 -1.013158E+01  2.250277E+00 -3.984671E-01
      3227   7  5.240121E+00  6.791573E+01  1.772924E+00 -2.055866E+01  1.982178E+00 -9.904225E-01
      3227   8 -6.605756E+00  3.328909E+01 -3.086695E+00 -2.084767E+01  2.000556E+00 -4.635587E-01
      3228   1  6.109166E+00  1.740217E+01  2.800723E+00 -9.750609E+00 -1.813616E+00  3.201270E-02
      3228   2 -5.965521E+00 -1.741725E+01 -2.628808E+00 -9.762893E+00 -1.799996E+00  2.271086E-01
      3228   3  5.956150E+00  1.727249E+01  2.521469E+00 -2.055235E+01 -2.228559E+00 -1.628185E-02
      3228   4 -5.893644E+00 -1.732204E+01 -2.383310E+00 -2.056463E+01 -2.214876E+00  2.010229E-01
      3228   5  6.069872E+00  1.719964E+01  2.721036E+00 -1.247332E+01  2.246743E+00 -6.912632E-02
      3228   6 -5.952293E+00 -1.750824E+01 -2.644962E+00 -1.248553E+01  2.260367E+00  3.259892E-01
      3228   7  5.916439E+00  1.706917E+01  2.439554E+00 -2.314471E+01  1.994967E+00 -1.178839E-01
      3228   8 -5.878676E+00 -1.741167E+01 -2.396660E+00 -2.315691E+01  2.008653E+00  2.996533E-01
      3229   1  5.408755E+00 -3.420054E+01  2.065916E+00 -7.386782E+00 -1.821203E+00  4.119939E-01
      3229   2 -6.610975E+00 -6.887798E+01 -3.322407E+00 -7.125154E+00 -1.807909E+00  7.220141E-01
      3229   3  6.554009E+00 -3.355229E+01  3.081504E+00 -1.814719E+01 -2.235593E+00  4.015083E-01
      3229   4 -5.245871E+00 -6.800988E+01 -1.793834E+00 -1.788556E+01 -2.221675E+00  7.319402E-01
      3229   5  5.424496E+00 -3.422782E+01  2.079993E+00 -9.967246E+00  2.230567E+00  6.556398E-01
      3229   6 -6.546480E+00 -6.880227E+01 -3.248810E+00 -9.704789E+00  2.243883E+00  1.161146E+00
      3229   7  6.566859E+00 -3.357929E+01  3.099375E+00 -2.059994E+01  1.975141E+00  6.450536E-01
      3229   8 -5.182158E+00 -6.793178E+01 -1.711525E+00 -2.033749E+01  1.989087E+00  1.171168E+00
      3230   1  4.725521E+00 -8.562186E+01  1.360162E+00 -2.174440E-01 -1.858090E+00  1.255327E+00
      3230   2 -7.283366E+00 -1.202612E+02 -4.030141E+00  3.061023E-01 -1.850631E+00  2.402345E+00
      3230   3  7.121020E+00 -8.422091E+01  3.634484E+00 -1.096490E+01 -2.271517E+00  1.278707E+00
      3230   4 -4.671465E+00 -1.186438E+02 -1.250882E+00 -1.044135E+01 -2.262651E+00  2.442071E+00
      3230   5  4.765498E+00 -8.550222E+01  1.449744E+00 -1.749785E+00  2.185730E+00  1.836393E+00
      3230   6 -7.202864E+00 -1.200576E+02 -3.889437E+00 -1.224370E+00  2.193241E+00  3.175693E+00
      3230   7  7.156900E+00 -8.409945E+01  3.734274E+00 -1.237473E+01  1.928410E+00  1.859997E+00
      3230   8 -4.592985E+00 -1.184363E+02 -1.095128E+00 -1.184932E+01  1.937341E+00  3.215800E+00
      3231   1  7.946674E+00  1.308264E+02  4.599097E+00  6.718443E-01 -1.963589E+00 -1.915494E+00
      3231   2 -5.198853E+00  9.291719E+01 -1.310096E+00  7.077889E-02 -1.930045E+00 -8.189720E-01
      3231   3  5.017286E+00  1.290388E+02  1.569896E+00 -1.108872E+01 -2.564412E+00 -2.046607E+00
      3231   4 -7.881661E+00  9.137619E+01 -3.763942E+00 -1.168979E+01 -2.528782E+00 -9.307101E-01
      3231   5  7.888017E+00  1.302752E+02  4.330038E+00 -8.542490E-01  2.417901E+00 -2.747331E+00
      3231   6 -5.205744E+00  9.246920E+01 -1.509853E+00 -1.452543E+00  2.451556E+00 -1.431362E+00
      3231   7  4.977803E+00  1.284907E+02  1.292047E+00 -1.247890E+01  1.997172E+00 -2.879701E+00
      3231   8 -7.867013E+00  9.093368E+01 -3.966973E+00 -1.307719E+01  2.032933E+00 -1.544172E+00
      3232   1  7.230948E+00  7.468730E+01  3.816953E+00 -6.798246E+00 -1.894975E+00 -3.146700E-01
      3232   2 -5.835246E+00  3.700415E+01 -2.053881E+00 -7.128594E+00 -1.877985E+00 -3.341263E-02
      3232   3  5.623139E+00  7.370703E+01  2.157209E+00 -1.848912E+01 -2.486978E+00 -4.081027E-01
      3232   4 -7.211447E+00  3.625549E+01 -3.173207E+00 -1.881947E+01 -2.470835E+00 -9.620971E-02
      3232   5  7.149905E+00  7.428235E+01  3.624045E+00 -9.351994E+00  2.460709E+00 -7.710488E-01
      3232   6 -5.842880E+00  3.675402E+01 -2.156910E+00 -9.683467E+00  2.477654E+00 -2.830067E-01
      3232   7  5.543934E+00  7.330008E+01  1.955780E+00 -2.089354E+01  2.036288E+00 -8.653774E-01
      3232   8 -7.215023E+00  3.600558E+01 -3.279575E+00 -2.122501E+01  2.052378E+00 -3.464059E-01
      3233   1  6.526942E+00  1.887512E+01  3.048300E+00 -9.286124E+00 -1.863277E+00  1.381136E-01
      3233   2 -6.470801E+00 -1.861606E+01 -2.786334E+00 -9.349119E+00 -1.853015E+00  3.254746E-01
      3233   3  6.206446E+00  1.867429E+01  2.699364E+00 -2.091834E+01 -2.445887E+00  9.711862E-02
      3233   4 -6.566866E+00 -1.859245E+01 -2.611597E+00 -2.098133E+01 -2.439835E+00  3.134085E-01
      3233   5  6.495277E+00  1.870254E+01  2.976758E+00 -1.197984E+01  2.471467E+00  3.753639E-02
      3233   6 -6.432841E+00 -1.864214E+01 -2.772292E+00 -1.204843E+01  2.481505E+00  4.252344E-01
      3233   7  6.157283E+00  1.849360E+01  2.618294E+00 -2.346541E+01  2.050319E+00 -3.851665E-03
      3233   8 -6.544252E+00 -1.862449E+01 -2.602061E+00 -2.353400E+01  2.056106E+00  4.130526E-01
      3234   1  5.830166E+00 -3.665067E+01  2.298417E+00 -6.926583E+00 -1.872930E+00  5.061622E-01
      3234   2 -7.093182E+00 -7.394294E+01 -3.487131E+00 -6.700780E+00 -1.861412E+00  8.124489E-01
      3234   3  6.856241E+00 -3.605354E+01  3.262771E+00 -1.849967E+01 -2.454808E+00  5.131026E-01
      3234   4 -5.848762E+00 -7.312747E+01 -2.013306E+00 -1.827387E+01 -2.446795E+00  8.423871E-01
      3234   5  5.869426E+00 -3.659910E+01  2.351127E+00 -9.494335E+00  2.445210E+00  7.504898E-01
      3234   6 -6.996442E+00 -7.377279E+01 -3.361415E+00 -9.273190E+00  2.456542E+00  1.251406E+00
      3234   7  6.875675E+00 -3.600896E+01  3.312014E+00 -2.092876E+01  2.019580E+00  7.574967E-01
      3234   8 -5.769755E+00 -7.296221E+01 -1.886172E+00 -2.070761E+01  2.027372E+00  1.281631E+00
      3235   1  5.131616E+00 -9.188467E+01  1.580132E+00  2.257855E-01 -1.910354E+00  1.344101E+00
      3235   2 -7.710912E+00 -1.289664E+02 -4.146575E+00  7.267053E-01 -1.901796E+00  2.490317E+00
      3235   3  7.447958E+00 -9.051990E+01  3.813030E+00 -1.128569E+01 -2.491429E+00  1.391153E+00
      3235   4 -5.183079E+00 -1.273901E+02 -1.420200E+00 -1.078477E+01 -2.482799E+00  2.561123E+00
      3235   5  5.209586E+00 -9.165280E+01  1.733276E+00 -1.308965E+00  2.393502E+00  1.923330E+00
      3235   6 -7.574319E+00 -1.286128E+02 -3.919768E+00 -8.079508E-01  2.402064E+00  3.258144E+00
      3235   7  7.516666E+00 -9.028843E+01  3.974095E+00 -1.268141E+01  1.962865E+00  1.970832E+00
      3235   8 -5.053720E+00 -1.270349E+02 -1.180738E+00 -1.218040E+01  1.971499E+00  3.329630E+00
      3236   1  8.383533E+00  1.406289E+02  4.923221E+00  1.202045E+00 -2.028000E+00 -1.607850E+00
      3236   2 -5.745475E+00  9.985894E+01 -1.403516E+00  5.676329E-01 -1.995440E+00 -5.980004E-01
      3236   3  5.348586E+00  1.387991E+02  1.858870E+00 -1.145005E+01 -2.861254E+00 -1.720165E+00
      3236   4 -8.526577E+00  9.828299E+01 -3.875561E+00 -1.208446E+01 -2.834613E+00 -6.982682E-01
      3236   5  8.383490E+00  1.401655E+02  4.671938E+00 -3.085887E-01  2.656306E+00 -2.435858E+00
      3236   6 -5.703755E+00  9.946932E+01 -1.589362E+00 -9.508646E-01  2.688452E+00 -1.200317E+00
      3236   7  5.333799E+00  1.383243E+02  1.584358E+00 -1.282546E+01  2.008253E+00 -2.549250E+00
      3236   8 -8.497165E+00  9.788442E+01 -4.078957E+00 -1.346773E+01  2.034423E+00 -1.301546E+00
      3237   1  7.492580E+00  8.027382E+01  4.080340E+00 -6.195539E+00 -1.942980E+00 -1.346825E-01
      3237   2 -6.456089E+00  4.000280E+01 -2.144198E+00 -6.614749E+00 -1.935678E+00  1.212758E-01
      3237   3  5.603053E+00  7.918064E+01  2.325940E+00 -1.869633E+01 -2.753668E+00 -2.143975E-01
      3237   4 -8.118186E+00  3.913705E+01 -3.367927E+00 -1.911554E+01 -2.757531E+00  8.566467E-02
      3237   5  7.427520E+00  7.992351E+01  3.895606E+00 -8.720910E+00  2.689230E+00 -5.795252E-01
      3237   6 -6.417344E+00  3.987349E+01 -2.203918E+00 -9.154955E+00  2.695751E+00 -1.190313E-01
      3237   7  5.497623E+00  7.881031E+01  2.114848E+00 -2.104784E+01  2.041284E+00 -6.600046E-01
      3237   8 -8.117629E+00  3.898990E+01 -3.448916E+00 -2.148189E+01  2.036532E+00 -1.549839E-01
      3238   1  6.728504E+00  2.059012E+01  3.316821E+00 -8.758928E+00 -1.900385E+00  2.820554E-01
      3238   2 -7.184888E+00 -1.955373E+01 -2.917301E+00 -8.959153E+00 -1.907973E+00  4.653552E-01
      3238   3  5.959134E+00  2.020110E+01  2.789478E+00 -2.121607E+01 -2.692911E+00  2.751282E-01
      3238   4 -7.731613E+00 -1.972010E+01 -2.925141E+00 -2.141630E+01 -2.714807E+00  4.926900E-01
      3238   5  6.720356E+00  2.055618E+01  3.291619E+00 -1.145624E+01  2.699676E+00  1.896750E-01
      3238   6 -7.109179E+00 -1.941277E+01 -2.837884E+00 -1.167547E+01  2.691087E+00  5.725825E-01
      3238   7  5.893715E+00  2.014205E+01  2.737836E+00 -2.375224E+01  2.065339E+00  1.826814E-01
      3238   8 -7.711041E+00 -1.960211E+01 -2.867183E+00 -2.397148E+01  2.042305E+00  6.001794E-01
      3239   1  6.126854E+00 -3.884609E+01  2.579593E+00 -6.534383E+00 -1.918514E+00  6.459303E-01
      3239   2 -7.769723E+00 -7.891493E+01 -3.673484E+00 -6.413549E+00 -1.920454E+00  9.559710E-01
      3239   3  6.809314E+00 -3.839317E+01  3.406858E+00 -1.896389E+01 -2.706070E+00  6.946860E-01
      3239   4 -6.867688E+00 -7.824244E+01 -2.333880E+00 -1.884306E+01 -2.717359E+00  1.028988E+00
      3239   5  6.207341E+00 -3.861529E+01  2.707017E+00 -9.142461E+00  2.655650E+00  8.980292E-01
      3239   6 -7.625526E+00 -7.855595E+01 -3.461874E+00 -9.034047E+00  2.653055E+00  1.404259E+00
      3239   7  6.847779E+00 -3.817884E+01  3.521400E+00 -2.142359E+01  2.023238E+00  9.472524E-01
      3239   8 -6.763408E+00 -7.789783E+01 -2.130239E+00 -2.131518E+01  2.011206E+00  1.477976E+00
      3240   1  5.466211E+00 -9.802883E+01  1.819453E+00  6.077712E-01 -1.965493E+00  1.492785E+00
      3240   2 -8.182961E+00 -1.374831E+02 -4.223484E+00  1.068231E+00 -1.960121E+00  2.649348E+00
      3240   3  7.655851E+00 -9.671390E+01  4.012911E+00 -1.164738E+01 -2.760544E+00  1.582166E+00
      3240   4 -5.779696E+00 -1.359546E+02 -1.531568E+00 -1.118692E+01 -2.758615E+00  2.759176E+00
      3240   5  5.607887E+00 -9.760248E+01  2.069742E+00 -9.814742E-01  2.583946E+00  2.082667E+00
      3240   6 -7.985594E+00 -1.369468E+02 -3.897581E+00 -5.255884E-01  2.589078E+00  3.429882E+00
      3240   7  7.774245E+00 -9.629392E+01  4.265257E+00 -1.309467E+01  1.938886E+00  2.172905E+00
      3240   8 -5.603562E+00 -1.354225E+02 -1.198829E+00 -1.263879E+01  1.940541E+00  3.540763E+00
      3241   1  8.651180E+00  1.503262E+02  5.239719E+00  1.773341E+00 -2.057082E+00 -1.224079E+00
      3241   2 -6.463493E+00  1.066964E+02 -1.512767E+00  1.089977E+00 -2.041935E+00 -3.517989E-01
      3241   3  5.616663E+00  1.485449E+02  2.336640E+00 -1.130028E+01 -2.892582E+00 -1.275867E+00
      3241   4 -9.271312E+00  1.051419E+02 -3.886883E+00 -1.198365E+01 -2.894559E+00 -3.788185E-01
      3241   5  8.721399E+00  1.501204E+02  5.085404E+00  5.279154E-01  2.973428E+00 -1.980397E+00
      3241   6 -6.325782E+00  1.066245E+02 -1.576036E+00 -1.784164E-01  2.987241E+00 -9.034877E-01
      3241   7  5.589574E+00  1.483051E+02  2.166474E+00 -1.272911E+01  2.367391E+00 -2.031349E+00
      3241   8 -9.234565E+00  1.050324E+02 -3.974537E+00 -1.343544E+01  2.364356E+00 -9.300714E-01
      3242   1  7.231274E+00  8.577316E+01  4.214755E+00 -5.419889E+00 -1.934901E+00  5.320101E-02
      3242   2 -7.371230E+00  4.346863E+01 -2.155727E+00 -6.035547E+00 -1.966944E+00  2.874010E-01
      3242   3  4.799406E+00  8.447036E+01  2.303963E+00 -1.812074E+01 -2.729397E+00  5.434289E-02
      3242   4 -9.596339E+00  4.237259E+01 -3.584080E+00 -1.873640E+01 -2.793721E+00  3.407134E-01
      3242   5  7.214335E+00  8.574997E+01  4.141129E+00 -7.643551E+00  3.005477E+00 -3.544328E-01
      3242   6 -7.267101E+00  4.370645E+01 -2.086804E+00 -8.302504E+00  2.970918E+00  6.870391E-02
      3242   7  4.616198E+00  8.438012E+01  2.173090E+00 -2.048744E+01  2.425645E+00 -3.533093E-01
      3242   8 -9.661814E+00  4.254002E+01 -3.580186E+00 -2.114639E+01  2.359327E+00  1.211564E-01
      3243   1  6.382889E+00  2.285634E+01  3.601244E+00 -8.337499E+00 -1.878276E+00  4.441672E-01
      3243   2 -8.412305E+00 -1.985637E+01 -3.003360E+00 -8.836398E+00 -1.938291E+00  6.382608E-01
      3243   3  4.687245E+00  2.207564E+01  2.694548E+00 -2.113715E+01 -2.637736E+00  5.301663E-01
      3243   4 -9.891950E+00 -2.042107E+01 -3.406058E+00 -2.163605E+01 -2.736585E+00  7.613904E-01
      3243   5  6.412782E+00  2.319449E+01  3.698895E+00 -1.080893E+01  3.024269E+00  3.663764E-01
      3243   6 -8.290881E+00 -1.932709E+01 -2.791737E+00 -1.135991E+01  2.961228E+00  7.564962E-01
      3243   7  4.522511E+00  2.233125E+01  2.711691E+00 -2.377203E+01  2.489646E+00  4.509881E-01
      3243   8 -9.968638E+00 -1.997781E+01 -3.283073E+00 -2.432301E+01  2.388397E+00  8.776395E-01
      3244   1  6.096135E+00 -4.041185E+01  2.965301E+00 -6.608810E+00 -1.915270E+00  8.349194E-01
      3244   2 -8.923491E+00 -8.362315E+01 -3.888818E+00 -6.705451E+00 -1.955274E+00  1.178107E+00
      3244   3  6.072606E+00 -4.025814E+01  3.501170E+00 -1.953416E+01 -2.661558E+00  9.760666E-01
      3244   4 -8.711899E+00 -8.323433E+01 -2.804331E+00 -1.963080E+01 -2.733532E+00  1.331349E+00
      3244   5  6.251976E+00 -3.979142E+01  3.236894E+00 -9.076979E+00  2.960382E+00  1.102200E+00
      3244   6 -8.724999E+00 -8.292763E+01 -3.550145E+00 -9.216498E+00  2.917887E+00  1.656562E+00
      3244   7  6.078871E+00 -3.970446E+01  3.699853E+00 -2.219914E+01  2.457188E+00  1.241071E+00
      3244   8 -8.666775E+00 -8.260934E+01 -2.547419E+00 -2.233866E+01  2.383239E+00  1.807331E+00
      3245   1  5.689800E+00 -1.039898E+02  2.132192E+00  5.548603E-01 -2.005199E+00  1.748044E+00
      3245   2 -8.938424E+00 -1.462377E+02 -4.380598E+00  9.727950E-01 -2.017359E+00  2.961952E+00
      3245   3  7.722313E+00 -1.027237E+02  4.319854E+00 -1.210826E+01 -2.787471E+00  1.920551E+00
      3245   4 -6.678060E+00 -1.447438E+02 -1.661284E+00 -1.169033E+01 -2.827422E+00  3.175001E+00
      3245   5  5.931280E+00 -1.031945E+02  2.536589E+00 -9.422355E-01  2.833547E+00  2.379520E+00
      3245   6 -8.597627E+00 -1.452343E+02 -3.853213E+00 -5.615735E-01  2.819221E+00  3.800317E+00
      3245   7  7.853052E+00 -1.019822E+02  4.655551E+00 -1.376231E+01  2.289471E+00  2.549244E+00
      3245   8 -6.451680E+00 -1.437979E+02 -1.211175E+00 -1.338165E+01  2.247803E+00  4.009929E+00
      3246   1  8.206386E+00  1.583431E+02  5.155958E+00  3.060409E+00 -2.381376E+00 -7.705273E-01
      3246   2 -7.375060E+00  1.131669E+02 -1.606000E+00  2.373769E+00 -2.411732E+00 -6.308355E-02
      3246   3  5.372214E+00  1.567681E+02  2.740369E+00 -1.050820E+01 -2.894119E+00 -6.229860E-01
      3246   4 -1.008787E+01  1.117133E+02 -3.738410E+00 -1.119484E+01 -2.984508E+00  8.928322E-02
      3246   5  8.450838E+00  1.589952E+02  5.370315E+00  2.136950E+00  3.037753E+00 -1.326903E+00
      3246   6 -7.114835E+00  1.138477E+02 -1.367782E+00  1.369794E+00  3.004397E+00 -5.107035E-01
      3246   7  5.328060E+00  1.573024E+02  2.850413E+00 -1.164812E+01  2.656182E+00 -1.181742E+00
      3246   8 -1.011821E+01  1.122743E+02 -3.609074E+00 -1.241528E+01  2.563762E+00 -3.607948E-01
      3247   1  6.060703E+00  9.129345E+01  4.188124E+00 -3.559938E+00 -2.201369E+00  2.662171E-01
      3247   2 -8.804938E+00  4.792992E+01 -2.000480E+00 -4.492314E+00 -2.318348E+00  4.584395E-01
      3247   3  2.662551E+00  8.960520E+01  1.958784E+00 -1.662566E+01 -2.695450E+00  4.448135E-01
      3247   4 -1.204219E+01  4.640257E+01 -3.854394E+00 -1.755804E+01 -2.887948E+00  7.038711E-01
      3247   5  6.039949E+00  9.195735E+01  4.345911E+00 -5.474942E+00  3.116730E+00 -8.771491E-02
      3247   6 -8.683191E+00  4.891560E+01 -1.689470E+00 -6.508606E+00  2.995977E+00  2.517117E-01
      3247   7  2.268881E+00  9.011302E+01  1.969221E+00 -1.867137E+01  2.790638E+00  8.800020E-02
      3247   8 -1.229596E+01  4.722957E+01 -3.696791E+00 -1.970503E+01  2.595585E+00  4.931838E-01
      3248   1  5.010521E+00  2.627523E+01  3.908740E+00 -7.384848E+00 -2.105095E+00  6.030075E-01
      3248   2 -1.056167E+01 -1.874396E+01 -2.979382E+00 -8.376667E+00 -2.270319E+00  8.057523E-01
      3248   3  1.717956E+00  2.480158E+01  2.289144E+00 -2.088572E+01 -2.551820E+00  8.869896E-01
      3248   4 -1.364505E+01 -2.000842E+01 -4.110867E+00 -2.187754E+01 -2.803436E+00  1.128221E+00
      3248   5  5.015213E+00  2.736234E+01  4.226797E+00 -9.693660E+00  3.201413E+00  5.193276E-01
      3248   6 -1.046910E+01 -1.746573E+01 -2.559501E+00 -1.080135E+01  3.031871E+00  9.110412E-01
      3248   7  1.294252E+00  2.570610E+01  2.426967E+00 -2.336780E+01  2.968084E+00  7.987282E-01
      3248   8 -1.398424E+01 -1.891615E+01 -3.879095E+00 -2.447549E+01  2.713544E+00  1.228308E+00
      3249   1  5.403385E+00 -4.065225E+01  3.524781E+00 -6.885089E+00 -2.148580E+00  1.023589E+00
      3249   2 -1.111855E+01 -8.793541E+01 -4.265170E+00 -7.427968E+00 -2.281856E+00  1.415985E+00
      3249   3  3.935802E+00 -4.112424E+01  3.419077E+00 -2.098850E+01 -2.566951E+00  1.362197E+00
      3249   4 -1.231726E+01 -8.813853E+01 -3.743513E+00 -2.153138E+01 -2.784942E+00  1.760201E+00
      3249   5  5.603754E+00 -3.926098E+01  4.026071E+00 -9.367894E+00  3.171413E+00  1.286142E+00
      3249   6 -1.089346E+01 -8.650438E+01 -3.721242E+00 -1.002439E+01  3.033903E+00  1.919224E+00
      3249   7  3.732544E+00 -3.990848E+01  3.738943E+00 -2.369556E+01  3.021482E+00  1.619288E+00
      3249   8 -1.250014E+01 -8.688735E+01 -3.391131E+00 -2.435206E+01  2.800624E+00  2.257887E+00
      3250   1  5.752199E+00 -1.097602E+02  2.553235E+00  1.235717E-01 -2.335624E+00  2.067257E+00
      3250   2 -1.023763E+01 -1.557906E+02 -4.715801E+00  4.743461E-01 -2.416792E+00  3.454169E+00
      3250   3  7.652879E+00 -1.085028E+02  4.843846E+00 -1.364944E+01 -2.812835E+00  2.424054E+00
      3250   4 -7.973793E+00 -1.541700E+02 -1.577823E+00 -1.329866E+01 -2.971173E+00  3.839731E+00
      3250   5  6.096442E+00 -1.082232E+02  3.184715E+00 -1.442012E+00  2.965856E+00  2.777973E+00
      3250   6 -9.817369E+00 -1.541005E+02 -3.984102E+00 -1.194739E+00  2.880832E+00  4.491035E+00
      3250   7  7.665458E+00 -1.071151E+02  5.309372E+00 -1.540491E+01  2.839377E+00  3.129014E+00
      3250   8 -7.891055E+00 -1.526351E+02 -1.025750E+00 -1.515763E+01  2.678427E+00  4.870376E+00
      3251   1  6.581534E+00  1.626974E+02  4.295421E+00  5.273259E+00 -2.612191E+00 -3.103776E-01
      3251   2 -8.231985E+00  1.191637E+02 -1.549362E+00  4.772747E+00 -2.762379E+00  1.700106E-01
      3251   3  4.676540E+00  1.617103E+02  2.910108E+00 -7.894360E+00 -2.784423E+00  1.334598E-01
      3251   4 -1.026279E+01  1.180508E+02 -3.228224E+00 -8.394872E+00 -3.048546E+00  6.325061E-01
      3251   5  6.846776E+00  1.645081E+02  4.906798E+00  4.747270E+00  2.969915E+00 -5.676453E-01
      3251   6 -7.931979E+00  1.210593E+02 -9.069174E-01  4.093946E+00  2.817216E+00 -1.993346E-01
      3251   7  4.421793E+00  1.633009E+02  3.307809E+00 -8.612927E+00  2.709941E+00 -1.309677E-01
      3251   8 -1.048074E+01  1.197283E+02 -2.794720E+00 -9.266251E+00  2.445144E+00  2.557001E-01
      3252   1  3.549089E+00  9.711389E+01  3.932579E+00 -5.082983E-01 -2.396506E+00  4.054857E-01
      3252   2 -1.105871E+01  5.400284E+01 -1.649046E+00 -1.819922E+00 -2.670505E+00  5.684274E-01
      3252   3 -1.084269E+00  9.488595E+01  1.139468E+00 -1.357650E+01 -2.547478E+00  9.007653E-01
      3252   4 -1.556464E+01  5.190234E+01 -4.144813E+00 -1.488812E+01 -2.947041E+00  1.134617E+00
      3252   5  3.431691E+00  9.895616E+01  4.433850E+00 -2.007507E+00  3.212067E+00  3.739508E-02
      3252   6 -1.103065E+01  5.618079E+01 -9.985657E-01 -3.487536E+00  2.935300E+00  3.158419E-01
      3252   7 -1.813189E+00  9.647005E+01  1.391683E+00 -1.520134E+01  3.191291E+00  5.246850E-01
      3252   8 -1.615015E+01  5.382005E+01 -3.748186E+00 -1.668137E+01  2.790986E+00  8.728977E-01
      3253   1  2.146523E+00  3.155382E+01  4.233649E+00 -6.004464E+00 -2.233294E+00  7.044872E-01
      3253   2 -1.401209E+01 -1.531433E+01 -2.760243E+00 -7.511332E+00 -2.576657E+00  9.132677E-01
      3253   3 -2.862967E+00  2.930781E+01  1.756444E+00 -2.008421E+01 -2.337910E+00  1.316879E+00
      3253   4 -1.881284E+01 -1.735160E+01 -4.750392E+00 -2.159107E+01 -2.816224E+00  1.580977E+00
      3253   5  1.980821E+00  3.382732E+01  4.859365E+00 -8.084362E+00  3.451015E+00  5.629409E-01
      3253   6 -1.406190E+01 -1.277656E+01 -2.012506E+00 -9.772226E+00  3.104678E+00  9.595814E-01
      3253   7 -3.695575E+00  3.129709E+01  2.101671E+00 -2.232581E+01  3.552296E+00  1.165454E+00
      3253   8 -1.953293E+01 -1.510142E+01 -4.291001E+00 -2.401368E+01  3.073185E+00  1.616519E+00
      3254   1  3.376740E+00 -3.864310E+01  4.276793E+00 -7.793380E+00 -2.239869E+00  1.153630E+00
      3254   2 -1.488456E+01 -9.062194E+01 -4.615383E+00 -9.039000E+00 -2.560885E+00  1.601531E+00
      3254   3 -4.008035E-01 -4.013627E+01  3.077105E+00 -2.325223E+01 -2.294777E+00  1.849475E+00
      3254   4 -1.836604E+01 -9.181904E+01 -5.124260E+00 -2.449785E+01 -2.772553E+00  2.318926E+00
      3254   5  3.466589E+00 -3.593533E+01  5.124486E+00 -1.026497E+01  3.560339E+00  1.365773E+00
      3254   6 -1.474484E+01 -8.780648E+01 -3.709113E+00 -1.172084E+01  3.235868E+00  2.078870E+00
      3254   7 -1.065876E+00 -3.775407E+01  3.594496E+00 -2.595035E+01  3.792776E+00  2.050393E+00
      3254   8 -1.898602E+01 -8.933394E+01 -4.559436E+00 -2.740622E+01  3.314074E+00  2.784691E+00
      3255   1  5.719256E+00 -1.149276E+02  3.347686E+00 -1.642317E+00 -2.534325E+00  2.368363E+00
      3255   2 -1.353591E+01 -1.695561E+02 -6.207694E+00 -1.485818E+00 -2.786419E+00  4.015486E+00
      3255   3  7.076032E+00 -1.138578E+02  5.556810E+00 -1.786032E+01 -2.604411E+00  3.108194E+00
      3255   4 -1.155082E+01 -1.678580E+02 -2.532518E+00 -1.770382E+01 -3.024420E+00  4.795064E+00
      3255   5  6.112327E+00 -1.119133E+02  4.402526E+00 -3.322516E+00  3.460637E+00  3.148721E+00
      3255   6 -1.304903E+01 -1.663414E+02 -5.040583E+00 -3.391227E+00  3.204843E+00  5.358514E+00
      3255   7  6.728924E+00 -1.111686E+02  6.268174E+00 -1.975675E+01  3.963483E+00  3.876617E+00
      3255   8 -1.181426E+01 -1.649785E+02 -1.732533E+00 -1.982546E+01  3.542483E+00  6.125516E+00
      3256   1 -1.439681E+01 -3.799522E+01 -8.888062E+00 -1.789714E+01  1.436151E+00  2.710338E+00
      3256   2 -9.118861E+00 -2.510639E+01 -4.183717E+00 -1.829303E+01  1.509455E+00  2.775739E+00
      3256   3 -1.107635E+01 -2.970411E+01 -5.383440E+00 -1.421663E+01  1.816389E+00  2.988297E+00
      3256   4 -6.702747E+00 -1.891135E+01 -1.597528E+00 -1.457943E+01  1.890721E+00  2.785673E+00
      3256   5 -8.160681E+00 -2.778401E+01 -2.835592E+00 -2.242247E+01  4.070503E+00  6.801350E+00
      3256   6 -4.387066E+00 -1.766072E+01 -3.801618E-01 -2.276007E+01  4.198185E+00  5.799047E+00
      3256   7 -5.618472E+00 -2.092844E+01  5.833761E-02 -1.781798E+01  4.986379E+00  7.115623E+00
      3256   8 -2.627863E+00 -1.258250E+01  1.681093E+00 -1.812900E+01  5.117688E+00  5.840052E+00
      3257   1 -1.762989E+01 -1.801317E+01 -4.948420E+00 -2.315561E+01  3.256166E+00  2.185040E+00
      3257   2 -1.304387E+01 -7.172858E+00 -5.019922E-01 -2.431575E+01  3.136861E+00  1.662171E+00
      3257   3 -1.533137E+01 -1.324918E+01 -2.837824E+00 -1.923544E+01  3.410427E+00  2.082445E+00
      3257   4 -1.167137E+01 -4.560558E+00  6.735562E-01 -2.019992E+01  3.295837E+00  1.369940E+00
      3257   5 -1.093434E+01 -1.172903E+01 -1.485636E+00 -2.693630E+01  6.627025E+00  4.302382E+00
      3257   6 -7.550273E+00 -3.215920E+00  1.281470E+00 -2.791624E+01  6.757022E+00  2.746460E+00
      3257   7 -1.000569E+01 -8.184771E+00 -1.725215E-01 -2.206491E+01  7.199962E+00  4.251409E+00
      3257   8 -7.417052E+00 -1.495825E+00  1.767311E+00 -2.287946E+01  7.346589E+00  2.485360E+00
      3258   1 -2.460732E+01 -5.107920E+00 -3.293100E+00 -2.651167E+01  4.273195E+00  1.388724E+00
      3258   2 -1.941217E+01  6.751663E+00  2.164468E+00 -2.936042E+01  4.438631E+00  1.409192E+00
      3258   3 -2.504111E+01 -4.502533E+00 -3.272477E+00 -2.246168E+01  4.241003E+00  9.305762E-01
      3258   4 -2.077877E+01  5.194523E+00  1.238264E+00 -2.510392E+01  4.412194E+00  6.447642E-01
      3258   5 -1.228054E+01  4.417069E-01  4.382389E-01 -3.028308E+01  7.760268E+00  1.733109E+00
      3258   6 -8.506146E+00  9.727520E+00  3.733742E+00 -3.273639E+01  8.230026E+00  6.917956E-01
      3258   7 -1.424708E+01  2.249423E-01 -3.255878E-01 -2.532468E+01  8.319716E+00  1.285169E+00
      3258   8 -1.128420E+01  7.666673E+00  2.108952E+00 -2.761259E+01  8.809772E+00 -6.600987E-02
      3259   1 -3.935128E+01  5.375838E+00 -3.184227E+00 -3.235103E+01  5.777453E+00  2.047344E+00
      3259   2 -3.350940E+01  1.707151E+01  4.593022E+00 -3.950150E+01  6.485767E+00  3.547623E+00
      3259   3 -4.370277E+01  1.255217E+00 -5.807455E+00 -2.783502E+01  4.954421E+00  6.743407E-01
      3259   4 -3.892254E+01  1.052802E+01  8.538482E-01 -3.531097E+01  5.656624E+00  9.923179E-01
      3259   5 -1.037004E+01  1.444038E+01  3.915268E+00 -3.441055E+01  7.410796E+00  1.875470E-01
      3259   6 -7.523111E+00  2.201903E+01  5.826391E+00 -4.076353E+01  7.795954E+00  9.867494E-02
      3259   7 -1.463275E+01  1.066308E+01  1.215487E+00 -2.893662E+01  8.324197E+00 -1.050225E+00
      3259   8 -1.279015E+01  1.608980E+01  1.930754E+00 -3.561074E+01  8.687799E+00 -2.213550E+00
      3260   1 -7.281703E+01  1.042268E+01 -7.444825E+00 -4.360873E+01  4.477519E+00  4.952071E+00
      3260   2 -7.043934E+01  1.423013E+01 -3.326652E+00 -6.233712E+01  3.386204E+00  8.513688E+00
      3260   3 -7.472483E+01  1.969867E+00 -1.076627E+01 -4.004029E+01  3.775719E+00  1.411864E+00
      3260   4 -7.537542E+01 -1.214612E+00 -9.750449E+00 -5.872070E+01  2.684160E+00  3.379957E+00
      3260   5  1.925756E+00  3.607078E+01  1.139601E+01 -3.732767E+01  4.062752E+00 -7.284701E-01
      3260   6  4.910077E-01  3.489874E+01  7.785558E+00 -5.387711E+01  2.958482E+00 -6.241600E-01
      3260   7 -2.673026E+00  2.833868E+01  6.944557E+00 -3.162391E+01  5.606740E+00 -3.827355E+00
      3260   8 -6.885965E+00  2.094542E+01  2.946816E-01 -4.821644E+01  4.501606E+00 -5.230771E+00
      3261   1 -1.110048E+01 -2.756233E+01 -6.877914E+00 -1.252958E+01  1.393752E+00  1.204044E+00
      3261   2 -6.835064E+00 -1.729365E+01 -2.928539E+00 -1.286211E+01  1.529293E+00  1.499754E+00
      3261   3 -9.957409E+00 -2.396236E+01 -5.405198E+00 -1.146529E+01  1.584762E+00  1.931494E+00
      3261   4 -6.076978E+00 -1.457295E+01 -1.859847E+00 -1.177448E+01  1.721229E+00  1.858233E+00
      3261   5 -5.988288E+00 -2.026440E+01 -7.565297E-01 -1.609240E+01  1.998882E+00  2.881337E+00
      3261   6 -2.975011E+00 -1.200068E+01  1.023998E+00 -1.637969E+01  2.179040E+00  2.751887E+00
      3261   7 -5.222121E+00 -1.731522E+01  5.328342E-01 -1.458898E+01  2.678329E+00  3.505276E+00
      3261   8 -2.560242E+00 -9.804625E+00  1.895166E+00 -1.485822E+01  2.861739E+00  3.038631E+00
      3262   1 -1.528223E+01 -1.202960E+01 -3.876970E+00 -1.729163E+01  2.934869E+00  1.171166E+00
      3262   2 -1.161500E+01 -3.802441E+00  1.199747E-01 -1.813568E+01  3.009123E+00  8.490104E-01
      3262   3 -1.474588E+01 -1.014148E+01 -3.139448E+00 -1.583338E+01  2.794543E+00  1.377687E+00
      3262   4 -1.141613E+01 -2.689571E+00  5.077852E-01 -1.663345E+01  2.870129E+00  7.909403E-01
      3262   5 -1.041020E+01 -7.792346E+00 -6.538744E-01 -2.010827E+01  3.973098E+00  2.046977E+00
      3262   6 -7.641002E+00 -1.071910E+00  1.856342E+00 -2.084919E+01  4.111495E+00  1.350468E+00
      3262   7 -1.033901E+01 -6.362872E+00 -1.679494E-01 -1.826736E+01  4.183340E+00  2.233177E+00
      3262   8 -7.868656E+00 -2.968315E-01  2.000531E+00 -1.897441E+01  4.326411E+00  1.287486E+00
      3263   1 -2.534422E+01 -4.221894E+00 -3.481822E+00 -2.038665E+01  3.775438E+00  5.761930E-01
      3263   2 -2.091902E+01  5.082398E+00  1.964576E+00 -2.295618E+01  3.810995E+00  3.116995E-01
      3263   3 -2.541387E+01 -3.692060E+00 -3.364414E+00 -1.880383E+01  3.290047E+00  2.900306E-01
      3263   4 -2.132252E+01  4.852402E+00  1.728964E+00 -2.133433E+01  3.326822E+00 -4.089444E-01
      3263   5 -1.497473E+01  4.021277E-01  2.195695E-02 -2.331610E+01  4.861821E+00  7.978917E-01
      3263   6 -1.172519E+01  7.886139E+00  3.369755E+00 -2.559512E+01  4.956063E+00  1.301148E-01
      3263   7 -1.574354E+01  5.504585E-01 -2.366366E-01 -2.136077E+01  4.917715E+00  5.106713E-01
      3263   8 -1.280184E+01  7.383429E+00  2.736071E+00 -2.361857E+01  5.016233E+00 -5.560274E-01
      3264   1 -4.474521E+01  2.057129E-01 -5.676395E+00 -2.570030E+01  3.653861E+00  3.220915E-01
      3264   2 -4.098827E+01  7.954787E+00 -9.023462E-01 -3.343598E+01  3.367387E+00  6.292475E-01
      3264   3 -4.478114E+01 -4.432532E-01 -5.951733E+00 -2.419526E+01  3.183281E+00 -8.084810E-01
      3264   4 -4.148880E+01  6.253685E+00 -1.674199E+00 -3.187108E+01  2.898098E+00 -1.189559E+00
      3264   5 -1.526978E+01  1.080898E+01  2.982552E+00 -2.688347E+01  4.349628E+00 -2.565516E-01
      3264   6 -1.309020E+01  1.641468E+01  4.642138E+00 -3.376797E+01  4.125338E+00 -5.230247E-01
      3264   7 -1.695857E+01  9.555569E+00  1.854716E+00 -2.500718E+01  4.732256E+00 -1.291206E+00
      3264   8 -1.523084E+01  1.421896E+01  2.950447E+00 -3.187613E+01  4.512497E+00 -2.180682E+00
      3265   1 -7.638287E+01 -2.550351E+00 -1.462126E+01 -3.864683E+01  1.661887E+00  8.948008E-01
      3265   2 -8.036496E+01 -1.093196E+01 -1.951327E+01 -5.741811E+01  9.205714E-01  2.184769E+00
      3265   3 -7.695103E+01 -5.580180E+00 -1.584250E+01 -3.768100E+01  2.179118E+00 -1.160646E+00
      3265   4 -8.188723E+01 -1.615593E+01 -2.172074E+01 -5.693531E+01  1.425008E+00 -4.785722E-01
      3265   5 -2.122551E+00  2.859091E+01  1.016876E+01 -2.979765E+01  1.327972E+00 -1.045932E+00
      3265   6 -7.067572E+00  1.950950E+01  2.766771E+00 -4.661834E+01 -2.945837E-02 -7.534483E-01
      3265   7 -4.112161E+00  2.534644E+01  8.100819E+00 -2.838859E+01  2.658432E+00 -2.907889E+00
      3265   8 -9.971478E+00  1.424440E+01 -3.281977E-01 -4.572052E+01  1.256106E+00 -3.178763E+00
      3266   1 -9.518263E+00 -2.239585E+01 -4.725488E+00 -1.106898E+01  6.165160E-01  1.532529E+00
      3266   2 -5.951190E+00 -1.360087E+01 -1.630223E+00 -1.136460E+01  7.082858E-01  1.118738E+00
      3266   3 -9.165310E+00 -2.093750E+01 -4.133439E+00 -1.076002E+01  8.508496E-01  2.203942E+00
      3266   4 -5.759864E+00 -1.250332E+01 -1.216134E+00 -1.102762E+01  9.435594E-01  1.484296E+00
      3266   5 -5.461407E+00 -1.677877E+01  2.905021E-01 -1.405919E+01  9.197917E-01  2.109934E+00
      3266   6 -2.845356E+00 -9.493321E+00  1.725225E+00 -1.431973E+01  1.052396E+00  1.550536E+00
      3266   7 -5.368361E+00 -1.569695E+01  8.126647E-01 -1.348247E+01  1.465211E+00  2.681465E+00
      3266   8 -2.904606E+00 -8.709895E+00  2.038128E+00 -1.372049E+01  1.601094E+00  1.846086E+00
      3267   1 -1.459408E+01 -9.459965E+00 -3.052032E+00 -1.533112E+01  1.455247E+00  6.515285E-01
      3267   2 -1.136616E+01 -2.250310E+00  4.980331E-01 -1.609447E+01  1.422118E+00  2.645807E-01
      3267   3 -1.406493E+01 -8.330434E+00 -2.540269E+00 -1.509496E+01  1.286378E+00  9.118128E-01
      3267   4 -1.096775E+01 -1.414275E+00  8.675153E-01 -1.576437E+01  1.255580E+00  2.773265E-01
      3267   5 -1.060146E+01 -6.150688E+00 -2.463478E-01 -1.766852E+01  1.977109E+00  9.664523E-01
      3267   6 -8.067759E+00 -5.921518E-02  2.107847E+00 -1.834456E+01  2.045294E+00  4.882342E-01
      3267   7 -1.060815E+01 -5.380504E+00  3.208306E-02 -1.721273E+01  2.046626E+00  1.194391E+00
      3267   8 -8.195949E+00  4.677471E-01  2.224505E+00 -1.781011E+01  2.122945E+00  4.905015E-01
      3268   1 -2.520324E+01 -3.342577E+00 -3.410071E+00 -1.822027E+01  1.451708E+00 -9.285516E-02
      3268   2 -2.129523E+01  4.898890E+00  1.375158E+00 -2.069435E+01  1.164995E+00 -6.503869E-01
      3268   3 -2.414913E+01 -2.392863E+00 -2.822868E+00 -1.779355E+01  1.001282E+00 -2.801158E-01
      3268   4 -2.036638E+01  5.572297E+00  1.821139E+00 -2.003805E+01  7.198188E-01 -1.199190E+00
      3268   5 -1.601324E+01  7.686079E-01 -2.542303E-02 -2.067762E+01  2.423456E+00  5.228831E-02
      3268   6 -1.296868E+01  7.688804E+00  3.202899E+00 -2.288116E+01  2.364799E+00 -5.786343E-01
      3268   7 -1.626823E+01  1.105472E+00 -4.949063E-02 -2.004534E+01  2.322551E+00 -1.329596E-01
      3268   8 -1.334776E+01  7.791818E+00  2.999077E+00 -2.205852E+01  2.282202E+00 -1.091652E+00
      3269   1 -4.457423E+01 -4.950148E-01 -6.259288E+00 -2.357630E+01  8.039354E-01 -1.082361E+00
      3269   2 -4.130578E+01  5.975456E+00 -1.834946E+00 -3.121571E+01  3.770988E-01 -1.683176E+00
      3269   3 -4.368983E+01  2.374639E-02 -5.895613E+00 -2.280145E+01  2.189678E-01 -2.024592E+00
      3269   4 -4.051633E+01  6.304171E+00 -1.597696E+00 -3.035549E+01 -2.062737E-01 -3.307629E+00
      3269   5 -1.726600E+01  9.831450E+00  2.543160E+00 -2.431477E+01  2.157633E+00 -1.061044E+00
      3269   6 -1.527656E+01  1.468528E+01  4.320805E+00 -3.118056E+01  1.800092E+00 -1.736108E+00
      3269   7 -1.815427E+01  9.585252E+00  2.003082E+00 -2.347447E+01  2.267896E+00 -1.901869E+00
      3269   8 -1.629689E+01  1.424072E+01  3.538857E+00 -3.030182E+01  1.915918E+00 -3.184988E+00
      3270   1 -7.779943E+01 -6.956518E+00 -1.642919E+01 -3.742614E+01  6.054142E-01 -1.821616E+00
      3270   2 -8.326447E+01 -1.904296E+01 -2.255953E+01 -5.724023E+01  6.450643E-01 -1.841660E+00
      3270   3 -8.013070E+01 -8.649000E+00 -1.776435E+01 -3.715874E+01  9.556237E-01 -3.690223E+00
      3270   4 -8.657630E+01 -2.299222E+01 -2.490646E+01 -5.833456E+01  9.622629E-01 -4.314769E+00
      3270   5 -3.812361E+00  2.563553E+01  9.982641E+00 -2.788229E+01  5.874157E-01 -2.425196E+00
      3270   6 -9.909639E+00  1.342967E+01  1.864244E+00 -4.584704E+01 -8.069976E-01 -3.258092E+00
      3270   7 -4.961545E+00  2.474934E+01  8.925510E+00 -2.704184E+01  1.586865E+00 -4.083511E+00
      3270   8 -1.200272E+01  1.044989E+01 -2.456328E-01 -4.630172E+01  7.732238E-02 -5.486217E+00
      3271   1 -8.938714E+00 -2.005746E+01 -3.611318E+00 -1.096169E+01  1.219806E-02  1.199422E+00
      3271   2 -5.674878E+00 -1.186845E+01 -9.208730E-01 -1.117726E+01  1.077808E-01  4.516538E-01
      3271   3 -8.505633E+00 -1.840697E+01 -2.924836E+00 -1.171514E+01  2.640479E-01  2.050762E+00
      3271   4 -5.375927E+00 -1.050933E+01 -3.901143E-01 -1.180892E+01  3.629366E-01  8.972683E-01
      3271   5 -5.411940E+00 -1.512387E+01  1.305167E+00 -1.353411E+01  4.867235E-02  1.443576E+00
      3271   6 -3.121056E+00 -8.368750E+00  2.186324E+00 -1.372278E+01  2.722899E-01  6.722997E-01
      3271   7 -5.488795E+00 -1.391117E+01  1.858492E+00 -1.400321E+01  5.968448E-01  2.167101E+00
      3271   8 -3.338828E+00 -7.410105E+00  2.523984E+00 -1.408670E+01  8.319058E-01  1.032071E+00
      3272   1 -1.384143E+01 -7.602579E+00 -2.293569E+00 -1.541095E+01  2.059327E-01  6.314346E-02
      3272   2 -1.088127E+01 -8.433749E-01  8.144278E-01 -1.600902E+01  2.759589E-01 -2.259080E-01
      3272   3 -1.340046E+01 -6.007876E+00 -1.665865E+00 -1.640074E+01  9.647277E-02  3.525715E-01
      3272   4 -1.049593E+01  6.342560E-01  1.373769E+00 -1.691521E+01  1.688057E-01 -1.978877E-01
      3272   5 -1.075264E+01 -4.902723E+00  1.015585E-01 -1.743347E+01  4.164982E-01  3.079710E-01
      3272   6 -8.420747E+00  8.836504E-01  2.088149E+00 -1.797152E+01  5.758652E-01  8.651896E-02
      3272   7 -1.074656E+01 -3.589655E+00  5.561599E-01 -1.826217E+01  4.722693E-01  5.717732E-01
      3272   8 -8.478023E+00  2.092965E+00  2.435320E+00 -1.873042E+01  6.396212E-01  1.168521E-01
      3273   1 -2.381956E+01 -1.740692E+00 -2.996171E+00 -1.797814E+01 -3.267293E-02 -5.434999E-01
      3273   2 -2.017129E+01  6.205065E+00  1.218976E+00 -2.011985E+01 -5.368768E-02 -1.193502E+00
      3273   3 -2.318181E+01 -1.967511E-02 -2.300314E+00 -1.884625E+01 -3.619096E-01 -6.963590E-01
      3273   4 -1.929218E+01  8.502229E+00  2.143245E+00 -2.099998E+01 -3.831486E-01 -1.627832E+00
      3273   5 -1.642627E+01  1.627141E+00 -2.237850E-01 -2.021850E+01  6.579972E-01 -1.281784E-01
      3273   6 -1.343249E+01  8.547537E+00  2.835107E+00 -2.216343E+01  6.282917E-01 -4.857120E-01
      3273   7 -1.620463E+01  3.118836E+00  2.494641E-01 -2.112056E+01  4.975675E-01 -2.535717E-01
      3273   8 -1.301174E+01  1.054866E+01  3.462616E+00 -2.308716E+01  4.670855E-01 -8.526649E-01
      3274   1 -4.290384E+01  1.228941E+00 -5.660830E+00 -2.291154E+01 -8.314568E-01 -1.995714E+00
      3274   2 -3.857931E+01  8.875264E+00  1.107965E+00 -3.049001E+01 -1.152888E+00 -3.394803E+00
      3274   3 -4.125682E+01  4.239528E+00 -4.336664E+00 -2.402615E+01 -2.144119E+00 -3.238337E+00
      3274   4 -3.661486E+01  1.270707E+01  2.668982E+00 -3.179758E+01 -2.470718E+00 -6.349789E+00
      3274   5 -1.835032E+01  1.041633E+01  1.629626E+00 -2.370462E+01  7.259617E-01 -9.542426E-01
      3274   6 -1.656819E+01  1.525082E+01  2.735585E+00 -3.059664E+01  2.043709E-01 -1.942214E+00
      3274   7 -1.769027E+01  1.280232E+01  2.290336E+00 -2.499414E+01  8.397636E-01 -1.937115E+00
      3274   8 -1.577867E+01  1.821780E+01  3.246860E+00 -3.209330E+01  3.002829E-01 -4.427852E+00
      3275   1 -7.837447E+01 -5.180321E+00 -1.249565E+01 -3.735821E+01  2.339796E-01 -4.273136E+00
      3275   2 -8.241864E+01 -1.753485E+01 -1.362167E+01 -5.959269E+01  2.794798E-02 -6.309652E+00
      3275   3 -7.752928E+01 -5.880199E-01 -1.114178E+01 -3.825480E+01 -1.324739E+00 -8.893736E+00
      3275   4 -8.135659E+01 -1.230798E+01 -1.217953E+01 -6.200134E+01 -1.568000E+00 -1.362066E+01
      3275   5 -5.199532E+00  2.604938E+01  8.082974E+00 -2.724585E+01  3.644815E-01 -2.761794E+00
      3275   6 -1.239716E+01  1.131663E+01 -1.176361E+00 -4.750677E+01 -1.283434E+00 -4.638640E+00
      3275   7 -4.338288E+00  2.997139E+01  8.557781E+00 -2.844941E+01  1.125111E+00 -6.492418E+00
      3275   8 -1.162076E+01  1.548575E+01 -1.231492E+00 -5.015379E+01 -6.516774E-01 -1.073894E+01
      3276   1 -1.276003E+01 -4.135921E+01 -8.886118E+00 -1.573412E+01  6.556566E+00  1.200874E+01
      3276   2 -8.328256E+00 -2.946335E+01 -6.009393E+00 -1.654008E+01  6.632459E+00  9.517771E+00
      3276   3 -1.102584E+01 -3.577903E+01 -7.307996E+00 -1.246183E+01  7.329745E+00  1.014640E+01
      3276   4 -6.899103E+00 -2.467604E+01 -4.655204E+00 -1.331427E+01  7.401749E+00  7.992503E+00
      3276   5 -7.875953E+00 -3.135127E+01 -9.580467E+00 -2.012792E+01  7.510100E+00  1.344214E+01
      3276   6 -4.016927E+00 -2.147131E+01 -6.597011E+00 -2.087979E+01  7.553418E+00  1.069576E+01
      3276   7 -6.631814E+00 -2.699314E+01 -8.575418E+00 -1.649117E+01  8.007913E+00  1.185466E+01
      3276   8 -2.962207E+00 -1.764409E+01 -5.692445E+00 -1.728552E+01  8.046968E+00  9.389695E+00
      3277   1 -1.257938E+01 -2.219667E+01 -6.134858E+00 -2.069304E+01  9.289127E+00  7.020002E+00
      3277   2 -8.918863E+00 -1.304560E+01 -3.084190E+00 -2.227021E+01  9.474692E+00  4.366150E+00
      3277   3 -1.213756E+01 -1.853840E+01 -5.331814E+00 -1.721667E+01  9.650249E+00  5.842393E+00
      3277   4 -8.905651E+00 -1.048236E+01 -2.614833E+00 -1.870246E+01  9.850877E+00  3.530979E+00
      3277   5 -6.153228E+00 -1.508189E+01 -5.649501E+00 -2.438199E+01  1.036394E+01  7.959442E+00
      3277   6 -2.977931E+00 -7.858221E+00 -2.288848E+00 -2.573371E+01  1.067570E+01  4.987686E+00
      3277   7 -6.519817E+00 -1.245512E+01 -5.439620E+00 -2.042554E+01  1.040033E+01  6.968527E+00
      3277   8 -3.633434E+00 -6.009665E+00 -2.263798E+00 -2.170615E+01  1.072861E+01  4.273666E+00
      3278   1 -1.093384E+01 -8.305895E+00 -2.854912E+00 -2.455619E+01  1.032187E+01  2.532069E+00
      3278   2 -7.604546E+00  8.863488E-02 -1.517854E-01 -2.620092E+01  1.084620E+01  3.034925E-01
      3278   3 -1.238614E+01 -7.115892E+00 -3.156324E+00 -2.126602E+01  1.072290E+01  1.911876E+00
      3278   4 -9.673632E+00 -2.355347E-01 -9.949887E-01 -2.328131E+01  1.120939E+01 -6.455661E-02
      3278   5 -4.534752E+00 -4.312752E+00 -1.603053E+00 -2.765342E+01  1.123054E+01  2.875909E+00
      3278   6 -1.864607E+00  1.915482E+00  1.069196E+00 -2.932292E+01  1.143793E+01  1.579204E-01
      3278   7 -5.259746E+00 -3.054667E+00 -1.687336E+00 -2.384369E+01  1.138014E+01  2.327256E+00
      3278   8 -3.046552E+00  2.025118E+00  6.101961E-01 -2.583870E+01  1.154604E+01 -1.927065E-01
      3279   1 -4.782820E+00  5.327477E+00  1.066862E+00 -2.514859E+01  9.652200E+00 -2.063377E+00
      3279   2 -4.351863E+00  8.227762E+00 -3.968985E-01 -2.650272E+01  1.016990E+01 -5.956880E+00
      3279   3 -7.123965E+00  4.005427E+00 -1.828962E-02 -2.214958E+01  1.044029E+01 -1.986784E+00
      3279   4 -7.349628E+00  5.156405E+00 -1.921481E+00 -2.428099E+01  1.087000E+01 -5.020579E+00
      3279   5 -8.169569E-02  5.686096E+00  2.700445E+00 -2.760272E+01  1.039423E+01 -2.425036E+00
      3279   6  5.596439E-01  7.257816E+00  3.266524E+00 -2.926738E+01  1.017487E+01 -6.536656E+00
      3279   7 -1.423270E-01  5.662524E+00  2.690322E+00 -2.384100E+01  1.041511E+01 -2.444339E+00
      3279   8  4.375378E-02  5.933829E+00  3.039286E+00 -2.617548E+01  1.009927E+01 -5.840761E+00
      3280   1  1.549240E+01  3.133094E+01  9.744590E+00 -1.446133E+01  6.956872E+00 -1.020229E+01
      3280   2  2.301299E+01  5.274835E+01  1.339581E+01 -1.036913E+01  7.976104E+00 -1.543186E+01
      3280   3  1.319071E+01  2.871641E+01  8.786124E+00 -1.178022E+01  8.386435E+00 -8.357114E+00
      3280   4  2.099830E+01  5.055784E+01  1.297002E+01 -8.087206E+00  9.362212E+00 -1.247314E+01
      3280   5  1.600383E+00  1.733491E+01  5.704180E+00 -2.421820E+01  7.016993E+00 -1.058836E+01
      3280   6  9.254556E+00  3.700597E+01  1.154704E+01 -2.065271E+01  7.672186E+00 -1.537102E+01
      3280   7  8.333994E-01  1.597361E+01  5.631911E+00 -2.107012E+01  7.559566E+00 -9.119333E+00
      3280   8  8.864637E+00  3.625511E+01  1.212121E+01 -1.784654E+01  8.167112E+00 -1.294486E+01
      3281   1 -1.303495E+01 -4.070177E+01 -7.823430E+00 -1.317755E+01  2.991561E+00  4.050639E+00
      3281   2 -8.204004E+00 -2.768759E+01 -4.734465E+00 -1.398661E+01  3.150230E+00  3.537884E+00
      3281   3 -1.082574E+01 -3.400249E+01 -5.087307E+00 -1.149559E+01  3.879784E+00  4.242017E+00
      3281   4 -6.655292E+00 -2.248555E+01 -2.702731E+00 -1.225568E+01  4.047139E+00  3.562605E+00
      3281   5 -6.145923E+00 -3.037199E+01 -2.157876E+00 -1.707996E+01  3.294207E+00  6.522103E+00
      3281   6 -2.467986E+00 -1.970298E+01 -5.670966E-01 -1.778175E+01  3.521173E+00  5.410182E+00
      3281   7 -4.718546E+00 -2.502877E+01 -5.748493E-02 -1.494973E+01  4.350086E+00  6.664442E+00
      3281   8 -1.578878E+00 -1.556793E+01  9.472359E-01 -1.561466E+01  4.586508E+00  5.409321E+00
      3282   1 -1.323323E+01 -2.049791E+01 -5.186408E+00 -1.769151E+01  5.040425E+00  2.635485E+00
      3282   2 -9.316012E+00 -1.078781E+01 -1.839099E+00 -1.922153E+01  5.104532E+00  1.868762E+00
      3282   3 -1.228892E+01 -1.671308E+01 -3.803838E+00 -1.564127E+01  5.422465E+00  2.638492E+00
      3282   4 -9.115865E+00 -8.693576E+00 -1.246502E+00 -1.718741E+01  5.487232E+00  1.639259E+00
      3282   5 -6.491959E+00 -1.399573E+01 -1.497804E+00 -2.067084E+01  5.491288E+00  4.027583E+00
      3282   6 -3.675830E+00 -6.494706E+00  3.882689E-01 -2.206746E+01  5.560587E+00  2.582860E+00
      3282   7 -5.964817E+00 -1.103022E+01 -4.893883E-01 -1.813971E+01  6.045093E+00  4.021445E+00
      3282   8 -3.752404E+00 -4.888002E+00  7.431051E-01 -1.955497E+01  6.115111E+00  2.367658E+00
      3283   1 -1.287161E+01 -6.628842E+00 -2.099272E+00 -2.197840E+01  5.755562E+00  1.270130E+00
      3283   2 -9.605595E+00  1.349135E+00  8.094746E-01 -2.436938E+01  5.820117E+00  5.333596E-01
      3283   3 -1.358643E+01 -5.976099E+00 -2.265062E+00 -1.990808E+01  6.056293E+00  8.479235E-01
      3283   4 -1.111756E+01  2.041943E-01 -2.157757E-01 -2.237701E+01  6.115058E+00 -2.003189E-01
      3283   5 -5.375469E+00 -2.905361E+00  1.094720E-01 -2.433984E+01  6.094920E+00  1.469558E+00
      3283   6 -3.270990E+00  2.852356E+00  1.366688E+00 -2.654972E+01  6.113951E+00 -1.759830E-02
      3283   7 -6.143429E+00 -2.446072E+00 -1.433391E-01 -2.177015E+01  6.625078E+00  1.077959E+00
      3283   8 -4.689689E+00  1.861093E+00  3.952978E-01 -2.405316E+01  6.637806E+00 -6.869383E-01
      3284   1 -6.538307E+00  6.707870E+00  2.580030E+00 -2.338543E+01  5.110798E+00 -1.308978E-01
      3284   2 -5.757876E+00  9.763032E+00  2.126306E+00 -2.604038E+01  5.249844E+00 -1.037594E+00
      3284   3 -9.118528E+00  3.773113E+00  6.423314E-01 -2.153959E+01  5.796407E+00 -1.044534E+00
      3284   4 -9.511105E+00  4.144577E+00 -1.037722E+00 -2.448634E+01  5.904642E+00 -2.219723E+00
      3284   5  3.139891E-02  7.277192E+00  2.494952E+00 -2.439466E+01  5.129173E+00 -1.333910E+00
      3284   6 -3.297538E-01  8.087911E+00  4.803912E-01 -2.693846E+01  5.025953E+00 -3.234487E+00
      3284   7 -1.711300E+00  5.110187E+00  1.013738E+00 -2.181343E+01  6.015742E+00 -2.163628E+00
      3284   8 -3.040384E+00  3.720446E+00 -2.026802E+00 -2.461252E+01  5.878980E+00 -4.307091E+00
      3285   1  1.658469E+01  3.620006E+01  1.458719E+01 -1.362060E+01  3.112739E+00 -2.150735E+00
      3285   2  2.656213E+01  6.281333E+01  2.123205E+01 -1.036397E+01  3.665839E+00 -2.717785E+00
      3285   3  1.284284E+01  2.872206E+01  1.083883E+01 -1.242431E+01  4.630324E+00 -3.225662E+00
      3285   4  2.151715E+01  5.230418E+01  1.617108E+01 -9.399269E+00  5.156737E+00 -3.810860E+00
      3285   5  6.311219E-01  1.937742E+01  1.747553E+00 -2.187279E+01  2.981320E+00 -5.004669E+00
      3285   6  8.830531E+00  4.191647E+01  6.539868E+00 -1.896823E+01  3.324591E+00 -6.542056E+00
      3285   7 -1.732053E+00  1.370410E+01 -1.079688E+00 -1.972550E+01  4.545806E+00 -5.997748E+00
      3285   8  5.402390E+00  3.376855E+01  2.637345E+00 -1.701546E+01  4.860025E+00 -7.556503E+00
      3286   1 -1.138217E+01 -3.409998E+01 -5.528816E+00 -1.178704E+01  1.436060E+00  1.688811E+00
      3286   2 -7.133660E+00 -2.265054E+01 -2.816566E+00 -1.255797E+01  1.526819E+00  1.292808E+00
      3286   3 -1.057243E+01 -3.117902E+01 -4.235380E+00 -1.129615E+01  2.117585E+00  2.114184E+00
      3286   4 -6.524963E+00 -2.015399E+01 -1.768850E+00 -1.206735E+01  2.210286E+00  1.579924E+00
      3286   5 -5.946009E+00 -2.705353E+01 -5.034607E-01 -1.530747E+01  1.174702E+00  2.878887E+00
      3286   6 -2.463400E+00 -1.706280E+01  1.114504E+00 -1.600922E+01  1.279736E+00  2.268774E+00
      3286   7 -5.460362E+00 -2.473753E+01  5.252271E-01 -1.460044E+01  2.015385E+00  3.209185E+00
      3286   8 -2.133344E+00 -1.506159E+01  1.939341E+00 -1.530606E+01  2.122518E+00  2.489690E+00
      3287   1 -1.271949E+01 -1.685982E+01 -3.741916E+00 -1.589617E+01  2.494606E+00  8.132824E-01
      3287   2 -9.400682E+00 -8.578318E+00 -9.607144E-01 -1.745728E+01  2.507010E+00  5.090036E-01
      3287   3 -1.233400E+01 -1.472435E+01 -2.927717E+00 -1.555294E+01  2.715566E+00  1.041057E+00
      3287   4 -9.419260E+00 -7.307981E+00 -6.282963E-01 -1.708286E+01  2.733952E+00  4.077458E-01
      3287   5 -6.666991E+00 -1.215807E+01 -9.000005E-02 -1.844506E+01  2.363453E+00  1.564199E+00
      3287   6 -4.205770E+00 -5.306459E+00  1.262459E+00 -1.986566E+01  2.419825E+00  9.212261E-01
      3287   7 -6.670602E+00 -1.053224E+01  4.592183E-01 -1.781452E+01  2.848155E+00  1.729292E+00
      3287   8 -4.546812E+00 -4.384032E+00  1.390309E+00 -1.921369E+01  2.910989E+00  8.063432E-01
      3288   1 -1.392580E+01 -5.728165E+00 -1.842923E+00 -2.019238E+01  2.936076E+00  2.378732E-01
      3288   2 -1.124589E+01  7.853529E-01  5.765809E-01 -2.276696E+01  2.870367E+00 -1.005499E-01
      3288   3 -1.441458E+01 -5.201556E+00 -1.959198E+00 -1.983084E+01  3.035825E+00 -1.329983E-01
      3288   4 -1.219951E+01  3.272482E-01 -1.044346E-01 -2.249822E+01  2.961429E+00 -9.065714E-01
      3288   5 -6.428412E+00 -2.344177E+00  4.834478E-01 -2.208045E+01  2.845356E+00  3.822651E-01
      3288   6 -4.676646E+00  2.737991E+00  1.240500E+00 -2.447059E+01  2.715794E+00 -3.483689E-01
      3288   7 -6.884771E+00 -1.915976E+00  3.371452E-01 -2.142991E+01  3.282499E+00  3.303610E-02
      3288   8 -5.526066E+00  2.356967E+00  5.932227E-01 -2.390425E+01  3.143553E+00 -1.069441E+00
      3289   1 -9.332201E+00  4.387821E+00  1.656152E+00 -2.209289E+01  2.711112E+00 -3.840307E-01
      3289   2 -9.568449E+00  4.785161E+00  4.713183E-01 -2.532251E+01  2.640017E+00 -7.962302E-01
      3289   3 -1.095648E+01  2.919839E+00  3.612177E-01 -2.202547E+01  3.119759E+00 -1.522294E+00
      3289   4 -1.187165E+01  1.863794E+00 -1.633302E+00 -2.558376E+01  3.011940E+00 -2.480091E+00
      3289   5 -1.301688E+00  6.575429E+00  2.022190E+00 -2.227092E+01  2.267426E+00 -9.922754E-01
      3289   6 -2.503959E+00  5.679857E+00 -1.089809E+00 -2.533152E+01  1.926404E+00 -1.960474E+00
      3289   7 -2.115529E+00  5.631207E+00  1.098066E+00 -2.178756E+01  3.122192E+00 -1.983126E+00
      3289   8 -3.899267E+00  3.520129E+00 -2.736650E+00 -2.513184E+01  2.741503E+00 -3.413781E+00
      3290   1  1.360623E+01  2.953720E+01  1.307197E+01 -1.328678E+01  1.869509E+00 -1.298198E+00
      3290   2  2.224975E+01  5.249209E+01  1.892881E+01 -1.043914E+01  2.231439E+00 -1.682390E+00
      3290   3  1.218756E+01  2.680097E+01  1.119254E+01 -1.313967E+01  3.059305E+00 -3.051084E+00
      3290   4  2.063958E+01  4.937941E+01  1.678750E+01 -1.039149E+01  3.409223E+00 -3.626232E+00
      3290   5 -3.851802E-01  1.631925E+01  2.567969E-01 -2.043604E+01  1.008352E+00 -2.765248E+00
      3290   6  6.922624E+00  3.667476E+01  4.260638E+00 -1.783715E+01  1.281999E+00 -3.409944E+00
      3290   7 -1.226719E+00  1.422754E+01 -1.306893E+00 -1.995252E+01  2.447199E+00 -4.286331E+00
      3290   8  5.941422E+00  3.433319E+01  2.481264E+00 -1.743441E+01  2.707871E+00 -5.075360E+00
      3291   1 -1.070613E+01 -3.064869E+01 -3.845333E+00 -1.167891E+01  3.100247E-01  4.442600E-01
      3291   2 -6.756161E+00 -1.971420E+01 -1.613248E+00 -1.246980E+01  4.802445E-01  1.758590E-01
      3291   3 -1.057326E+01 -2.875387E+01 -3.069971E+00 -1.201145E+01  1.003087E+00  7.732594E-01
      3291   4 -6.751464E+00 -1.808243E+01 -1.002100E+00 -1.290177E+01  1.164053E+00  4.180551E-01
      3291   5 -5.925834E+00 -2.491568E+01  4.512116E-01 -1.492371E+01 -1.196148E-01  1.061011E+00
      3291   6 -2.581225E+00 -1.514723E+01  1.831464E+00 -1.566150E+01 -1.268382E-02  7.103240E-01
      3291   7 -5.796027E+00 -2.334584E+01  1.140032E+00 -1.507938E+01  6.999994E-01  1.298649E+00
      3291   8 -2.550735E+00 -1.377054E+01  2.382369E+00 -1.590527E+01  7.970191E-01  8.863710E-01
      3292   1 -1.253623E+01 -1.413832E+01 -2.820801E+00 -1.621559E+01  6.684909E-01  1.390757E-02
      3292   2 -9.693686E+00 -6.814564E+00 -6.693939E-01 -1.774251E+01  7.306392E-01 -9.248964E-02
      3292   3 -1.244822E+01 -1.239067E+01 -2.198798E+00 -1.724275E+01  8.248701E-01  2.510281E-01
      3292   4 -9.944515E+00 -5.790825E+00 -4.529758E-01 -1.881807E+01  8.838080E-01 -1.252719E-01
      3292   5 -7.108077E+00 -1.038667E+01  4.208127E-01 -1.839390E+01  4.131281E-01  4.036360E-01
      3292   6 -4.891258E+00 -4.066513E+00  1.490051E+00 -1.980593E+01  4.533193E-01  1.603268E-01
      3292   7 -7.147333E+00 -8.930901E+00  9.221390E-01 -1.918188E+01  7.815349E-01  5.792889E-01
      3292   8 -5.226778E+00 -3.230543E+00  1.623634E+00 -2.063997E+01  8.182874E-01  1.103450E-01
      3293   1 -1.465542E+01 -4.694540E+00 -2.038758E+00 -2.060078E+01  9.039565E-01 -1.955061E-01
      3293   2 -1.245160E+01  8.427721E-01 -2.299988E-01 -2.336702E+01  7.228802E-01 -3.231611E-01
      3293   3 -1.485449E+01 -4.071718E+00 -2.014343E+00 -2.195877E+01  8.882874E-01 -4.938979E-01
      3293   4 -1.308427E+01  5.705110E-01 -7.558125E-01 -2.485130E+01  6.934802E-01 -1.112855E+00
      3293   5 -6.935296E+00 -1.356174E+00  5.763274E-01 -2.213271E+01  7.456973E-01 -6.580770E-02
      3293   6 -5.547832E+00  3.074012E+00  7.710273E-01 -2.470273E+01  4.707125E-01 -3.576226E-01
      3293   7 -6.986259E+00 -7.577265E-01  6.305647E-01 -2.324342E+01  1.100336E+00 -3.494178E-01
      3293   8 -5.989320E+00  2.886156E+00  3.098137E-01 -2.592404E+01  8.106444E-01 -1.054688E+00
      3294   1 -1.142351E+01  3.092129E+00 -2.141956E-01 -2.313567E+01  1.069801E+00 -3.676315E-01
      3294   2 -1.296908E+01  1.123876E+00 -3.397833E+00 -2.700569E+01  6.528594E-01 -4.851412E-01
      3294   3 -1.225226E+01  1.773048E+00 -1.189070E+00 -2.500834E+01  1.619471E+00 -1.355621E+00
      3294   4 -1.475974E+01 -2.396184E+00 -5.378108E+00 -2.925528E+01  1.157064E+00 -1.654880E+00
      3294   5 -1.626166E+00  6.546045E+00  1.500610E+00 -2.267459E+01  5.725376E-01 -6.320398E-01
      3294   6 -3.468148E+00  4.183576E+00 -2.276859E+00 -2.629997E+01 -1.553521E-01 -1.192429E+00
      3294   7 -1.467605E+00  5.844005E+00  9.835497E-01 -2.396923E+01  1.262827E+00 -1.507669E+00
      3294   8 -4.135129E+00  1.601847E+00 -3.666038E+00 -2.791318E+01  4.862411E-01 -2.224090E+00
      3295   1  1.128852E+01  2.599738E+01  8.747631E+00 -1.419378E+01  1.230343E+00 -4.014906E-01
      3295   2  1.885168E+01  4.745789E+01  1.249765E+01 -1.165391E+01  1.443217E+00 -4.830840E-01
      3295   3  9.641139E+00  2.186424E+01  6.574939E+00 -1.576964E+01  2.760767E+00 -1.449050E+00
      3295   4  1.622714E+01  4.110941E+01  9.283096E+00 -1.365060E+01  2.921136E+00 -1.711489E+00
      3295   5 -3.442695E-01  1.509147E+01 -1.013265E+00 -2.073239E+01 -6.974941E-02 -1.530812E+00
      3295   6  5.968374E+00  3.407661E+01  1.043746E+00 -1.844141E+01 -2.159729E-01 -2.160824E+00
      3295   7 -2.702978E-01  1.248645E+01 -2.242283E+00 -2.142389E+01  1.691538E+00 -2.392484E+00
      3295   8  5.235972E+00  2.965934E+01 -1.060939E+00 -1.947881E+01  1.489079E+00 -3.161396E+00
      3296   1 -2.826699E+00 -1.956238E+01 -7.342408E+00 -7.071617E+00  9.579575E+00  1.299243E+01
      3296   2 -1.011076E+00 -1.489919E+01 -5.953525E+00 -7.263418E+00  9.634739E+00  9.728633E+00
      3296   3 -5.681246E+00 -2.536346E+01 -1.037727E+01 -7.131458E+00  9.308331E+00  1.166492E+01
      3296   4 -3.330443E+00 -1.964320E+01 -8.261516E+00 -7.596816E+00  9.326260E+00  9.099194E+00
      3296   5 -2.203917E+00 -1.773953E+01 -8.472972E+00 -1.270788E+01  7.886614E+00  1.169393E+01
      3296   6 -2.225899E-01 -1.350525E+01 -6.102828E+00 -1.310061E+01  7.783358E+00  8.988984E+00
      3296   7 -4.427818E+00 -2.310971E+01 -1.103909E+01 -1.210812E+01  7.427887E+00  1.073856E+01
      3296   8 -1.938381E+00 -1.781579E+01 -8.034893E+00 -1.271132E+01  7.300166E+00  8.572065E+00
      3297   1 -2.909708E+00 -1.102127E+01 -5.281384E+00 -1.008631E+01  1.246629E+01  6.935587E+00
      3297   2 -7.820086E-01 -6.648040E+00 -2.562280E+00 -1.045081E+01  1.288117E+01  4.312448E+00
      3297   3 -6.091224E+00 -1.540146E+01 -7.646617E+00 -1.031703E+01  1.176692E+01  6.658361E+00
      3297   4 -3.098041E+00 -9.010977E+00 -4.059827E+00 -1.105440E+01  1.213543E+01  4.063180E+00
      3297   5 -6.835582E-01 -9.216353E+00 -4.483571E+00 -1.623989E+01  1.033366E+01  6.498842E+00
      3297   6  1.350151E+00 -5.071808E+00 -1.849083E+00 -1.682169E+01  1.055122E+01  4.045375E+00
      3297   7 -3.201081E+00 -1.310081E+01 -6.467713E+00 -1.582500E+01  9.766031E+00  6.297961E+00
      3297   8 -3.800900E-01 -7.120723E+00 -3.044497E+00 -1.670280E+01  9.953110E+00  3.854090E+00
      3298   1 -2.928117E+00 -4.742913E+00 -2.224937E+00 -1.140652E+01  1.339231E+01  2.345303E+00
      3298   2 -8.180901E-01 -8.899841E-02  1.545716E-01 -1.167296E+01  1.362551E+01 -3.460259E-01
      3298   3 -4.084595E+00 -5.646839E+00 -2.935289E+00 -1.235601E+01  1.274560E+01  2.096754E+00
      3298   4 -1.474210E+00  1.733655E-01 -5.421203E-02 -1.302162E+01  1.292632E+01 -5.910161E-01
      3298   5 -1.692977E+00 -3.887558E+00 -1.990197E+00 -1.797091E+01  1.086086E+01  2.151663E+00
      3298   6  2.591623E-02 -1.514424E-01  3.329560E-03 -1.850900E+01  1.087081E+01 -5.191088E-01
      3298   7 -2.193762E+00 -4.524075E+00 -2.391987E+00 -1.802486E+01  1.038939E+01  1.951385E+00
      3298   8  3.102731E-02  3.916707E-01  1.082317E-01 -1.887413E+01  1.036486E+01 -7.206805E-01
      3299   1  7.974381E-02  4.324831E+00  2.208978E+00 -8.579471E+00  1.292236E+01 -2.632003E+00
      3299   2  3.311195E+00  1.116573E+01  6.139579E+00 -7.657285E+00  1.287013E+01 -6.017918E+00
      3299   3  1.495488E+00  6.534728E+00  3.217221E+00 -9.413790E+00  1.198249E+01 -2.864209E+00
      3299   4  5.553518E+00  1.528197E+01  7.996744E+00 -8.491750E+00  1.192800E+01 -6.170528E+00
      3299   5 -2.708708E+00  2.039537E+00  3.488280E-01 -1.640657E+01  1.032575E+01 -2.707480E+00
      3299   6  2.705203E-01  8.196858E+00  4.122269E+00 -1.555234E+01  1.026391E+01 -5.900471E+00
      3299   7 -1.340421E+00  4.186523E+00  1.351209E+00 -1.629354E+01  9.536240E+00 -2.913321E+00
      3299   8  2.415862E+00  1.214229E+01  5.916384E+00 -1.543737E+01  9.472919E+00 -6.057579E+00
      3300   1 -1.518694E+00  1.457848E+01  5.690832E+00 -5.341338E+00  9.829599E+00 -9.900463E+00
      3300   2  3.542335E-01  1.969740E+01  6.815004E+00 -6.087192E+00  9.828560E+00 -1.514100E+01
      3300   3  8.472777E-01  2.068299E+01  8.328267E+00 -5.883170E+00  9.384746E+00 -9.490122E+00
      3300   4  4.625644E+00  2.996198E+01  1.164383E+01 -6.222356E+00  9.441840E+00 -1.358489E+01
      3300   5 -5.824056E-01  1.347934E+01  6.051659E+00 -1.296359E+01  7.684186E+00 -9.136302E+00
      3300   6  2.557098E+00  2.033700E+01  9.659004E+00 -1.333159E+01  7.930479E+00 -1.304799E+01
      3300   7  8.003766E-01  1.862906E+01  8.074676E+00 -1.290949E+01  6.979741E+00 -8.938701E+00
      3300   8  5.529152E+00  2.900715E+01  1.345917E+01 -1.296752E+01  7.264230E+00 -1.197798E+01
      3301   1 -9.142607E+00 -4.019963E+01 -5.918576E+00 -1.156056E+01  4.569860E+00  9.015637E+00
      3301   2 -5.996552E+00 -3.056422E+01 -5.067133E+00 -1.193921E+01  4.814839E+00  7.166189E+00
      3301   3 -6.464749E+00 -3.171357E+01 -2.956191E+00 -9.308599E+00  5.676023E+00  8.021748E+00
      3301   4 -4.115999E+00 -2.394817E+01 -2.892428E+00 -9.903249E+00  5.894561E+00  6.206207E+00
      3301   5 -4.308778E+00 -3.018567E+01 -3.172020E+00 -1.424627E+01  4.503069E+00  1.049789E+01
      3301   6 -2.146401E+00 -2.288801E+01 -3.261756E+00 -1.470300E+01  4.631306E+00  8.209541E+00
      3301   7 -2.225634E+00 -2.386850E+01 -9.130225E-01 -1.170865E+01  5.655508E+00  9.509839E+00
      3301   8 -6.346185E-01 -1.791051E+01 -1.567623E+00 -1.234039E+01  5.765897E+00  7.287313E+00
      3302   1 -8.598741E+00 -2.387309E+01 -5.413679E+00 -1.453591E+01  6.878603E+00  5.293059E+00
      3302   2 -4.665417E+00 -1.368369E+01 -2.491996E+00 -1.577203E+01  6.929999E+00  3.307087E+00
      3302   3 -7.225765E+00 -1.895064E+01 -3.861225E+00 -1.222482E+01  7.358555E+00  4.552153E+00
      3302   4 -4.148627E+00 -1.082946E+01 -1.725282E+00 -1.361730E+01  7.390918E+00  2.748451E+00
      3302   5 -3.901476E+00 -1.714251E+01 -3.469629E+00 -1.763643E+01  6.813705E+00  5.998721E+00
      3302   6 -8.774402E-01 -9.385828E+00 -1.146190E+00 -1.888004E+01  6.781064E+00  3.655037E+00
      3302   7 -2.745559E+00 -1.351595E+01 -2.261816E+00 -1.487815E+01  7.180509E+00  5.343250E+00
      3302   8 -3.262101E-01 -7.217760E+00 -4.955093E-01 -1.624568E+01  7.135020E+00  3.166472E+00
      3303   1 -4.863174E+00 -7.761787E+00 -1.747639E+00 -1.731844E+01  7.467531E+00  1.758800E+00
      3303   2 -1.529249E+00  1.050328E+00  5.533281E-01 -1.820160E+01  7.617804E+00 -3.838793E-01
      3303   3 -5.174662E+00 -6.562425E+00 -1.667668E+00 -1.518067E+01  7.924273E+00  1.306918E+00
      3303   4 -2.748773E+00  7.907194E-02 -2.228665E-01 -1.626462E+01  8.049926E+00 -7.237912E-01
      3303   5 -2.347415E+00 -5.558634E+00 -1.154935E+00 -2.029157E+01  7.235164E+00  1.822839E+00
      3303   6  3.345224E-03  7.304176E-01  3.918833E-01 -2.122112E+01  7.276735E+00 -7.406005E-01
      3303   7 -2.410500E+00 -4.584526E+00 -1.007448E+00 -1.760776E+01  7.628743E+00  1.432636E+00
      3303   8 -6.972685E-01  1.819447E-01 -6.314561E-02 -1.869826E+01  7.653694E+00 -1.017958E+00
      3304   1  2.640544E+00  1.030302E+01  3.234701E+00 -1.418922E+01  6.836846E+00 -2.272406E+00
      3304   2  7.269432E+00  2.289821E+01  6.069145E+00 -1.290142E+01  7.190104E+00 -5.078311E+00
      3304   3  1.114130E+00  7.884266E+00  2.031784E+00 -1.210688E+01  7.547853E+00 -2.364240E+00
      3304   4  4.780827E+00  1.807690E+01  4.061472E+00 -1.101415E+01  7.876021E+00 -4.669286E+00
      3304   5 -9.276621E-01  5.982979E+00  7.827136E-01 -1.823373E+01  6.526270E+00 -2.867355E+00
      3304   6  2.846146E+00  1.588785E+01  3.457202E+00 -1.710851E+01  6.768750E+00 -5.927569E+00
      3304   7 -1.956213E+00  4.395929E+00 -1.503997E-02 -1.550120E+01  7.008705E+00 -2.937504E+00
      3304   8  1.134766E+00  1.260126E+01  2.082894E+00 -1.453666E+01  7.234249E+00 -5.570198E+00
      3305   1  3.287105E+00  3.201445E+01  5.119536E+00 -1.015201E+01  5.154208E+00 -7.730918E+00
      3305   2  8.470834E+00  4.754785E+01  6.865236E+00 -1.053943E+01  4.992237E+00 -1.079124E+01
      3305   3  1.173732E+00  2.612911E+01  3.047611E+00 -8.344928E+00  6.565283E+00 -6.760151E+00
      3305   4  5.863810E+00  4.036884E+01  4.441470E+00 -8.536589E+00  6.429321E+00 -9.261881E+00
      3305   5  6.736428E-01  2.384488E+01  3.331469E+00 -1.474973E+01  4.590077E+00 -8.742754E+00
      3305   6  5.175088E+00  3.716015E+01  5.021014E+00 -1.501192E+01  4.542945E+00 -1.189834E+01
      3305   7 -1.061674E+00  1.950395E+01  1.729799E+00 -1.253381E+01  5.878807E+00 -7.852588E+00
      3305   8  3.112476E+00  3.195981E+01  3.187774E+00 -1.263927E+01  5.849232E+00 -1.051971E+01
      3306   1 -8.947561E+00 -3.754219E+01 -3.827934E+00 -1.128319E+01  1.899803E+00  3.325493E+00
      3306   2 -5.923997E+00 -2.841219E+01 -2.879392E+00 -1.202937E+01  1.999923E+00  2.466182E+00
      3306   3 -7.195694E+00 -3.219625E+01 -1.564775E+00 -1.042719E+01  2.865588E+00  3.602644E+00
      3306   4 -4.573678E+00 -2.396101E+01 -1.059953E+00 -1.117848E+01  2.967631E+00  2.637165E+00
      3306   5 -4.396354E+00 -3.092190E+01  1.353492E-01 -1.375093E+01  1.602777E+00  4.778654E+00
      3306   6 -2.018556E+00 -2.310587E+01  2.453029E-01 -1.444287E+01  1.711687E+00  3.629433E+00
      3306   7 -3.171806E+00 -2.680383E+01  1.830570E+00 -1.270690E+01  2.746419E+00  4.855281E+00
      3306   8 -1.089148E+00 -1.964732E+01  1.616254E+00 -1.340556E+01  2.856657E+00  3.652294E+00
      3307   1 -8.594096E+00 -2.240154E+01 -3.509196E+00 -1.427984E+01  3.090119E+00  1.695869E+00
      3307   2 -4.962124E+00 -1.257225E+01 -1.231911E+00 -1.574464E+01  3.127954E+00  1.132373E+00
      3307   3 -7.801203E+00 -1.895844E+01 -2.209225E+00 -1.345850E+01  3.735250E+00  1.816729E+00
      3307   4 -4.935325E+00 -1.085418E+01 -7.605579E-01 -1.499774E+01  3.765807E+00  1.012233E+00
      3307   5 -3.666886E+00 -1.751180E+01 -4.307243E-01 -1.677847E+01  2.753158E+00  2.590444E+00
      3307   6 -8.891185E-01 -9.389778E+00  7.064791E-01 -1.817340E+01  2.757714E+00  1.556750E+00
      3307   7 -3.015524E+00 -1.485157E+01  5.829059E-01 -1.563656E+01  3.592109E+00  2.605842E+00
      3307   8 -8.214228E-01 -8.048246E+00  1.093255E+00 -1.709190E+01  3.591638E+00  1.405761E+00
      3308   1 -5.536367E+00 -7.022496E+00 -1.015464E+00 -1.733828E+01  3.612203E+00  6.191442E-01
      3308   2 -2.482242E+00  1.431155E+00  7.113020E-01 -1.859623E+01  3.608113E+00 -1.163846E-01
      3308   3 -5.861874E+00 -6.549851E+00 -1.086237E+00 -1.659213E+01  4.222819E+00  3.113990E-01
      3308   4 -3.662905E+00 -2.209440E-02 -2.840992E-01 -1.791076E+01  4.212462E+00 -7.005495E-01
      3308   5 -2.658830E+00 -5.392667E+00 -1.886792E-01 -1.949023E+01  3.265287E+00  6.793962E-01
      3308   6 -4.881382E-01  1.317279E+00  3.370142E-01 -2.068957E+01  3.232541E+00 -5.706922E-01
      3308   7 -2.833920E+00 -5.007098E+00 -2.049137E-01 -1.834313E+01  4.090028E+00  3.969592E-01
      3308   8 -1.313123E+00  2.344146E-01 -3.771048E-01 -1.959086E+01  4.052953E+00 -1.047123E+00
      3309   1  2.148615E+00  1.078055E+01  3.191237E+00 -1.444020E+01  3.268268E+00 -6.736484E-01
      3309   2  6.369181E+00  2.290359E+01  5.136760E+00 -1.356457E+01  3.410429E+00 -1.375264E+00
      3309   3  8.416430E-01  8.059425E+00  1.726599E+00 -1.371369E+01  4.331086E+00 -1.370696E+00
      3309   4  4.093792E+00  1.796048E+01  2.666038E+00 -1.291864E+01  4.462234E+00 -2.205880E+00
      3309   5 -1.311535E+00  7.057776E+00 -1.350903E-01 -1.743111E+01  2.714220E+00 -1.528595E+00
      3309   6  1.968453E+00  1.715835E+01  6.976299E-01 -1.663393E+01  2.806027E+00 -2.777527E+00
      3309   7 -2.255551E+00  5.002129E+00 -1.211970E+00 -1.626144E+01  3.954604E+00 -2.066732E+00
      3309   8  2.790553E-01  1.338950E+01 -1.150650E+00 -1.553158E+01  4.038804E+00 -3.383002E+00
      3310   1  3.869271E+00  3.275185E+01  4.638056E+00 -1.089638E+01  2.483297E+00 -2.206259E+00
      3310   2  9.486590E+00  4.926488E+01  6.849415E+00 -1.103883E+01  2.324591E+00 -3.171021E+00
      3310   3  1.751025E+00  2.712001E+01  2.007800E+00 -1.002513E+01  4.059487E+00 -2.872480E+00
      3310   4  7.042548E+00  4.283530E+01  3.930912E+00 -1.015765E+01  3.900377E+00 -3.601113E+00
      3310   5  4.662462E-01  2.568460E+01  1.013782E-01 -1.484557E+01  1.803870E+00 -3.899350E+00
      3310   6  5.481312E+00  4.062069E+01  1.882171E+00 -1.498636E+01  1.643319E+00 -5.074682E+00
      3310   7 -1.060252E+00  2.125644E+01 -1.895861E+00 -1.378744E+01  3.434314E+00 -4.347354E+00
      3310   8  3.714669E+00  3.560626E+01 -3.292757E-01 -1.391644E+01  3.273484E+00 -5.287770E+00
      3311   1 -8.163583E+00 -3.347282E+01 -2.389089E+00 -1.126874E+01  3.903610E-01  7.262342E-01
      3311   2 -5.230714E+00 -2.468347E+01 -1.402211E+00 -1.209917E+01  4.207294E-01  3.983431E-01
      3311   3 -8.137487E+00 -3.245055E+01 -2.027628E+00 -1.154107E+01  1.233249E+00  5.787099E-01
      3311   4 -5.100256E+00 -2.345654E+01 -8.975393E-01 -1.251441E+01  1.245568E+00  4.788464E-01
      3311   5 -4.783166E+00 -2.959139E+01  1.137450E-02 -1.362674E+01 -8.629547E-02  1.074208E+00
      3311   6 -1.989303E+00 -2.130999E+01  1.042856E+00 -1.442632E+01 -1.412363E-01  7.793973E-01
      3311   7 -4.429893E+00 -2.853431E+01  4.675612E-01 -1.392448E+01  7.624288E-01  8.983103E-01
      3311   8 -1.553840E+00 -2.008852E+01  1.608604E+00 -1.483995E+01  6.947696E-01  8.106846E-01
      3312   1 -8.336932E+00 -1.928420E+01 -2.299860E+00 -1.459481E+01  9.098247E-01  1.626506E-01
      3312   2 -5.336244E+00 -1.089640E+01 -6.853675E-01 -1.623215E+01  8.653373E-01  1.707016E-01
      3312   3 -8.301482E+00 -1.800463E+01 -1.828435E+00 -1.552858E+01  1.429209E+00  2.997468E-01
      3312   4 -5.715054E+00 -1.050142E+01 -7.102091E-01 -1.729525E+01  1.369072E+00  4.218777E-02
      3312   5 -3.557557E+00 -1.584956E+01  5.278831E-01 -1.677934E+01  3.743817E-01  4.636559E-01
      3312   6 -1.156048E+00 -8.472252E+00  1.155608E+00 -1.833295E+01  2.559336E-01  2.755433E-01
      3312   7 -3.200901E+00 -1.464216E+01  1.051298E+00 -1.754258E+01  1.193453E+00  5.018226E-01
      3312   8 -1.139918E+00 -8.001629E+00  1.280713E+00 -1.919935E+01  1.063979E+00  1.199147E-01
      3313   1 -5.896756E+00 -6.278124E+00 -8.315405E-01 -1.794808E+01  1.239919E+00  1.425824E-01
      3313   2 -3.647295E+00  4.499284E-01 -6.138881E-02 -1.937427E+01  1.068421E+00  1.568571E-01
      3313   3 -6.075044E+00 -6.427395E+00 -1.029525E+00 -1.927060E+01  1.767716E+00 -1.666135E-01
      3313   4 -4.447017E+00 -1.084196E+00 -9.459672E-01 -2.078673E+01  1.584012E+00 -3.728728E-01
      3313   5 -2.755513E+00 -4.905693E+00  5.126853E-02 -1.964873E+01  6.378831E-01  7.334032E-02
      3313   6 -1.033837E+00  8.988208E-01 -1.432600E-02 -2.100244E+01  4.086923E-01 -1.796848E-01
      3313   7 -2.535434E+00 -4.888589E+00  5.216013E-02 -2.065830E+01  1.436522E+00 -2.095978E-01
      3313   8 -1.326091E+00 -2.336044E-01 -5.716791E-01 -2.208033E+01  1.198730E+00 -6.171286E-01
      3314   1  1.515386E+00  8.889530E+00  2.322033E+00 -1.515058E+01  1.306667E+00  2.469394E-01
      3314   2  4.869469E+00  1.880334E+01  3.588497E+00 -1.447450E+01  1.123507E+00  3.983330E-01
      3314   3  1.290598E+00  6.674774E+00  1.329123E+00 -1.637491E+01  2.153365E+00 -4.542652E-01
      3314   4  3.791702E+00  1.469417E+01  1.646740E+00 -1.566481E+01  1.971298E+00 -6.240733E-01
      3314   5 -1.491821E+00  6.133918E+00 -6.405939E-01 -1.760434E+01  4.555249E-01 -3.495457E-01
      3314   6  1.085396E+00  1.468815E+01 -6.040999E-01 -1.697281E+01  2.775318E-01 -6.034000E-01
      3314   7 -1.533106E+00  4.369502E+00 -1.366243E+00 -1.841438E+01  1.669349E+00 -8.921328E-01
      3314   8  3.488808E-01  1.136908E+01 -2.092530E+00 -1.775098E+01  1.492126E+00 -1.371990E+00
      3315   1  3.112843E+00  2.853545E+01  3.176853E+00 -1.113653E+01  1.022502E+00  4.586301E-01
      3315   2  8.229398E+00  4.427990E+01  4.487594E+00 -1.119534E+01  5.407117E-01  3.786087E-01
      3315   3  2.916676E+00  2.512228E+01  1.743593E+00 -1.111633E+01  2.833107E+00 -1.626345E-01
      3315   4  8.423458E+00  4.160737E+01  3.614445E+00 -1.069416E+01  2.412316E+00  5.580746E-01
      3315   5  1.172809E-01  2.312720E+01 -1.000656E+00 -1.503287E+01 -1.705564E-01 -7.575458E-01
      3315   6  5.345973E+00  3.833039E+01  1.225137E+00 -1.502056E+01 -3.640451E-01 -7.201760E-01
      3315   7 -7.741458E-01  1.982375E+01 -2.506058E+00 -1.512903E+01  1.380425E+00 -1.279376E+00
      3315   8  4.765136E+00  3.563194E+01  1.500260E-01 -1.471756E+01  1.229918E+00 -5.519090E-01
      3316   1  4.734649E+00  2.633152E-01 -2.907876E+00  1.313060E+00  8.907854E+00  7.168315E+00
      3316   2  5.380206E+00  9.099757E-01 -1.402682E+00  1.996446E+00  8.777746E+00  2.853359E+00
      3316   3 -9.850301E-01 -1.427763E+01 -9.177756E+00 -1.990595E+00  7.810795E+00  6.209282E+00
      3316   4  2.820854E-01 -1.274715E+01 -6.484520E+00 -2.523001E+00  7.583462E+00  5.422897E+00
      3316   5  1.189014E+00 -5.776092E+00 -6.276778E+00 -6.793921E+00  8.314333E+00  5.505962E+00
      3316   6  2.332026E+00 -5.426739E+00 -2.816091E+00 -7.173509E+00  7.933982E+00  4.245099E+00
      3316   7 -1.628084E+00 -1.534093E+01 -1.001534E+01 -6.783174E+00  6.887772E+00  5.479083E+00
      3316   8 -6.605559E-02 -1.408475E+01 -6.064765E+00 -7.775307E+00  6.495257E+00  5.996671E+00
      3317   1  4.488558E+00  2.287263E+00 -4.501370E-01 -2.045253E-01  1.091584E+01  7.513678E-01
      3317   2  4.333143E+00  1.088594E+00  2.304817E-01  8.189357E-01  1.118560E+01  6.920147E-01
      3317   3 -9.948413E-01 -9.657335E+00 -4.988801E+00 -5.398896E+00  1.004413E+01  3.943366E+00
      3317   4  1.053563E+00 -5.452003E+00 -2.366118E+00 -5.194191E+00  1.025091E+01  2.305976E+00
      3317   5  2.914864E+00 -2.893944E+00 -7.013398E-01 -9.976360E+00  8.938492E+00  3.073512E+00
      3317   6  3.527405E+00 -1.627000E+00  7.351943E-02 -9.622847E+00  9.046151E+00  1.857644E+00
      3317   7 -6.840786E-01 -1.054275E+01 -3.989369E+00 -1.114994E+01  8.790560E+00  4.844647E+00
      3317   8  1.394537E+00 -5.822214E+00 -1.781184E+00 -1.123154E+01  8.890339E+00  2.754943E+00
      3318   1 -1.107700E-01 -6.202350E-01 -9.471024E-01  4.097831E-01  1.145626E+01  5.939407E-01
      3318   2  7.546923E-01  8.308558E-01  4.866813E-01  5.339166E-01  1.146595E+01  4.221508E-01
      3318   3 -1.262877E+00 -3.400949E+00 -2.007616E+00 -5.857800E+00  1.063470E+01  1.127678E+00
      3318   4  1.269567E+00  2.161627E+00  8.712901E-01 -5.894622E+00  1.063171E+01 -3.865223E-01
      3318   5 -6.320382E-01 -1.945429E+00 -1.193896E+00 -1.055287E+01  9.134406E+00  9.671071E-01
      3318   6  5.564049E-01  8.303161E-01 -8.164909E-03 -1.056576E+01  9.111460E+00 -2.375045E-01
      3318   7 -1.290638E+00 -3.676739E+00 -1.895939E+00 -1.220145E+01  9.077997E+00  1.267691E+00
      3318   8  1.080756E+00  1.886981E+00  4.449854E-01 -1.229713E+01  9.053465E+00 -6.708569E-01
      3319   1 -4.436393E+00 -1.080350E+00 -8.437552E-01  1.670022E+00  1.102278E+01  1.414510E-01
      3319   2 -4.528134E+00 -2.407879E+00  1.779720E-01  3.464966E-01  1.080054E+01 -3.737894E-01
      3319   3 -1.755854E+00  4.621626E+00  1.269795E+00 -3.957811E+00  9.928602E+00 -1.762471E+00
      3319   4  9.922894E-01  1.018645E+01  4.865451E+00 -4.423600E+00  9.772977E+00 -3.866451E+00
      3319   5 -3.749018E+00  7.077642E-01 -1.133744E+00 -9.529250E+00  8.926696E+00 -1.280767E+00
      3319   6 -2.696411E+00  2.734909E+00  3.478041E-01 -1.013358E+01  8.875918E+00 -2.891915E+00
      3319   7 -1.986341E+00  4.540444E+00  4.946677E-01 -1.063729E+01  8.610151E+00 -2.332688E+00
      3319   8  9.123448E-01  1.090838E+01  3.789019E+00 -1.078891E+01  8.567708E+00 -4.842814E+00
      3320   1 -5.914064E+00 -1.863520E+00  1.015642E+00  2.321776E+00  8.724721E+00 -2.816194E+00
      3320   2 -5.606468E+00 -2.323353E+00  2.500796E+00  2.219242E+00  9.121677E+00 -7.570678E+00
      3320   3 -8.176074E-01  1.345203E+01  6.531362E+00 -2.056287E+00  7.337472E+00 -5.705095E+00
      3320   4  1.022746E+00  1.601042E+01  1.010748E+01 -1.416048E+00  7.796158E+00 -6.954698E+00
      3320   5 -2.175498E+00  5.412567E+00  2.755447E+00 -7.554421E+00  7.931460E+00 -4.345552E+00
      3320   6 -7.420822E-01  6.142908E+00  6.803160E+00 -6.961640E+00  8.487299E+00 -5.965319E+00
      3320   7  5.344204E-02  1.506508E+01  6.243830E+00 -7.873916E+00  6.311564E+00 -6.304935E+00
      3320   8  2.423078E+00  1.791010E+01  1.129760E+01 -6.926612E+00  6.875126E+00 -6.184989E+00
      3321   1 -4.226891E+00 -3.039979E+01 -4.271972E+00 -7.720629E+00  5.195826E+00  1.219342E+01
      3321   2 -2.673628E+00 -2.473016E+01 -4.764059E+00 -8.042975E+00  5.238076E+00  9.273278E+00
      3321   3 -1.346472E+00 -2.279538E+01 -1.624226E+00 -5.156294E+00  6.261430E+00  9.626148E+00
      3321   4 -1.176466E+00 -2.051330E+01 -3.339624E+00 -6.014213E+00  6.262043E+00  7.722410E+00
      3321   5 -7.019361E-01 -2.161771E+01 -2.494757E+00 -9.788710E+00  4.822646E+00  1.177270E+01
      3321   6 -1.358091E-01 -1.886679E+01 -3.358589E+00 -1.043158E+01  4.704696E+00  9.083385E+00
      3321   7  1.428139E+00 -1.744204E+01 -6.853085E-01 -6.830148E+00  5.685285E+00  9.796679E+00
      3321   8  1.131686E+00 -1.673025E+01 -2.385280E+00 -7.831343E+00  5.560452E+00  7.882018E+00
      3322   1 -3.929095E+00 -1.904524E+01 -4.681309E+00 -1.098268E+01  7.569697E+00  6.651809E+00
      3322   2 -7.292650E-01 -1.100558E+01 -2.054868E+00 -1.167297E+01  7.525761E+00  3.939201E+00
      3322   3 -2.992173E+00 -1.663670E+01 -3.866392E+00 -8.831089E+00  7.803394E+00  5.774017E+00
      3322   4 -9.433331E-02 -9.354106E+00 -1.489525E+00 -9.865784E+00  7.732415E+00  3.382182E+00
      3322   5 -1.632364E+00 -1.446470E+01 -3.344224E+00 -1.396621E+01  7.253463E+00  6.489894E+00
      3322   6  9.081908E-01 -8.165018E+00 -1.175388E+00 -1.485439E+01  7.105482E+00  3.828694E+00
      3322   7 -6.786258E-01 -1.327923E+01 -2.733661E+00 -1.137012E+01  7.467106E+00  5.815669E+00
      3322   8  1.785141E+00 -7.167390E+00 -6.329470E-01 -1.248399E+01  7.314655E+00  3.401681E+00
      3323   1 -2.155457E+00 -6.393268E+00 -1.698092E+00 -1.252137E+01  7.935752E+00  1.979214E+00
      3323   2  1.243008E+00  2.222070E+00  1.014788E+00 -1.245239E+01  8.025245E+00 -5.769964E-01
      3323   3 -2.090192E+00 -5.551476E+00 -1.513583E+00 -1.073668E+01  8.215051E+00  1.568218E+00
      3323   4  8.926717E-01  2.077249E+00  8.005703E-01 -1.087932E+01  8.288555E+00 -8.905086E-01
      3323   5 -1.617172E+00 -5.139558E+00 -1.497564E+00 -1.597009E+01  7.315763E+00  1.852494E+00
      3323   6  9.269368E-01  1.417354E+00  4.258864E-01 -1.602545E+01  7.343738E+00 -8.298230E-01
      3323   7 -1.522382E+00 -4.672515E+00 -1.343496E+00 -1.351706E+01  7.676668E+00  1.541139E+00
      3323   8  8.908143E-01  1.576146E+00  4.518313E-01 -1.371783E+01  7.702001E+00 -1.038677E+00
      3324   1 -7.660980E-01  7.850214E+00  1.387057E+00 -9.784167E+00  7.377404E+00 -2.854470E+00
      3324   2  3.516803E+00  1.865742E+01  4.856189E+00 -9.235697E+00  7.552937E+00 -6.357638E+00
      3324   3 -1.540631E+00  7.031825E+00  8.968633E-01 -7.903223E+00  7.649789E+00 -2.913926E+00
      3324   4  2.401728E+00  1.694918E+01  4.120705E+00 -7.204085E+00  7.838258E+00 -5.822711E+00
      3324   5 -2.051071E+00  5.297745E+00  1.884336E-01 -1.376787E+01  6.880414E+00 -3.065559E+00
      3324   6  1.530228E+00  1.410140E+01  3.322438E+00 -1.312155E+01  7.105718E+00 -6.369858E+00
      3324   7 -2.914773E+00  5.010069E+00 -1.590156E-01 -1.117377E+01  7.125006E+00 -3.084854E+00
      3324   8  5.692086E-01  1.357091E+01  2.893417E+00 -1.043635E+01  7.352449E+00 -5.948966E+00
      3325   1  1.638059E+00  2.514603E+01  4.723169E+00 -6.910139E+00  5.240961E+00 -9.668570E+00
      3325   2  3.743013E+00  3.242977E+01  4.455945E+00 -6.820407E+00  5.327910E+00 -1.363210E+01
      3325   3  9.618509E-02  2.193852E+01  3.559656E+00 -5.019408E+00  6.344108E+00 -8.204410E+00
      3325   4  1.212395E+00  2.669563E+01  2.523242E+00 -4.410274E+00  6.472613E+00 -1.074678E+01
      3325   5 -3.869167E-01  1.944431E+01  3.410518E+00 -1.017593E+01  4.584853E+00 -9.482088E+00
      3325   6  1.003620E+00  2.421635E+01  3.273605E+00 -9.750822E+00  4.831685E+00 -1.291433E+01
      3325   7 -1.791032E+00  1.806837E+01  2.619698E+00 -7.565161E+00  5.483780E+00 -8.361189E+00
      3325   8 -9.940875E-01  2.141907E+01  1.925488E+00 -6.797366E+00  5.737482E+00 -1.074665E+01
      3326   1 -5.794044E+00 -3.674242E+01 -1.773149E+00 -9.725384E+00  1.932860E+00  5.781771E+00
      3326   2 -4.785399E+00 -3.206649E+01 -3.086937E+00 -1.068789E+01  1.995339E+00  4.892121E+00
      3326   3 -2.227954E+00 -2.739079E+01  2.111558E+00 -7.882853E+00  3.289180E+00  5.598025E+00
      3326   4 -2.337506E+00 -2.526903E+01 -3.753758E-01 -8.958292E+00  3.343897E+00  4.415308E+00
      3326   5 -1.509565E+00 -2.981191E+01  1.639395E+00 -1.096787E+01  1.545801E+00  7.309178E+00
      3326   6 -1.401275E+00 -2.695557E+01 -8.559821E-01 -1.192860E+01  1.568553E+00  5.885530E+00
      3326   7  1.233711E+00 -2.308242E+01  4.482988E+00 -8.886154E+00  3.137360E+00  6.813046E+00
      3326   8  5.659297E-01 -2.202659E+01  1.201215E+00 -9.929906E+00  3.158653E+00  5.245683E+00
      3327   1 -5.790124E+00 -2.596623E+01 -3.506999E+00 -1.335130E+01  3.170608E+00  3.726908E+00
      3327   2 -1.713488E+00 -1.468113E+01 -1.203318E+00 -1.442619E+01  3.176325E+00  2.187387E+00
      3327   3 -3.976121E+00 -2.099146E+01 -1.553210E+00 -1.158931E+01  4.144104E+00  3.266376E+00
      3327   4 -9.025763E-01 -1.205814E+01 -2.413860E-01 -1.277837E+01  4.141569E+00  1.822320E+00
      3327   5 -2.640708E+00 -2.148335E+01 -1.641326E+00 -1.536973E+01  3.136170E+00  4.309750E+00
      3327   6  7.019527E-01 -1.196835E+01 -1.411937E-02 -1.644313E+01  3.099654E+00  2.459463E+00
      3327   7 -9.781392E-01 -1.772653E+01 -3.107848E-02 -1.345571E+01  4.173587E+00  3.801011E+00
      3327   8  1.634654E+00 -9.916673E+00  8.683721E-01 -1.461065E+01  4.135521E+00  2.090968E+00
      3328   1 -2.859428E+00 -7.887200E+00 -1.200543E+00 -1.523823E+01  3.715330E+00  1.013930E+00
      3328   2  1.506567E+00  4.082241E+00  1.383333E+00 -1.548219E+01  3.764670E+00 -5.390919E-01
      3328   3 -2.696057E+00 -6.942721E+00 -9.315185E-01 -1.352910E+01  4.688617E+00  6.906057E-01
      3328   4  7.091507E-01  2.785802E+00  6.906508E-01 -1.382096E+01  4.734746E+00 -8.411603E-01
      3328   5 -2.204296E+00 -6.977272E+00 -1.055167E+00 -1.735777E+01  3.579763E+00  1.052105E+00
      3328   6  1.377201E+00  3.166374E+00  7.395123E-01 -1.760634E+01  3.612666E+00 -8.373586E-01
      3328   7 -2.034505E+00 -6.267164E+00 -8.030975E-01 -1.545643E+01  4.659330E+00  7.618663E-01
      3328   8  8.576236E-01  2.268127E+00  3.020402E-01 -1.574168E+01  4.691630E+00 -1.044316E+00
      3329   1  5.408882E-02  1.238182E+01  1.405061E+00 -1.241313E+01  3.210635E+00 -1.849660E+00
      3329   2  5.240621E+00  2.697287E+01  4.102458E+00 -1.180445E+01  3.278759E+00 -3.746684E+00
      3329   3 -1.280013E+00  9.451732E+00  8.507536E-02 -1.064073E+01  4.550600E+00 -1.976583E+00
      3329   4  2.844590E+00  2.151401E+01  1.771477E+00 -9.989600E+00  4.622233E+00 -3.497175E+00
      3329   5 -1.962631E+00  9.430668E+00 -2.937448E-01 -1.498045E+01  3.041697E+00 -2.362313E+00
      3329   6  2.518279E+00  2.211457E+01  1.958718E+00 -1.437568E+01  3.127779E+00 -4.504791E+00
      3329   7 -3.171292E+00  7.224184E+00 -1.325942E+00 -1.302226E+01  4.385494E+00 -2.382819E+00
      3329   8  5.180416E-01  1.805151E+01  1.445157E-01 -1.239045E+01  4.472236E+00 -4.157059E+00
      3330   1  3.974455E+00  3.490668E+01  3.426233E+00 -9.835309E+00  2.118523E+00 -5.193716E+00
      3330   2  6.167496E+00  4.315955E+01  2.483499E+00 -9.266240E+00  2.056536E+00 -6.487827E+00
      3330   3  1.236954E+00  2.768205E+01  4.836633E-01 -8.019693E+00  3.888259E+00 -4.689859E+00
      3330   4  2.293148E+00  3.328995E+01 -1.603595E+00 -7.303320E+00  3.837000E+00 -5.941589E+00
      3330   5  8.048596E-01  2.919567E+01  9.978510E-01 -1.168401E+01  1.564301E+00 -6.306425E+00
      3330   6  2.160649E+00  3.553425E+01 -8.214297E-01 -1.108524E+01  1.557219E+00 -8.041984E+00
      3330   7 -1.378553E+00  2.394644E+01 -1.223285E+00 -9.603232E+00  3.496600E+00 -5.636905E+00
      3330   8 -8.333887E-01  2.839501E+01 -3.854633E+00 -8.893989E+00  3.491533E+00 -7.246360E+00
      3331   1 -4.300813E+00 -3.169341E+01 -1.961120E-01 -9.240816E+00  1.668277E-01  1.148633E+00
      3331   2 -3.626741E+00 -2.843388E+01 -1.208728E+00 -1.048997E+01  1.254957E-02  9.622047E-01
      3331   3 -3.577499E+00 -3.049126E+01  4.595865E-01 -9.472870E+00  1.087630E+00  1.210486E+00
      3331   4 -3.099755E+00 -2.767563E+01 -7.635596E-01 -1.081883E+01  9.252623E-01  1.010739E+00
      3331   5 -1.177876E+00 -2.918294E+01  1.992532E+00 -1.033322E+01 -2.802012E-01  1.495389E+00
      3331   6 -7.181207E-01 -2.633278E+01  6.748876E-01 -1.154008E+01 -4.861516E-01  1.198783E+00
      3331   7 -3.204799E-02 -2.801739E+01  2.701741E+00 -1.052404E+01  7.971678E-01  1.431257E+00
      3331   8  2.761082E-01 -2.551809E+01  1.229623E+00 -1.179822E+01  5.895805E-01  1.155226E+00
      3332   1 -4.782859E+00 -2.327956E+01 -1.752058E+00 -1.329169E+01  5.955514E-01  6.521350E-01
      3332   2 -1.338286E+00 -1.326629E+01 -2.834094E-01 -1.460918E+01  4.571015E-01  4.439591E-01
      3332   3 -4.409480E+00 -2.270253E+01 -1.427745E+00 -1.396664E+01  1.629369E+00  6.306739E-01
      3332   4 -1.241831E+00 -1.330675E+01 -2.647011E-01 -1.535643E+01  1.484936E+00  3.273692E-01
      3332   5 -1.600664E+00 -2.071224E+01  2.231552E-01 -1.533536E+01  2.740152E-01  7.550303E-01
      3332   6  1.413837E+00 -1.151927E+01  1.078526E+00 -1.660194E+01  9.734769E-02  4.295448E-01
      3332   7 -7.192798E-01 -1.990993E+01  7.361948E-01 -1.607382E+01  1.572311E+00  6.514736E-01
      3332   8  2.054137E+00 -1.127369E+01  1.344678E+00 -1.738823E+01  1.394433E+00  2.881038E-01
      3333   1 -2.682392E+00 -7.222735E+00 -7.552250E-01 -1.540943E+01  8.900608E-01  2.567857E-01
      3333   2  1.202198E+00  3.819820E+00  1.150853E+00 -1.578650E+01  7.495752E-01  7.053927E-02
      3333   3 -2.505574E+00 -7.631322E+00 -8.538115E-01 -1.621134E+01  1.915059E+00  5.157635E-02
      3333   4  1.032161E+00  2.638298E+00  6.690197E-01 -1.654485E+01  1.777083E+00 -2.819966E-01
      3333   5 -2.070336E+00 -6.853620E+00 -6.464727E-01 -1.748537E+01  5.406107E-01  1.451605E-01
      3333   6  1.315561E+00  3.257786E+00  5.284440E-01 -1.784002E+01  4.161597E-01 -1.853345E-01
      3333   7 -1.773747E+00 -7.117771E+00 -6.426212E-01 -1.830862E+01  1.868206E+00 -4.102549E-02
      3333   8  1.314087E+00  2.305520E+00  2.268688E-01 -1.862264E+01  1.744263E+00 -4.491575E-01
      3334   1 -3.137093E-01  1.143329E+01  7.650979E-01 -1.248751E+01  7.140279E-01 -4.585852E-02
      3334   2  4.125653E+00  2.446834E+01  2.527926E+00 -1.182264E+01  5.898806E-01 -1.910195E-01
      3334   3 -4.186310E-01  9.919803E+00  1.817012E-01 -1.286183E+01  2.167637E+00 -3.943882E-01
      3334   4  3.736316E+00  2.230002E+01  1.651306E+00 -1.196913E+01  2.059968E+00 -4.728892E-01
      3334   5 -2.592601E+00  9.207725E+00 -1.211438E+00 -1.501196E+01  2.296358E-01 -4.175899E-01
      3334   6  1.420651E+00  2.130478E+01  6.900937E-02 -1.434544E+01  2.107472E-01 -6.923283E-01
      3334   7 -3.138729E+00  7.693676E+00 -1.849298E+00 -1.547795E+01  1.883673E+00 -6.463552E-01
      3334   8  6.170454E-01  1.919174E+01 -8.281092E-01 -1.462854E+01  1.868119E+00 -8.186077E-01
      3335   1  2.909605E+00  3.147978E+01  1.724924E+00 -9.678544E+00 -1.743774E-02 -4.362928E-01
      3335   2  4.637813E+00  3.817715E+01  7.882507E-01 -8.799264E+00  9.732680E-03 -5.862935E-01
      3335   3  2.073082E+00  2.928351E+01  7.162243E-01 -9.296484E+00  1.502277E+00 -5.606591E-01
      3335   4  3.929046E+00  3.624818E+01 -6.189567E-02 -8.219793E+00  1.544646E+00 -3.719512E-01
      3335   5  4.473409E-02  2.848068E+01 -6.657816E-01 -1.132399E+01 -5.955592E-01 -1.050595E+00
      3335   6  1.720386E+00  3.485868E+01 -1.458278E+00 -1.045415E+01 -4.713003E-01 -1.200684E+00
      3335   7 -1.258140E+00  2.633710E+01 -1.719725E+00 -1.108367E+01  9.141112E-01 -1.062771E+00
      3335   8  5.063992E-01  3.291627E+01 -2.417100E+00 -1.006060E+01  1.041446E+00 -9.052253E-01
      3336   1 -1.219630E+00  2.632796E+01 -1.548464E+00  1.118752E+01  5.935319E-01  7.080953E-01
      3336   2 -2.037941E-01  2.768504E+01 -8.210826E-01  1.123758E+01 -5.437167E-01  6.922631E-01
      3336   3  2.177325E+00  2.926143E+01  9.026132E-01  9.401181E+00  1.193324E+00  3.004443E-01
      3336   4  2.640287E+00  3.045189E+01  1.474808E+00  9.636279E+00 -7.545276E-03  2.257437E-01
      3336   5  6.313002E-01  3.296380E+01 -2.014529E+00  1.013353E+01  7.669043E-01  4.400720E-01
      3336   6  1.441665E+00  3.384939E+01 -1.500570E+00  1.034179E+01 -3.735436E-01  7.454410E-01
      3336   7  4.029021E+00  3.618206E+01  1.543053E-01  8.291724E+00  1.252828E+00  6.918880E-02
      3336   8  4.214413E+00  3.676391E+01  4.098761E-01  8.728662E+00  3.624521E-02  3.647154E-01
      3337   1 -1.062164E+00  2.517883E+01 -1.639111E+00  1.018273E+01  2.471035E+00  4.078851E+00
      3337   2  5.016130E-01  2.884544E+01 -5.946858E-02  1.126165E+01  9.363609E-01  4.256321E+00
      3337   3  1.698300E+00  2.859472E+01  5.391900E-01  8.641603E+00  2.883984E+00  3.136905E+00
      3337   4  3.541321E+00  3.341044E+01  2.591362E+00  9.539439E+00  1.531875E+00  3.111391E+00
      3337   5 -4.072456E-01  2.986185E+01 -4.139065E+00  9.434666E+00  2.480955E+00  5.232677E+00
      3337   6  1.673913E+00  3.473122E+01 -2.037581E+00  1.058809E+01  9.449026E-01  5.423749E+00
      3337   7  2.828861E+00  3.424972E+01 -1.347266E+00  7.874595E+00  2.851296E+00  3.966881E+00
      3337   8  5.379426E+00  4.069326E+01  1.435562E+00  8.870844E+00  1.492044E+00  3.876948E+00
      3338   1 -1.713359E+00  2.122412E+01 -3.468047E-02  8.543251E+00  4.483908E+00  7.636600E+00
      3338   2  3.329742E-01  2.554717E+01  1.848491E+00  1.099424E+01  3.116989E+00  8.547666E+00
      3338   3  8.790759E-01  2.600860E+01  1.452792E+00  6.815371E+00  4.969130E+00  6.861474E+00
      3338   4  3.549622E+00  3.250693E+01  4.048330E+00  9.035359E+00  3.601700E+00  7.796640E+00
      3338   5 -1.251504E+00  2.510586E+01 -2.376903E+00  7.869080E+00  4.569507E+00  9.845787E+00
      3338   6  1.530441E+00  3.115345E+01  2.337659E-01  1.043685E+01  3.200295E+00  1.108790E+01
      3338   7  1.937268E+00  3.149478E+01 -5.060758E-01  6.175906E+00  4.994539E+00  8.779243E+00
      3338   8  5.702820E+00  4.059365E+01  3.138933E+00  8.561311E+00  3.614242E+00  1.005438E+01
      3339   1 -1.068826E+00  1.719338E+01  4.321971E+00  7.540252E+00  5.722056E+00  8.097017E+00
      3339   2 -1.043854E+00  1.521431E+01  3.704523E+00  9.195717E+00  5.515783E+00  8.803350E+00
      3339   3 -2.989076E-02  1.957902E+01  4.673888E+00  4.183147E+00  6.756336E+00  8.366134E+00
      3339   4 -4.606575E-01  1.781034E+01  3.814232E+00  4.892312E+00  6.261452E+00  9.503149E+00
      3339   5  9.374248E-02  2.034285E+01  5.047728E+00  6.715080E+00  6.056739E+00  1.016447E+01
      3339   6  3.230818E-01  1.888723E+01  4.588059E+00  8.667230E+00  5.844419E+00  1.213682E+01
      3339   7  1.184810E+00  2.385813E+01  4.443786E+00  3.584566E+00  6.960184E+00  1.111187E+01
      3339   8  1.152776E+00  2.331802E+01  3.684666E+00  4.772429E+00  6.426596E+00  1.414947E+01
      3340   1  9.068162E-01  1.610934E+01  6.595092E+00  8.501960E+00  6.485057E+00  5.987174E+00
      3340   2 -1.923495E+00  5.794755E+00  2.737736E+00  7.500923E+00  8.155751E+00  3.812081E+00
      3340   3 -1.183084E+00  1.157608E+01  6.084007E+00  1.536116E+00  7.472976E+00  5.059609E+00
      3340   4 -7.556028E+00 -6.185723E+00 -4.409177E-01 -3.604986E+00  8.923458E+00  1.698236E+00
      3340   5  3.789722E+00  1.937961E+01  1.293451E+01  7.492485E+00  7.070019E+00  5.219610E+00
      3340   6 -7.763850E-02  6.717230E+00  7.968118E+00  6.866467E+00  8.732801E+00  4.839682E+00
      3340   7  6.667724E-01  1.366963E+01  1.015665E+01  9.650481E-01  7.922347E+00  6.335983E+00
      3340   8 -7.615189E+00 -7.948442E+00  1.124599E+00 -3.373921E+00  9.307094E+00  6.750848E+00
      3341   1 -6.438501E-01  1.965639E+01 -2.361689E+00  1.522065E+01  1.088445E+00  1.024474E+00
      3341   2  4.716200E-02  2.238147E+01 -1.146844E+00  1.513222E+01 -1.767627E-01  6.360733E-01
      3341   3  3.206793E+00  2.493405E+01  1.882846E+00  1.125675E+01  2.567116E+00 -1.212441E-01
      3341   4  3.128634E+00  2.764861E+01  2.942934E+00  1.129439E+01  1.047711E+00 -5.723567E-01
      3341   5  4.736286E+00  3.513647E+01  9.201252E-02  1.472323E+01  9.260070E-01  2.677764E-01
      3341   6  5.133309E+00  3.728478E+01  9.036722E-01  1.503207E+01 -3.822132E-01  4.958789E-01
      3341   7  8.461106E+00  4.098602E+01  3.345247E+00  1.074282E+01  2.063768E+00 -8.521392E-01
      3341   8  8.013777E+00  4.299387E+01  3.881484E+00  1.125925E+01  4.834336E-01 -5.849712E-01
      3342   1 -6.299723E-01  2.170563E+01 -1.750222E+00  1.426991E+01  2.525639E+00  3.093402E+00
      3342   2  3.153329E-01  2.456662E+01 -4.177866E-01  1.463328E+01  1.286571E+00  2.680388E+00
      3342   3  2.165689E+00  2.707906E+01  2.188830E+00  1.052743E+01  3.357492E+00  1.860030E+00
      3342   4  3.374795E+00  3.058087E+01  3.876220E+00  1.081478E+01  2.110493E+00  1.296224E+00
      3342   5  4.260958E+00  3.617542E+01  8.309023E-02  1.431627E+01  2.378866E+00  3.565782E+00
      3342   6  5.222605E+00  3.911317E+01  1.393236E+00  1.472376E+01  1.136060E+00  3.430924E+00
      3342   7  7.374871E+00  4.259318E+01  4.038657E+00  1.058314E+01  3.181521E+00  2.250545E+00
      3342   8  8.613698E+00  4.621991E+01  5.700194E+00  1.092131E+01  1.929144E+00  1.990778E+00
      3343   1 -1.262397E+00  2.047345E+01 -9.917743E-01  1.310507E+01  4.425432E+00  6.150184E+00
      3343   2  5.033645E-01  2.498297E+01  9.649760E-01  1.459272E+01  3.133070E+00  6.058825E+00
      3343   3  1.846735E+00  2.746595E+01  2.609738E+00  9.389087E+00  4.861248E+00  4.410203E+00
      3343   4  4.124748E+00  3.330691E+01  5.153988E+00  1.063320E+01  3.635664E+00  4.164185E+00
      3343   5  2.919767E+00  3.346243E+01 -4.020521E-02  1.319754E+01  4.334950E+00  8.036164E+00
      3343   6  5.061884E+00  3.886215E+01  2.280858E+00  1.474115E+01  3.036951E+00  8.072896E+00
      3343   7  6.784261E+00  4.231016E+01  4.223951E+00  9.510122E+00  4.727364E+00  5.941469E+00
      3343   8  9.578367E+00  4.937297E+01  7.266667E+00  1.082169E+01  3.493529E+00  5.806619E+00
      3344   1 -4.173757E-01  1.941073E+01  3.523932E+00  1.249958E+01  6.332583E+00  8.592901E+00
      3344   2  6.135014E-01  2.169781E+01  4.257183E+00  1.424663E+01  5.535266E+00  9.570421E+00
      3344   3  1.354744E+00  2.565020E+01  3.937014E+00  7.925956E+00  7.268468E+00  8.024330E+00
      3344   4  2.587677E+00  2.898100E+01  4.914852E+00  9.298300E+00  6.302063E+00  9.169579E+00
      3344   5  3.573922E+00  3.095862E+01  5.280367E+00  1.258415E+01  6.381213E+00  1.162801E+01
      3344   6  4.699353E+00  3.357395E+01  6.000554E+00  1.444831E+01  5.570134E+00  1.312273E+01
      3344   7  5.691920E+00  3.882229E+01  5.222172E+00  8.111764E+00  7.212601E+00  1.109745E+01
      3344   8  7.121840E+00  4.277338E+01  6.236355E+00  9.633156E+00  6.225654E+00  1.285922E+01
      3345   1  1.248383E+00  1.861687E+01  8.589114E+00  1.306631E+01  7.083784E+00  8.929188E+00
      3345   2 -5.980397E-01  1.282181E+01  6.299127E+00  1.280854E+01  7.828315E+00  8.921434E+00
      3345   3  7.864052E-01  1.914416E+01  8.627115E+00  5.519424E+00  9.737275E+00  9.725942E+00
      3345   4 -2.046130E+00  1.213357E+01  5.677929E+00  4.762542E+00  1.025610E+01  9.885634E+00
      3345   5  5.853959E+00  2.832675E+01  1.423115E+01  1.312156E+01  7.351702E+00  1.191509E+01
      3345   6  2.495259E+00  1.916596E+01  1.026597E+01  1.312574E+01  8.064239E+00  1.266489E+01
      3345   7  4.092590E+00  2.704270E+01  1.174919E+01  5.883932E+00  9.765497E+00  1.399866E+01
      3345   8 -5.760485E-01  1.599654E+01  6.715234E+00  5.470797E+00  1.023549E+01  1.516302E+01
      3346   1 -1.020672E-01  1.237171E+01 -2.272723E+00  2.145234E+01  1.449578E+00  1.985751E+00
      3346   2 -1.355496E-01  1.515570E+01 -1.125848E+00  2.080822E+01 -1.090150E-02  1.423263E+00
      3346   3  8.784175E+00  2.095825E+01  5.544078E+00  1.611965E+01  2.453176E+00  8.315695E-01
      3346   4  1.034786E+01  2.522143E+01  7.592777E+00  1.463541E+01  1.254910E+00  1.151210E-01
      3346   5  4.825749E+00  2.839817E+01 -1.873123E+00  1.972062E+01  1.103239E+00  2.943711E+00
      3346   6  5.654814E+00  3.311371E+01  2.173480E-01  1.876402E+01 -3.058899E-01  2.168633E+00
      3346   7  1.490755E+01  3.912564E+01  7.787927E+00  1.423273E+01  2.517830E+00  1.150119E+00
      3346   8  1.750556E+01  4.572651E+01  1.094669E+01  1.236767E+01  1.367550E+00  1.720665E-01
      3347   1 -7.391515E-01  1.484811E+01 -1.010902E+00  2.014488E+01  1.943322E+00  3.769122E+00
      3347   2 -5.408761E-01  1.564871E+01 -1.788683E-01  2.021280E+01  7.854572E-01  2.639550E+00
      3347   3  1.140926E+01  2.627942E+01  1.055097E+01  1.369348E+01  2.688443E+00  2.996681E+00
      3347   4  1.200389E+01  2.745399E+01  1.157580E+01  1.353065E+01  1.747876E+00  1.673028E+00
      3347   5  5.996894E+00  3.405112E+01  2.239569E+00  1.789508E+01  2.122271E+00  4.547982E+00
      3347   6  6.225190E+00  3.485460E+01  3.168793E+00  1.790139E+01  9.747985E-01  3.294273E+00
      3347   7  1.938381E+01  4.780604E+01  1.560620E+01  1.124059E+01  2.954997E+00  3.665599E+00
      3347   8  2.003204E+01  4.904334E+01  1.674697E+01  1.100118E+01  2.024074E+00  2.175217E+00
      3348   1 -1.491455E+00  1.399743E+01 -1.124197E+00  1.964469E+01  3.064811E+00  4.624697E+00
      3348   2 -1.119124E-01  1.730864E+01  7.592704E-01  2.055734E+01  1.915274E+00  3.506220E+00
      3348   3  1.179898E+01  2.725534E+01  1.105753E+01  1.290258E+01  3.488634E+00  2.518402E+00
      3348   4  1.385449E+01  3.147996E+01  1.338071E+01  1.334643E+01  2.448093E+00  1.269614E+00
      3348   5  5.343631E+00  3.320272E+01  2.454133E+00  1.726365E+01  3.317531E+00  5.645209E+00
      3348   6  7.163527E+00  3.750988E+01  4.809498E+00  1.809292E+01  2.180952E+00  4.471667E+00
      3348   7  1.992113E+01  4.918443E+01  1.620226E+01  1.028299E+01  3.856110E+00  2.993265E+00
      3348   8  2.252446E+01  5.465823E+01  1.910234E+01  1.062585E+01  2.827519E+00  1.673640E+00
      3349   1 -1.239760E+00  1.463046E+01 -1.085258E-01  1.988146E+01  5.210727E+00  6.749609E+00
      3349   2  9.097048E-01  1.949032E+01  2.191856E+00  2.194371E+01  3.999075E+00  6.277820E+00
      3349   3  1.266921E+01  2.981815E+01  1.045390E+01  1.245033E+01  5.187847E+00  3.864093E+00
      3349   4  1.593219E+01  3.619589E+01  1.352721E+01  1.371124E+01  3.928859E+00  3.384842E+00
      3349   5  5.731848E+00  3.422887E+01  3.531760E+00  1.728883E+01  5.585870E+00  8.841964E+00
      3349   6  8.747304E+00  4.112690E+01  6.680609E+00  1.919819E+01  4.396291E+00  8.430617E+00
      3349   7  2.116279E+01  5.313043E+01  1.545355E+01  9.545551E+00  5.767813E+00  4.954536E+00
      3349   8  2.549412E+01  6.201705E+01  1.957915E+01  1.062577E+01  4.529057E+00  4.554482E+00
      3350   1  1.493830E+00  1.669411E+01  6.619476E+00  2.126628E+01  7.891716E+00  9.646408E+00
      3350   2  1.812768E+00  1.721004E+01  6.320183E+00  2.394843E+01  7.537431E+00  1.107210E+01
      3350   3  1.253902E+01  2.843151E+01  8.120319E+00  1.202837E+01  8.641747E+00  9.284082E+00
      3350   4  1.420957E+01  2.992008E+01  8.567021E+00  1.440285E+01  7.558643E+00  1.103363E+01
      3350   5  9.217188E+00  3.605692E+01  1.300120E+01  1.826607E+01  8.458912E+00  1.380155E+01
      3350   6  9.086210E+00  3.574392E+01  1.203111E+01  2.062368E+01  8.150191E+00  1.601591E+01
      3350   7  1.990394E+01  4.910097E+01  1.200061E+01  8.527459E+00  9.651032E+00  1.388925E+01
      3350   8  2.117668E+01  4.986259E+01  1.184819E+01  1.052351E+01  8.609454E+00  1.655422E+01
      3351   1 -3.225171E+00  2.981214E+01  8.392750E+00  2.892452E+01  9.456544E-01  6.399259E+00
      3351   2 -4.558464E+00  2.552361E+01  7.562047E+00  2.750351E+01  4.295827E-01  3.056128E+00
      3351   3 -6.889410E+01  2.544362E+00 -6.969695E+00  3.854730E+01 -1.040340E+00  9.241097E+00
      3351   4 -7.055502E+01 -2.553207E+00 -8.749799E+00  3.746297E+01  3.309983E-01  5.132053E+00
      3351   5 -1.093806E+01  1.414801E+01 -1.652749E+00  4.876588E+01 -7.449648E-01  1.044785E+01
      3351   6 -1.227889E+01  9.472288E+00 -2.121380E+00  4.632762E+01 -1.169832E+00  5.134590E+00
      3351   7 -7.312146E+01 -1.039316E+01 -8.123384E+00  6.025166E+01 -1.396893E+00  1.386269E+01
      3351   8 -7.505424E+01 -1.623190E+01 -1.006848E+01  5.810567E+01  8.137594E-04  7.513078E+00
      3352   1 -4.285756E+00  2.426269E+01  8.932410E+00  2.710190E+01  1.311140E+00  4.625318E+00
      3352   2 -3.515521E+00  2.456797E+01  9.692280E+00  2.752525E+01  5.763524E-01  2.957937E+00
      3352   3 -7.244058E+01 -6.160773E+00 -1.369090E+01  3.710707E+01  5.463461E-01  4.569149E+00
      3352   4 -7.036381E+01 -5.129852E+00 -1.263298E+01  3.708982E+01  4.767299E-01  2.667344E+00
      3352   5 -1.199658E+01  8.363996E+00 -8.716420E-01  4.513349E+01 -8.978499E-02  6.532855E+00
      3352   6 -1.046975E+01  1.031675E+01  7.627473E-01  4.443365E+01 -7.245960E-01  4.236243E+00
      3352   7 -7.930438E+01 -2.195763E+01 -2.077340E+01  5.689639E+01  7.346896E-01  5.787517E+00
      3352   8 -7.646523E+01 -1.918168E+01 -1.891920E+01  5.568669E+01  6.937988E-01  3.206590E+00
      3353   1 -3.599717E+00  2.423815E+01  8.836103E+00  2.777114E+01  1.887496E+00  3.006531E+00
      3353   2 -2.604785E+00  2.554749E+01  9.867471E+00  2.849529E+01  9.765349E-01  1.764359E+00
      3353   3 -7.024529E+01 -5.279699E+00 -1.417504E+01  3.709200E+01  1.564960E+00  2.122800E+00
      3353   4 -6.924776E+01 -3.702477E+00 -1.330542E+01  3.741949E+01  1.145357E+00  7.405305E-01
      3353   5 -1.029837E+01  1.092674E+01 -1.813472E-01  4.404790E+01  5.670108E-01  3.771438E+00
      3353   6 -8.576665E+00  1.385543E+01  1.653266E+00  4.412106E+01 -2.861072E-01  2.143389E+00
      3353   7 -7.638368E+01 -1.859648E+01 -2.131955E+01  5.507350E+01  1.237403E+00  2.049412E+00
      3353   8 -7.462555E+01 -1.526638E+01 -1.966747E+01  5.473498E+01  8.343321E-01  2.585451E-01
      3354   1 -3.091084E+00  2.520723E+01  7.788832E+00  2.899646E+01  2.992471E+00  2.724859E+00
      3354   2 -1.063499E+00  2.866585E+01  9.886584E+00  3.059960E+01  1.870653E+00  9.895289E-01
      3354   3 -6.830415E+01 -1.754163E+00 -1.153297E+01  3.775893E+01  2.306077E+00  2.947631E-01
      3354   4 -6.762996E+01  1.598272E+00 -1.019642E+01  3.883238E+01  1.996386E+00 -1.617983E+00
      3354   5 -8.820111E+00  1.445671E+01 -5.573999E-01  4.429061E+01  1.797345E+00  2.993629E+00
      3354   6 -5.849360E+00  2.000937E+01  2.590186E+00  4.563072E+01  6.981217E-01  7.056326E-01
      3354   7 -7.276967E+01 -1.152292E+01 -1.664930E+01  5.481848E+01  1.527474E+00 -7.208010E-01
      3354   8 -7.109797E+01 -5.873285E+00 -1.428487E+01  5.566263E+01  1.224211E+00 -3.226312E+00
      3355   1 -1.628877E+00  2.834703E+01  6.814577E+00  3.223792E+01  5.747019E+00  3.787412E+00
      3355   2  2.539828E+00  3.537686E+01  1.078195E+01  3.714245E+01  4.548040E+00  1.243846E+00
      3355   3 -6.637082E+01  5.541810E+00 -7.473190E+00  4.009134E+01  3.875380E+00 -2.060999E+00
      3355   4 -6.444141E+01  1.321950E+01 -4.418812E+00  4.317236E+01  4.464933E+00 -4.933967E+00
      3355   5 -5.743532E+00  2.104035E+01  4.057415E-01  4.715306E+01  4.853261E+00  5.416178E+00
      3355   6  7.617209E-01  3.331688E+01  6.914914E+00  5.210944E+01  3.646810E+00  1.673789E+00
      3355   7 -6.688466E+01  2.592847E+00 -6.237001E+00  5.693648E+01  2.834405E+00 -4.014679E+00
      3355   8 -6.239773E+01  1.617991E+01 -5.669414E-01  6.014744E+01  3.421841E+00 -8.146286E+00
      3356   1 -3.095895E+00  7.781748E+00 -1.786534E+00  1.566518E+01  1.487304E+00  4.601255E-01
      3356   2 -2.665076E+00  8.921923E+00 -1.299041E+00  1.509300E+01  1.846836E-01  2.683945E-01
      3356   3 -3.402899E-01  1.001275E+01  2.858688E-01  1.306320E+01  1.794225E+00  2.331515E-01
      3356   4 -3.548775E-01  1.107668E+01  6.802179E-01  1.259416E+01  6.621531E-01 -5.082810E-02
      3356   5  6.244281E-01  1.915767E+01 -7.613796E-01  1.480900E+01  1.480586E+00  5.469034E-01
      3356   6  1.194069E+00  2.062002E+01 -1.333214E-01  1.441086E+01  1.747686E-01  4.279010E-01
      3356   7  3.780862E+00  2.226188E+01  1.773904E+00  1.216281E+01  1.673690E+00  2.639071E-01
      3356   8  3.907542E+00  2.364688E+01  2.318083E+00  1.190924E+01  5.259112E-01  2.662106E-02
      3357   1 -3.053095E+00  7.899447E+00 -1.512046E+00  1.371277E+01  3.283269E+00  1.778394E+00
      3357   2 -2.327909E+00  9.556946E+00 -7.851238E-01  1.457740E+01  2.082277E+00  1.653846E+00
      3357   3 -1.026407E+00  1.007700E+01  1.237622E-01  1.134211E+01  3.493159E+00  1.361924E+00
      3357   4 -2.250126E-01  1.218125E+01  1.058244E+00  1.210459E+01  2.381444E+00  1.127077E+00
      3357   5  6.237073E-01  1.896028E+01 -3.168779E-01  1.309933E+01  3.298568E+00  3.006266E+00
      3357   6  1.885125E+00  2.187108E+01  9.441869E-01  1.398478E+01  2.097182E+00  3.040724E+00
      3357   7  3.098063E+00  2.224701E+01  1.701988E+00  1.070288E+01  3.496293E+00  2.333232E+00
      3357   8  4.590798E+00  2.597522E+01  3.316979E+00  1.149517E+01  2.382538E+00  2.227601E+00
      3358   1 -3.175924E+00  6.230221E+00 -8.873807E-01  1.202867E+01  5.689000E+00  2.958957E+00
      3358   2 -1.914643E+00  7.935958E+00  2.200214E-03  1.445730E+01  4.938968E+00  3.042407E+00
      3358   3 -1.413558E+00  8.728481E+00  3.770325E-01  9.560319E+00  5.851499E+00  2.610620E+00
      3358   4 -9.745822E-02  1.116539E+01  1.499992E+00  1.177921E+01  5.023985E+00  2.647534E+00
      3358   5  3.433273E-01  1.599036E+01  1.083320E+00  1.129984E+01  5.893734E+00  5.524913E+00
      3358   6  2.239162E+00  1.918982E+01  2.594357E+00  1.379596E+01  5.142129E+00  6.017661E+00
      3358   7  2.664363E+00  2.013596E+01  2.562630E+00  8.850127E+00  6.014929E+00  5.012713E+00
      3358   8  4.919597E+00  2.483767E+01  4.551228E+00  1.117231E+01  5.178585E+00  5.524188E+00
      3359   1 -2.313842E+00  5.068912E+00  3.523281E-01  1.112722E+01  7.770962E+00  2.936180E+00
      3359   2 -2.267998E+00  3.915386E+00  2.676974E-02  1.269382E+01  7.837892E+00  2.793295E+00
      3359   3 -1.473580E+00  6.319413E+00  1.125514E+00  7.066712E+00  8.506121E+00  2.844750E+00
      3359   4 -1.716142E+00  5.025888E+00  7.078668E-01  7.694906E+00  8.629860E+00  2.647266E+00
      3359   5  1.084042E+00  1.290347E+01  3.844053E+00  1.051678E+01  7.976781E+00  5.729307E+00
      3359   6  7.186890E-01  1.079938E+01  3.098402E+00  1.217732E+01  8.041641E+00  5.821751E+00
      3359   7  2.208280E+00  1.500904E+01  4.708756E+00  6.528203E+00  8.667153E+00  5.791787E+00
      3359   8  1.555603E+00  1.281551E+01  3.824058E+00  7.314997E+00  8.777643E+00  5.958943E+00
      3360   1 -1.651597E+00  5.184950E+00  5.259831E-01  1.085014E+01  8.689095E+00  2.209905E+00
      3360   2 -3.716387E+00  9.775608E-01 -1.304050E+00  9.198049E+00  8.869965E+00  1.146705E+00
      3360   3 -1.942870E+00  4.057509E+00  9.850894E-01  3.114315E+00  1.022646E+01  1.418891E+00
      3360   4 -5.072757E+00 -2.758553E+00 -1.569783E+00 -3.005362E+00  1.122362E+01 -5.792268E-01
      3360   5  1.201667E+00  1.162884E+01  3.592977E+00  1.131292E+01  8.579479E+00  4.782183E+00
      3360   6 -2.724965E+00  3.038438E+00 -6.018744E-02  9.952466E+00  8.755094E+00  2.687528E+00
      3360   7  3.969876E-01  8.639988E+00  4.202134E+00  3.857903E+00  1.002679E+01  3.277332E+00
      3360   8 -5.802390E+00 -5.659862E+00 -1.100582E+00 -1.696129E+00  1.098028E+01 -6.362485E-01
      3361   1 -1.461818E+00  4.455737E+00 -1.260596E+00  1.858931E+01  1.318600E+00  7.116708E-01
      3361   2 -1.462119E+00  5.968661E+00 -6.663965E-01  1.780504E+01  3.851794E-01  2.933262E-01
      3361   3  1.263629E+00  6.675579E+00  1.335880E+00  1.661014E+01  1.824955E+00  2.526138E-01
      3361   4  1.362370E+00  8.539815E+00  2.123675E+00  1.548291E+01  1.199892E+00 -2.909259E-01
      3361   5  3.655509E-01  1.126161E+01 -1.975237E+00  1.794847E+01  1.109364E+00  1.163642E+00
      3361   6  9.406169E-01  1.405986E+01 -7.484781E-01  1.721579E+01  1.726469E-01  5.472912E-01
      3361   7  3.718240E+00  1.449172E+01  1.701777E+00  1.592524E+01  1.589590E+00  3.940225E-01
      3361   8  4.519983E+00  1.791528E+01  3.273589E+00  1.485618E+01  9.598578E-01 -4.264095E-01
      3362   1 -2.044182E+00  5.439715E+00 -1.142881E+00  1.675590E+01  2.972969E+00  1.568344E+00
      3362   2 -1.541733E+00  6.852609E+00 -4.150163E-01  1.707002E+01  1.991578E+00  1.110051E+00
      3362   3  8.726326E-01  8.211867E+00  1.760904E+00  1.433054E+01  3.445435E+00  9.798711E-01
      3362   4  1.650606E+00  1.007220E+01  2.772874E+00  1.433085E+01  2.653526E+00  3.923731E-01
      3362   5  4.092537E-01  1.367390E+01 -1.198950E+00  1.610984E+01  2.982871E+00  2.486661E+00
      3362   6  1.424264E+00  1.625143E+01  7.282247E-02  1.637450E+01  2.007642E+00  1.940472E+00
      3362   7  3.990208E+00  1.775087E+01  2.613820E+00  1.362581E+01  3.503466E+00  1.501494E+00
      3362   8  5.422001E+00  2.109169E+01  4.324704E+00  1.356570E+01  2.720422E+00  7.681341E-01
      3363   1 -2.229273E+00  4.934796E+00 -8.233267E-01  1.573016E+01  5.174240E+00  2.502987E+00
      3363   2 -1.185199E+00  6.875489E+00  1.687911E-01  1.744593E+01  4.354230E+00  2.187796E+00
      3363   3  9.738708E-01  8.506501E+00  1.953558E+00  1.292734E+01  5.517342E+00  1.674742E+00
      3363   4  2.345700E+00  1.112198E+01  3.291274E+00  1.419768E+01  4.730402E+00  1.257716E+00
      3363   5  4.534051E-01  1.321196E+01 -1.582284E-01  1.491436E+01  5.342088E+00  4.501548E+00
      3363   6  2.206644E+00  1.681683E+01  1.533599E+00  1.656897E+01  4.528343E+00  4.231761E+00
      3363   7  4.483451E+00  1.878591E+01  3.372755E+00  1.203637E+01  5.733428E+00  3.108413E+00
      3363   8  6.799896E+00  2.361933E+01  5.641246E+00  1.323452E+01  4.955658E+00  2.708051E+00
      3364   1 -1.607816E+00  4.635668E+00  5.302710E-01  1.567694E+01  7.877057E+00  3.051323E+00
      3364   2 -1.079231E+00  5.322666E+00  8.718551E-01  1.785934E+01  7.756543E+00  3.096665E+00
      3364   3  1.268916E+00  7.986641E+00  2.223253E+00  1.171329E+01  8.608945E+00  2.672858E+00
      3364   4  2.141730E+00  9.240352E+00  2.826744E+00  1.334967E+01  8.257760E+00  2.737781E+00
      3364   5  1.677111E+00  1.271302E+01  3.402676E+00  1.470691E+01  8.089534E+00  5.969311E+00
      3364   6  2.558508E+00  1.432902E+01  3.991300E+00  1.676448E+01  7.982271E+00  6.437269E+00
      3364   7  5.057282E+00  1.804182E+01  4.795962E+00  1.060500E+01  8.922033E+00  5.459906E+00
      3364   8  6.472668E+00  2.071942E+01  5.784138E+00  1.208870E+01  8.590627E+00  6.038972E+00
      3365   1 -1.235350E+00  4.407674E+00  1.444992E+00  1.644366E+01  9.876617E+00  2.866817E+00
      3365   2 -2.640725E+00  2.003240E+00  3.632998E-01  1.613445E+01  1.060011E+01  2.652854E+00
      3365   3  1.257486E+00  6.091282E+00  3.156825E+00  8.933191E+00  1.260931E+01  2.917109E+00
      3365   4 -3.050228E-01  3.427753E+00  1.982504E+00  7.847859E+00  1.352789E+01  2.672016E+00
      3365   5  2.503713E+00  1.220692E+01  6.109292E+00  1.566448E+01  9.794625E+00  6.016481E+00
      3365   6  2.564957E-01  7.827640E+00  4.196303E+00  1.538398E+01  1.051631E+01  5.756675E+00
      3365   7  5.179160E+00  1.423761E+01  8.082739E+00  8.117815E+00  1.251380E+01  6.273164E+00
      3365   8  2.675432E+00  9.361812E+00  5.983295E+00  7.066793E+00  1.342962E+01  5.988764E+00
      3366   1 -1.397780E+00  5.803137E+00  9.250601E-01  2.415566E+01  9.906568E-01  1.281496E+00
      3366   2 -1.562022E+00  6.614846E+00  1.382015E+00  2.294016E+01  4.712549E-01  6.211022E-01
      3366   3 -1.167813E+01  1.907415E+00 -1.225076E+00  2.513780E+01  1.461446E+00  1.040963E+00
      3366   4 -1.103790E+01  3.267111E+00 -3.796042E-01  2.338248E+01  9.752446E-01  3.053483E-01
      3366   5 -3.939006E+00  1.789550E+00 -3.532108E+00  2.790720E+01  1.809173E-01  1.837597E+00
      3366   6 -3.327986E+00  4.398694E+00 -2.288379E+00  2.644725E+01 -3.003856E-01  1.128054E+00
      3366   7 -1.421104E+01 -2.178901E+00 -5.581797E+00  2.917953E+01  9.566398E-01  1.093554E+00
      3366   8 -1.266264E+01  1.289109E+00 -3.817395E+00  2.713372E+01  5.060404E-01  3.053324E-01
      3367   1 -1.933391E+00  6.063433E+00  1.240221E+00  2.210727E+01  2.364334E+00  1.816969E+00
      3367   2 -1.554225E+00  6.473975E+00  1.795558E+00  2.202192E+01  1.736047E+00  1.034537E+00
      3367   3 -1.057028E+01  3.305716E+00  5.062035E-01  2.234091E+01  2.455011E+00  1.562063E+00
      3367   4 -9.556490E+00  4.072842E+00  1.335993E+00  2.198722E+01  2.145449E+00  6.620454E-01
      3367   5 -3.610496E+00  4.169660E+00 -2.456355E+00  2.539156E+01  1.934794E+00  3.054965E+00
      3367   6 -2.877024E+00  5.304437E+00 -1.444235E+00  2.507752E+01  1.339074E+00  1.950145E+00
      3367   7 -1.152462E+01  2.234478E+00 -1.603711E+00  2.584301E+01  2.300016E+00  2.494113E+00
      3367   8 -1.010193E+01  3.860624E+00 -2.699052E-01  2.522308E+01  2.020678E+00  1.209911E+00
      3368   1 -1.933859E+00  5.419913E+00  1.079294E+00  2.151056E+01  4.183528E+00  1.868455E+00
      3368   2 -9.103097E-01  6.754862E+00  2.085605E+00  2.257137E+01  3.488094E+00  1.093941E+00
      3368   3 -9.297328E+00  3.752124E+00  1.015510E+00  2.139100E+01  4.190471E+00  1.021589E+00
      3368   4 -7.649366E+00  5.598296E+00  2.339234E+00  2.197779E+01  3.791305E+00  1.467896E-01
      3368   5 -3.320985E+00  4.075242E+00 -2.199787E+00  2.437210E+01  3.933935E+00  3.459818E+00
      3368   6 -1.633302E+00  6.868346E+00 -4.378525E-01  2.523310E+01  3.265710E+00  2.361114E+00
      3368   7 -9.707610E+00  3.876588E+00 -4.765609E-01  2.441695E+01  4.181818E+00  1.845229E+00
      3368   8 -7.270948E+00  7.478700E+00  1.720223E+00  2.477375E+01  3.807740E+00  5.961575E-01
      3369   1 -1.263201E+00  5.395355E+00  1.237950E+00  2.220335E+01  6.967653E+00  2.190687E+00
      3369   2  1.712037E-01  7.252425E+00  2.425590E+00  2.472635E+01  6.336044E+00  1.628098E+00
      3369   3 -7.663217E+00  4.790851E+00  9.942767E-01  2.150696E+01  6.670211E+00  9.620939E-01
      3369   4 -5.366852E+00  7.378257E+00  2.642898E+00  2.339130E+01  6.062306E+00  3.611178E-01
      3369   5 -2.104324E+00  4.862423E+00 -1.032862E+00  2.464916E+01  6.884551E+00  4.654545E+00
      3369   6  1.052403E-01  8.524975E+00  9.331614E-01  2.691933E+01  6.286782E+00  4.030780E+00
      3369   7 -7.667494E+00  6.180648E+00 -4.097764E-01  2.402941E+01  6.901112E+00  2.441170E+00
      3369   8 -4.417549E+00  1.099012E+01  2.195379E+00  2.562360E+01  6.324222E+00  1.784947E+00
      3370   1  1.062807E-01  5.934159E+00  2.921434E+00  2.419535E+01  1.095004E+01  2.543447E+00
      3370   2 -4.838657E-02  5.661630E+00  2.735238E+00  2.733699E+01  1.101899E+01  2.648001E+00
      3370   3 -6.204938E+00  4.427782E+00  1.305864E-02  2.218501E+01  1.083235E+01  2.269880E+00
      3370   4 -4.516636E+00  5.187681E+00  6.946243E-01  2.472690E+01  1.019782E+01  2.470089E+00
      3370   5  6.626873E-01  6.842658E+00  3.867625E+00  2.625797E+01  1.064317E+01  6.129659E+00
      3370   6  8.187704E-01  7.512923E+00  3.774469E+00  2.886144E+01  1.078993E+01  6.894068E+00
      3370   7 -6.205324E+00  6.149417E+00 -1.709866E+00  2.399897E+01  1.128041E+01  5.613370E+00
      3370   8 -4.046686E+00  8.205186E+00 -7.563812E-01  2.591615E+01  1.071679E+01  6.603984E+00
      3371   1 -1.665184E+01  1.343463E+01  2.550879E+00  2.563553E+01  7.441840E-01  2.007663E+00
      3371   2 -1.754382E+01  1.081030E+01  1.737792E+00  2.417892E+01  6.221654E-01  1.079867E+00
      3371   3 -3.972036E+01  5.257203E+00 -3.285963E+00  2.465716E+01 -2.029321E+00  3.598579E+00
      3371   4 -4.113664E+01  2.188652E+00 -4.561502E+00  2.339506E+01 -9.176357E-01  2.429566E+00
      3371   5 -1.484937E+01  1.876069E+01  3.233059E+00  3.271328E+01  1.745358E-01  4.418551E+00
      3371   6 -1.592631E+01  1.545806E+01  2.481757E+00  3.100845E+01  7.448456E-02  2.170132E+00
      3371   7 -3.496999E+01  1.385258E+01  3.953195E+00  3.240136E+01 -2.277649E+00  6.747122E+00
      3371   8 -3.674930E+01  9.865650E+00  2.385975E+00  3.089101E+01 -1.159612E+00  4.068614E+00
      3372   1 -1.740201E+01  9.953199E+00  2.317234E+00  2.376060E+01  1.616316E+00  2.072605E+00
      3372   2 -1.686636E+01  9.852759E+00  2.626977E+00  2.415102E+01  1.557511E+00  1.324168E+00
      3372   3 -4.179509E+01  9.082966E-01 -4.865823E+00  2.309933E+01 -5.496198E-01  2.379628E+00
      3372   4 -4.247932E+01  2.627038E-01 -5.213288E+00  2.344267E+01  6.770769E-02  1.525215E+00
      3372   5 -1.558861E+01  1.453162E+01  3.783453E+00  3.049024E+01  1.247116E+00  3.555282E+00
      3372   6 -1.493974E+01  1.458167E+01  4.320129E+00  3.086428E+01  1.188273E+00  2.177548E+00
      3372   7 -3.840845E+01  7.350096E+00 -1.883101E-02  3.052271E+01 -9.194282E-01  3.925204E+00
      3372   8 -3.902591E+01  6.827638E+00 -2.668518E-01  3.088021E+01 -3.021118E-01  2.363481E+00
      3373   1 -1.660337E+01  9.598161E+00  2.398506E+00  2.445783E+01  3.287385E+00  1.466352E+00
      3373   2 -1.560602E+01  1.014857E+01  3.038843E+00  2.536178E+01  3.108531E+00  7.253753E-01
      3373   3 -4.279264E+01 -3.612319E-02 -5.327198E+00  2.373305E+01  1.720806E+00  1.324188E+00
      3373   4 -4.287451E+01  7.276315E-02 -5.268787E+00  2.450716E+01  2.043916E+00  5.156068E-01
      3373   5 -1.481272E+01  1.419989E+01  3.765619E+00  3.114113E+01  3.010295E+00  2.294354E+00
      3373   6 -1.364801E+01  1.506890E+01  4.645217E+00  3.200465E+01  2.833037E+00  1.157144E+00
      3373   7 -3.980948E+01  6.113819E+00 -1.533282E+00  3.115896E+01  1.471118E+00  1.982086E+00
      3373   8 -3.973376E+01  6.569871E+00 -1.296727E+00  3.191963E+01  1.794685E+00  7.313566E-01
      3374   1 -1.538207E+01  9.856233E+00  2.084505E+00  2.609999E+01  5.383893E+00  9.890814E-01
      3374   2 -1.364124E+01  1.120902E+01  3.232809E+00  2.807995E+01  4.987273E+00  5.855811E-02
      3374   3 -4.267401E+01  3.926426E-01 -4.882504E+00  2.518107E+01  3.765225E+00  2.604509E-01
      3374   4 -4.213128E+01  1.353293E+00 -4.368836E+00  2.674191E+01  4.181971E+00 -7.548239E-01
      3374   5 -1.368040E+01  1.458302E+01  3.029963E+00  3.270255E+01  5.298242E+00  1.865002E+00
      3374   6 -1.144973E+01  1.697689E+01  4.769983E+00  3.467910E+01  4.898753E+00  3.652296E-01
      3374   7 -3.913929E+01  7.518432E+00 -2.258960E-01  3.258556E+01  3.626665E+00  3.846526E-01
      3374   8 -3.808377E+01  9.646622E+00  8.295537E-01  3.417526E+01  4.042595E+00 -1.256633E+00
      3375   1 -1.310017E+01  1.108507E+01  1.458084E+00  2.996028E+01  8.400558E+00  8.927940E-01
      3375   2 -9.193068E+00  1.479671E+01  3.986639E+00  3.474307E+01  7.597537E+00 -1.624855E-01
      3375   3 -4.079520E+01  2.591760E+00 -4.611702E+00  2.876115E+01  4.701187E+00 -1.205827E+00
      3375   4 -3.588392E+01  7.005981E+00 -1.745206E+00  3.267842E+01  5.292284E+00 -2.356522E+00
      3375   5 -1.122440E+01  1.668487E+01  2.110862E+00  3.629975E+01  8.888379E+00  2.049567E+00
      3375   6 -6.449406E+00  2.227111E+01  5.657781E+00  4.065148E+01  8.117752E+00  1.491491E-01
      3375   7 -3.595353E+01  1.214701E+01  1.971950E+00  3.582037E+01  5.827317E+00 -1.656786E+00
      3375   8 -3.011607E+01  1.867966E+01  5.807261E+00  3.927613E+01  6.427594E+00 -3.733359E+00
      3376   1 -1.777285E+00 -6.982683E+00 -6.434506E-01  1.845521E+01  1.481947E+00  5.159381E-02
      3376   2 -2.038077E+00 -6.705679E+00 -6.338862E-01  1.755987E+01  4.338344E-01 -9.734565E-02
      3376   3 -2.503922E+00 -7.492232E+00 -8.469889E-01  1.635274E+01  1.569336E+00 -6.565953E-02
      3376   4 -2.662797E+00 -7.080535E+00 -7.480526E-01  1.549224E+01  7.739175E-01 -2.312738E-01
      3376   5  1.317620E+00  2.431750E+00  2.584677E-01  1.876489E+01  1.339636E+00  3.392504E-01
      3376   6  1.260090E+00  3.177026E+00  4.772991E-01  1.790568E+01  2.910809E-01  1.246967E-01
      3376   7  1.044796E+00  2.767353E+00  7.224891E-01  1.668172E+01  1.411265E+00  1.732447E-01
      3376   8  1.114105E+00  3.681981E+00  1.079104E+00  1.585991E+01  6.136717E-01 -1.107356E-01
      3377   1 -2.079772E+00 -6.387242E+00 -7.072640E-01  1.610024E+01  3.491914E+00 -4.856356E-01
      3377   2 -2.173344E+00 -6.690457E+00 -8.197250E-01  1.686946E+01  2.510419E+00 -6.646032E-01
      3377   3 -2.747508E+00 -6.958312E+00 -8.756722E-01  1.415672E+01  3.547541E+00 -4.450849E-01
      3377   4 -2.808396E+00 -7.335584E+00 -9.730482E-01  1.481103E+01  2.725811E+00 -6.370515E-01
      3377   5  9.274427E-01  2.666917E+00  2.626255E-01  1.640354E+01  3.498569E+00  8.296626E-01
      3377   6  1.318985E+00  3.491955E+00  6.389600E-01  1.716602E+01  2.517180E+00  6.350724E-01
      3377   7  7.681400E-01  3.168417E+00  7.164260E-01  1.447438E+01  3.557434E+00  6.134333E-01
      3377   8  1.351384E+00  4.275045E+00  1.282255E+00  1.511890E+01  2.736247E+00  3.384696E-01
      3378   1 -1.790265E+00 -5.435223E+00 -1.004852E+00  1.437833E+01  6.119890E+00 -1.257832E+00
      3378   2 -1.983986E+00 -6.250433E+00 -1.295841E+00  1.676349E+01  5.509518E+00 -1.521008E+00
      3378   3 -2.486420E+00 -6.411300E+00 -1.199682E+00  1.234016E+01  6.230513E+00 -1.190861E+00
      3378   4 -2.725515E+00 -7.596737E+00 -1.561443E+00  1.451827E+01  5.625892E+00 -1.500753E+00
      3378   5  8.767928E-01  2.043443E+00  4.066754E-01  1.461390E+01  6.170225E+00  1.107875E+00
      3378   6  1.249193E+00  2.552551E+00  6.784380E-01  1.693269E+01  5.560996E+00  9.805393E-01
      3378   7  8.328645E-01  2.677658E+00  7.756424E-01  1.255810E+01  6.310844E+00  9.162496E-01
      3378   8  1.468930E+00  3.553164E+00  1.270136E+00  1.464680E+01  5.712636E+00  7.197018E-01
      3379   1 -1.356568E+00 -4.162218E+00 -1.515723E+00  1.327002E+01  8.359832E+00 -1.591757E+00
      3379   2 -1.279112E+00 -4.103089E+00 -1.466320E+00  1.466839E+01  8.200335E+00 -1.772411E+00
      3379   3 -1.806084E+00 -4.883480E+00 -1.684622E+00  9.686016E+00  9.173916E+00 -1.657052E+00
      3379   4 -1.645682E+00 -4.972574E+00 -1.609289E+00  1.020455E+01  9.165323E+00 -1.914131E+00
      3379   5  1.057143E+00  1.840731E+00  5.270305E-01  1.343275E+01  8.374641E+00  9.344235E-01
      3379   6  8.118435E-01  1.145327E+00  2.551145E-01  1.470236E+01  8.217508E+00  7.314784E-01
      3379   7  1.033309E+00  2.081644E+00  8.148984E-01  9.763609E+00  9.239877E+00  8.010027E-01
      3379   8  9.324744E-01  1.373801E+00  6.381901E-01  1.008417E+01  9.246415E+00  4.966680E-01
      3380   1 -1.346599E+00 -3.873423E+00 -1.979638E+00  1.222393E+01  9.044027E+00 -1.172001E+00
      3380   2 -5.200909E-01 -1.940636E+00 -1.168410E+00  1.007557E+01  9.055930E+00 -8.410086E-01
      3380   3 -1.085952E+00 -3.006003E+00 -1.925056E+00  4.760058E+00  1.086344E+01 -9.597689E-01
      3380   4  3.087983E-01  3.209954E-01 -6.461358E-01 -1.970716E+00  1.163810E+01 -3.530233E-01
      3380   5  1.236850E+00  2.279687E+00  4.787480E-01  1.224291E+01  9.044990E+00  5.959730E-01
      3380   6  7.339409E-01  1.082479E+00 -1.141981E-02  1.008100E+01  9.057143E+00  1.927111E-01
      3380   7  1.273156E+00  2.143384E+00  7.892498E-01  4.766410E+00  1.086868E+01  2.501201E-01
      3380   8  5.426832E-01  2.786986E-01  1.757775E-01 -1.991186E+00  1.164543E+01 -5.229803E-01
      3381   1 -2.512288E+00 -4.769411E+00  6.072719E-02  2.079115E+01  1.125087E+00  1.807113E-01
      3381   2 -2.720287E+00 -4.740388E+00  6.257166E-02  1.980868E+01  5.083278E-01 -4.548345E-02
      3381   3 -5.945712E+00 -6.260507E+00 -9.764489E-01  1.940934E+01  1.505265E+00  1.169948E-01
      3381   4 -5.813475E+00 -6.079032E+00 -8.036644E-01  1.816808E+01  1.095781E+00 -1.311905E-01
      3381   5 -1.273058E+00 -7.903690E-02 -4.988818E-01  2.216785E+01  8.723837E-01  4.843298E-01
      3381   6 -1.052349E+00  9.178351E-01 -3.585872E-02  2.112654E+01  2.631602E-01  1.514497E-01
      3381   7 -4.315276E+00 -9.146703E-01 -8.874970E-01  2.087778E+01  1.312291E+00  2.175885E-01
      3381   8 -3.668145E+00  4.222264E-01 -1.538230E-01  1.955924E+01  9.134817E-01 -1.859976E-01
      3382   1 -2.854154E+00 -4.897971E+00 -1.459158E-01  1.875483E+01  3.018688E+00 -1.728100E-01
      3382   2 -2.750051E+00 -5.077646E+00 -1.095157E-01  1.902691E+01  2.355572E+00 -3.930038E-01
      3382   3 -5.831477E+00 -6.321363E+00 -1.004738E+00  1.704880E+01  3.257105E+00 -1.326061E-01
      3382   4 -5.570980E+00 -6.508645E+00 -8.977945E-01  1.704260E+01  2.803238E+00 -3.714119E-01
      3382   5 -1.264089E+00  5.843967E-01 -3.280646E-01  1.999261E+01  2.945087E+00  8.587394E-01
      3382   6 -7.140796E-01  1.400527E+00  1.988815E-01  2.022770E+01  2.285569E+00  4.687380E-01
      3382   7 -3.620752E+00  2.605300E-01 -2.175478E-01  1.835898E+01  3.211603E+00  5.554423E-01
      3382   8 -2.786495E+00  1.347803E+00  5.273737E-01  1.830565E+01  2.762911E+00  8.005873E-02
      3383   1 -2.593234E+00 -4.740829E+00 -4.830729E-01  1.775703E+01  5.586803E+00 -9.341241E-01
      3383   2 -2.474270E+00 -5.314203E+00 -5.447917E-01  1.946207E+01  5.034675E+00 -1.178409E+00
      3383   3 -5.396997E+00 -6.471180E+00 -1.268889E+00  1.575049E+01  5.716327E+00 -7.946028E-01
      3383   4 -5.166194E+00 -7.200493E+00 -1.309242E+00  1.705440E+01  5.241732E+00 -1.066262E+00
      3383   5 -9.370364E-01  4.706620E-01 -1.739052E-01  1.887550E+01  5.602365E+00  1.017497E+00
      3383   6 -1.770899E-01  1.377946E+00  4.203280E-01  2.051294E+01  5.056648E+00  6.928035E-01
      3383   7 -2.927448E+00  5.228870E-01 -3.112510E-02  1.691206E+01  5.781248E+00  6.074512E-01
      3383   8 -1.833997E+00  1.784510E+00  8.130793E-01  1.813245E+01  5.316037E+00  2.056722E-01
      3384   1 -2.216273E+00 -4.404599E+00 -1.342699E+00  1.767902E+01  8.622895E+00 -1.711130E+00
      3384   2 -2.177137E+00 -5.169447E+00 -1.460365E+00  1.981143E+01  8.454210E+00 -2.015322E+00
      3384   3 -4.763294E+00 -6.475156E+00 -1.968312E+00  1.470274E+01  9.137611E+00 -1.618572E+00
      3384   4 -4.472285E+00 -7.406053E+00 -2.010939E+00  1.637501E+01  8.891132E+00 -1.975974E+00
      3384   5 -2.920967E-01  5.499175E-01  1.167066E-01  1.864484E+01  8.655288E+00  9.425292E-01
      3384   6  1.214447E-01  6.996814E-01  3.324465E-01  2.061226E+01  8.504064E+00  7.821145E-01
      3384   7 -2.127260E+00  4.516704E-01 -1.083571E-01  1.561196E+01  9.302588E+00  7.253133E-01
      3384   8 -1.266305E+00  9.118452E-01  3.577625E-01  1.707709E+01  9.082172E+00  5.306696E-01
      3385   1 -2.094798E+00 -4.455226E+00 -2.447213E+00  1.807154E+01  1.067433E+01 -1.988629E+00
      3385   2 -1.591691E+00 -3.681060E+00 -2.032229E+00  1.762735E+01  1.110731E+01 -2.100704E+00
      3385   3 -3.708410E+00 -5.286706E+00 -2.942474E+00  1.172461E+01  1.336053E+01 -2.154466E+00
      3385   4 -2.653684E+00 -4.224639E+00 -2.258895E+00  1.054891E+01  1.399202E+01 -2.295555E+00
      3385   5  2.415307E-01  6.948054E-01  1.905201E-01  1.881240E+01  1.065973E+01  6.780632E-01
      3385   6  1.116564E-01 -2.174340E-02 -1.372029E-02  1.811447E+01  1.112086E+01  5.184851E-01
      3385   7 -1.134233E+00  3.152291E-01  3.617992E-02  1.225635E+01  1.355678E+01  6.012857E-01
      3385   8 -7.713564E-01 -2.580179E-01  4.890915E-02  1.075454E+01  1.423123E+01  4.080286E-01
      3386   1 -6.810377E+00 -6.912820E-01  6.444342E-01  2.344872E+01  8.683995E-01  2.997834E-01
      3386   2 -6.786617E+00 -1.135497E+00  5.999351E-01  2.236291E+01  5.926391E-01  8.669223E-02
      3386   3 -1.447077E+01 -3.924586E+00 -1.970272E+00  2.219126E+01  7.103857E-01  4.203178E-01
      3386   4 -1.432060E+01 -4.381714E+00 -1.986073E+00  2.087861E+01  7.256815E-01  1.969466E-01
      3386   5 -5.860354E+00  2.865548E+00  2.543487E-01  2.605618E+01  5.756287E-01  9.173767E-01
      3386   6 -5.471941E+00  3.173305E+00  6.733850E-01  2.488147E+01  3.118322E-01  3.739652E-01
      3386   7 -1.276185E+01  6.115600E-01 -8.100415E-01  2.500522E+01  5.133700E-01  9.311373E-01
      3386   8 -1.220565E+01  1.009455E+00 -3.274013E-01  2.359074E+01  5.398455E-01  3.158469E-01
      3387   1 -6.784159E+00 -1.627618E+00  4.298819E-01  2.166505E+01  2.426767E+00  1.509933E-01
      3387   2 -6.500403E+00 -2.015547E+00  5.098404E-01  2.170544E+01  2.115507E+00 -1.317299E-01
      3387   3 -1.409170E+01 -4.768732E+00 -1.767200E+00  2.011008E+01  2.248898E+00  3.093421E-01
      3387   4 -1.372862E+01 -5.203683E+00 -1.685554E+00  1.996035E+01  2.211207E+00  8.706317E-03
      3387   5 -5.403911E+00  2.714281E+00  6.888113E-01  2.410433E+01  2.262830E+00  1.057520E+00
      3387   6 -4.857407E+00  2.850201E+00  1.120743E+00  2.406362E+01  1.961351E+00  4.753216E-01
      3387   7 -1.189980E+01  7.148098E-01  5.557143E-02  2.273652E+01  2.167418E+00  9.985684E-01
      3387   8 -1.123290E+01  9.059850E-01  5.238550E-01  2.249587E+01  2.138806E+00  3.448005E-01
      3388   1 -6.342936E+00 -2.258912E+00  1.516135E-01  2.133340E+01  4.614891E+00 -5.399511E-01
      3388   2 -5.840808E+00 -2.575383E+00  3.259109E-01  2.250394E+01  4.232258E+00 -8.368917E-01
      3388   3 -1.349609E+01 -5.499491E+00 -1.916270E+00  1.957812E+01  4.313453E+00 -3.618454E-01
      3388   4 -1.298591E+01 -5.922115E+00 -1.780642E+00  2.043223E+01  4.178214E+00 -6.784300E-01
      3388   5 -4.888681E+00  2.147078E+00  5.931402E-01  2.360873E+01  4.563902E+00  7.808852E-01
      3388   6 -3.958296E+00  2.752937E+00  1.272632E+00  2.471289E+01  4.188061E+00  2.017580E-01
      3388   7 -1.107924E+01  4.712604E-01  1.691377E-01  2.203136E+01  4.322613E+00  4.224534E-01
      3388   8 -1.005385E+01  1.179854E+00  8.909181E-01  2.281305E+01  4.193637E+00 -2.189823E-01
      3389   1 -5.580260E+00 -2.550872E+00 -3.854315E-01  2.224451E+01  7.711762E+00 -1.474202E+00
      3389   2 -4.934056E+00 -3.014103E+00 -1.931526E-01  2.472888E+01  7.301975E+00 -1.802833E+00
      3389   3 -1.267920E+01 -6.100220E+00 -2.305070E+00  2.021539E+01  7.021592E+00 -1.205971E+00
      3389   4 -1.200241E+01 -6.707535E+00 -2.158304E+00  2.223622E+01  6.735367E+00 -1.563879E+00
      3389   5 -3.950782E+00  2.025703E+00  4.695858E-01  2.435052E+01  7.784796E+00  5.008531E-01
      3389   6 -2.710676E+00  2.913737E+00  1.290272E+00  2.675033E+01  7.383487E+00  2.950738E-03
      3389   7 -9.991250E+00  6.259443E-01 -7.138785E-02  2.247982E+01  7.173299E+00 -5.281819E-02
      3389   8 -8.582883E+00  1.694006E+00  8.385769E-01  2.440813E+01  6.894845E+00 -5.939866E-01
      3390   1 -4.870441E+00 -3.141327E+00 -1.815361E+00  2.423041E+01  1.190874E+01 -2.500212E+00
      3390   2 -4.340832E+00 -4.308257E+00 -1.810212E+00  2.745268E+01  1.181812E+01 -2.932200E+00
      3390   3 -1.162976E+01 -7.246445E+00 -3.169666E+00  2.149504E+01  1.114349E+01 -2.025990E+00
      3390   4 -1.042346E+01 -8.329467E+00 -2.953736E+00  2.430308E+01  1.078993E+01 -2.518656E+00
      3390   5 -2.483781E+00  2.238528E+00  7.603157E-01  2.605869E+01  1.210779E+01  1.655895E-01
      3390   6 -1.613618E+00  1.951138E+00  1.021108E+00  2.899119E+01  1.205452E+01 -4.574061E-02
      3390   7 -8.823880E+00 -6.455742E-02 -9.986107E-01  2.330092E+01  1.170484E+01  1.501856E-01
      3390   8 -7.147457E+00  2.676341E-02 -3.899445E-01  2.577847E+01  1.138531E+01 -6.774688E-02
      3391   1 -1.577613E+01  3.520030E+00  3.929310E-01  2.150624E+01  3.290722E-01  3.330721E-01
      3391   2 -1.605022E+01  1.986331E+00 -1.020671E-01  2.054226E+01  4.685797E-01  1.790811E-01
      3391   3 -2.318185E+01  2.669781E-01 -2.112258E+00  1.922985E+01 -5.349556E-01  8.927487E-01
      3391   4 -2.354531E+01 -1.352806E+00 -2.693544E+00  1.835214E+01 -2.360986E-01  7.093763E-01
      3391   5 -1.260055E+01  1.094133E+01  3.556880E+00  2.363497E+01  3.037029E-01  9.515141E-01
      3391   6 -1.310967E+01  8.815851E+00  2.870252E+00  2.257822E+01  4.505136E-01  5.685473E-01
      3391   7 -1.923505E+01  8.853072E+00  2.457645E+00  2.155905E+01 -4.535018E-01  1.941195E+00
      3391   8 -1.988357E+01  6.555609E+00  1.603848E+00  2.058693E+01 -1.525332E-01  1.488049E+00
      3392   1 -1.591452E+01  1.453721E+00  1.351529E-01  2.022111E+01  1.592019E+00  2.850348E-01
      3392   2 -1.576303E+01  1.060945E+00  1.035177E-01  2.041023E+01  1.702890E+00  1.322428E-01
      3392   3 -2.378186E+01 -2.020115E+00 -2.619417E+00  1.805593E+01  2.824731E-01  4.580389E-01
      3392   4 -2.465068E+01 -2.889688E+00 -3.129227E+00  1.811955E+01  6.639606E-01  3.012948E-01
      3392   5 -1.303138E+01  8.043824E+00  3.155512E+00  2.228456E+01  1.546308E+00  1.209340E+00
      3392   6 -1.281931E+01  7.744911E+00  3.231939E+00  2.262219E+01  1.642874E+00  7.803327E-01
      3392   7 -2.004285E+01  5.812165E+00  2.011649E+00  2.034658E+01  9.369478E-03  1.431649E+00
      3392   8 -2.085936E+01  5.051023E+00  1.567801E+00  2.058961E+01  3.867469E-01  9.678399E-01
      3393   1 -1.558164E+01  8.563097E-01  2.947196E-02  2.067391E+01  3.423440E+00 -1.486330E-01
      3393   2 -1.513776E+01  7.112579E-01  1.750357E-01  2.161413E+01  3.469911E+00 -3.695845E-01
      3393   3 -2.493110E+01 -3.205000E+00 -3.033932E+00  1.831795E+01  2.003998E+00  6.071328E-03
      3393   4 -2.530488E+01 -3.751979E+00 -3.294179E+00  1.904797E+01  2.396795E+00 -2.156118E-01
      3393   5 -1.268626E+01  7.468865E+00  3.068183E+00  2.295924E+01  3.443333E+00  8.081349E-01
      3393   6 -1.208642E+01  7.639350E+00  3.418063E+00  2.397839E+01  3.481253E+00  3.001224E-01
      3393   7 -2.106430E+01  4.844044E+00  1.806352E+00  2.087477E+01  1.877106E+00  7.936345E-01
      3393   8 -2.127408E+01  4.665905E+00  1.723924E+00  2.170654E+01  2.267460E+00  2.568903E-01
      3394   1 -1.483855E+01  5.264856E-01 -1.290595E-01  2.241466E+01  5.622071E+00 -7.970198E-01
      3394   2 -1.400003E+01  4.502786E-01  1.701907E-01  2.441152E+01  5.512264E+00 -1.079853E+00
      3394   3 -2.525492E+01 -4.003302E+00 -3.312187E+00  1.979495E+01  3.685799E+00 -5.366077E-01
      3394   4 -2.486053E+01 -4.347939E+00 -3.277189E+00  2.143253E+01  4.066668E+00 -8.192023E-01
      3394   5 -1.192700E+01  7.355271E+00  2.747310E+00  2.477678E+01  5.806492E+00  2.489295E-01
      3394   6 -1.077378E+01  7.956413E+00  3.418249E+00  2.675763E+01  5.695655E+00 -3.721691E-01
      3394   7 -2.108527E+01  4.710682E+00  1.872640E+00  2.244760E+01  3.851232E+00  7.987224E-03
      3394   8 -2.034652E+01  5.153372E+00  2.268222E+00  2.407951E+01  4.231808E+00 -6.410855E-01
      3395   1 -1.330889E+01  3.140975E-01 -1.355197E-01  2.627983E+01  8.406023E+00 -1.452648E+00
      3395   2 -1.153000E+01  6.150579E-01  5.835679E-01  3.069290E+01  7.881202E+00 -1.848235E+00
      3395   3 -2.441314E+01 -4.507192E+00 -3.038674E+00  2.343616E+01  3.772453E+00 -1.122411E+00
      3395   4 -2.382362E+01 -4.869246E+00 -2.943472E+00  2.697670E+01  3.773204E+00 -1.524632E+00
      3395   5 -1.037788E+01  7.782895E+00  2.165727E+00  2.860409E+01  8.963515E+00 -1.009972E-01
      3395   6 -7.794005E+00  9.919246E+00  3.732707E+00  3.313627E+01  8.423212E+00 -7.688070E-01
      3395   7 -2.005614E+01  5.443465E+00  1.534007E+00  2.612470E+01  4.024905E+00 -1.052587E+00
      3395   8 -1.854315E+01  7.223999E+00  2.564833E+00  2.981570E+01  4.021269E+00 -1.719913E+00
      3396   1 -7.475684E-01 -1.982028E+01  6.801135E-01  1.618645E+01  1.263370E+00 -4.291278E-01
      3396   2 -1.437403E+00 -2.022199E+01  3.459489E-01  1.537370E+01  2.320303E-01 -5.054461E-01
      3396   3 -4.441461E+00 -2.261134E+01 -1.503892E+00  1.406759E+01  1.346772E+00 -4.873886E-01
      3396   4 -4.644993E+00 -2.272465E+01 -1.631859E+00  1.333655E+01  5.368381E-01 -5.049421E-01
      3396   5  2.042819E+00 -1.115690E+01  1.318028E+00  1.748842E+01  1.054445E+00 -1.868579E-01
      3396   6  1.494674E+00 -1.123282E+01  1.130364E+00  1.662445E+01  2.436757E-02 -2.976836E-01
      3396   7 -1.251828E+00 -1.318765E+01 -2.954710E-01  1.544468E+01  1.182765E+00 -2.722190E-01
      3396   8 -1.302283E+00 -1.296741E+01 -2.467271E-01  1.463961E+01  3.790292E-01 -3.668454E-01
      3397   1 -1.111108E+00 -1.857255E+01  3.264349E-01  1.407378E+01  2.993650E+00 -2.736931E+00
      3397   2 -2.070880E+00 -2.087255E+01 -6.511069E-01  1.487059E+01  2.062416E+00 -2.921655E+00
      3397   3 -4.218534E+00 -2.156685E+01 -1.492050E+00  1.216545E+01  3.035690E+00 -2.256283E+00
      3397   4 -5.214651E+00 -2.448107E+01 -2.663134E+00  1.285450E+01  2.239058E+00 -2.350908E+00
      3397   5  1.583282E+00 -1.035457E+01  1.089750E+00  1.522226E+01  2.981574E+00 -1.471305E+00
      3397   6  1.118919E+00 -1.150111E+01  6.101147E-01  1.599070E+01  2.050853E+00 -1.644643E+00
      3397   7 -1.061318E+00 -1.234612E+01 -1.887259E-01  1.336580E+01  3.039442E+00 -1.243487E+00
      3397   8 -1.402264E+00 -1.374454E+01 -6.916982E-01  1.401301E+01  2.245463E+00 -1.385439E+00
      3398   1 -6.565370E-01 -1.564129E+01 -9.255576E-01  1.229207E+01  5.810837E+00 -5.242698E+00
      3398   2 -2.358911E+00 -1.906439E+01 -2.438560E+00  1.472231E+01  5.204384E+00 -5.850463E+00
      3398   3 -3.585533E+00 -1.975312E+01 -2.391079E+00  1.040132E+01  5.776418E+00 -4.789822E+00
      3398   4 -5.501710E+00 -2.464907E+01 -4.296456E+00  1.273427E+01  5.126194E+00 -5.447728E+00
      3398   5  1.860868E+00 -8.526481E+00  3.509800E-01  1.344111E+01  5.701723E+00 -2.985212E+00
      3398   6  7.421191E-01 -1.058139E+01 -5.847865E-01  1.572601E+01  5.098119E+00 -3.376637E+00
      3398   7 -4.947338E-01 -1.113269E+01 -7.088491E-01  1.152049E+01  5.742079E+00 -2.747417E+00
      3398   8 -1.530962E+00 -1.393957E+01 -1.770130E+00  1.364606E+01  5.107842E+00 -3.182183E+00
      3399   1 -9.236054E-01 -1.238990E+01 -3.707620E+00  1.122526E+01  8.173657E+00 -5.702438E+00
      3399   2 -6.928513E-01 -1.112689E+01 -3.243619E+00  1.281386E+01  8.194030E+00 -6.027944E+00
      3399   3 -2.524756E+00 -1.468985E+01 -4.534546E+00  7.984872E+00  8.751603E+00 -5.849336E+00
      3399   4 -1.958917E+00 -1.355566E+01 -3.922948E+00  8.907434E+00  8.818145E+00 -6.340428E+00
      3399   5  1.546490E+00 -6.643231E+00 -1.220633E+00  1.214813E+01  8.042355E+00 -3.391188E+00
      3399   6  1.412670E+00 -6.226317E+00 -1.125783E+00  1.352930E+01  8.066776E+00 -3.593774E+00
      3399   7  2.134636E-01 -8.218528E+00 -1.878465E+00  8.774502E+00  8.707852E+00 -3.465823E+00
      3399   8  4.216735E-01 -7.889513E+00 -1.653793E+00  9.366731E+00  8.800294E+00 -3.766148E+00
      3400   1 -8.557816E-01 -1.114812E+01 -3.867988E+00  1.158147E+01  8.747537E+00 -4.804357E+00
      3400   2  2.977495E+00 -3.078423E+00 -3.929902E-01  9.794824E+00  8.797166E+00 -2.859382E+00
      3400   3 -2.950845E-01 -8.118999E+00 -4.434552E+00  4.670030E+00  1.027105E+01 -3.381510E+00
      3400   4  5.765390E+00  5.447183E+00  6.566700E-01 -1.291985E+00  1.110151E+01  2.734249E-01
      3400   5  1.194086E+00 -6.315932E+00 -1.867282E+00  1.135967E+01  8.899005E+00 -2.624240E+00
      3400   6  3.537328E+00 -1.760149E+00  1.548458E-01  9.266986E+00  8.954080E+00 -1.661390E+00
      3400   7  1.450285E+00 -4.634275E+00 -2.101378E+00  4.166888E+00  1.051585E+01 -1.947857E+00
      3400   8  5.102934E+00  3.004847E+00  8.908219E-01 -2.386043E+00  1.139156E+01 -1.476913E-01
      3401   1 -3.189692E+00 -1.446337E+01  1.004551E+00  1.765861E+01  9.255470E-01 -3.899537E-01
      3401   2 -3.492722E+00 -1.541172E+01  5.872357E-01  1.691250E+01  2.886429E-01 -3.646798E-01
      3401   3 -8.240897E+00 -1.777654E+01 -1.836877E+00  1.567125E+01  1.174260E+00 -2.184962E-01
      3401   4 -8.225758E+00 -1.873943E+01 -2.180559E+00  1.479262E+01  7.806230E-01 -1.161552E-01
      3401   5 -1.145884E+00 -7.892918E+00  1.246789E+00  1.929894E+01  7.873266E-01 -8.171276E-02
      3401   6 -1.169103E+00 -8.234541E+00  1.155455E+00  1.845202E+01  1.614082E-01 -2.120796E-01
      3401   7 -5.675515E+00 -1.035502E+01 -7.071308E-01  1.742064E+01  1.123110E+00 -2.746773E-02
      3401   8 -5.323765E+00 -1.059788E+01 -6.487997E-01  1.641625E+01  7.450348E-01 -1.376882E-01
      3402   1 -3.219155E+00 -1.506654E+01  5.849115E-01  1.602407E+01  2.571690E+00 -1.768309E+00
      3402   2 -3.516082E+00 -1.664803E+01 -1.218043E-02  1.634639E+01  1.917856E+00 -1.725046E+00
      3402   3 -7.906981E+00 -1.875962E+01 -2.191548E+00  1.387769E+01  2.829900E+00 -1.182138E+00
      3402   4 -8.246510E+00 -2.076651E+01 -2.943765E+00  1.398064E+01  2.366195E+00 -1.052749E+00
      3402   5 -9.796365E-01 -8.124831E+00  1.108267E+00  1.747978E+01  2.568249E+00 -9.047562E-01
      3402   6 -8.980086E-01 -8.863229E+00  9.299350E-01  1.776286E+01  1.917424E+00 -1.007996E+00
      3402   7 -5.053617E+00 -1.069963E+01 -7.403153E-01  1.542341E+01  2.849962E+00 -6.225783E-01
      3402   8 -4.905264E+00 -1.162598E+01 -9.468119E-01  1.547806E+01  2.390585E+00 -6.994549E-01
      3403   1 -2.589014E+00 -1.422457E+01 -1.754174E-01  1.510085E+01  5.120658E+00 -4.008001E+00
      3403   2 -3.516279E+00 -1.724919E+01 -1.321795E+00  1.680392E+01  4.523723E+00 -4.120386E+00
      3403   3 -7.427396E+00 -1.934500E+01 -2.861318E+00  1.279317E+01  5.188661E+00 -2.956603E+00
      3403   4 -8.541972E+00 -2.331441E+01 -4.329150E+00  1.417634E+01  4.666659E+00 -3.011546E+00
      3403   5 -3.583396E-01 -7.605931E+00  6.415252E-01  1.647939E+01  5.113453E+00 -2.308244E+00
      3403   6 -6.893763E-01 -9.255288E+00  1.073079E-01  1.810030E+01  4.524519E+00 -2.497489E+00
      3403   7 -4.383933E+00 -1.095253E+01 -1.108919E+00  1.422335E+01  5.243055E+00 -1.774748E+00
      3403   8 -4.698800E+00 -1.307927E+01 -1.753722E+00  1.550441E+01  4.732763E+00 -1.955112E+00
      3404   1 -2.802094E+00 -1.335758E+01 -3.529540E+00  1.502516E+01  8.160733E+00 -5.946323E+00
      3404   2 -3.433041E+00 -1.563439E+01 -4.182366E+00  1.727977E+01  8.042226E+00 -6.581726E+00
      3404   3 -6.998804E+00 -1.892768E+01 -4.792903E+00  1.194417E+01  8.525281E+00 -5.421615E+00
      3404   4 -7.741251E+00 -2.215448E+01 -5.656028E+00  1.382989E+01  8.270318E+00 -6.174635E+00
      3404   5 -2.320994E-01 -7.105473E+00 -1.215001E+00  1.627697E+01  8.134642E+00 -3.585452E+00
      3404   6 -5.367003E-01 -8.564529E+00 -1.597762E+00  1.841229E+01  8.028646E+00 -4.012603E+00
      3404   7 -3.825392E+00 -1.084026E+01 -2.302290E+00  1.318745E+01  8.594186E+00 -3.292449E+00
      3404   8 -4.066854E+00 -1.281408E+01 -2.748439E+00  1.492238E+01  8.357898E+00 -3.797911E+00
      3405   1 -3.070203E+00 -1.300340E+01 -6.664562E+00  1.602585E+01  1.006489E+01 -6.336958E+00
      3405   2 -5.459397E-01 -8.698298E+00 -4.612321E+00  1.602260E+01  1.059050E+01 -6.369161E+00
      3405   3 -5.439500E+00 -1.420791E+01 -7.711003E+00  9.950497E+00  1.234852E+01 -6.843857E+00
      3405   4 -2.209075E+00 -9.157871E+00 -5.221628E+00  9.420367E+00  1.303098E+01 -6.914335E+00
      3405   5 -2.416343E-01 -7.088642E+00 -3.150762E+00  1.678758E+01  1.027079E+01 -3.887830E+00
      3405   6  1.433824E+00 -4.776371E+00 -1.935036E+00  1.651785E+01  1.082409E+01 -3.957532E+00
      3405   7 -2.597069E+00 -8.352885E+00 -4.091260E+00  1.052414E+01  1.276189E+01 -4.171376E+00
      3405   8 -3.381485E-01 -5.588448E+00 -2.554629E+00  9.657282E+00  1.348661E+01 -4.272280E+00
      3406   1 -7.074346E+00 -8.717586E+00  9.250829E-01  1.939514E+01  5.371123E-01 -5.183703E-01
      3406   2 -7.043712E+00 -9.984303E+00  4.941358E-01  1.860809E+01  2.645531E-01 -3.754727E-01
      3406   3 -1.233069E+01 -1.211827E+01 -2.153222E+00  1.750576E+01  6.147388E-01 -1.839502E-01
      3406   4 -1.237730E+01 -1.362374E+01 -2.675027E+00  1.650524E+01  4.983488E-01  5.240132E-03
      3406   5 -5.209134E+00 -3.165952E+00  1.590823E+00  2.085000E+01  5.925458E-01 -1.061668E-01
      3406   6 -4.900616E+00 -3.837604E+00  1.491091E+00  2.001341E+01  3.243710E-01 -1.345673E-01
      3406   7 -9.914993E+00 -5.709026E+00 -5.101509E-01  1.907710E+01  7.052635E-01  1.189486E-01
      3406   8 -9.643750E+00 -6.522665E+00 -6.642636E-01  1.802311E+01  5.929704E-01  1.039928E-01
      3407   1 -6.765272E+00 -1.029655E+01  4.495676E-01  1.804821E+01  2.053607E+00 -1.263988E+00
      3407   2 -6.678116E+00 -1.137300E+01  1.045416E-01  1.815608E+01  1.711394E+00 -1.148589E+00
      3407   3 -1.219896E+01 -1.415161E+01 -2.743699E+00  1.586538E+01  1.992707E+00 -7.623416E-01
      3407   4 -1.235457E+01 -1.554769E+01 -3.253971E+00  1.578373E+01  1.853199E+00 -5.969015E-01
      3407   5 -4.652821E+00 -4.195572E+00  1.390098E+00  1.943848E+01  2.109984E+00 -4.919102E-01
      3407   6 -4.353097E+00 -4.841916E+00  1.323517E+00  1.955174E+01  1.764358E+00 -5.895888E-01
      3407   7 -9.364363E+00 -6.920987E+00 -5.256574E-01  1.737901E+01  2.020312E+00 -1.770334E-01
      3407   8 -9.269140E+00 -7.792949E+00 -7.239645E-01  1.730848E+01  1.877637E+00 -2.641846E-01
      3408   1 -6.135969E+00 -1.087995E+01  1.013805E-01  1.781656E+01  4.099740E+00 -2.668369E+00
      3408   2 -6.292418E+00 -1.266904E+01 -5.154430E-01  1.893968E+01  3.680673E+00 -2.547864E+00
      3408   3 -1.216713E+01 -1.578182E+01 -3.472173E+00  1.543562E+01  3.817785E+00 -1.639384E+00
      3408   4 -1.265701E+01 -1.809606E+01 -4.343985E+00  1.625640E+01  3.608115E+00 -1.477055E+00
      3408   5 -3.986415E+00 -4.742539E+00  1.129152E+00  1.920495E+01  4.187310E+00 -1.488433E+00
      3408   6 -3.760997E+00 -5.705453E+00  9.590395E-01  2.033320E+01  3.764602E+00 -1.600187E+00
      3408   7 -9.093625E+00 -8.062731E+00 -9.462389E-01  1.695850E+01  3.873116E+00 -9.387197E-01
      3408   8 -9.121505E+00 -9.358758E+00 -1.296259E+00  1.779018E+01  3.660089E+00 -1.044429E+00
      3409   1 -5.682107E+00 -1.130051E+01 -1.239289E+00  1.869633E+01  7.082415E+00 -4.871463E+00
      3409   2 -6.192167E+00 -1.402247E+01 -2.129427E+00  2.119881E+01  6.664929E+00 -4.968162E+00
      3409   3 -1.212643E+01 -1.758603E+01 -4.320843E+00  1.609668E+01  6.289579E+00 -3.297593E+00
      3409   4 -1.298363E+01 -2.104155E+01 -5.541820E+00  1.816697E+01  5.959641E+00 -3.410538E+00
      3409   5 -3.391297E+00 -5.148302E+00  2.445332E-01  2.007622E+01  7.180510E+00 -2.941154E+00
      3409   6 -3.369304E+00 -6.652173E+00 -9.018285E-02  2.255485E+01  6.763526E+00 -3.162512E+00
      3409   7 -8.835651E+00 -9.317418E+00 -1.620200E+00  1.760359E+01  6.392333E+00 -2.106802E+00
      3409   8 -9.031888E+00 -1.125211E+01 -2.158798E+00  1.965072E+01  6.062854E+00 -2.352325E+00
      3410   1 -6.385235E+00 -1.272201E+01 -6.026246E+00  2.097255E+01  1.090577E+01 -7.389312E+00
      3410   2 -6.049582E+00 -1.487725E+01 -6.155316E+00  2.432417E+01  1.092187E+01 -8.275512E+00
      3410   3 -1.187496E+01 -1.896009E+01 -5.500556E+00  1.766868E+01  1.006470E+01 -6.300276E+00
      3410   4 -1.222436E+01 -2.196798E+01 -6.127873E+00  2.063782E+01  9.762602E+00 -7.356763E+00
      3410   5 -3.418561E+00 -6.245928E+00 -2.613414E+00  2.219956E+01  1.126697E+01 -4.550117E+00
      3410   6 -2.881971E+00 -7.830923E+00 -2.642940E+00  2.561632E+01  1.126842E+01 -5.157057E+00
      3410   7 -8.652694E+00 -1.090386E+01 -2.815889E+00  1.910999E+01  1.028381E+01 -3.788003E+00
      3410   8 -8.688492E+00 -1.308762E+01 -3.222016E+00  2.216200E+01  9.968359E+00 -4.502683E+00
      3411   1 -1.067498E+01 -3.444881E+00  5.663904E-01  1.858019E+01  2.717473E-01 -4.901671E-01
      3411   2 -1.066070E+01 -4.653174E+00  1.626890E-01  1.772656E+01  2.367559E-01 -2.823162E-01
      3411   3 -1.332647E+01 -5.861649E+00 -1.619561E+00  1.669620E+01 -1.143667E-01 -2.555191E-01
      3411   4 -1.363329E+01 -7.274529E+00 -2.148628E+00  1.573539E+01 -9.690185E-04 -2.503940E-02
      3411   5 -8.376456E+00  2.327749E+00  2.455494E+00  1.905406E+01  4.772835E-01 -4.068254E-02
      3411   6 -8.337138E+00  1.137239E+00  2.117485E+00  1.824974E+01  4.362419E-01 -4.691142E-02
      3411   7 -1.033693E+01  9.287652E-01  1.555149E+00  1.721626E+01  2.674237E-03  3.398819E-01
      3411   8 -1.063275E+01 -4.701824E-01  1.048843E+00  1.631513E+01  1.143227E-01  3.287304E-01
      3412   1 -1.052156E+01 -5.097371E+00  1.280712E-01  1.739623E+01  1.398503E+00 -1.014256E+00
      3412   2 -1.049102E+01 -5.704212E+00 -8.541241E-02  1.748019E+01  1.364538E+00 -8.280252E-01
      3412   3 -1.379104E+01 -7.901642E+00 -2.339365E+00  1.533878E+01  6.913292E-01 -8.216222E-01
      3412   4 -1.421525E+01 -8.791261E+00 -2.745180E+00  1.526590E+01  8.290329E-01 -6.092080E-01
      3412   5 -8.121453E+00  7.313158E-01  2.299752E+00  1.797063E+01  1.486155E+00 -3.160761E-01
      3412   6 -8.016289E+00  2.655005E-01  2.193970E+00  1.812882E+01  1.444600E+00 -3.134115E-01
      3412   7 -1.072477E+01 -1.044493E+00  1.024375E+00  1.598062E+01  6.583210E-01 -1.302739E-01
      3412   8 -1.107197E+01 -1.763910E+00  7.050845E-01  1.599563E+01  7.938438E-01 -1.203639E-01
      3413   1 -1.038787E+01 -5.955491E+00 -2.433721E-01  1.766638E+01  2.909648E+00 -1.594223E+00
      3413   2 -1.033742E+01 -6.687993E+00 -4.761637E-01  1.847635E+01  2.843284E+00 -1.449778E+00
      3413   3 -1.440248E+01 -9.274475E+00 -2.927108E+00  1.537809E+01  1.875860E+00 -1.133714E+00
      3413   4 -1.478093E+01 -1.032811E+01 -3.364784E+00  1.597349E+01  2.049554E+00 -9.639880E-01
      3413   5 -7.880723E+00  5.261853E-02  2.105669E+00  1.835698E+01  3.020668E+00 -8.131258E-01
      3413   6 -7.688731E+00 -3.840052E-01  2.048816E+00  1.921801E+01  2.948601E+00 -8.664994E-01
      3413   7 -1.112365E+01 -2.056157E+00  7.840352E-01  1.615752E+01  1.888988E+00 -5.195344E-01
      3413   8 -1.134660E+01 -2.756808E+00  5.116809E-01  1.681520E+01  2.061053E+00 -5.649338E-01
      3414   1 -1.002225E+01 -6.813707E+00 -2.870720E-01  1.923673E+01  4.755534E+00 -2.694028E+00
      3414   2 -1.014773E+01 -8.291218E+00 -7.877131E-01  2.119225E+01  4.543649E+00 -2.573100E+00
      3414   3 -1.485534E+01 -1.098153E+01 -3.351368E+00  1.667700E+01  2.929666E+00 -1.566766E+00
      3414   4 -1.540565E+01 -1.290699E+01 -4.099719E+00  1.824437E+01  3.035867E+00 -1.436139E+00
      3414   5 -7.496219E+00 -5.916568E-01  1.910994E+00  1.999755E+01  4.928047E+00 -1.618576E+00
      3414   6 -7.299504E+00 -1.352985E+00  1.768124E+00  2.198109E+01  4.712131E+00 -1.708907E+00
      3414   7 -1.138123E+01 -3.203292E+00  4.507777E-01  1.754285E+01  3.027882E+00 -9.914401E-01
      3414   8 -1.156559E+01 -4.284993E+00  7.850277E-02  1.914681E+01  3.132937E+00 -1.081298E+00
      3415   1 -9.772278E+00 -8.652584E+00 -2.371884E-01  2.302711E+01  7.307591E+00 -4.528738E+00
      3415   2 -1.074870E+01 -1.198039E+01 -1.508393E+00  2.735615E+01  6.800364E+00 -4.546623E+00
      3415   3 -1.557185E+01 -1.422313E+01 -3.252897E+00  2.012305E+01  2.943195E+00 -2.062377E+00
      3415   4 -1.783537E+01 -1.868915E+01 -5.266076E+00  2.355852E+01  2.835647E+00 -2.122622E+00
      3415   5 -7.104631E+00 -1.736744E+00  1.739128E+00  2.389220E+01  7.439583E+00 -2.680876E+00
      3415   6 -7.315170E+00 -3.308256E+00  1.264585E+00  2.838165E+01  6.916578E+00 -2.902880E+00
      3415   7 -1.167581E+01 -5.047450E+00  5.582281E-01  2.115577E+01  2.764309E+00 -1.450447E+00
      3415   8 -1.305219E+01 -7.452203E+00 -5.590901E-01  2.478020E+01  2.652290E+00 -1.696795E+00
      3416   1 -1.875116E-01 -2.820303E+01  2.258410E+00  1.059450E+01  5.838337E-01 -9.757637E-01
      3416   2 -9.956234E-01 -2.861957E+01  1.881847E+00  1.027042E+01 -2.063914E-01 -1.076740E+00
      3416   3 -3.705325E+00 -3.060632E+01  1.558310E-01  9.527992E+00  8.777608E-01 -9.030121E-01
      3416   4 -4.000163E+00 -3.082029E+01 -4.183369E-02  9.226133E+00  1.740859E-01 -9.468485E-01
      3416   5  2.692288E-01 -2.550376E+01  1.081616E+00  1.187852E+01  3.354273E-01 -8.329561E-01
      3416   6 -4.938494E-01 -2.581533E+01  7.501844E-01  1.147041E+01 -4.528587E-01 -8.637272E-01
      3416   7 -3.139934E+00 -2.765705E+01 -9.088013E-01  1.088423E+01  6.983723E-01 -7.924098E-01
      3416   8 -3.382962E+00 -2.775061E+01 -1.054170E+00  1.046753E+01  4.221766E-03 -7.750012E-01
      3417   1  7.759040E-01 -2.459915E+01  4.484906E+00  9.371845E+00  2.166869E+00 -5.131789E+00
      3417   2 -1.053243E+00 -2.880135E+01  2.656236E+00  1.039497E+01  9.421326E-01 -5.152547E+00
      3417   3 -2.699226E+00 -2.829161E+01  1.739153E+00  8.363997E+00  2.369722E+00 -4.050523E+00
      3417   4 -4.948771E+00 -3.395108E+01 -7.333801E-01  9.178231E+00  1.390586E+00 -3.770342E+00
      3417   5  2.828931E-01 -2.322592E+01  1.468303E+00  1.044513E+01  2.139061E+00 -3.870464E+00
      3417   6 -1.040337E+00 -2.625805E+01  1.559485E-01  1.143220E+01  9.150082E-01 -4.065674E+00
      3417   7 -2.673232E+00 -2.602878E+01 -4.370291E-01  9.482462E+00  2.363039E+00 -3.126794E+00
      3417   8 -4.208305E+00 -3.007504E+01 -2.141207E+00  1.024498E+01  1.387444E+00 -3.139354E+00
      3418   1  1.588279E+00 -2.058090E+01  3.224978E+00  7.914905E+00  4.370494E+00 -8.998385E+00
      3418   2 -1.057186E+00 -2.685944E+01  5.760422E-01  1.043167E+01  3.163676E+00 -9.974387E+00
      3418   3 -2.035750E+00 -2.663923E+01  1.062207E+00  6.828464E+00  4.614007E+00 -7.864183E+00
      3418   4 -5.654134E+00 -3.598071E+01 -2.667134E+00  9.228029E+00  3.444972E+00 -8.782627E+00
      3418   5  9.598245E-01 -1.958731E+01  1.365358E-01  8.878911E+00  4.365553E+00 -7.115183E+00
      3418   6 -9.444343E-01 -2.413603E+01 -1.771524E+00  1.126784E+01  3.161090E+00 -7.984316E+00
      3418   7 -2.013048E+00 -2.411759E+01 -1.383757E+00  7.772015E+00  4.670887E+00 -6.353639E+00
      3418   8 -4.516141E+00 -3.085487E+01 -3.999664E+00  9.993019E+00  3.515069E+00 -7.228097E+00
      3419   1  5.270659E-01 -1.680844E+01 -3.715412E+00  6.665103E+00  6.079562E+00 -9.252996E+00
      3419   2 -2.553813E-02 -1.707790E+01 -3.874338E+00  8.645547E+00  5.827021E+00 -1.114528E+01
      3419   3 -1.304391E+00 -2.093223E+01 -3.604676E+00  4.299834E+00  6.861389E+00 -9.964476E+00
      3419   4 -1.939129E+00 -2.289075E+01 -3.821369E+00  5.684847E+00  6.305298E+00 -1.281750E+01
      3419   5  7.157825E-01 -1.586659E+01 -4.028211E+00  7.650476E+00  5.892783E+00 -7.694290E+00
      3419   6  6.715234E-01 -1.491069E+01 -3.718008E+00  9.312508E+00  5.646441E+00 -8.518751E+00
      3419   7 -8.454517E-01 -1.851136E+01 -4.495745E+00  5.067248E+00  6.808754E+00 -7.938186E+00
      3419   8 -6.204173E-01 -1.821273E+01 -4.103677E+00  5.947785E+00  6.292347E+00 -9.211474E+00
      3420   1 -2.949482E+00 -1.720467E+01 -1.181784E+01  7.363692E+00  7.012510E+00 -4.569864E+00
      3420   2  6.653004E-01 -6.351818E+00 -7.459540E+00  6.665653E+00  8.505166E+00 -4.460305E+00
      3420   3 -6.477978E-01 -1.253393E+01 -9.417349E+00  1.530768E+00  7.899190E+00 -5.714029E+00
      3420   4  6.856041E+00  5.855668E+00 -1.499624E+00 -2.604976E+00  9.080790E+00 -6.546952E+00
      3420   5 -7.227069E-01 -1.512186E+01 -6.478065E+00  8.335969E+00  6.616553E+00 -5.715806E+00
      3420   6  2.232963E+00 -5.732841E+00 -2.852976E+00  7.058762E+00  8.120604E+00 -3.742857E+00
      3420   7  7.686169E-01 -1.107194E+01 -6.157963E+00  1.894706E+00  7.698524E+00 -4.839790E+00
      3420   8  7.039023E+00  5.055368E+00 -8.938487E-02 -3.429277E+00  8.974802E+00 -1.803069E+00
      3421   1 -4.499565E+00 -2.849313E+01  2.956582E-01  1.397071E+01  5.596945E-01 -6.076667E-01
      3421   2 -4.701003E+00 -2.917205E+01  2.083636E-02  1.366749E+01 -1.126064E-01 -8.071889E-01
      3421   3 -8.188910E+00 -3.235573E+01 -2.054839E+00  1.157205E+01  1.046628E+00 -3.460920E-01
      3421   4 -8.027382E+00 -3.290416E+01 -2.186085E+00  1.132232E+01  3.511020E-01 -5.444781E-01
      3421   5 -1.575091E+00 -1.995988E+01  1.510654E+00  1.490442E+01  4.916960E-01 -6.203679E-01
      3421   6 -1.882328E+00 -2.085573E+01  1.100099E+00  1.448364E+01 -1.676328E-01 -6.160231E-01
      3421   7 -5.151923E+00 -2.332269E+01 -9.645864E-01  1.256494E+01  1.081444E+00 -3.212292E-01
      3421   8 -5.126188E+00 -2.414557E+01 -1.274030E+00  1.217081E+01  4.042930E-01 -2.901408E-01
      3422   1 -3.748941E+00 -2.763433E+01  1.186015E+00  1.301843E+01  1.915582E+00 -3.429300E+00
      3422   2 -4.433561E+00 -2.994145E+01  2.162921E-01  1.341628E+01  1.099862E+00 -3.389147E+00
      3422   3 -7.492148E+00 -3.230024E+01 -1.900685E+00  1.071472E+01  2.173481E+00 -2.533593E+00
      3422   4 -8.371684E+00 -3.521598E+01 -3.143136E+00  1.100330E+01  1.469663E+00 -2.370905E+00
      3422   5 -1.407442E+00 -2.007955E+01  1.436230E+00  1.375222E+01  1.967544E+00 -2.547781E+00
      3422   6 -1.960321E+00 -2.209025E+01  6.092320E-01  1.412007E+01  1.154021E+00 -2.493818E+00
      3422   7 -4.745424E+00 -2.388573E+01 -1.159453E+00  1.149334E+01  2.242606E+00 -1.791639E+00
      3422   8 -5.444572E+00 -2.639636E+01 -2.205715E+00  1.174623E+01  1.541948E+00 -1.639209E+00
      3423   1 -2.321770E+00 -2.531658E+01  1.738623E+00  1.218362E+01  3.991447E+00 -7.247542E+00
      3423   2 -3.974598E+00 -3.025825E+01 -2.662753E-01  1.371601E+01  2.958340E+00 -7.307222E+00
      3423   3 -6.914309E+00 -3.254580E+01 -2.012310E+00  9.927111E+00  3.961251E+00 -5.452268E+00
      3423   4 -9.157778E+00 -3.902385E+01 -4.667627E+00  1.126806E+01  3.083191E+00 -5.332505E+00
      3423   5 -6.176489E-01 -1.881260E+01  9.150454E-01  1.282272E+01  4.117194E+00 -5.500160E+00
      3423   6 -1.864901E+00 -2.284068E+01 -6.515289E-01  1.431108E+01  3.087338E+00 -5.653166E+00
      3423   7 -4.426875E+00 -2.446624E+01 -1.800422E+00  1.059729E+01  4.112030E+00 -4.117954E+00
      3423   8 -6.117073E+00 -2.970126E+01 -3.854532E+00  1.188656E+01  3.238729E+00 -4.153139E+00
      3424   1 -2.559425E+00 -2.365422E+01 -3.007260E+00  1.171409E+01  6.309443E+00 -1.050596E+01
      3424   2 -3.989811E+00 -2.792086E+01 -4.411505E+00  1.380444E+01  5.529005E+00 -1.159333E+01
      3424   3 -6.503421E+00 -3.177196E+01 -4.310956E+00  9.013376E+00  6.577960E+00 -9.426530E+00
      3424   4 -8.328915E+00 -3.771197E+01 -6.185545E+00  1.083236E+01  5.761089E+00 -1.062837E+01
      3424   5 -9.150238E-01 -1.789316E+01 -3.286979E+00  1.230010E+01  6.369446E+00 -8.113203E+00
      3424   6 -1.937640E+00 -2.117535E+01 -4.316441E+00  1.423138E+01  5.605932E+00 -9.036940E+00
      3424   7 -4.144212E+00 -2.409254E+01 -4.126342E+00  9.524379E+00  6.766461E+00 -7.357695E+00
      3424   8 -5.381887E+00 -2.861174E+01 -5.462353E+00  1.114425E+01  5.974851E+00 -8.388769E+00
      3425   1 -4.790867E+00 -2.318527E+01 -1.202494E+01  1.233130E+01  7.502724E+00 -1.069903E+01
      3425   2 -2.103597E+00 -1.682808E+01 -9.103360E+00  1.248645E+01  8.023134E+00 -1.141236E+01
      3425   3 -5.182747E+00 -2.352887E+01 -1.068536E+01  6.761396E+00  9.694833E+00 -1.208730E+01
      3425   4 -1.823819E+00 -1.630787E+01 -7.193520E+00  6.346419E+00  1.003701E+01 -1.313649E+01
      3425   5 -2.167809E+00 -1.788896E+01 -8.577725E+00  1.286989E+01  7.396111E+00 -8.624512E+00
      3425   6 -9.272321E-02 -1.284157E+01 -6.386954E+00  1.288435E+01  7.932839E+00 -8.824392E+00
      3425   7 -2.975405E+00 -1.831378E+01 -8.542649E+00  7.178226E+00  9.710481E+00 -9.400816E+00
      3425   8 -3.098706E-01 -1.252962E+01 -5.925272E+00  6.579945E+00  1.007756E+01 -9.776474E+00
      3426   1 -5.736779E+00 -2.301082E+01  1.308001E+00  1.517339E+01  5.162880E-01 -1.185642E+00
      3426   2 -5.843074E+00 -2.447991E+01  6.894669E-01  1.497248E+01 -1.610447E-01 -9.900388E-01
      3426   3 -1.051268E+01 -2.838129E+01 -2.903783E+00  1.213877E+01  8.369563E-01 -6.121732E-01
      3426   4 -1.061401E+01 -3.015019E+01 -3.601203E+00  1.177114E+01  2.704272E-01 -3.391984E-01
      3426   5 -2.592244E+00 -1.359068E+01  2.369644E+00  1.600476E+01  6.519581E-01 -7.751491E-01
      3426   6 -2.572594E+00 -1.479992E+01  1.911077E+00  1.571952E+01 -1.586317E-02 -6.407804E-01
      3426   7 -6.778015E+00 -1.785649E+01 -9.797068E-01  1.303504E+01  1.048753E+00 -2.841602E-01
      3426   8 -6.723163E+00 -1.929276E+01 -1.489155E+00  1.257201E+01  4.911119E-01 -9.450806E-02
      3427   1 -5.674592E+00 -2.468258E+01  3.423290E-01  1.468587E+01  1.451089E+00 -2.508407E+00
      3427   2 -5.830388E+00 -2.594365E+01 -2.250706E-01  1.499443E+01  8.158673E-01 -2.290543E+00
      3427   3 -1.054411E+01 -3.064549E+01 -4.107345E+00  1.142371E+01  1.659582E+00 -1.743133E+00
      3427   4 -1.085901E+01 -3.224349E+01 -4.813317E+00  1.159996E+01  1.139619E+00 -1.451662E+00
      3427   5 -2.304863E+00 -1.494823E+01  1.840414E+00  1.540517E+01  1.543853E+00 -1.884274E+00
      3427   6 -2.408723E+00 -1.612346E+01  1.360290E+00  1.569648E+01  9.091079E-01 -1.735910E+00
      3427   7 -6.519083E+00 -1.968004E+01 -1.656053E+00  1.220428E+01  1.756360E+00 -1.215501E+00
      3427   8 -6.760114E+00 -2.113847E+01 -2.255353E+00  1.236354E+01  1.236838E+00 -1.015550E+00
      3428   1 -5.012606E+00 -2.486811E+01  3.294498E-01  1.472619E+01  2.872854E+00 -4.592585E+00
      3428   2 -5.785694E+00 -2.785261E+01 -9.427005E-01  1.576221E+01  2.128091E+00 -4.296749E+00
      3428   3 -1.067269E+01 -3.249312E+01 -4.938964E+00  1.135272E+01  2.758027E+00 -2.855273E+00
      3428   4 -1.182682E+01 -3.621047E+01 -6.533993E+00  1.214046E+01  2.165682E+00 -2.483391E+00
      3428   5 -1.800865E+00 -1.537289E+01  1.540030E+00  1.540209E+01  3.032022E+00 -3.671847E+00
      3428   6 -2.306425E+00 -1.777869E+01  5.809389E-01  1.643791E+01  2.284702E+00 -3.500199E+00
      3428   7 -6.572657E+00 -2.132841E+01 -2.436889E+00  1.209969E+01  2.894550E+00 -2.302791E+00
      3428   8 -7.395974E+00 -2.431585E+01 -3.659121E+00  1.289110E+01  2.299847E+00 -2.080506E+00
      3429   1 -4.700466E+00 -2.548070E+01 -1.026813E+00  1.538060E+01  5.161994E+00 -8.006867E+00
      3429   2 -6.200671E+00 -3.048985E+01 -2.967575E+00  1.750366E+01  4.285275E+00 -8.031168E+00
      3429   3 -1.106762E+01 -3.550196E+01 -5.831590E+00  1.186509E+01  4.491648E+00 -5.220575E+00
      3429   4 -1.320601E+01 -4.172506E+01 -8.328998E+00  1.358933E+01  3.730776E+00 -5.232548E+00
      3429   5 -1.565747E+00 -1.603325E+01 -2.520685E-02  1.603882E+01  5.370114E+00 -6.509964E+00
      3429   6 -2.569696E+00 -1.991617E+01 -1.438006E+00  1.817721E+01  4.488181E+00 -6.635764E+00
      3429   7 -6.805841E+00 -2.371892E+01 -3.408716E+00  1.261333E+01  4.651394E+00 -4.402861E+00
      3429   8 -8.334254E+00 -2.854779E+01 -5.267085E+00  1.435969E+01  3.885744E+00 -4.530056E+00
      3430   1 -6.935969E+00 -2.737273E+01 -9.553055E+00  1.696665E+01  8.359754E+00 -1.257665E+01
      3430   2 -7.917229E+00 -3.078296E+01 -1.025885E+01  2.006292E+01  7.980105E+00 -1.402149E+01
      3430   3 -1.102441E+01 -3.621532E+01 -7.497868E+00  1.286051E+01  7.650254E+00 -1.098853E+01
      3430   4 -1.240205E+01 -4.059592E+01 -8.667891E+00  1.568220E+01  7.013864E+00 -1.268096E+01
      3430   5 -3.277922E+00 -1.813569E+01 -6.596606E+00  1.773110E+01  8.383063E+00 -9.958507E+00
      3430   6 -4.158440E+00 -2.122830E+01 -7.284211E+00  2.079714E+01  8.006479E+00 -1.113896E+01
      3430   7 -6.974428E+00 -2.526281E+01 -4.950439E+00  1.368110E+01  7.703302E+00 -8.627029E+00
      3430   8 -8.162130E+00 -2.912498E+01 -6.005760E+00  1.646972E+01  7.069706E+00 -1.000442E+01
      3431   1 -5.424054E+00 -1.345386E+01  2.025486E+00  1.419662E+01  4.413316E-01 -2.182740E+00
      3431   2 -5.333064E+00 -1.455837E+01  1.533874E+00  1.362823E+01  1.403167E-02 -1.527586E+00
      3431   3 -8.575093E+00 -1.795737E+01 -3.014293E+00  1.201283E+01  1.115024E-01 -2.104743E+00
      3431   4 -9.004411E+00 -1.945691E+01 -3.647178E+00  1.120159E+01 -4.596705E-02 -1.330323E+00
      3431   5 -3.443660E+00 -7.317205E+00  2.490140E+00  1.430134E+01  7.160882E-01 -9.551753E-01
      3431   6 -3.225116E+00 -8.193191E+00  2.195187E+00  1.384778E+01  2.765913E-01 -6.423497E-01
      3431   7 -5.539847E+00 -1.037019E+01 -4.839846E-01  1.212990E+01  2.078518E-01 -8.402200E-01
      3431   8 -5.852343E+00 -1.161713E+01 -9.800677E-01  1.145125E+01  4.685597E-02 -4.477955E-01
      3432   1 -5.291761E+00 -1.503162E+01  1.067735E+00  1.345723E+01  1.099000E+00 -2.694529E+00
      3432   2 -5.273601E+00 -1.568652E+01  7.325443E-01  1.371543E+01  6.823348E-01 -2.206524E+00
      3432   3 -9.120326E+00 -2.004704E+01 -3.877230E+00  1.090678E+01  5.282556E-01 -2.427547E+00
      3432   4 -9.379790E+00 -2.099317E+01 -4.280331E+00  1.096849E+01  3.548462E-01 -1.850636E+00
      3432   5 -3.025089E+00 -8.480042E+00  2.071730E+00  1.373766E+01  1.232635E+00 -1.666470E+00
      3432   6 -2.913513E+00 -8.966431E+00  1.879415E+00  1.403535E+01  8.113932E-01 -1.419017E+00
      3432   7 -5.919349E+00 -1.210165E+01 -1.152700E+00  1.122158E+01  5.891279E-01 -1.453338E+00
      3432   8 -6.085302E+00 -1.284380E+01 -1.448079E+00  1.133036E+01  4.144033E-01 -1.144113E+00
      3433   1 -5.231720E+00 -1.610794E+01  4.470606E-01  1.395269E+01  1.883514E+00 -2.984038E+00
      3433   2 -5.439715E+00 -1.746490E+01 -1.495417E-01  1.471173E+01  1.430381E+00 -2.546442E+00
      3433   3 -9.634512E+00 -2.184745E+01 -4.777708E+00  1.110370E+01  1.068096E+00 -2.129702E+00
      3433   4 -1.010200E+01 -2.359313E+01 -5.477991E+00  1.160018E+01  9.082222E-01 -1.615491E+00
      3433   5 -2.785128E+00 -9.208744E+00  1.703174E+00  1.428897E+01  2.045923E+00 -2.310084E+00
      3433   6 -2.808062E+00 -1.018039E+01  1.338132E+00  1.506393E+01  1.590140E+00 -2.103039E+00
      3433   7 -6.176264E+00 -1.338593E+01 -1.711729E+00  1.148427E+01  1.185013E+00 -1.678170E+00
      3433   8 -6.443187E+00 -1.467692E+01 -2.198157E+00  1.200137E+01  1.024382E+00 -1.417390E+00
      3434   1 -5.103565E+00 -1.783057E+01  3.865434E-01  1.533856E+01  3.016392E+00 -4.122366E+00
      3434   2 -5.978869E+00 -2.079083E+01 -9.056855E-01  1.696475E+01  2.430156E+00 -3.601941E+00
      3434   3 -1.052486E+01 -2.512539E+01 -6.037939E+00  1.215550E+01  1.531870E+00 -2.089780E+00
      3434   4 -1.173312E+01 -2.866534E+01 -7.502675E+00  1.339851E+01  1.409471E+00 -1.481743E+00
      3434   5 -2.495482E+00 -1.042341E+01  1.672988E+00  1.569899E+01  3.190250E+00 -3.617650E+00
      3434   6 -3.052686E+00 -1.270049E+01  7.579205E-01  1.733772E+01  2.601597E+00 -3.399680E+00
      3434   7 -6.570259E+00 -1.566512E+01 -2.316202E+00  1.256855E+01  1.661177E+00 -2.069297E+00
      3434   8 -7.431081E+00 -1.841119E+01 -3.416702E+00  1.382845E+01  1.538091E+00 -1.792072E+00
      3435   1 -5.589738E+00 -2.118655E+01  2.614800E-02  1.857977E+01  5.094418E+00 -7.635573E+00
      3435   2 -8.043031E+00 -2.742616E+01 -2.661115E+00  2.269978E+01  4.328192E+00 -7.279662E+00
      3435   3 -1.188852E+01 -3.072215E+01 -6.288518E+00  1.506266E+01  1.489197E+00 -2.974835E+00
      3435   4 -1.514989E+01 -3.824735E+01 -9.546986E+00  1.837943E+01  1.237772E+00 -2.638653E+00
      3435   5 -2.748820E+00 -1.318385E+01  1.493172E+00  1.899117E+01  5.174374E+00 -6.217506E+00
      3435   6 -4.519063E+00 -1.787743E+01 -4.632830E-01  2.316204E+01  4.402834E+00 -6.128332E+00
      3435   7 -7.515832E+00 -2.008635E+01 -2.348684E+00  1.554678E+01  1.464452E+00 -2.743734E+00
      3435   8 -9.993529E+00 -2.579653E+01 -4.809953E+00  1.892430E+01  1.211521E+00 -2.673818E+00
      3436   1  3.605423E-01  1.424434E+00  1.004879E+00  2.246452E-01  1.599564E-02 -4.704823E-01
      3436   2 -1.654267E-01  3.919311E-01  2.841514E-01  1.795721E-01  1.223156E-01 -3.131900E-01
      3436   3 -3.505232E-01  6.742974E-01  6.178415E-01 -3.284121E-01  4.203980E-03 -5.692563E-01
      3436   4 -5.433625E-01  3.667396E-01  2.826016E-01 -4.175286E-01  9.821987E-02 -2.470415E-01
      3436   5  2.970588E-01  5.897742E-01  7.373406E-01  2.343653E-01 -7.959449E-02 -4.068174E-01
      3436   6  4.065402E-02  1.843110E-01  2.881211E-01  1.773878E-01  2.626873E-02 -2.091084E-01
      3436   7 -7.936683E-01 -9.441322E-01  1.608698E-02 -4.264055E-01 -8.759065E-02 -5.173214E-01
      3436   8 -4.644677E-01 -5.065175E-02  2.199417E-01 -5.500184E-01  2.417351E-03 -8.067870E-02
      3437   1  2.008235E-02  2.017248E-01  8.820948E-02 -1.468162E-01  2.101236E-01 -1.531176E-01
      3437   2 -2.996557E-01 -3.302631E-01 -4.455961E-01 -2.390608E-01  2.885314E-01  1.401565E-01
      3437   3 -2.136373E-01  4.258267E-01  2.275016E-01 -7.441281E-01  2.369683E-01 -3.393112E-02
      3437   4 -5.860357E-01 -2.245708E-01 -3.634288E-01 -7.482978E-01  3.552948E-01  2.660968E-01
      3437   5  2.262249E-01  1.654059E-01  1.444340E-01 -5.448736E-02  1.038687E-01 -3.658185E-02
      3437   6 -5.287145E-02 -2.715857E-01 -3.488957E-01 -7.020116E-02  1.837583E-01  2.433616E-01
      3437   7  1.217395E-01  5.103237E-01  3.997761E-01 -8.490088E-01  1.127776E-01  1.760807E-01
      3437   8 -2.123522E-01 -4.923746E-02 -1.543021E-01 -7.063864E-01  2.441069E-01  4.601593E-01
      3438   1  3.055725E-02 -5.865097E-01 -5.738731E-01 -1.674618E-01  2.075712E-01  3.112921E-01
      3438   2 -2.831626E-01 -1.216372E+00 -9.897431E-01 -7.011830E-01  1.770597E-01  4.640427E-01
      3438   3 -6.265301E-01 -8.033915E-01 -7.413213E-01 -3.809947E-01  2.755200E-01  4.002321E-01
      3438   4 -1.106542E+00 -1.738244E+00 -1.406509E+00 -7.264896E-01  3.276213E-01  4.355981E-01
      3438   5 -3.552833E-02 -6.213242E-01 -6.006264E-01 -8.740725E-02  1.571477E-01  3.770106E-01
      3438   6 -3.912026E-01 -1.345999E+00 -1.061533E+00 -4.791552E-01  1.297026E-01  4.521914E-01
      3438   7 -3.604538E-01 -6.791482E-01 -5.933644E-01 -3.424728E-01  1.974812E-01  5.296393E-01
      3438   8 -9.553020E-01 -1.854907E+00 -1.400433E+00 -3.966203E-01  2.764926E-01  4.083661E-01
      3439   1  2.515223E-01 -8.243060E-01 -7.037292E-01 -6.120114E-02  1.371760E-02  4.158897E-01
      3439   2  5.980629E-01 -1.346501E-01 -2.382497E-01  4.459184E-01 -4.239088E-02  1.603540E-01
      3439   3  1.348955E+00 -2.449392E-01 -1.853358E-01  7.188468E-01  9.520755E-02  4.206590E-01
      3439   4  2.087006E+00  1.215226E+00  8.146694E-01  1.419073E+00  1.051239E-01  4.002363E-01
      3439   5 -3.779836E-02 -1.072416E+00 -8.643885E-01 -1.553123E-01  7.412656E-02  4.323166E-01
      3439   6  4.259045E-01 -1.146903E-01 -2.764383E-01  4.607035E-01  2.046885E-02  3.084954E-01
      3439   7  1.119050E+00 -4.713873E-01 -3.172403E-01  9.007235E-01  2.268340E-01  4.496987E-01
      3439   8  2.166194E+00  1.663410E+00  1.038443E+00  1.824211E+00  2.582572E-01  7.035817E-01
      3440   1 -4.901256E-01 -3.834692E-03 -3.820359E-01  1.614589E-01 -1.367669E-01 -5.973287E-02
      3440   2  3.736185E-01  1.829087E+00  6.641897E-01 -3.063556E-01 -3.773810E-02 -3.333033E-01
      3440   3 -1.230451E+00  2.759930E-01 -2.986797E-01  9.576469E-01 -1.012683E-01  1.404274E-01
      3440   4 -1.006912E+00  7.155984E-01  6.844949E-03 -7.491027E-02 -2.150945E-01 -4.385701E-01
      3440   5 -1.989734E-01 -2.693142E-02 -2.933973E-01  1.469289E-01 -4.448790E-02  1.128154E-01
      3440   6  1.799095E-01  6.783775E-01  2.642368E-01 -6.813977E-01  4.664004E-02 -2.463871E-01
      3440   7 -1.324099E+00  9.270881E-02 -3.096069E-01  1.036634E+00 -1.254738E-02  4.507542E-01
      3440   8 -2.057427E+00 -1.667642E+00 -9.936851E-01 -7.309655E-01 -1.957083E-01 -3.527209E-01
      3441   1  5.204807E-01  3.297389E+00  1.446640E+00  7.740396E-01  3.051492E-02 -9.251409E-01
      3441   2 -7.716714E-01  2.411141E-01  1.957405E-01  8.224588E-01  1.163791E-01 -4.655551E-01
      3441   3  8.632642E-01  4.629140E+00  1.478405E+00 -1.191652E+00 -6.651455E-01 -1.127116E+00
      3441   4 -1.845063E-01  1.699551E+00  9.154261E-01 -1.212224E+00 -6.596588E-01 -3.988525E-01
      3441   5  5.702136E-01  3.032726E+00  1.341991E+00  4.613919E-01 -4.894294E-02 -1.041248E+00
      3441   6 -5.866717E-01  2.542130E-01  2.642186E-01  4.626569E-01  3.006026E-02 -4.304375E-01
      3441   7  6.946113E-01  4.233201E+00  1.260004E+00 -1.551157E+00 -6.195849E-01 -1.316492E+00
      3441   8 -1.941202E-01  1.628498E+00  9.022694E-01 -1.633675E+00 -6.224715E-01 -3.960388E-01
      3442   1 -1.435952E+00 -9.229472E-01 -3.766936E-01  7.623424E-01  2.904244E-01 -1.343899E-01
      3442   2 -1.348449E+00 -6.272251E-01 -3.807371E-01  2.828154E-01  3.627194E-01  3.869459E-01
      3442   3 -3.194904E+00 -1.344383E+00 -5.838201E-01 -8.808684E-02 -4.000047E-01 -1.386412E-02
      3442   4 -3.150457E+00 -1.422193E+00 -3.578542E-01 -6.404899E-01 -3.483135E-01  4.662082E-01
      3442   5 -1.068208E+00 -7.900992E-01 -1.883611E-01  2.799856E-01  1.439535E-01 -5.162361E-03
      3442   6 -1.116523E+00 -8.345959E-01 -3.049143E-01 -2.034486E-01  2.144897E-01  5.846894E-01
      3442   7 -2.818220E+00 -1.113168E+00 -3.548857E-01 -8.192644E-01 -4.769135E-01  1.185574E-01
      3442   8 -2.956897E+00 -1.646713E+00 -2.835971E-01 -1.379210E+00 -4.273687E-01  6.882487E-01
      3443   1 -2.216288E+00 -9.749559E-01 -8.297283E-01  2.697247E-01  2.957233E-01  7.415040E-01
      3443   2 -2.156014E+00 -7.486592E-01 -8.551123E-01 -1.056875E+00  3.775762E-01  1.161863E+00
      3443   3 -7.435601E+00 -3.515234E+00 -2.156194E+00 -3.621888E-01 -1.551909E-01  7.749450E-01
      3443   4 -7.460974E+00 -3.634843E+00 -2.121163E+00 -1.478562E+00  3.542048E-01  1.135678E+00
      3443   5 -1.742823E+00 -1.249968E+00 -6.847121E-01 -2.709580E-01  1.522474E-01  9.752374E-01
      3443   6 -1.824308E+00 -1.366909E+00 -8.393869E-01 -1.298192E+00  2.705952E-01  1.423667E+00
      3443   7 -5.997473E+00 -3.447683E+00 -1.600169E+00 -1.128719E+00 -2.687553E-01  1.047743E+00
      3443   8 -6.206153E+00 -4.010224E+00 -1.733228E+00 -1.868182E+00  2.851790E-01  1.446596E+00
      3444   1  5.761544E-02 -5.721072E-01 -1.371256E-01 -8.771749E-01 -4.322567E-02  1.177697E+00
      3444   2 -1.515431E+00 -4.330166E+00 -1.622554E+00 -2.608902E+00 -1.873104E-01  8.875889E-01
      3444   3 -6.557739E+00 -4.641753E+00 -2.474146E+00 -1.995246E+00 -3.409061E-02  9.389030E-01
      3444   4 -9.019261E+00 -9.648440E+00 -5.672531E+00 -3.503113E+00  2.929866E-01  1.923534E-01
      3444   5 -2.443884E-01 -1.751196E+00 -5.073199E-01 -1.187284E+00 -3.547999E-02  1.354132E+00
      3444   6 -2.028128E+00 -5.930494E+00 -2.273819E+00 -2.603384E+00 -1.393465E-01  7.837825E-01
      3444   7 -5.822692E+00 -5.571851E+00 -2.442187E+00 -2.341341E+00 -2.990267E-01  1.114663E+00
      3444   8 -8.537426E+00 -1.108348E+01 -5.979675E+00 -3.447139E+00  7.713338E-02  1.104277E-02
      3445   1 -3.721775E-01 -2.374617E+00 -7.462280E-01 -1.261419E+00 -4.280718E-01  4.128507E-01
      3445   2  2.261132E+00  3.969435E+00  1.687417E+00  1.346974E+00 -1.662064E-02 -3.720157E-01
      3445   3  7.952076E+00  8.296513E-01  1.796712E+00  2.505532E+00 -1.449936E-02 -8.063592E-01
      3445   4  9.968758E+00  6.407318E+00  2.941318E+00  5.849714E+00  1.001618E+00 -2.264355E+00
      3445   5 -1.252999E+00 -4.746684E+00 -1.800251E+00 -1.263599E+00 -4.045244E-01  9.889551E-02
      3445   6  9.080831E-01  5.529016E-01  1.037695E-01  1.747655E+00  5.854092E-02 -9.418174E-01
      3445   7  8.068250E+00 -1.591487E+00  1.009839E+00  2.455796E+00 -1.888179E-01 -1.236326E+00
      3445   8  9.505168E+00  2.703445E+00  1.504633E+00  6.308494E+00  8.902898E-01 -3.016928E+00
      3446   1 -2.200950E+00 -3.173967E+00 -5.802200E-01  5.310395E+00  3.320141E-02 -9.609006E-01
      3446   2 -1.481567E+00 -1.920673E+00  5.644311E-01  5.245854E+00 -5.745097E-03 -4.894002E-01
      3446   3 -8.384100E-01 -2.013612E+00  3.672249E+00  5.677313E+00  1.339976E-01 -1.039386E+00
      3446   4 -3.594339E-01 -9.622152E-01  4.217439E+00  5.599249E+00  7.662570E-02 -6.487328E-01
      3446   5 -2.682402E+00 -4.270867E+00 -8.861101E-01  5.804376E+00  2.065521E-01 -4.538664E-01
      3446   6 -1.940683E+00 -2.948240E+00  2.636597E-01  5.729632E+00  1.667221E-01 -4.712277E-02
      3446   7 -1.487392E+00 -3.272662E+00  3.149415E+00  6.215199E+00  1.673307E-01 -4.512184E-01
      3446   8 -9.729355E-01 -2.133386E+00  3.724993E+00  6.124774E+00  1.096974E-01 -1.390115E-01
      3447   1 -6.137521E+00 -3.696819E+00 -1.053278E+00  7.418339E+00  4.231134E-01 -2.464856E-01
      3447   2 -3.993784E+00  1.074977E+00  1.320717E+00  6.377270E+00  3.554783E-01  2.524449E-01
      3447   3 -1.184786E+01 -6.835081E+00 -8.786987E-01  1.012085E+01  1.034619E+00 -5.130182E-01
      3447   4 -9.383405E+00 -1.254380E+00  1.755436E+00  8.870550E+00  8.020859E-01  1.648332E-01
      3447   5 -6.245129E+00 -4.279738E+00 -1.124777E+00  7.570509E+00  4.963397E-01  1.950387E-01
      3447   6 -3.996717E+00  7.392044E-01  1.350988E+00  6.460554E+00  4.207977E-01  6.937074E-01
      3447   7 -1.274277E+01 -7.922157E+00 -1.433171E+00  1.051615E+01  1.098185E+00 -4.172782E-02
      3447   8 -1.014122E+01 -2.020692E+00  1.337207E+00  9.177308E+00  8.633129E-01  6.301940E-01
      3448   1 -1.040693E+01  1.008781E+00 -4.081418E-01  6.319222E+00  7.236745E-01  6.535312E-01
      3448   2 -8.163307E+00  6.022436E+00  2.056941E+00  4.183517E+00  1.209635E+00  1.297396E+00
      3448   3 -2.324081E+01 -4.020921E+00 -2.937615E+00  8.961232E+00  1.624213E+00  6.516905E-01
      3448   4 -2.045974E+01  2.019785E+00  2.919074E-01  6.392355E+00  1.859063E+00  1.483459E+00
      3448   5 -8.613278E+00  1.575660E+00  4.356971E-01  6.171311E+00  7.516315E-01  1.117576E+00
      3448   6 -6.327104E+00  6.677719E+00  2.954217E+00  3.974597E+00  1.225551E+00  1.817374E+00
      3448   7 -2.247442E+01 -3.950546E+00 -2.646455E+00  8.952425E+00  1.784295E+00  1.131325E+00
      3448   8 -1.963744E+01  2.217386E+00  6.421917E-01  6.293859E+00  2.015584E+00  2.030099E+00
      3449   1 -1.128372E+01  7.073292E+00  1.510182E+00  1.199898E+00  9.322082E-01  1.809622E+00
      3449   2 -9.962174E+00  1.022262E+01  2.766007E+00 -4.057620E+00  1.240408E+00  2.689353E+00
      3449   3 -4.223681E+01 -4.177264E+00 -6.914689E+00  1.772752E+00  2.610148E+00  2.490487E+00
      3449   4 -3.890124E+01  1.562472E+00 -1.535863E+00 -4.199508E+00  3.680324E+00  4.350212E+00
      3449   5 -8.867977E+00  8.235488E+00  2.786691E+00  1.016105E+00  8.173030E-01  2.513840E+00
      3449   6 -7.124620E+00  1.226792E+01  4.565454E+00 -3.848702E+00  1.162040E+00  3.871544E+00
      3449   7 -3.855645E+01 -2.358507E+00 -5.204876E+00  2.113852E+00  3.390006E+00  3.314484E+00
      3449   8 -3.477373E+01  4.394667E+00  6.510093E-01 -3.422173E+00  4.470990E+00  5.729298E+00
      3450   1 -1.756735E-01  1.520653E+01  7.183882E+00 -5.952421E+00 -4.139815E-02  2.563153E+00
      3450   2 -4.169242E+00  5.850323E+00  3.228191E+00 -1.815633E+01 -8.834492E-01  2.050990E+00
      3450   3 -7.233737E+01 -1.538708E+01 -1.455003E+01 -1.599471E+01  2.295087E+00  4.828440E+00
      3450   4 -7.501112E+01 -2.399910E+01 -1.485049E+01 -3.024685E+01  1.269911E+00  5.194348E+00
      3450   5  1.705948E+00  1.683497E+01  8.672896E+00 -6.295656E+00 -5.865867E-02  4.125563E+00
      3450   6 -2.007070E+00  8.021395E+00  5.109738E+00 -1.854594E+01 -9.094905E-01  4.140799E+00
      3450   7 -7.344565E+01 -1.499360E+01 -1.463552E+01 -1.641551E+01  3.225174E+00  6.669376E+00
      3450   8 -7.586950E+01 -2.305565E+01 -1.465296E+01 -3.079275E+01  2.197401E+00  7.652548E+00
      3451   1  1.451857E-01  1.839405E+00  8.646760E-01  1.858495E-01  4.570897E-03 -5.757023E-01
      3451   2 -3.884264E-01  6.240109E-01  3.013631E-01  7.307747E-02  6.072586E-02 -3.642076E-01
      3451   3 -1.199588E-01  2.074193E+00  7.277582E-01 -4.657781E-01 -1.824539E-01 -6.589845E-01
      3451   4 -5.912869E-01  8.770811E-01  3.537762E-01 -6.279983E-01 -1.511662E-01 -3.383732E-01
      3451   5  2.101327E-01  1.618926E+00  8.139052E-01  9.384968E-02 -1.571148E-02 -6.447597E-01
      3451   6 -2.697089E-01  5.249095E-01  3.084494E-01 -5.119895E-02  3.964359E-02 -3.385458E-01
      3451   7 -1.354999E-01  1.796874E+00  6.108073E-01 -7.221634E-01 -1.924794E-01 -7.907395E-01
      3451   8 -5.217921E-01  7.692606E-01  3.507804E-01 -9.406388E-01 -1.668522E-01 -3.119239E-01
      3452   1 -2.204934E-01  2.677788E-01  2.012446E-01 -3.280175E-01  1.512152E-01 -1.904858E-01
      3452   2 -6.021101E-01 -5.606715E-01 -2.423605E-01 -5.316588E-01  2.116182E-01  1.039956E-01
      3452   3 -6.449028E-01  2.864681E-01  2.263336E-01 -9.543591E-01  3.463596E-03 -1.244690E-01
      3452   4 -1.095155E+00 -8.051134E-01 -1.829269E-01 -1.142872E+00  8.343251E-02  2.140052E-01
      3452   5 -8.176422E-02  1.730218E-01  2.191585E-01 -4.635549E-01  1.126726E-01 -9.915155E-02
      3452   6 -5.300730E-01 -8.143561E-01 -2.878262E-01 -6.319622E-01  1.737050E-01  2.686235E-01
      3452   7 -4.150220E-01  2.445687E-01  3.161445E-01 -1.333218E+00 -4.288307E-02  9.051625E-03
      3452   8 -9.812231E-01 -1.141000E+00 -1.856236E-01 -1.466941E+00  4.153948E-02  4.620312E-01
      3453   1 -1.276605E-01 -1.014218E+00 -3.055498E-01 -1.984260E-01  1.401316E-01  2.629724E-01
      3453   2 -5.563324E-01 -1.930464E+00 -8.182096E-01 -7.692380E-01  1.654397E-01  3.803428E-01
      3453   3 -1.334143E+00 -1.786408E+00 -5.704686E-01 -6.061959E-01  6.094039E-02  3.711820E-01
      3453   4 -1.906484E+00 -3.035785E+00 -1.228896E+00 -1.117602E+00  1.444332E-01  4.441309E-01
      3453   5 -1.905891E-01 -1.409380E+00 -4.324045E-01 -4.386228E-01  9.217005E-02  4.526869E-01
      3453   6 -7.325245E-01 -2.589840E+00 -1.058395E+00 -9.184216E-01  1.193498E-01  5.629049E-01
      3453   7 -1.209296E+00 -2.297567E+00 -6.115459E-01 -1.029115E+00 -2.342518E-02  6.583039E-01
      3453   8 -1.968022E+00 -3.981363E+00 -1.456836E+00 -1.390033E+00  7.331198E-02  7.128600E-01
      3454   1  1.595821E-01 -1.200325E+00 -4.287715E-01  3.101663E-01 -2.958983E-02  3.432435E-01
      3454   2  7.773817E-01  2.504839E-01  1.797521E-01  7.223227E-01  1.520899E-02  1.727516E-01
      3454   3  6.644987E-01 -1.493261E+00 -1.243516E-01  7.018003E-01 -3.571266E-02  3.294820E-01
      3454   4  1.164240E+00 -1.411138E-01  1.893055E-01  1.353027E+00  1.502182E-01  4.235928E-03
      3454   5 -1.218788E-01 -2.093673E+00 -7.734679E-01  2.567593E-02 -3.652385E-02  4.769505E-01
      3454   6  4.164326E-01 -8.226502E-01 -2.501199E-01  6.537156E-01  1.281471E-02  1.720906E-01
      3454   7  4.348214E-01 -2.774335E+00 -5.227589E-01  3.714236E-01 -1.176570E-01  5.072637E-01
      3454   8  8.005774E-01 -1.694574E+00 -3.833331E-01  1.372380E+00  1.003991E-01 -4.206814E-02
      3455   1 -2.792971E-01  8.569319E-01  2.030432E-02  4.416657E-01 -6.736508E-02 -2.276091E-02
      3455   2  6.892964E-01  3.158941E+00  9.469405E-01 -1.761426E-01 -6.047596E-02 -3.198705E-01
      3455   3 -1.848336E+00 -3.015057E-01 -9.783022E-01  1.238962E+00  1.142086E-01 -3.332342E-01
      3455   4 -1.078466E+00  1.762120E+00 -4.756956E-01  6.181714E-01  1.400889E-01 -8.555275E-01
      3455   5 -8.118723E-01 -5.099000E-01 -5.553195E-01  3.778604E-01 -8.261386E-02 -1.395663E-01
      3455   6 -6.011835E-03  1.419646E+00  2.013363E-01 -2.095458E-01 -7.511385E-02 -6.099556E-01
      3455   7 -2.518656E+00 -2.311750E+00 -1.823527E+00  1.285661E+00  5.021982E-02 -5.751027E-01
      3455   8 -2.019641E+00 -8.288334E-01 -1.643060E+00  7.172394E-01  8.042303E-02 -1.389564E+00
      3456   1  3.219931E-01  3.535650E+00  1.187290E+00  9.263354E-01 -1.403330E-01 -7.948025E-01
      3456   2 -8.817911E-01  4.883431E-01  2.219831E-01  9.378353E-01 -9.131314E-02 -5.835043E-01
      3456   3  1.014202E+00  5.261222E+00  1.963589E+00 -4.653421E-01 -5.686545E-01 -6.537807E-01
      3456   4 -2.434963E-01  1.769014E+00  1.263469E+00 -4.416405E-01 -4.975239E-01 -4.815420E-01
      3456   5  4.778356E-01  3.646012E+00  1.271599E+00  8.200873E-01 -9.219144E-02 -8.017397E-01
      3456   6 -8.212403E-01  3.485153E-01  2.388427E-01  8.499122E-01 -4.124238E-02 -4.876870E-01
      3456   7  1.291657E+00  5.568379E+00  2.144390E+00 -7.237225E-01 -4.259762E-01 -6.935031E-01
      3456   8 -9.583032E-02  1.739414E+00  1.348396E+00 -6.778221E-01 -3.524957E-01 -3.923963E-01
      3457   1 -1.846107E+00 -8.615221E-01 -2.819986E-01  9.788308E-01  1.456949E-01 -4.037135E-01
      3457   2 -1.583896E+00 -4.110907E-01  1.416081E-01  4.434360E-01  2.038874E-01  5.858286E-03
      3457   3 -3.729027E+00 -1.561102E+00 -3.274210E-01  8.270904E-01 -5.734858E-02 -3.433660E-01
      3457   4 -3.342920E+00 -1.056314E+00  4.548124E-01  2.584941E-01  4.073803E-02  1.099082E-01
      3457   5 -1.584408E+00 -9.710945E-01 -1.727237E-01  8.398983E-01  1.533185E-01 -2.309133E-01
      3457   6 -1.336635E+00 -5.748337E-01  2.569260E-01  3.406216E-01  2.149918E-01  2.570952E-01
      3457   7 -3.361451E+00 -1.624857E+00 -1.587576E-01  5.937209E-01  1.762945E-02 -1.535612E-01
      3457   8 -3.001121E+00 -1.205163E+00  6.226482E-01  6.871653E-02  1.199562E-01  3.983388E-01
      3458   1 -2.850130E+00 -9.744852E-01 -3.273537E-01  5.893683E-01  2.024657E-01  2.669310E-01
      3458   2 -2.760752E+00 -7.725145E-01 -2.313997E-01 -9.996638E-01  2.092857E-01  5.651130E-01
      3458   3 -8.504578E+00 -3.279370E+00 -1.487637E+00  5.477544E-01  2.436794E-01  4.058243E-01
      3458   4 -8.279028E+00 -2.930615E+00 -1.084558E+00 -1.140087E+00  3.514168E-01  7.889001E-01
      3458   5 -2.351118E+00 -1.012671E+00 -8.200007E-02  3.721592E-01  1.480991E-01  5.724952E-01
      3458   6 -2.253457E+00 -8.062900E-01  3.715300E-02 -1.133513E+00  1.637247E-01  9.253726E-01
      3458   7 -7.740609E+00 -3.248205E+00 -1.118629E+00  2.899436E-01  2.392707E-01  7.631633E-01
      3458   8 -7.504744E+00 -2.893554E+00 -6.870657E-01 -1.294955E+00  3.577345E-01  1.216399E+00
      3459   1 -4.282277E-01 -4.400963E-01  4.582373E-01 -5.660413E-01 -1.110594E-01  5.564311E-01
      3459   2 -2.139616E+00 -4.195910E+00 -1.490578E+00 -2.494210E+00 -1.307035E-01  3.035209E-01
      3459   3 -7.338729E+00 -3.466856E+00 -1.057925E+00 -1.685246E+00  9.887111E-02  8.014644E-01
      3459   4 -9.267783E+00 -7.591678E+00 -3.363282E+00 -3.678636E+00  2.835018E-01  5.313002E-01
      3459   5  8.744352E-02 -5.476460E-01  7.085024E-01 -8.428380E-01 -2.309806E-01  9.091038E-01
      3459   6 -1.666004E+00 -4.389478E+00 -1.294489E+00 -2.616891E+00 -2.328009E-01  5.991528E-01
      3459   7 -6.294082E+00 -3.382906E+00 -5.636347E-01 -1.929275E+00 -6.627287E-02  1.214547E+00
      3459   8 -8.263565E+00 -7.587301E+00 -2.924182E+00 -3.729647E+00  1.400694E-01  8.749066E-01
      3460   1 -8.079121E-01 -1.816301E+00 -7.261963E-01 -1.111991E+00 -1.948204E-01  1.070390E-02
      3460   2  1.898021E+00  4.993591E+00  1.483687E+00  1.119747E+00  2.936240E-01 -3.818229E-01
      3460   3  8.151712E+00  4.072739E+00  4.749333E+00  2.086705E+00  5.503207E-02  1.523736E-01
      3460   4  1.103727E+01  1.171674E+01  6.723861E+00  4.739358E+00  8.899962E-01 -2.182069E-01
      3460   5 -4.408519E-01 -2.073228E+00 -6.040760E-01 -1.193594E+00 -3.391227E-01  2.194172E-01
      3460   6  2.354601E+00  4.981753E+00  1.659119E+00  1.285557E+00  1.795571E-01 -3.143274E-01
      3460   7  9.251847E+00  4.184430E+00  5.221391E+00  2.200765E+00 -2.121449E-01  3.715879E-01
      3460   8  1.226470E+01  1.216957E+01  7.279109E+00  5.161201E+00  6.596493E-01 -1.741733E-01
      3461   1 -2.073654E+00 -2.138895E+00 -5.270088E-01  4.855463E+00  2.068914E-01 -1.164167E+00
      3461   2 -1.361585E+00 -1.040779E+00  7.484408E-01  4.797775E+00  2.849696E-01 -1.027552E+00
      3461   3 -1.519522E+00 -1.641570E+00  1.885864E+00  5.304371E+00  7.573656E-01 -1.230870E+00
      3461   4 -9.879471E-01 -6.915980E-01  2.707810E+00  5.239964E+00  8.599907E-01 -1.181601E+00
      3461   5 -1.977390E+00 -2.413764E+00 -4.734938E-01  5.147271E+00  4.408362E-01 -8.754144E-01
      3461   6 -1.310705E+00 -1.407605E+00  7.426309E-01  5.106783E+00  5.201677E-01 -7.864363E-01
      3461   7 -1.378930E+00 -1.899435E+00  1.882566E+00  5.565669E+00  8.823068E-01 -8.875492E-01
      3461   8 -8.914680E-01 -1.048243E+00  2.656249E+00  5.520887E+00  9.853050E-01 -8.943285E-01
      3462   1 -6.387850E+00 -3.065856E+00 -8.640597E-01  7.035334E+00  8.990408E-01 -9.141889E-01
      3462   2 -4.134460E+00  1.698542E+00  1.882840E+00  6.031832E+00  9.654741E-01 -3.731244E-01
      3462   3 -1.218008E+01 -6.361040E+00 -1.948677E+00  9.538097E+00  1.839581E+00 -1.154963E+00
      3462   4 -9.585953E+00 -8.625117E-01  1.199887E+00  8.375946E+00  1.908468E+00 -5.303059E-01
      3462   5 -6.118541E+00 -3.374500E+00 -7.920393E-01  7.401801E+00  1.092317E+00 -6.687732E-01
      3462   6 -3.814589E+00  1.504767E+00  2.008534E+00  6.411531E+00  1.158875E+00 -9.614388E-02
      3462   7 -1.215075E+01 -6.877692E+00 -2.069918E+00  1.004563E+01  2.064505E+00 -8.991399E-01
      3462   8 -9.489702E+00 -1.223939E+00  1.146493E+00  8.892508E+00  2.133430E+00 -2.391401E-01
      3463   1 -1.176741E+01  1.026131E+00 -1.538066E-01  6.130775E+00  1.284998E+00  1.233340E-02
      3463   2 -9.437064E+00  6.000974E+00  2.639163E+00  3.879950E+00  1.394180E+00  5.801484E-01
      3463   3 -2.424826E+01 -4.021220E+00 -3.337028E+00  8.602586E+00  2.452458E+00 -4.039549E-02
      3463   4 -2.106576E+01  2.258048E+00  9.920296E-01  6.002655E+00  2.596788E+00  7.752472E-01
      3463   5 -1.090845E+01  1.188545E+00  2.585680E-01  6.444002E+00  1.457780E+00  3.680582E-01
      3463   6 -8.453970E+00  6.418114E+00  3.210595E+00  4.233920E+00  1.568757E+00  1.114781E+00
      3463   7 -2.373692E+01 -4.065887E+00 -3.165480E+00  9.117861E+00  2.910797E+00  3.213798E-01
      3463   8 -2.041923E+01  2.518430E+00  1.309166E+00  6.551710E+00  3.055661E+00  1.345551E+00
      3464   1 -1.303881E+01  6.684195E+00  2.013802E+00  1.021388E+00  1.071123E+00  8.974923E-01
      3464   2 -1.193497E+01  9.196638E+00  3.180830E+00 -4.532162E+00  9.059566E-01  1.262807E+00
      3464   3 -4.332392E+01 -4.561371E+00 -6.549576E+00  1.311024E+00  2.538393E+00  1.362265E+00
      3464   4 -4.102661E+01 -5.377937E-01 -2.915459E+00 -5.106535E+00  2.377823E+00  2.161849E+00
      3464   5 -1.173124E+01  7.386187E+00  2.815594E+00  1.226055E+00  1.089458E+00  1.597449E+00
      3464   6 -1.043049E+01  1.029306E+01  4.244566E+00 -4.294928E+00  9.245271E-01  2.269841E+00
      3464   7 -4.309251E+01 -4.289984E+00 -6.339512E+00  1.715269E+00  3.069252E+00  2.146074E+00
      3464   8 -4.059554E+01  1.801085E-01 -2.486372E+00 -4.696980E+00  2.908752E+00  3.304753E+00
      3465   1 -1.847811E+00  1.434188E+01  7.456165E+00 -6.236887E+00 -2.239983E-01  1.174630E+00
      3465   2 -6.216655E+00  4.829760E+00  2.405466E+00 -1.861478E+01 -1.146689E+00  1.048223E+00
      3465   3 -7.214754E+01 -1.669474E+01 -1.652037E+01 -1.593580E+01  1.406764E+00  2.326511E+00
      3465   4 -7.665412E+01 -2.708893E+01 -2.114811E+01 -3.018417E+01  7.014759E-01  2.405701E+00
      3465   5 -3.071352E-01  1.553029E+01  8.602924E+00 -6.021323E+00 -4.754272E-01  2.267543E+00
      3465   6 -4.635300E+00  6.084468E+00  3.621536E+00 -1.826824E+01 -1.387018E+00  2.248442E+00
      3465   7 -7.262812E+01 -1.651538E+01 -1.651308E+01 -1.596604E+01  1.354491E+00  3.508355E+00
      3465   8 -7.712301E+01 -2.689082E+01 -2.112060E+01 -3.012856E+01  6.525072E-01  3.718051E+00
      3466   1  1.107476E-01  2.308567E+00  6.391622E-01  1.283599E-01 -1.461985E-01 -4.748436E-01
      3466   2 -4.502231E-01  8.549881E-01  2.228387E-01 -2.038042E-02 -1.336409E-01 -3.845643E-01
      3466   3 -1.150277E-02  2.810341E+00  6.673039E-01 -2.917468E-01 -3.032218E-01 -4.086117E-01
      3466   4 -5.934390E-01  1.196291E+00  3.415665E-01 -4.595372E-01 -3.005773E-01 -3.117314E-01
      3466   5  2.406952E-01  2.512513E+00  7.369144E-01  1.204520E-01 -7.857136E-02 -5.420428E-01
      3466   6 -3.773855E-01  9.225335E-01  2.666249E-01 -3.997628E-02 -6.629313E-02 -3.727121E-01
      3466   7  1.797897E-01  3.162364E+00  8.152554E-01 -3.633228E-01 -2.112551E-01 -4.967009E-01
      3466   8 -4.797672E-01  1.347622E+00  4.314743E-01 -5.480577E-01 -2.103504E-01 -2.929720E-01
      3467   1 -4.131125E-01  2.353540E-01  1.830222E-01 -4.149909E-01 -5.760427E-02 -3.031232E-01
      3467   2 -8.247545E-01 -8.640848E-01 -8.967889E-02 -7.019669E-01 -2.923070E-02 -1.308684E-01
      3467   3 -9.525768E-01  2.546802E-01  1.962744E-01 -7.529111E-01 -1.475628E-01 -2.365731E-01
      3467   4 -1.355167E+00 -9.432430E-01  5.223066E-02 -1.047873E+00 -1.065732E-01 -3.825879E-02
      3467   5 -3.033473E-01  2.660533E-01  2.299328E-01 -4.650642E-01  4.757745E-03 -2.303311E-01
      3467   6 -7.586091E-01 -9.385360E-01 -8.301726E-02 -7.323093E-01  3.348688E-02  2.607587E-02
      3467   7 -7.269765E-01  3.640310E-01  3.264701E-01 -8.735414E-01 -6.594335E-02 -1.344842E-01
      3467   8 -1.185341E+00 -9.850221E-01  1.476429E-01 -1.139609E+00 -2.273965E-02  1.788842E-01
      3468   1 -4.630508E-01 -1.551701E+00 -1.378936E-01 -1.426278E-01  1.302959E-02 -5.064084E-02
      3468   2 -9.116207E-01 -2.563575E+00 -6.212525E-01 -7.262015E-01  5.611586E-02 -1.903688E-04
      3468   3 -1.745733E+00 -2.048206E+00 -2.721517E-01 -3.576836E-01  9.303973E-03  4.802198E-02
      3468   4 -2.214279E+00 -3.144110E+00 -7.380675E-01 -9.783944E-01  5.426419E-02  1.038803E-01
      3468   5 -3.411028E-01 -1.632827E+00 -1.143880E-01 -3.044047E-01 -8.303673E-03  1.520451E-01
      3468   6 -8.334241E-01 -2.747842E+00 -6.404437E-01 -8.805572E-01  3.483542E-02  2.249090E-01
      3468   7 -1.497073E+00 -2.115058E+00 -1.474986E-01 -5.579927E-01 -1.504258E-02  3.271738E-01
      3468   8 -2.019485E+00 -3.343216E+00 -6.607139E-01 -1.167004E+00  3.024652E-02  4.135417E-01
      3469   1 -3.777635E-01 -1.821533E+00 -3.739764E-01  5.637084E-01  1.567716E-02 -3.427554E-02
      3469   2  1.966959E-01 -2.311668E-01 -4.947803E-02  8.116400E-01  1.186936E-01 -1.573222E-01
      3469   3  2.121446E-01 -1.448848E+00  3.198329E-01  9.856631E-01  8.326074E-02  5.945164E-02
      3469   4  7.624791E-01  2.132488E-01  4.921850E-01  1.328108E+00  2.792116E-01 -1.048557E-01
      3469   5 -1.955077E-01 -2.033195E+00 -3.713831E-01  3.250785E-01 -1.073906E-01  1.558224E-01
      3469   6  3.634568E-01 -4.753753E-01 -6.598778E-02  7.044235E-01 -1.755021E-03 -6.280211E-02
      3469   7  5.391884E-01 -1.676926E+00  4.206040E-01  7.161712E-01 -8.840496E-02  3.193663E-01
      3469   8  1.063727E+00 -5.255187E-02  5.446932E-01  1.244202E+00  1.238556E-01  2.224111E-02
      3470   1 -6.599048E-01  6.785478E-01 -2.847361E-01  5.312060E-01  9.792513E-02 -2.580876E-01
      3470   2  3.899486E-01  3.406144E+00  4.871785E-01 -2.119369E-02  1.495983E-01 -3.595938E-01
      3470   3 -1.797682E+00  6.489422E-01 -5.393665E-01  1.159324E+00  3.040422E-01 -2.261236E-01
      3470   4 -7.269975E-01  3.597689E+00  8.083515E-02  5.598658E-01  3.451394E-01 -3.525164E-01
      3470   5 -5.931332E-01  4.243484E-01 -3.382706E-01  4.653318E-01 -3.536939E-02 -2.476802E-01
      3470   6  5.107599E-01  3.282900E+00  4.828208E-01 -9.537981E-02  1.600569E-02 -4.744285E-01
      3470   7 -1.675685E+00  3.611807E-01 -5.723216E-01  1.134453E+00  1.235634E-01 -2.174508E-01
      3470   8 -5.370918E-01  3.498663E+00  8.550814E-02  5.231050E-01  1.628046E-01 -5.146242E-01
      3471   1  1.917110E-01  3.699516E+00  9.556939E-01  1.051278E+00 -2.092861E-01 -6.404238E-01
      3471   2 -9.312185E-01  7.347837E-01  1.773283E-01  1.020021E+00 -1.873220E-01 -6.615251E-01
      3471   3  8.979258E-01  5.345092E+00  2.060132E+00 -8.060669E-03 -4.419499E-01 -4.196028E-01
      3471   4 -3.030758E-01  2.039865E+00  1.362021E+00 -3.437840E-02 -3.998202E-01 -4.962669E-01
      3471   5  3.540379E-01  3.911828E+00  1.103679E+00  1.042194E+00 -8.160215E-02 -5.758300E-01
      3471   6 -8.307036E-01  7.887403E-01  2.776287E-01  1.026727E+00 -5.783865E-02 -5.369658E-01
      3471   7  1.161187E+00  5.696642E+00  2.287851E+00 -8.938595E-02 -2.681068E-01 -3.518634E-01
      3471   8 -1.215191E-01  2.183593E+00  1.525213E+00 -9.619386E-02 -2.237892E-01 -3.559574E-01
      3472   1 -2.199835E+00 -7.588130E-01 -3.137657E-01  1.088565E+00  5.560089E-02 -6.291873E-01
      3472   2 -1.830019E+00 -2.607763E-01  4.209160E-01  4.792339E-01  7.446572E-02 -3.702536E-01
      3472   3 -4.172431E+00 -1.381415E+00 -3.328015E-01  1.210172E+00  5.123432E-02 -5.257412E-01
      3472   4 -3.698411E+00 -8.072260E-01  6.730768E-01  5.521629E-01  1.021711E-01 -2.561871E-01
      3472   5 -1.919162E+00 -6.795745E-01 -1.380206E-01  1.079484E+00  1.766978E-01 -4.560320E-01
      3472   6 -1.564925E+00 -2.327889E-01  5.959832E-01  4.994544E-01  1.984245E-01 -1.309150E-01
      3472   7 -3.784049E+00 -1.237551E+00 -9.072695E-02  1.154614E+00  2.206036E-01 -3.273642E-01
      3472   8 -3.333823E+00 -7.369978E-01  9.094746E-01  5.322630E-01  2.750199E-01  2.253380E-02
      3473   1 -3.365689E+00 -9.881935E-01 -3.189664E-02  7.475853E-01  2.000122E-01 -2.275304E-01
      3473   2 -3.228071E+00 -7.774130E-01  2.160488E-01 -9.869164E-01  1.292735E-01 -6.494910E-02
      3473   3 -9.326431E+00 -3.232975E+00 -1.308420E+00  8.809631E-01  3.649882E-01 -8.572663E-02
      3473   4 -8.971668E+00 -2.786753E+00 -5.721004E-01 -9.992695E-01  3.570312E-01  1.644276E-01
      3473   5 -2.927449E+00 -8.721895E-01  2.401249E-01  6.926590E-01  2.214245E-01  7.968175E-02
      3473   6 -2.767430E+00 -6.333416E-01  5.346730E-01 -9.872514E-01  1.562875E-01  3.384239E-01
      3473   7 -8.675538E+00 -3.038986E+00 -9.263803E-01  8.272573E-01  4.780984E-01  2.719317E-01
      3473   8 -8.291932E+00 -2.554888E+00 -1.317916E-01 -9.851475E-01  4.769524E-01  6.435231E-01
      3474   1 -1.170786E+00 -5.079728E-01  7.931538E-01 -3.919217E-01  5.003721E-02 -9.534522E-02
      3474   2 -2.955690E+00 -4.308314E+00 -1.356184E+00 -2.481031E+00  7.015460E-03 -3.327552E-01
      3474   3 -8.358059E+00 -3.336975E+00 -4.613945E-01 -1.553084E+00  3.551403E-01  2.196886E-01
      3474   4 -1.008621E+01 -7.180455E+00 -2.378406E+00 -3.816566E+00  3.945890E-01  1.234441E-01
      3474   5 -4.860087E-01 -2.496425E-01  1.232267E+00 -4.836602E-01 -9.955853E-02  3.481343E-01
      3474   6 -2.199375E+00 -3.898729E+00 -8.298676E-01 -2.499181E+00 -1.352215E-01  1.637742E-01
      3474   7 -7.379009E+00 -2.920707E+00  1.470944E-01 -1.545171E+00  2.764884E-01  7.531507E-01
      3474   8 -9.007042E+00 -6.549634E+00 -1.650755E+00 -3.718004E+00  3.248844E-01  7.286624E-01
      3475   1 -1.285274E+00 -1.696009E+00 -5.362889E-01 -1.191253E+00  3.177067E-02 -4.588889E-01
      3475   2  1.445573E+00  5.288601E+00  1.581927E+00  7.567515E-01  4.324117E-01 -4.964872E-01
      3475   3  7.733787E+00  4.794334E+00  6.077794E+00  1.793979E+00  3.485122E-01  1.841853E-02
      3475   4  1.067111E+01  1.247267E+01  8.190523E+00  3.991992E+00  9.016030E-01  1.531072E-04
      3475   5 -7.218897E-01 -1.305906E+00 -7.524096E-02 -1.162918E+00 -1.816882E-01  5.488119E-03
      3475   6  2.033603E+00  5.755122E+00  2.048707E+00  9.008276E-01  2.325556E-01 -1.212719E-01
      3475   7  8.619293E+00  5.397129E+00  6.737062E+00  1.901315E+00  7.886353E-02  5.606622E-01
      3475   8  1.159326E+01  1.318396E+01  8.863440E+00  4.240795E+00  6.484938E-01  4.358088E-01
      3476   1 -2.079543E+00 -1.628867E+00 -2.907509E-01  4.718664E+00  2.517199E-01 -1.423048E+00
      3476   2 -1.427468E+00 -5.850855E-01  8.390529E-01  4.622283E+00  3.049102E-01 -1.211430E+00
      3476   3 -1.593980E+00 -1.059475E+00  2.180969E+00  5.097112E+00  5.955162E-01 -1.474148E+00
      3476   4 -1.204899E+00 -2.252215E-01  2.643651E+00  4.990185E+00  6.818678E-01 -1.278107E+00
      3476   5 -1.920790E+00 -1.668232E+00 -1.372529E-01  4.785682E+00  4.247125E-01 -1.076249E+00
      3476   6 -1.287876E+00 -6.470954E-01  9.513226E-01  4.710222E+00  4.797135E-01 -9.502179E-01
      3476   7 -1.403834E+00 -1.126190E+00  2.253298E+00  5.165669E+00  6.234328E-01 -1.054009E+00
      3476   8 -1.021517E+00 -3.011006E-01  2.702597E+00  5.082682E+00  7.103275E-01 -9.607724E-01
      3477   1 -6.749209E+00 -2.707136E+00 -8.753992E-01  6.812151E+00  8.435189E-01 -1.110849E+00
      3477   2 -4.427957E+00  2.096790E+00  2.058181E+00  5.802246E+00  8.603932E-01 -7.113286E-01
      3477   3 -1.213144E+01 -5.710792E+00 -1.937886E+00  9.087186E+00  1.276671E+00 -1.198507E+00
      3477   4 -9.525972E+00 -2.766995E-01  1.312927E+00  7.925282E+00  1.264012E+00 -8.047544E-01
      3477   5 -6.462765E+00 -2.739265E+00 -7.197515E-01  6.915929E+00  1.065304E+00 -8.826781E-01
      3477   6 -4.158917E+00  2.022250E+00  2.198227E+00  5.900193E+00  1.080566E+00 -4.570842E-01
      3477   7 -1.216453E+01 -5.935246E+00 -1.991346E+00  9.261360E+00  1.534085E+00 -9.621879E-01
      3477   8 -9.571466E+00 -5.306445E-01  1.247601E+00  8.085886E+00  1.520943E+00 -5.368606E-01
      3478   1 -1.247880E+01  1.208869E+00 -3.865306E-02  5.992286E+00  1.103727E+00 -4.852400E-01
      3478   2 -1.009871E+01  6.145746E+00  2.958102E+00  3.747032E+00  1.062887E+00 -2.119748E-01
      3478   3 -2.404005E+01 -3.494206E+00 -3.176101E+00  8.159163E+00  1.334811E+00 -5.487556E-01
      3478   4 -2.101884E+01  2.455379E+00  9.450180E-01  5.572531E+00  1.192083E+00 -2.152018E-01
      3478   5 -1.199573E+01  1.233514E+00  2.087723E-01  6.031078E+00  1.329362E+00 -1.703684E-01
      3478   6 -9.585529E+00  6.214259E+00  3.262022E+00  3.749402E+00  1.282959E+00  2.442274E-01
      3478   7 -2.432013E+01 -3.839754E+00 -3.335260E+00  8.296624E+00  1.776067E+00 -2.231757E-01
      3478   8 -2.127012E+01  2.169121E+00  8.225761E-01  5.652440E+00  1.631670E+00  2.768639E-01
      3479   1 -1.408941E+01  6.644960E+00  2.269224E+00  9.682186E-01  9.277291E-01 -6.963986E-02
      3479   2 -1.298204E+01  9.091940E+00  3.513489E+00 -4.692012E+00  6.067412E-01  4.655617E-02
      3479   3 -4.329243E+01 -4.588038E+00 -6.870841E+00  1.009301E+00  1.042910E+00 -1.055705E-02
      3479   4 -4.141472E+01 -1.164765E+00 -4.035087E+00 -5.463186E+00  7.805027E-01  2.151816E-01
      3479   5 -1.330070E+01  6.856244E+00  2.732525E+00  9.376560E-01  9.694410E-01  5.010976E-01
      3479   6 -1.213634E+01  9.391344E+00  4.078609E+00 -4.672600E+00  6.516518E-01  8.276730E-01
      3479   7 -4.351680E+01 -4.833990E+00 -6.962955E+00  1.015262E+00  1.425150E+00  6.291971E-01
      3479   8 -4.159488E+01 -1.321002E+00 -4.069539E+00 -5.431133E+00  1.163702E+00  1.104420E+00
      3480   1 -2.976000E+00  1.417965E+01  7.761422E+00 -6.520863E+00 -7.171384E-02  2.237967E-02
      3480   2 -7.523786E+00  4.293886E+00  2.487901E+00 -1.955724E+01 -1.179135E+00 -5.782278E-02
      3480   3 -7.336220E+01 -1.771094E+01 -1.839687E+01 -1.616550E+01  9.948310E-01  4.667736E-01
      3480   4 -7.832006E+01 -2.871279E+01 -2.392123E+01 -3.096823E+01  7.182695E-01  6.585110E-01
      3480   5 -2.034577E+00  1.456673E+01  8.407037E+00 -6.416001E+00 -3.575503E-01  8.049322E-01
      3480   6 -6.449397E+00  4.982528E+00  3.275176E+00 -1.901662E+01 -1.419604E+00  7.467975E-01
      3480   7 -7.283927E+01 -1.756954E+01 -1.812346E+01 -1.608970E+01  7.597571E-01  1.305842E+00
      3480   8 -7.766387E+01 -2.826306E+01 -2.351195E+01 -3.044624E+01  4.968042E-01  1.519924E+00
      3481   1  1.516611E-01  2.500658E+00  3.559294E-01  1.920741E-01 -1.904838E-01 -1.686027E-01
      3481   2 -3.994112E-01  9.509138E-01  6.876579E-02  3.474118E-02 -2.179382E-01 -2.488397E-01
      3481   3  9.646816E-03  2.958728E+00  4.189694E-01 -1.644172E-01 -3.093292E-01 -3.967271E-02
      3481   4 -5.311529E-01  1.336177E+00  2.388549E-01 -3.368592E-01 -3.471746E-01 -1.207846E-01
      3481   5  2.097928E-01  2.792305E+00  4.600685E-01  2.356113E-01 -6.065502E-02 -2.281933E-01
      3481   6 -3.537563E-01  1.211029E+00  1.628479E-01  6.395267E-02 -8.836926E-02 -2.400258E-01
      3481   7  1.144452E-01  3.331750E+00  5.577711E-01 -9.765456E-02 -1.443087E-01 -1.056260E-01
      3481   8 -4.324061E-01  1.681238E+00  3.854451E-01 -2.875554E-01 -1.836401E-01 -9.981607E-02
      3482   1 -4.342238E-01  2.211679E-01  8.314888E-02 -3.463728E-01 -1.593732E-01 -2.930572E-01
      3482   2 -8.214145E-01 -9.306292E-01 -5.568982E-02 -6.796272E-01 -1.795479E-01 -2.837927E-01
      3482   3 -1.081295E+00  2.728699E-01  9.372400E-02 -6.018742E-01 -2.098529E-01 -1.824923E-01
      3482   4 -1.440898E+00 -9.177511E-01  8.566792E-02 -9.580764E-01 -2.284009E-01 -1.663936E-01
      3482   5 -3.570683E-01  4.817914E-01  1.892130E-01 -3.377497E-01 -3.948383E-02 -2.308238E-01
      3482   6 -7.606293E-01 -7.107834E-01  3.658426E-02 -6.702657E-01 -5.961783E-02 -1.503136E-01
      3482   7 -8.696556E-01  6.582510E-01  2.998857E-01 -5.862334E-01 -5.975032E-02 -9.350539E-02
      3482   8 -1.240376E+00 -5.730676E-01  2.954705E-01 -9.387594E-01 -7.806566E-02  1.299459E-02
      3483   1 -5.506766E-01 -1.682108E+00 -8.204405E-02 -2.712450E-03  2.310909E-02 -2.935742E-01
      3483   2 -9.393021E-01 -2.588257E+00 -4.713131E-01 -5.979372E-01  1.452934E-02 -2.829681E-01
      3483   3 -1.905995E+00 -2.040841E+00 -1.958914E-01 -1.730474E-01  5.991788E-02 -1.761842E-01
      3483   4 -2.279010E+00 -2.969251E+00 -5.108638E-01 -8.201425E-01  3.116479E-02 -1.522327E-01
      3483   5 -4.347675E-01 -1.445956E+00  3.358485E-02 -6.525422E-02  2.113377E-02 -1.117890E-01
      3483   6 -8.358313E-01 -2.382596E+00 -3.666552E-01 -6.837424E-01  1.204960E-02 -6.706157E-02
      3483   7 -1.652349E+00 -1.680904E+00  4.543970E-02 -2.222640E-01  7.651244E-02  6.358546E-02
      3483   8 -2.032037E+00 -2.633279E+00 -2.678133E-01 -8.972886E-01  4.487435E-02  1.330822E-01
      3484   1 -6.049084E-01 -1.850072E+00 -3.179078E-01  7.197216E-01  2.061270E-01 -2.414625E-01
      3484   2 -4.189137E-02 -1.831711E-01 -1.080856E-01  8.002091E-01  2.502251E-01 -1.777077E-01
      3484   3 -4.910948E-02 -1.234095E+00  4.992060E-01  1.174723E+00  3.490749E-01 -8.447572E-02
      3484   4  5.390205E-01  5.733718E-01  6.521722E-01  1.279254E+00  4.382764E-01  1.204254E-02
      3484   5 -3.628095E-01 -1.567437E+00 -1.488461E-01  6.140942E-01  3.186960E-02 -4.995056E-02
      3484   6  2.490050E-01  2.153748E-01  1.077241E-01  7.512045E-01  7.709543E-02 -4.937000E-02
      3484   7  3.534168E-01 -8.061552E-01  8.149288E-01  1.062603E+00  1.452483E-01  1.723607E-01
      3484   8  1.000909E+00  1.151546E+00  1.015535E+00  1.241774E+00  2.408999E-01  1.933605E-01
      3485   1 -6.988631E-01  8.699497E-01 -3.660057E-01  4.116811E-01  2.503372E-01 -7.807431E-02
      3485   2  3.689685E-01  3.800163E+00  2.632200E-01 -1.372840E-01  2.425853E-01  1.390240E-01
      3485   3 -1.698165E+00  1.235624E+00 -3.314447E-01  1.045737E+00  5.362556E-01  1.438757E-01
      3485   4 -6.688588E-01  4.276368E+00  5.883157E-02  4.438797E-01  4.982638E-01  3.555786E-01
      3485   5 -4.980876E-01  1.308532E+00 -1.685813E-01  4.067731E-01  3.399699E-02 -3.343965E-02
      3485   6  5.856793E-01  4.280938E+00  4.715683E-01 -1.772616E-01  2.548893E-02  4.657389E-02
      3485   7 -1.400288E+00  1.796471E+00 -4.170002E-02  1.003562E+00  2.442832E-01  2.098857E-01
      3485   8 -3.724347E-01  4.862488E+00  3.184608E-01  3.574536E-01  2.019669E-01  2.446161E-01
      3486   1  1.165360E-01  3.671369E+00  6.204131E-01  1.189738E+00 -2.051743E-01 -4.773026E-01
      3486   2 -9.413483E-01  7.678058E-01 -2.304863E-03  1.132068E+00 -2.313659E-01 -5.983261E-01
      3486   3  8.379417E-01  5.306830E+00  1.876777E+00  1.749890E-01 -4.718700E-01 -2.406121E-01
      3486   4 -2.946506E-01  2.141138E+00  1.267162E+00  1.129541E-01 -4.948113E-01 -3.675179E-01
      3486   5  1.913640E-01  3.909060E+00  7.643158E-01  1.178414E+00 -2.985332E-02 -3.851269E-01
      3486   6 -8.548470E-01  1.024719E+00  1.612875E-01  1.121622E+00 -5.574822E-02 -4.583833E-01
      3486   7  9.534160E-01  5.604187E+00  2.061486E+00  1.539983E-01 -2.758351E-01 -1.282230E-01
      3486   8 -1.659448E-01  2.459640E+00  1.474831E+00  9.361594E-02 -2.984162E-01 -1.998689E-01
      3487   1 -2.444411E+00 -8.045129E-01 -5.023041E-01  1.257798E+00 -1.613947E-02 -6.607325E-01
      3487   2 -1.950766E+00 -1.056654E-01  4.443335E-01  6.012829E-01 -6.719004E-02 -5.505471E-01
      3487   3 -4.473793E+00 -1.406577E+00 -5.189363E-01  1.477627E+00 -1.133021E-01 -4.876710E-01
      3487   4 -3.884023E+00 -6.254266E-01  6.658112E-01  7.568708E-01 -1.593757E-01 -4.223128E-01
      3487   5 -2.207471E+00 -4.916161E-01 -2.668026E-01  1.196891E+00  1.511005E-01 -4.791003E-01
      3487   6 -1.768618E+00  6.641926E-02  6.380041E-01  5.464497E-01  1.005043E-01 -3.084570E-01
      3487   7 -4.156195E+00 -9.892500E-01 -2.128375E-01  1.350788E+00  9.331365E-02 -2.758787E-01
      3487   8 -3.637971E+00 -3.907708E-01  9.160954E-01  6.377201E-01  4.779152E-02 -1.386945E-01
      3488   1 -3.651314E+00 -8.096155E-01  1.298604E-02  9.179395E-01  1.973877E-01 -5.360212E-01
      3488   2 -3.395534E+00 -3.692633E-01  4.252355E-01 -9.565142E-01  3.494045E-02 -5.316166E-01
      3488   3 -1.005907E+01 -3.191072E+00 -1.457744E+00  1.101767E+00  1.364030E-01 -4.297884E-01
      3488   4 -9.586482E+00 -2.541348E+00 -5.321807E-01 -9.384212E-01  5.600070E-02 -4.408050E-01
      3488   5 -3.364643E+00 -6.620803E-01  2.496965E-01  8.317123E-01  2.511726E-01 -2.240604E-01
      3488   6 -3.150192E+00 -3.452314E-01  6.476854E-01 -9.789479E-01  9.621549E-02 -1.147542E-01
      3488   7 -9.471269E+00 -2.904325E+00 -1.066191E+00  9.630836E-01  2.946202E-01 -6.738046E-02
      3488   8 -9.051231E+00 -2.410067E+00 -1.603253E-01 -9.955984E-01  2.233079E-01  5.356493E-02
      3489   1 -1.611924E+00 -9.070651E-02  9.055499E-01 -3.802900E-01  2.808675E-01 -5.801870E-01
      3489   2 -3.390868E+00 -3.794385E+00 -1.320585E+00 -2.676355E+00  1.296732E-01 -7.961269E-01
      3489   3 -9.484900E+00 -3.256016E+00 -6.115439E-01 -1.639941E+00  4.357498E-01 -4.767516E-01
      3489   4 -1.124007E+01 -7.118172E+00 -2.599942E+00 -4.131889E+00  4.179600E-01 -6.547981E-01
      3489   5 -1.195832E+00 -4.391143E-02  1.208229E+00 -3.827899E-01  1.061204E-01 -1.228751E-01
      3489   6 -2.966183E+00 -3.747071E+00 -9.897802E-01 -2.573972E+00 -3.289519E-02 -2.800483E-01
      3489   7 -8.631364E+00 -3.031729E+00 -8.938992E-02 -1.597161E+00  3.522279E-01  7.456752E-02
      3489   8 -1.037114E+01 -6.881671E+00 -2.038689E+00 -3.956412E+00  3.492184E-01 -2.312219E-02
      3490   1 -1.242590E+00 -8.502316E-01 -3.990415E-01 -1.433633E+00  3.091096E-01 -7.924940E-01
      3490   2  1.443358E+00  6.243736E+00  1.460151E+00  3.236190E-01  5.850260E-01 -6.543485E-01
      3490   3  7.431132E+00  5.370196E+00  6.180846E+00  1.544979E+00  7.377999E-01 -6.405933E-01
      3490   4  1.033485E+01  1.310407E+01  8.126029E+00  3.500276E+00  1.117159E+00 -5.466838E-01
      3490   5 -1.138682E+00 -1.015978E+00 -2.248180E-01 -1.331072E+00 -3.146023E-04 -3.217154E-01
      3490   6  1.480211E+00  5.933558E+00  1.555289E+00  5.025350E-01  2.850454E-01 -2.646178E-01
      3490   7  7.700035E+00  5.217938E+00  6.449795E+00  1.648720E+00  4.047596E-01 -7.916743E-02
      3490   8  1.052055E+01  1.277228E+01  8.297178E+00  3.697876E+00  7.955793E-01 -7.794633E-02
      3491   1 -2.070031E+00 -1.368465E+00 -3.961685E-01  4.874304E+00  1.169641E-01 -1.746554E+00
      3491   2 -1.401102E+00 -3.225357E-01  7.876672E-01  4.734991E+00  9.830720E-02 -1.264402E+00
      3491   3 -1.536606E+00 -6.223436E-01  2.387222E+00  5.177552E+00  2.207676E-01 -1.851184E+00
      3491   4 -1.199513E+00  1.419154E-01  2.746606E+00  5.022613E+00  2.389664E-01 -1.332470E+00
      3491   5 -2.043644E+00 -1.398122E+00 -2.563571E-01  4.750270E+00  2.606273E-01 -1.314198E+00
      3491   6 -1.375774E+00 -3.257604E-01  8.975146E-01  4.630421E+00  2.441330E-01 -9.476653E-01
      3491   7 -1.506821E+00 -7.104267E-01  2.412331E+00  5.060692E+00  2.132616E-01 -1.330825E+00
      3491   8 -1.151533E+00  1.050323E-01  2.781165E+00  4.928255E+00  2.321148E-01 -9.507838E-01
      3492   1 -6.933362E+00 -2.573100E+00 -9.915669E-01  7.100972E+00  4.715814E-01 -1.083217E+00
      3492   2 -4.464244E+00  2.535416E+00  2.130311E+00  6.079770E+00  3.955811E-01 -8.028826E-01
      3492   3 -1.189385E+01 -5.355617E+00 -1.841822E+00  9.307678E+00  4.071260E-01 -1.120302E+00
      3492   4 -9.254011E+00  2.607017E-01  1.341332E+00  8.148752E+00  3.286973E-01 -9.346408E-01
      3492   5 -6.791671E+00 -2.492054E+00 -8.383390E-01  6.857320E+00  6.825244E-01 -8.296331E-01
      3492   6 -4.427861E+00  2.377162E+00  2.171809E+00  5.837356E+00  6.063816E-01 -5.640067E-01
      3492   7 -1.199778E+01 -5.391491E+00 -1.857619E+00  9.049083E+00  6.155847E-01 -8.457817E-01
      3492   8 -9.467380E+00 -2.860011E-02  1.214148E+00  7.885647E+00  5.371129E-01 -6.732014E-01
      3493   1 -1.285910E+01  1.655511E+00 -2.420789E-02  6.388647E+00  5.413640E-01 -7.388589E-01
      3493   2 -1.033477E+01  6.878769E+00  3.166960E+00  4.271953E+00  4.463575E-01 -7.987309E-01
      3493   3 -2.301183E+01 -2.530384E+00 -2.872176E+00  8.474522E+00 -2.788221E-02 -9.102645E-01
      3493   4 -1.995067E+01  3.577005E+00  1.224297E+00  6.056408E+00 -3.127063E-01 -1.078203E+00
      3493   5 -1.261785E+01  1.456084E+00  7.362866E-02  6.069213E+00  7.779456E-01 -4.652296E-01
      3493   6 -1.017759E+01  6.461572E+00  3.202353E+00  3.860704E+00  6.718017E-01 -4.089091E-01
      3493   7 -2.377200E+01 -3.195542E+00 -3.273970E+00  8.142775E+00  3.868691E-01 -6.186489E-01
      3493   8 -2.081275E+01  2.667511E+00  7.271324E-01  5.602045E+00  9.867516E-02 -6.456930E-01
      3494   1 -1.482104E+01  7.292359E+00  2.353283E+00  1.471310E+00  5.456112E-01 -9.758474E-01
      3494   2 -1.360805E+01  9.931797E+00  3.757137E+00 -4.229492E+00  1.922763E-01 -1.457429E+00
      3494   3 -4.220733E+01 -3.282839E+00 -6.258971E+00  1.514276E+00 -8.550527E-01 -1.366310E+00
      3494   4 -3.980390E+01  7.299654E-01 -2.260342E+00 -4.956015E+00 -1.220332E+00 -1.918963E+00
      3494   5 -1.432811E+01  6.935208E+00  2.556910E+00  1.081085E+00  6.195830E-01 -4.153710E-01
      3494   6 -1.311039E+01  9.503284E+00  4.047894E+00 -4.606952E+00  2.655473E-01 -5.147478E-01
      3494   7 -4.298304E+01 -4.257485E+00 -6.734792E+00  1.055260E+00 -2.072486E-01 -6.964518E-01
      3494   8 -4.062217E+01 -3.689032E-01 -2.753786E+00 -5.433863E+00 -5.727400E-01 -7.935141E-01
      3495   1 -3.946521E+00  1.469449E+01  7.842269E+00 -6.395803E+00  1.184409E-01 -1.653350E+00
      3495   2 -8.959865E+00  3.696432E+00  2.129184E+00 -2.067336E+01 -1.108994E+00 -2.038020E+00
      3495   3 -7.526634E+01 -1.746068E+01 -1.752139E+01 -1.643001E+01  1.861935E-01 -1.734074E+00
      3495   4 -8.018181E+01 -2.908948E+01 -2.227749E+01 -3.250877E+01  4.076876E-01 -1.633059E+00
      3495   5 -3.165223E+00  1.453770E+01  8.362826E+00 -6.547952E+00 -1.675916E-01 -5.805018E-01
      3495   6 -7.815668E+00  4.335999E+00  3.063050E+00 -2.002709E+01 -1.310011E+00 -7.359224E-01
      3495   7 -7.340609E+01 -1.713449E+01 -1.676464E+01 -1.633737E+01  2.433755E-01 -4.923763E-01
      3495   8 -7.794437E+01 -2.789843E+01 -2.112830E+01 -3.154497E+01  4.905917E-01 -1.360998E-01
      3496   1  1.692362E-01  2.123769E+00  1.557083E-01  1.468688E-02 -1.132650E-01  1.141260E-01
      3496   2 -4.195134E-01  4.461233E-01 -1.291452E-01 -9.365127E-02 -1.644845E-01 -6.597003E-02
      3496   3  8.288581E-02  2.609057E+00  2.065011E-01 -4.412973E-01 -2.476138E-01  3.266255E-01
      3496   4 -4.541635E-01  8.962479E-01  1.291459E-01 -5.605381E-01 -3.305758E-01  1.678475E-01
      3496   5  1.615571E-01  2.423484E+00  2.417735E-01  2.158101E-01  4.161990E-02  3.326182E-02
      3496   6 -3.541365E-01  9.128073E-01  3.347157E-02  6.972134E-02 -1.031176E-02 -5.000377E-02
      3496   7  2.424886E-02  2.900001E+00  2.678732E-01 -1.467197E-01 -1.074012E-02  2.259561E-01
      3496   8 -4.063924E-01  1.416661E+00  3.157414E-01 -3.123695E-01 -9.753557E-02  1.920679E-01
      3497   1 -2.054621E-01 -2.135198E-01  8.354447E-05 -4.378396E-01 -1.048901E-01 -1.779053E-01
      3497   2 -5.580155E-01 -1.284766E+00 -1.038478E-01 -7.489209E-01 -2.195328E-01 -2.247395E-01
      3497   3 -9.046661E-01 -2.035156E-01  4.219858E-02 -7.069659E-01 -1.578796E-01  2.631242E-02
      3497   4 -1.238750E+00 -1.318027E+00  4.309597E-02 -1.045361E+00 -3.011974E-01 -3.404796E-02
      3497   5 -3.083313E-01  2.409697E-01  1.111534E-01 -3.066313E-01  1.891037E-02 -9.862182E-02
      3497   6 -6.624029E-01 -8.357570E-01  7.641402E-03 -6.575371E-01 -9.637570E-02 -8.889024E-02
      3497   7 -9.140094E-01  4.059452E-01  2.522897E-01 -5.527234E-01  4.394489E-03  1.377667E-01
      3497   8 -1.243781E+00 -7.089339E-01  2.679285E-01 -9.368354E-01 -1.423863E-01  1.461942E-01
      3498   1 -1.255020E-01 -1.981068E+00 -4.827579E-02  6.048210E-02  8.375030E-02 -2.651020E-01
      3498   2 -5.080919E-01 -2.908256E+00 -3.963871E-01 -5.381234E-01 -7.665840E-02 -2.402489E-01
      3498   3 -1.720237E+00 -2.464396E+00 -2.639899E-01 -1.601175E-01  1.281766E-01 -8.189795E-02
      3498   4 -2.126203E+00 -3.457624E+00 -6.239799E-01 -8.090221E-01 -4.855144E-02 -3.281501E-02
      3498   5 -3.450435E-01 -1.545143E+00  2.578662E-02  5.126240E-02  9.950857E-02 -9.707941E-02
      3498   6 -6.985069E-01 -2.404628E+00 -2.929403E-01 -5.777328E-01 -6.126629E-02 -6.428537E-02
      3498   7 -1.714449E+00 -1.810461E+00 -1.683534E-02 -1.324725E-01  1.442104E-01  1.388893E-01
      3498   8 -2.078345E+00 -2.706916E+00 -3.333675E-01 -8.116339E-01 -3.448857E-02  1.991846E-01
      3499   1 -3.436171E-01 -2.301690E+00 -2.942327E-01  9.165596E-01  2.887112E-01 -1.909690E-01
      3499   2  1.208437E-01 -9.120341E-01 -1.356863E-01  9.556919E-01  1.650663E-01 -1.837683E-01
      3499   3  1.713599E-01 -1.745979E+00  4.944638E-01  1.345958E+00  3.844138E-01  5.640680E-02
      3499   4  7.623159E-01 -1.439026E-01  8.622408E-01  1.388130E+00  2.468922E-01  1.313086E-01
      3499   5 -4.321258E-01 -1.710852E+00 -1.330452E-01  7.526401E-01  1.371089E-01 -1.418774E-02
      3499   6  1.013675E-01 -1.619763E-01  9.638998E-02  7.660257E-01  1.315269E-02  2.375044E-02
      3499   7  1.753226E-01 -9.485050E-01  7.913523E-01  1.200915E+00  2.714158E-01  3.004643E-01
      3499   8  8.631887E-01  8.697032E-01  1.266031E+00  1.213828E+00  1.322183E-01  4.245750E-01
      3500   1 -7.520957E-01  7.173472E-02 -4.796181E-01  6.414782E-01  2.288061E-01  1.339261E-02
      3500   2  4.296272E-01  3.315848E+00  2.153446E-01  3.310248E-01  1.571582E-01  4.561817E-01
      3500   3 -1.054855E+00  8.741837E-01  1.091632E-01  1.500914E+00  6.579552E-01  4.346869E-01
      3500   4 -2.777796E-02  4.126368E+00  2.805673E-01  1.153876E+00  4.216726E-01  8.293854E-01
      3500   5 -6.122927E-01  8.110763E-01 -2.060282E-01  3.656030E-01 -2.164256E-02  1.288096E-01
      3500   6  4.084904E-01  3.687941E+00  3.197177E-01 -1.237342E-01 -9.698418E-02  3.528819E-01
      3500   7 -1.262708E+00  1.544374E+00  3.008655E-01  1.034602E+00  2.172442E-01  5.650828E-01
      3500   8 -4.714269E-01  4.290920E+00  1.919209E-01  4.605708E-01 -3.892091E-02  6.742077E-01
      3501   1 -1.029442E-01  2.572388E+00 -3.937443E-02  1.182068E+00 -1.320967E-01 -2.714688E-01
      3501   2 -9.552916E-01 -1.084722E-02 -2.972966E-01  1.177588E+00 -2.326687E-01 -3.631653E-01
      3501   3  7.080570E-01  4.121971E+00  1.113580E+00  2.232809E-01 -4.789371E-01  2.665578E-01
      3501   4 -1.938388E-01  1.308182E+00  9.210492E-01  2.160263E-01 -6.408561E-01  1.027689E-01
      3501   5  3.724590E-02  3.420336E+00  2.986295E-01  1.265277E+00  1.190167E-01 -2.025863E-01
      3501   6 -8.457909E-01  7.547509E-01  2.075857E-02  1.208973E+00  1.271212E-02 -2.336988E-01
      3501   7  8.129784E-01  5.163890E+00  1.507982E+00  2.627078E-01 -1.997863E-01  3.545385E-01
      3501   8 -1.341289E-01  2.231596E+00  1.283252E+00  1.920333E-01 -3.686499E-01  2.602693E-01
      3502   1 -2.423986E+00 -1.444575E+00 -6.836652E-01  1.479846E+00  2.566588E-02 -4.597751E-01
      3502   2 -1.722361E+00 -2.309412E-01  4.414518E-01  7.760831E-01 -1.657693E-01 -3.925517E-01
      3502   3 -4.755464E+00 -2.336959E+00 -9.625567E-01  1.903085E+00 -2.260205E-01 -1.124418E-01
      3502   4 -3.963041E+00 -9.942083E-01  3.361036E-01  1.130197E+00 -3.904351E-01 -1.862969E-01
      3502   5 -2.336048E+00 -7.355258E-01 -3.802531E-01  1.382922E+00  1.828034E-01 -2.751159E-01
      3502   6 -1.773692E+00  1.454139E-01  6.133268E-01  6.909444E-01 -6.106818E-03 -1.747782E-01
      3502   7 -4.438020E+00 -1.340064E+00 -4.903411E-01  1.656727E+00 -5.160521E-02  1.073670E-01
      3502   8 -3.825789E+00 -4.271302E-01  6.374932E-01  9.022910E-01 -2.129610E-01  7.103235E-02
      3503   1 -3.535369E+00 -7.802739E-01 -2.457812E-02  1.075391E+00  2.000500E-01 -4.558047E-01
      3503   2 -3.234449E+00 -1.646309E-01  3.628461E-01 -9.319569E-01 -1.225237E-01 -5.747619E-01
      3503   3 -1.061297E+01 -3.495660E+00 -1.978788E+00  1.339174E+00 -1.413242E-01 -3.065355E-01
      3503   4 -1.005713E+01 -2.597240E+00 -1.024406E+00 -8.659368E-01 -3.773584E-01 -4.746974E-01
      3503   5 -3.531012E+00 -4.979552E-01  1.533465E-01  9.954594E-01  2.402386E-01 -1.744173E-01
      3503   6 -3.246354E+00  5.058390E-02  5.536671E-01 -9.543398E-01 -7.424847E-02 -1.796552E-01
      3503   7 -1.023003E+01 -2.996157E+00 -1.602699E+00  1.202053E+00  1.576428E-02  1.907598E-02
      3503   8 -9.697775E+00 -2.188084E+00 -6.365759E-01 -9.256586E-01 -2.104734E-01 -5.540987E-03
      3504   1 -1.567023E+00 -1.543230E-01  7.709272E-01 -4.521871E-01  3.268743E-01 -5.450101E-01
      3504   2 -3.675192E+00 -4.786726E+00 -1.623899E+00 -3.030113E+00 -8.265664E-02 -5.015615E-01
      3504   3 -1.082570E+01 -4.100246E+00 -1.842342E+00 -2.144022E+00  6.059761E-01 -3.045057E-01
      3504   4 -1.340110E+01 -9.424178E+00 -5.103067E+00 -4.971615E+00  4.030228E-01  7.858961E-02
      3504   5 -1.506854E+00  3.033202E-01  1.052247E+00 -4.304479E-01  1.894408E-01 -1.700667E-01
      3504   6 -3.290271E+00 -3.534075E+00 -1.055082E+00 -2.865395E+00 -2.007863E-01 -2.526431E-01
      3504   7 -9.971445E+00 -3.137615E+00 -1.144666E+00 -1.823796E+00  3.206658E-01  1.221242E-01
      3504   8 -1.212919E+01 -7.441897E+00 -4.032872E+00 -4.464177E+00  1.410976E-01  3.469796E-01
      3505   1 -1.265717E+00 -2.145180E+00 -8.312255E-01 -1.615476E+00  4.919943E-01 -2.605099E-01
      3505   2  6.584297E-01  3.576508E+00 -1.390920E-01 -2.272617E-01  4.906971E-01 -1.207874E-01
      3505   3  5.246190E+00  2.534275E+00  3.012866E+00  9.049946E-01  1.194600E+00  5.744600E-01
      3505   4  7.239203E+00  8.739146E+00  3.451371E+00  2.448051E+00  1.509060E+00  1.053844E+00
      3505   5 -1.059727E+00 -6.961309E-01 -2.892356E-01 -1.603627E+00 -4.773305E-04 -2.013433E-01
      3505   6  1.153773E+00  5.730850E+00  6.621148E-01 -1.998543E-03  2.773174E-02 -1.968389E-01
      3505   7  6.518273E+00  4.900565E+00  4.159472E+00  1.275748E+00  6.151369E-01  6.457489E-01
      3505   8  8.889623E+00  1.202473E+01  4.939807E+00  3.093372E+00  9.653415E-01  9.672817E-01
      3506   1 -2.227657E+00 -2.337209E+00 -1.292525E+00  5.536500E+00  6.997661E-02 -1.674090E+00
      3506   2 -1.160284E+00 -6.133496E-01  5.415264E-01  5.282317E+00 -1.041478E-01 -9.460783E-01
      3506   3 -2.080621E+00 -1.819342E+00  1.624206E+00  6.087438E+00 -3.593050E-02 -1.500650E+00
      3506   4 -1.428290E+00 -4.352569E-01  2.414556E+00  5.804128E+00 -6.625744E-02 -8.998467E-01
      3506   5 -2.154063E+00 -1.546100E+00 -8.608255E-01  5.092634E+00  2.538196E-01 -1.130202E+00
      3506   6 -1.281282E+00 -2.364295E-01  7.387731E-01  4.911097E+00  8.881268E-02 -5.739154E-01
      3506   7 -1.640009E+00 -7.155276E-01  2.140189E+00  5.434541E+00 -1.560441E-02 -8.628465E-01
      3506   8 -1.191974E+00  2.040501E-01  2.714062E+00  5.238086E+00 -4.314481E-02 -4.557238E-01
      3507   1 -7.059589E+00 -2.782808E+00 -1.241833E+00  7.974526E+00  2.220687E-01 -7.230812E-01
      3507   2 -4.184741E+00  3.352579E+00  2.205606E+00  6.827398E+00  8.218059E-02 -5.525950E-01
      3507   3 -1.226159E+01 -5.797832E+00 -2.159633E+00  1.048683E+01 -1.533589E-01 -7.161550E-01
      3507   4 -9.174031E+00  9.464359E-01  1.387955E+00  9.199291E+00 -1.343403E-01 -8.695028E-01
      3507   5 -6.931129E+00 -2.486661E+00 -1.016344E+00  7.398757E+00  3.801717E-01 -4.169665E-01
      3507   6 -4.391505E+00  2.873672E+00  2.088735E+00  6.342427E+00  2.503591E-01 -2.826637E-01
      3507   7 -1.190034E+01 -5.301495E+00 -1.872374E+00  9.675700E+00  1.417697E-02 -3.861238E-01
      3507   8 -9.191448E+00  5.614071E-01  1.294370E+00  8.490406E+00  3.627488E-02 -5.642054E-01
      3508   1 -1.287808E+01  2.999443E+00  4.729416E-02  6.942967E+00  1.189131E-01 -5.616336E-01
      3508   2 -9.939716E+00  9.260513E+00  3.580763E+00  4.715157E+00 -1.864431E-05 -7.280815E-01
      3508   3 -2.274213E+01 -1.073874E+00 -2.693783E+00  9.318822E+00 -6.094195E-01 -1.086205E+00
      3508   4 -1.935512E+01  6.039199E+00  1.483185E+00  6.815889E+00 -5.559677E-01 -1.634532E+00
      3508   5 -1.295556E+01  2.102567E+00 -1.537008E-01  6.621087E+00  3.431164E-01 -2.879699E-01
      3508   6 -1.032583E+01  7.631131E+00  3.083485E+00  4.501805E+00  2.351146E-01 -3.974725E-01
      3508   7 -2.283572E+01 -2.032087E+00 -2.981416E+00  8.789641E+00 -2.886304E-01 -7.712441E-01
      3508   8 -1.981024E+01  4.233639E+00  8.377980E-01  6.402714E+00 -2.318383E-01 -1.236127E+00
      3509   1 -1.470987E+01  1.027549E+01  2.551126E+00  1.356149E+00  4.582369E-01 -1.249873E+00
      3509   2 -1.307417E+01  1.448355E+01  3.795401E+00 -4.533627E+00  4.741904E-02 -2.651522E+00
      3509   3 -4.040029E+01  8.364628E-01 -4.750714E+00  2.178696E+00 -2.103779E+00 -2.807111E+00
      3509   4 -3.625530E+01  7.850486E+00  2.051896E+00 -4.442198E+00 -2.310153E+00 -5.136266E+00
      3509   5 -1.503973E+01  8.136154E+00  2.015610E+00  1.547610E+00  4.566415E-01 -6.123582E-01
      3509   6 -1.385471E+01  1.109929E+01  3.002523E+00 -4.207276E+00  5.878654E-02 -1.178821E+00
      3509   7 -4.160040E+01 -2.023866E+00 -5.906120E+00  1.847916E+00 -9.709117E-01 -1.937148E+00
      3509   8 -3.811657E+01  3.388384E+00  2.944232E-01 -4.647039E+00 -1.173323E+00 -3.237603E+00
      3510   1 -3.809827E+00  1.907130E+01  7.400894E+00 -7.134152E+00  2.575435E-01 -3.585554E+00
      3510   2 -9.687092E+00  6.122398E+00  7.589097E-01 -2.262119E+01 -1.151212E+00 -5.310197E+00
      3510   3 -7.280156E+01 -1.080864E+01 -1.159732E+01 -1.762024E+01 -1.249443E+00 -6.161370E+00
      3510   4 -7.615540E+01 -2.209728E+01 -1.148814E+01 -3.501994E+01 -1.540027E+00 -7.447622E+00
      3510   5 -4.350127E+00  1.579345E+01  6.931557E+00 -6.551976E+00  1.329249E-01 -1.391783E+00
      3510   6 -9.482476E+00  4.314631E+00  1.302548E+00 -2.137234E+01 -1.204933E+00 -1.872324E+00
      3510   7 -7.366425E+01 -1.437873E+01 -1.272052E+01 -1.673576E+01  2.167923E-01 -3.279926E+00
      3510   8 -7.633966E+01 -2.416630E+01 -1.185098E+01 -3.342818E+01 -5.212353E-02 -3.119711E+00
      3511   1  1.472224E+00  3.404511E+01 -1.495712E+00 -1.033710E+01  3.769897E-01  7.307763E-01
      3511   2 -2.204063E-01  2.774472E+01 -8.374188E-01 -1.122943E+01  5.482924E-01  6.935118E-01
      3511   3  4.242734E+00  3.698006E+01  4.064949E-01 -8.700880E+00 -3.456805E-02  3.497606E-01
      3511   4  2.627805E+00  3.053529E+01  1.468176E+00 -9.604786E+00  1.019938E-02  2.228596E-01
      3511   5  6.686823E-01  3.318296E+01 -2.000246E+00 -1.010563E+01 -7.768790E-01  4.133476E-01
      3511   6 -1.237798E+00  2.639182E+01 -1.564046E+00 -1.115626E+01 -6.023733E-01  7.064648E-01
      3511   7  4.069169E+00  3.643223E+01  1.663825E-01 -8.232435E+00 -1.271440E+00  3.862581E-02
      3511   8  2.165504E+00  2.935423E+01  8.988348E-01 -9.338314E+00 -1.210940E+00  2.932600E-01
      3512   1  1.230739E+00  2.063221E+01 -1.252074E-01 -1.437744E+01 -1.778408E-01  4.362230E-01
      3512   2 -2.675771E+00  8.801833E+00 -1.316535E+00 -1.506122E+01 -1.933683E-01  2.840661E-01
      3512   3  3.964989E+00  2.368843E+01  2.349430E+00 -1.185093E+01 -5.315814E-01  2.935783E-02
      3512   4 -3.459217E-01  1.098052E+01  6.876336E-01 -1.253671E+01 -6.768799E-01 -4.128637E-02
      3512   5  6.809107E-01  1.917944E+01 -7.446535E-01 -1.474493E+01 -1.494969E+00  5.572886E-01
      3512   6 -3.091724E+00  7.659773E+00 -1.800433E+00 -1.560795E+01 -1.507212E+00  4.808237E-01
      3512   7  3.867852E+00  2.231754E+01  1.817328E+00 -1.206782E+01 -1.693577E+00  2.692048E-01
      3512   8 -3.078285E-01  9.916955E+00  2.989760E-01 -1.297528E+01 -1.822741E+00  2.488290E-01
      3513   1  1.270620E+00  3.011348E+00  4.652900E-01 -1.794438E+01 -2.854410E-01  1.430673E-01
      3513   2 -2.020682E+00 -6.860468E+00 -6.338981E-01 -1.759377E+01 -4.381254E-01 -8.332521E-02
      3513   3  1.128724E+00  3.525147E+00  1.082439E+00 -1.589987E+01 -6.058467E-01 -9.784855E-02
      3513   4 -2.643767E+00 -7.228624E+00 -7.387624E-01 -1.552695E+01 -7.772332E-01 -2.225971E-01
      3513   5  1.354122E+00  2.262708E+00  2.529506E-01 -1.878390E+01 -1.336786E+00  3.636057E-01
      3513   6 -1.736839E+00 -7.147744E+00 -6.398013E-01 -1.847196E+01 -1.488997E+00  6.941926E-02
      3513   7  1.084030E+00  2.603668E+00  7.297275E-01 -1.670070E+01 -1.405472E+00  1.935396E-01
      3513   8 -2.463163E+00 -7.654349E+00 -8.362338E-01 -1.636930E+01 -1.574533E+00 -5.219813E-02
      3514   1  1.487287E+00 -1.137975E+01  1.128349E+00 -1.669096E+01 -1.427095E-02 -2.880042E-01
      3514   2 -1.435403E+00 -2.034835E+01  3.546490E-01 -1.542262E+01 -2.314288E-01 -4.985774E-01
      3514   3 -1.335265E+00 -1.311811E+01 -2.525335E-01 -1.470865E+01 -3.666324E-01 -3.634648E-01
      3514   4 -4.667347E+00 -2.285172E+01 -1.625868E+00 -1.338685E+01 -5.351625E-01 -5.066371E-01
      3514   5  2.053524E+00 -1.132132E+01  1.316067E+00 -1.754422E+01 -1.045167E+00 -1.743177E-01
      3514   6 -7.333353E-01 -1.997780E+01  6.830141E-01 -1.622717E+01 -1.263556E+00 -4.193792E-01
      3514   7 -1.271029E+00 -1.336206E+01 -3.048790E-01 -1.550052E+01 -1.171690E+00 -2.649569E-01
      3514   8 -4.456895E+00 -2.277815E+01 -1.508344E+00 -1.410739E+01 -1.346266E+00 -4.849484E-01
      3515   1 -5.068095E-01 -2.593287E+01  7.565189E-01 -1.150602E+01  4.604650E-01 -8.601499E-01
      3515   2 -9.943318E-01 -2.870142E+01  1.900002E+00 -1.029810E+01  2.074698E-01 -1.070906E+00
      3515   3 -3.399900E+00 -2.785604E+01 -1.041341E+00 -1.050941E+01  5.215937E-03 -7.808779E-01
      3515   4 -4.003254E+00 -3.088955E+01 -1.901754E-02 -9.259479E+00 -1.720907E-01 -9.496256E-01
      3515   5  2.598678E-01 -2.565444E+01  1.078986E+00 -1.191391E+01 -3.267127E-01 -8.273433E-01
      3515   6 -1.812026E-01 -2.831474E+01  2.269056E+00 -1.062377E+01 -5.816239E-01 -9.689899E-01
      3515   7 -3.156224E+00 -2.780184E+01 -9.080915E-01 -1.092645E+01 -6.875635E-01 -7.951412E-01
      3515   8 -3.705899E+00 -3.071075E+01  1.685749E-01 -9.563692E+00 -8.742807E-01 -9.039996E-01
      3516   1  5.189741E+00  3.763703E+01  9.357029E-01 -1.504624E+01  3.866971E-01  4.702385E-01
      3516   2 -1.818679E-02  2.240269E+01 -1.189713E+00 -1.511244E+01  1.752819E-01  6.474790E-01
      3516   3  8.009460E+00  4.338857E+01  3.877784E+00 -1.120890E+01 -4.912349E-01 -6.155498E-01
      3516   4  3.016948E+00  2.771612E+01  2.908527E+00 -1.120523E+01 -1.074158E+00 -5.750333E-01
      3516   5  4.819900E+00  3.553705E+01  1.503179E-01 -1.469453E+01 -9.492027E-01  2.200310E-01
      3516   6 -7.019344E-01  1.968302E+01 -2.401770E+00 -1.517161E+01 -1.116085E+00  1.032954E+00
      3516   7  8.522858E+00  4.145885E+01  3.389941E+00 -1.063302E+01 -2.112115E+00 -9.112048E-01
      3516   8  3.136622E+00  2.502745E+01  1.867222E+00 -1.112454E+01 -2.631956E+00 -1.293600E-01
      3517   1  9.713665E-01  1.398646E+01 -7.564308E-01 -1.717926E+01 -1.765718E-01  5.731198E-01
      3517   2 -1.469494E+00  5.780743E+00 -6.869114E-01 -1.779422E+01 -3.971860E-01  3.197442E-01
      3517   3  4.643794E+00  1.790898E+01  3.333493E+00 -1.478646E+01 -9.701395E-01 -4.095094E-01
      3517   4  1.437464E+00  8.400245E+00  2.154462E+00 -1.544072E+01 -1.218476E+00 -2.655095E-01
      3517   5  4.260950E-01  1.119572E+01 -1.974371E+00 -1.788660E+01 -1.126700E+00  1.195493E+00
      3517   6 -1.431433E+00  4.293205E+00 -1.263613E+00 -1.855426E+01 -1.343991E+00  7.413887E-01
      3517   7  3.870011E+00  1.448699E+01  1.767175E+00 -1.583375E+01 -1.610944E+00  4.189155E-01
      3517   8  1.376948E+00  6.560516E+00  1.383439E+00 -1.654735E+01 -1.854573E+00  2.822847E-01
      3518   1 -1.107913E+00  6.781023E-01 -7.406949E-02 -2.123469E+01 -2.469496E-01  1.773158E-01
      3518   2 -2.726910E+00 -4.866223E+00  7.359891E-02 -1.986439E+01 -5.078196E-01 -2.978465E-02
      3518   3 -3.848064E+00  1.274450E-01 -2.369159E-01 -1.969222E+01 -8.938026E-01 -1.579217E-01
      3518   4 -5.941409E+00 -6.252224E+00 -8.350645E-01 -1.824582E+01 -1.089126E+00 -1.144334E-01
      3518   5 -1.293832E+00 -2.934742E-01 -5.201388E-01 -2.225762E+01 -8.576997E-01  5.134334E-01
      3518   6 -2.487978E+00 -4.879021E+00  8.492177E-02 -2.082644E+01 -1.126427E+00  1.995838E-01
      3518   7 -4.474547E+00 -1.189021E+00 -9.597842E-01 -2.099172E+01 -1.294387E+00  2.492883E-01
      3518   8 -6.057159E+00 -6.423075E+00 -1.001103E+00 -1.946520E+01 -1.500841E+00  1.373336E-01
      3519   1 -1.208624E+00 -8.337041E+00  1.163796E+00 -1.851405E+01 -1.476252E-01 -2.021680E-01
      3519   2 -3.539341E+00 -1.553087E+01  5.885662E-01 -1.694706E+01 -2.868518E-01 -3.552950E-01
      3519   3 -5.423322E+00 -1.072403E+01 -6.571834E-01 -1.647335E+01 -7.275382E-01 -1.292621E-01
      3519   4 -8.330122E+00 -1.887791E+01 -2.192633E+00 -1.482061E+01 -7.748388E-01 -1.148225E-01
      3519   5 -1.163184E+00 -7.994373E+00  1.261105E+00 -1.934043E+01 -7.759012E-01 -6.807310E-02
      3519   6 -3.226861E+00 -1.461115E+01  9.989615E-01 -1.767306E+01 -9.261471E-01 -3.753454E-01
      3519   7 -5.759572E+00 -1.048559E+01 -7.136126E-01 -1.745006E+01 -1.109168E+00 -1.465513E-02
      3519   8 -8.344968E+00 -1.795475E+01 -1.862432E+00 -1.567180E+01 -1.172078E+00 -2.107855E-01
      3520   1 -1.906404E+00 -2.096286E+01  1.110144E+00 -1.451411E+01  1.784404E-01 -6.082739E-01
      3520   2 -4.722548E+00 -2.926971E+01  2.984960E-02 -1.369312E+01  1.152655E-01 -7.926354E-01
      3520   3 -5.145964E+00 -2.423701E+01 -1.245208E+00 -1.220572E+01 -3.861772E-01 -2.949311E-01
      3520   4 -8.039320E+00 -3.297915E+01 -2.147584E+00 -1.135167E+01 -3.435382E-01 -5.454737E-01
      3520   5 -1.595764E+00 -2.010202E+01  1.509684E+00 -1.492752E+01 -4.810880E-01 -6.062201E-01
      3520   6 -4.522281E+00 -2.863583E+01  2.884353E-01 -1.399212E+01 -5.569468E-01 -5.836243E-01
      3520   7 -5.167660E+00 -2.345634E+01 -9.493859E-01 -1.258899E+01 -1.066409E+00 -3.175906E-01
      3520   8 -8.202533E+00 -3.248537E+01 -2.036601E+00 -1.159419E+01 -1.041737E+00 -3.347926E-01
      3521   1  5.828479E+00  3.368159E+01  2.578978E-01 -1.868038E+01  2.872496E-01  2.167469E+00
      3521   2 -2.233757E-01  1.497015E+01 -1.203514E+00 -2.090646E+01  6.708739E-03  1.454091E+00
      3521   3  1.830517E+01  4.676022E+01  1.120980E+01 -1.200154E+01 -1.447257E+00  1.579934E-01
      3521   4  1.096634E+01  2.553659E+01  7.970683E+00 -1.446834E+01 -1.302000E+00  1.458406E-01
      3521   5  5.045337E+00  2.900075E+01 -1.795159E+00 -1.963378E+01 -1.178061E+00  2.886206E+00
      3521   6 -1.364305E-01  1.225770E+01 -2.324664E+00 -2.153239E+01 -1.512241E+00  2.029892E+00
      3521   7  1.568704E+01  4.014551E+01  8.053210E+00 -1.388933E+01 -2.710236E+00  1.055383E+00
      3521   8  9.396104E+00  2.130918E+01  5.919747E+00 -1.595723E+01 -2.615103E+00  8.635623E-01
      3522   1 -3.539571E+00  3.922906E+00 -2.415991E+00 -2.670226E+01  3.347223E-01  1.170444E+00
      3522   2 -1.606933E+00  6.515192E+00  1.433852E+00 -2.298203E+01 -4.773474E-01  6.315899E-01
      3522   3 -1.347369E+01  5.430772E-01 -4.057468E+00 -2.751832E+01 -4.651729E-01  3.657464E-01
      3522   4 -1.169932E+01  2.894553E+00 -4.943702E-01 -2.353818E+01 -9.630822E-01  3.453625E-01
      3522   5 -4.100944E+00  1.393165E+00 -3.639706E+00 -2.815246E+01 -1.508956E-01  1.925896E+00
      3522   6 -1.377886E+00  5.813578E+00  1.016741E+00 -2.417825E+01 -1.002541E+00  1.320879E+00
      3522   7 -1.499522E+01 -2.852526E+00 -5.809564E+00 -2.956231E+01 -9.059704E-01  1.208163E+00
      3522   8 -1.229552E+01  1.642925E+00 -1.306014E+00 -2.528045E+01 -1.440862E+00  1.115253E+00
      3523   1 -5.657614E+00  3.093004E+00  6.884070E-01 -2.499233E+01 -2.940755E-01  3.750426E-01
      3523   2 -6.968407E+00 -1.193139E+00  6.052417E-01 -2.239149E+01 -5.887324E-01  8.440795E-02
      3523   3 -1.261179E+01  8.443481E-01 -3.371990E-01 -2.371364E+01 -5.159954E-01  3.450762E-01
      3523   4 -1.474415E+01 -4.540625E+00 -2.060080E+00 -2.091320E+01 -7.106294E-01  2.115558E-01
      3523   5 -6.002693E+00  2.882458E+00  3.031234E-01 -2.613742E+01 -5.565375E-01  9.369972E-01
      3523   6 -6.966519E+00 -6.971617E-01  6.699916E-01 -2.344342E+01 -8.637947E-01  3.030464E-01
      3523   7 -1.313008E+01  5.512286E-01 -7.848912E-01 -2.508616E+01 -4.753744E-01  9.820870E-01
      3523   8 -1.487776E+01 -4.032467E+00 -2.026780E+00 -2.217889E+01 -6.817828E-01  4.408569E-01
      3524   1 -4.985923E+00 -3.870392E+00  1.522906E+00 -2.000132E+01 -3.160171E-01 -1.344241E-01
      3524   2 -7.164352E+00 -1.009234E+01  4.834272E-01 -1.858637E+01 -2.642209E-01 -3.626140E-01
      3524   3 -9.758055E+00 -6.575593E+00 -6.420394E-01 -1.799304E+01 -5.894092E-01  1.151414E-01
      3524   4 -1.253166E+01 -1.375738E+01 -2.705606E+00 -1.646502E+01 -5.012783E-01  2.026604E-02
      3524   5 -5.269728E+00 -3.175515E+00  1.636370E+00 -2.079595E+01 -5.886205E-01 -1.051407E-01
      3524   6 -7.188248E+00 -8.845044E+00  9.108321E-01 -1.933060E+01 -5.414016E-01 -5.054305E-01
      3524   7 -1.000913E+01 -5.741420E+00 -4.763233E-01 -1.899407E+01 -7.034501E-01  1.309431E-01
      3524   8 -1.248571E+01 -1.228062E+01 -2.192366E+00 -1.741148E+01 -6.195964E-01 -1.694594E-01
      3525   1 -2.600833E+00 -1.488918E+01  1.931521E+00 -1.571919E+01  3.395666E-02 -6.217403E-01
      3525   2 -5.888255E+00 -2.461126E+01  6.955301E-01 -1.496516E+01  1.669918E-01 -9.503396E-01
      3525   3 -6.769970E+00 -1.939384E+01 -1.476398E+00 -1.256218E+01 -4.669777E-01 -8.288013E-02
      3525   4 -1.066732E+01 -3.028193E+01 -3.579459E+00 -1.175372E+01 -2.596578E-01 -3.182205E-01
      3525   5 -2.608846E+00 -1.371132E+01  2.383982E+00 -1.597855E+01 -6.411140E-01 -7.529271E-01
      3525   6 -5.788468E+00 -2.321427E+01  1.288185E+00 -1.514207E+01 -5.174368E-01 -1.135201E+00
      3525   7 -6.816044E+00 -1.800088E+01 -9.774759E-01 -1.298775E+01 -1.036231E+00 -2.681528E-01
      3525   8 -1.057826E+01 -2.860394E+01 -2.915137E+00 -1.208595E+01 -8.376559E-01 -5.783490E-01
      3526   1 -1.273349E+01  1.140600E+01 -1.691320E+00 -4.808141E+01  1.312183E+00  5.107077E+00
      3526   2 -5.381115E+00  2.645410E+01  7.768492E+00 -2.732155E+01 -4.331090E-01  2.916306E+00
      3526   3 -8.208204E+01 -1.645345E+01 -1.132901E+01 -6.027632E+01  1.789150E-01  7.539039E+00
      3526   4 -7.851587E+01 -4.395981E+00 -1.149925E+01 -3.751119E+01 -1.567558E-01  4.925528E+00
      3526   5 -1.146034E+01  1.612470E+01 -1.296777E+00 -5.055697E+01  8.437733E-01  1.068449E+01
      3526   6 -4.230541E+00  3.046686E+01  8.460388E+00 -2.866607E+01 -1.002812E+00  6.258393E+00
      3526   7 -8.019908E+01 -1.045509E+01 -9.370257E+00 -6.238090E+01  1.807124E+00  1.426644E+01
      3526   8 -7.706418E+01  4.746819E-01 -9.850351E+00 -3.843464E+01  1.442167E+00  9.104847E+00
      3527   1 -1.666460E+01  1.558020E+01  2.511628E+00 -3.075386E+01 -6.338688E-02  2.006229E+00
      3527   2 -1.839229E+01  1.073444E+01  1.598433E+00 -2.384561E+01 -6.270633E-01  9.140422E-01
      3527   3 -3.795964E+01  9.714630E+00  1.846198E+00 -3.061166E+01  1.301004E+00  3.783002E+00
      3527   4 -4.251331E+01  1.772474E+00 -5.390553E+00 -2.302798E+01  1.013645E+00  2.169699E+00
      3527   5 -1.570945E+01  1.853356E+01  3.146486E+00 -3.238054E+01 -1.470355E-01  4.163177E+00
      3527   6 -1.758348E+01  1.309500E+01  2.338279E+00 -2.524809E+01 -7.305677E-01  1.720675E+00
      3527   7 -3.622688E+01  1.335242E+01  3.301904E+00 -3.206067E+01  2.467371E+00  6.364835E+00
      3527   8 -4.110257E+01  4.586210E+00 -4.184206E+00 -2.425625E+01  2.174271E+00  3.210417E+00
      3528   1 -1.339853E+01  8.863726E+00  2.894821E+00 -2.230372E+01 -4.778054E-01  4.249145E-01
      3528   2 -1.642317E+01  1.865254E+00 -1.888589E-01 -2.040054E+01 -4.859657E-01  1.024079E-01
      3528   3 -1.988997E+01  6.611257E+00  1.323018E+00 -2.026146E+01  8.847891E-02  1.263249E+00
      3528   4 -2.353831E+01 -1.379561E+00 -2.847290E+00 -1.817167E+01  1.583570E-01  5.848933E-01
      3528   5 -1.296511E+01  1.078010E+01  3.524208E+00 -2.329158E+01 -3.310511E-01  6.939169E-01
      3528   6 -1.620263E+01  3.251661E+00  2.609223E-01 -2.131456E+01 -3.448192E-01  1.961580E-01
      3528   7 -1.929011E+01  8.694533E+00  2.106115E+00 -2.118574E+01  3.398093E-01  1.591321E+00
      3528   8 -2.319151E+01  1.036292E-01 -2.307632E+00 -1.902231E+01  4.080661E-01  7.052482E-01
      3529   1 -8.460466E+00  1.079002E+00  2.111179E+00 -1.813784E+01 -4.606019E-01 -8.215419E-02
      3529   2 -1.076842E+01 -4.674396E+00  1.714069E-01 -1.762478E+01 -2.658130E-01 -2.732697E-01
      3529   3 -1.077748E+01 -5.669158E-01  9.130984E-01 -1.621571E+01 -1.948518E-01  2.700575E-01
      3529   4 -1.371451E+01 -7.286988E+00 -2.156926E+00 -1.564698E+01 -8.750460E-02 -3.111644E-03
      3529   5 -8.525443E+00  2.174445E+00  2.420980E+00 -1.889706E+01 -5.087034E-01 -1.069685E-01
      3529   6 -1.077938E+01 -3.488943E+00  5.712317E-01 -1.843631E+01 -3.076311E-01 -4.881731E-01
      3529   7 -1.050001E+01  7.426790E-01  1.389410E+00 -1.709389E+01 -1.115639E-01  2.497146E-01
      3529   8 -1.339012E+01 -5.878348E+00 -1.623292E+00 -1.658814E+01 -2.400009E-03 -2.365203E-01
      3530   1 -3.201151E+00 -8.247392E+00  2.251035E+00 -1.377630E+01 -2.704171E-01 -5.994659E-01
      3530   2 -5.428728E+00 -1.492911E+01  1.507499E+00 -1.361088E+01 -7.958865E-03 -1.412294E+00
      3530   3 -5.644304E+00 -1.166360E+01 -8.251984E-01 -1.129037E+01 -9.732700E-02 -3.702428E-01
      3530   4 -8.871212E+00 -1.979607E+01 -3.449088E+00 -1.110109E+01  1.553252E-02 -1.159385E+00
      3530   5 -3.398810E+00 -7.346198E+00  2.556835E+00 -1.419534E+01 -7.320946E-01 -8.949463E-01
      3530   6 -5.487304E+00 -1.376670E+01  2.015691E+00 -1.412908E+01 -4.588863E-01 -2.017214E+00
      3530   7 -5.368922E+00 -1.040181E+01 -3.366534E-01 -1.194482E+01 -3.088922E-01 -7.360673E-01
      3530   8 -8.461468E+00 -1.823907E+01 -2.807878E+00 -1.187011E+01 -1.929246E-01 -1.869617E+00
      3531   1  1.714160E+00  3.496160E+01 -2.027412E+00 -1.059895E+01 -9.494332E-01  5.431274E+00
      3531   2  4.917193E-01  2.892499E+01 -6.559780E-02 -1.126660E+01 -9.419862E-01  4.268737E+00
      3531   3  5.435468E+00  4.097829E+01  1.466005E+00 -8.860948E+00 -1.500439E+00  3.871347E+00
      3531   4  3.543407E+00  3.353002E+01  2.607405E+00 -9.522849E+00 -1.542097E+00  3.113466E+00
      3531   5 -3.833380E-01  3.004769E+01 -4.147138E+00 -9.431018E+00 -2.502327E+00  5.233870E+00
      3531   6 -1.080002E+00  2.523358E+01 -1.655250E+00 -1.017438E+01 -2.493481E+00  4.090739E+00
      3531   7  2.864066E+00  3.447820E+01 -1.339912E+00 -7.848605E+00 -2.879034E+00  3.955344E+00
      3531   8  1.689563E+00  2.868196E+01  5.413139E-01 -8.610402E+00 -2.913441E+00  3.139514E+00
      3532   1  1.916940E+00  2.188165E+01  9.572135E-01 -1.397860E+01 -2.116684E+00  3.052583E+00
      3532   2 -2.345567E+00  9.428461E+00 -7.979583E-01 -1.457543E+01 -2.101874E+00  1.668109E+00
      3532   3  4.648596E+00  2.602350E+01  3.360167E+00 -1.146617E+01 -2.407405E+00  2.230603E+00
      3532   4 -2.201413E-01  1.207873E+01  1.075820E+00 -1.208100E+01 -2.405063E+00  1.134398E+00
      3532   5  6.519910E-01  1.896173E+01 -3.079625E-01 -1.307178E+01 -3.330011E+00  3.022308E+00
      3532   6 -3.070883E+00  7.769880E+00 -1.525696E+00 -1.368739E+01 -3.314845E+00  1.800701E+00
      3532   7  3.146618E+00  2.227993E+01  1.736163E+00 -1.065079E+01 -3.535367E+00  2.341950E+00
      3532   8 -1.026536E+00  9.969563E+00  1.360207E-01 -1.129285E+01 -3.531184E+00  1.379330E+00
      3533   1  1.306337E+00  3.313678E+00  6.253309E-01 -1.723895E+01 -2.534773E+00  6.487374E-01
      3533   2 -2.172283E+00 -6.839698E+00 -8.166935E-01 -1.693794E+01 -2.530913E+00 -6.556533E-01
      3533   3  1.344636E+00  4.105896E+00  1.289163E+00 -1.519568E+01 -2.752113E+00  3.467675E-01
      3533   4 -2.803550E+00 -7.477280E+00 -9.549477E-01 -1.488292E+01 -2.745012E+00 -6.322659E-01
      3533   5  9.240590E-01  2.492281E+00  2.524113E-01 -1.644941E+01 -3.518019E+00  8.527156E-01
      3533   6 -2.072846E+00 -6.540870E+00 -7.041219E-01 -1.614258E+01 -3.514252E+00 -4.696991E-01
      3533   7  7.689446E-01  3.000931E+00  7.237319E-01 -1.452244E+01 -3.575165E+00  6.333293E-01
      3533   8 -2.738382E+00 -7.106475E+00 -8.599508E-01 -1.420096E+01 -3.568543E+00 -4.316887E-01
      3534   1  1.088446E+00 -1.163793E+01  6.078789E-01 -1.608154E+01 -2.056984E+00 -1.639998E+00
      3534   2 -2.088125E+00 -2.097653E+01 -6.420851E-01 -1.493999E+01 -2.074005E+00 -2.920251E+00
      3534   3 -1.456841E+00 -1.388578E+01 -6.939019E-01 -1.410874E+01 -2.248316E+00 -1.384176E+00
      3534   4 -5.258298E+00 -2.459171E+01 -2.659501E+00 -1.292660E+01 -2.249225E+00 -2.351334E+00
      3534   5  1.565298E+00 -1.049496E+01  1.089945E+00 -1.529383E+01 -2.987057E+00 -1.461656E+00
      3534   6 -1.116955E+00 -1.868274E+01  3.368854E-01 -1.412721E+01 -3.004538E+00 -2.732995E+00
      3534   7 -1.104449E+00 -1.249253E+01 -1.903157E-01 -1.344140E+01 -3.041557E+00 -1.236035E+00
      3534   8 -4.251313E+00 -2.168447E+01 -1.487921E+00 -1.222135E+01 -3.044846E+00 -2.253617E+00
      3535   1 -1.063998E+00 -2.635576E+01  1.669390E-01 -1.147376E+01 -9.123841E-01 -4.069046E+00
      3535   2 -1.059210E+00 -2.886398E+01  2.691119E+00 -1.042794E+01 -9.431643E-01 -5.154222E+00
      3535   3 -4.239494E+00 -3.017147E+01 -2.130977E+00 -1.029222E+01 -1.384015E+00 -3.142822E+00
      3535   4 -4.966476E+00 -3.401820E+01 -7.075195E-01 -9.216416E+00 -1.391082E+00 -3.768825E+00
      3535   5  2.690031E-01 -2.332354E+01  1.482220E+00 -1.047992E+01 -2.139638E+00 -3.872316E+00
      3535   6  7.829853E-01 -2.465415E+01  4.526108E+00 -9.398772E+00 -2.171093E+00 -5.134805E+00
      3535   7 -2.696036E+00 -2.612487E+01 -4.243455E-01 -9.523378E+00 -2.361540E+00 -3.128996E+00
      3535   8 -2.703875E+00 -2.834808E+01  1.772737E+00 -8.396628E+00 -2.372109E+00 -4.051633E+00
      3536   1  5.285505E+00  3.948008E+01  1.449463E+00 -1.475128E+01 -1.144315E+00  3.411842E+00
      3536   2  2.495276E-01  2.458700E+01 -4.440542E-01 -1.462128E+01 -1.300430E+00  2.689034E+00
      3536   3  8.626060E+00  4.664642E+01  5.754961E+00 -1.088622E+01 -1.954280E+00  1.961119E+00
      3536   4  3.262788E+00  3.064823E+01  3.875581E+00 -1.073758E+01 -2.141609E+00  1.294131E+00
      3536   5  4.323683E+00  3.653507E+01  1.375954E-01 -1.433533E+01 -2.409347E+00  3.537467E+00
      3536   6 -6.930954E-01  2.172818E+01 -1.778112E+00 -1.424995E+01 -2.561678E+00  3.106590E+00
      3536   7  7.383344E+00  4.300957E+01  4.089950E+00 -1.053873E+01 -3.236911E+00  2.208703E+00
      3536   8  2.052576E+00  2.714676E+01  2.183532E+00 -1.044137E+01 -3.418796E+00  1.862082E+00
      3537   1  1.449627E+00  1.615940E+01  7.516250E-02 -1.635835E+01 -2.034528E+00  1.958918E+00
      3537   2 -1.558124E+00  6.635847E+00 -4.271255E-01 -1.708852E+01 -2.012538E+00  1.136163E+00
      3537   3  5.555204E+00  2.107433E+01  4.416106E+00 -1.351500E+01 -2.758299E+00  7.782819E-01
      3537   4  1.733757E+00  9.914778E+00  2.837503E+00 -1.431876E+01 -2.681611E+00  4.137445E-01
      3537   5  4.321913E-01  1.359085E+01 -1.198802E+00 -1.607643E+01 -3.023747E+00  2.516308E+00
      3537   6 -2.062549E+00  5.232496E+00 -1.156244E+00 -1.675285E+01 -3.008388E+00  1.604604E+00
      3537   7  4.113878E+00  1.773940E+01  2.698146E+00 -1.355757E+01 -3.553802E+00  1.525473E+00
      3537   8  9.471873E-01  8.061817E+00  1.820096E+00 -1.429576E+01 -3.486653E+00  1.013440E+00
      3538   1 -7.945687E-01  1.129127E+00  1.626030E-01 -2.036993E+01 -2.293581E+00  4.951430E-01
      3538   2 -2.773044E+00 -5.211648E+00 -9.153600E-02 -1.911845E+01 -2.371947E+00 -3.764876E-01
      3538   3 -2.972076E+00  1.033662E+00  4.707101E-01 -1.847590E+01 -2.767254E+00  1.037156E-01
      3538   4 -5.699357E+00 -6.679352E+00 -9.072036E-01 -1.715887E+01 -2.816426E+00 -3.578460E-01
      3538   5 -1.334198E+00  3.244633E-01 -3.606942E-01 -2.010974E+01 -2.954022E+00  8.947835E-01
      3538   6 -2.871998E+00 -5.033526E+00 -1.287040E-01 -1.882199E+01 -3.035926E+00 -1.499837E-01
      3538   7 -3.800382E+00 -4.345554E-02 -2.735587E-01 -1.850240E+01 -3.215237E+00  5.903616E-01
      3538   8 -5.959505E+00 -6.496162E+00 -1.017926E+00 -1.713894E+01 -3.269500E+00 -1.117720E-01
      3539   1 -9.615694E-01 -8.964780E+00  9.410458E-01 -1.785268E+01 -1.918509E+00 -9.970492E-01
      3539   2 -3.580186E+00 -1.674477E+01 -7.692331E-03 -1.640594E+01 -1.928222E+00 -1.714675E+00
      3539   3 -5.024168E+00 -1.174443E+01 -9.444834E-01 -1.556868E+01 -2.388188E+00 -6.924715E-01
      3539   4 -8.363095E+00 -2.087526E+01 -2.943411E+00 -1.403835E+01 -2.375037E+00 -1.048647E+00
      3539   5 -1.031541E+00 -8.231441E+00  1.119795E+00 -1.755187E+01 -2.568774E+00 -8.884236E-01
      3539   6 -3.276798E+00 -1.518024E+01  5.844054E-01 -1.606844E+01 -2.581259E+00 -1.751459E+00
      3539   7 -5.160970E+00 -1.082495E+01 -7.388256E-01 -1.549347E+01 -2.848533E+00 -6.090964E-01
      3539   8 -8.018088E+00 -1.888908E+01 -2.198418E+00 -1.391777E+01 -2.839369E+00 -1.170064E+00
      3540   1 -1.991616E+00 -2.217346E+01  6.256678E-01 -1.415761E+01 -1.150003E+00 -2.487587E+00
      3540   2 -4.456611E+00 -3.000738E+01  2.429433E-01 -1.344712E+01 -1.099906E+00 -3.381019E+00
      3540   3 -5.472409E+00 -2.646224E+01 -2.165883E+00 -1.178923E+01 -1.533045E+00 -1.641263E+00
      3540   4 -8.389186E+00 -3.526203E+01 -3.088682E+00 -1.103879E+01 -1.465835E+00 -2.371342E+00
      3540   5 -1.438409E+00 -2.017927E+01  1.445731E+00 -1.378483E+01 -1.965251E+00 -2.533556E+00
      3540   6 -3.771492E+00 -2.771610E+01  1.205621E+00 -1.304568E+01 -1.917229E+00 -3.411868E+00
      3540   7 -4.773420E+00 -2.397124E+01 -1.128549E+00 -1.153061E+01 -2.236603E+00 -1.784012E+00
      3540   8 -7.509661E+00 -3.236518E+01 -1.855415E+00 -1.074606E+01 -2.172377E+00 -2.522764E+00
      3541   1  6.405898E+00  3.532807E+01  3.298026E+00 -1.779724E+01 -1.012499E+00  3.291510E+00
      3541   2 -6.359806E-01  1.540432E+01 -2.511483E-01 -2.031904E+01 -7.864423E-01  2.669261E+00
      3541   3  2.099524E+01  5.005269E+01  1.732944E+01 -1.062256E+01 -2.101690E+00  2.195993E+00
      3541   4  1.266198E+01  2.769410E+01  1.191050E+01 -1.338433E+01 -1.771561E+00  1.702693E+00
      3541   5  6.208504E+00  3.463477E+01  2.404221E+00 -1.779780E+01 -2.188134E+00  4.548015E+00
      3541   6 -8.378675E-01  1.463133E+01 -1.080247E+00 -2.024328E+01 -1.974529E+00  3.800741E+00
      3541   7  2.034206E+01  4.893805E+01  1.621757E+01 -1.085731E+01 -3.054014E+00  3.693800E+00
      3541   8  1.202190E+01  2.654581E+01  1.087596E+01 -1.352508E+01 -2.735441E+00  3.031327E+00
      3542   1 -3.083075E+00  4.794967E+00 -1.586132E+00 -2.535580E+01 -1.336057E+00  1.983893E+00
      3542   2 -1.588813E+00  6.348115E+00  1.841595E+00 -2.211269E+01 -1.750324E+00  1.048881E+00
      3542   3 -1.092317E+01  3.039755E+00 -6.742959E-01 -2.563068E+01 -2.018907E+00  1.238372E+00
      3542   4 -1.021215E+01  3.647333E+00  1.088210E+00 -2.219587E+01 -2.145058E+00  6.742491E-01
      3542   5 -3.841911E+00  3.653063E+00 -2.609852E+00 -2.565027E+01 -1.940764E+00  3.092204E+00
      3542   6 -1.994495E+00  5.924712E+00  1.276552E+00 -2.216459E+01 -2.389501E+00  1.825139E+00
      3542   7 -1.240512E+01  1.392817E+00 -2.033835E+00 -2.623036E+01 -2.297543E+00  2.528508E+00
      3542   8 -1.128693E+01  2.852527E+00  2.337729E-01 -2.251325E+01 -2.455685E+00  1.568622E+00
      3543   1 -5.067319E+00  2.739474E+00  1.119743E+00 -2.423606E+01 -1.962045E+00  4.843192E-01
      3543   2 -6.692821E+00 -2.071117E+00  5.120090E-01 -2.178829E+01 -2.132338E+00 -1.235789E-01
      3543   3 -1.173697E+01  6.609242E-01  3.650960E-01 -2.269249E+01 -2.125939E+00  3.521863E-01
      3543   4 -1.421181E+01 -5.386752E+00 -1.836696E+00 -2.005807E+01 -2.221777E+00  1.447530E-02
      3543   5 -5.606968E+00  2.600318E+00  6.923906E-01 -2.423757E+01 -2.263818E+00  1.057827E+00
      3543   6 -6.974452E+00 -1.697339E+00  4.317724E-01 -2.171497E+01 -2.443019E+00  1.508460E-01
      3543   7 -1.237605E+01  4.747316E-01 -9.010279E-02 -2.288974E+01 -2.154855E+00  9.963214E-01
      3543   8 -1.455226E+01 -4.958819E+00 -1.910569E+00 -2.017181E+01 -2.258960E+00  3.059189E-01
      3544   1 -4.465472E+00 -4.868545E+00  1.350107E+00 -1.958530E+01 -1.769715E+00 -5.775065E-01
      3544   2 -6.820487E+00 -1.146656E+01  9.807321E-02 -1.817522E+01 -1.726941E+00 -1.120304E+00
      3544   3 -9.431631E+00 -7.849094E+00 -7.406690E-01 -1.732628E+01 -1.887725E+00 -2.535421E-01
      3544   4 -1.253805E+01 -1.566641E+01 -3.278087E+00 -1.578515E+01 -1.877019E+00 -5.682475E-01
      3544   5 -4.751130E+00 -4.233112E+00  1.419955E+00 -1.944739E+01 -2.119334E+00 -4.850792E-01
      3544   6 -6.894088E+00 -1.040022E+01  4.438670E-01 -1.804621E+01 -2.072723E+00 -1.234125E+00
      3544   7 -9.504174E+00 -6.985250E+00 -5.358384E-01 -1.737266E+01 -2.040071E+00 -1.716256E-01
      3544   8 -1.235971E+01 -1.427646E+01 -2.763081E+00 -1.584669E+01 -2.025804E+00 -7.308726E-01
      3545   1 -2.454867E+00 -1.620802E+01  1.389009E+00 -1.571369E+01 -9.000978E-01 -1.704767E+00
      3545   2 -5.887804E+00 -2.606519E+01 -1.969494E-01 -1.500256E+01 -8.130609E-01 -2.247752E+00
      3545   3 -6.821404E+00 -2.122892E+01 -2.211498E+00 -1.237161E+01 -1.222554E+00 -9.870621E-01
      3545   4 -1.091630E+01 -3.235902E+01 -4.731046E+00 -1.159786E+01 -1.133223E+00 -1.411462E+00
      3545   5 -2.341808E+00 -1.503468E+01  1.868765E+00 -1.541398E+01 -1.541446E+00 -1.844612E+00
      3545   6 -5.721577E+00 -2.480028E+01  3.684743E-01 -1.468735E+01 -1.454683E+00 -2.447103E+00
      3545   7 -6.566223E+00 -1.976930E+01 -1.609973E+00 -1.220512E+01 -1.757117E+00 -1.175515E+00
      3545   8 -1.058529E+01 -3.075263E+01 -4.023535E+00 -1.141639E+01 -1.668041E+00 -1.679682E+00
      3546   1 -1.081076E+01  1.212943E+01  1.210003E+00 -4.616975E+01  8.438641E-01  4.198316E+00
      3546   2 -4.257985E+00  2.542503E+01  9.756979E+00 -2.749958E+01 -5.709424E-01  2.935195E+00
      3546   3 -8.385468E+01 -2.007193E+01 -2.144767E+01 -5.784607E+01 -6.432056E-01  3.186727E+00
      3546   4 -7.826194E+01 -7.143158E+00 -1.573398E+01 -3.730868E+01 -4.120110E-01  2.668718E+00
      3546   5 -1.240569E+01  1.024663E+01 -4.205209E-01 -4.687131E+01  2.014886E-01  6.475309E+00
      3546   6 -5.098021E+00  2.518029E+01  9.004730E+00 -2.698139E+01 -1.321723E+00  4.553731E+00
      3546   7 -8.682632E+01 -2.281603E+01 -2.333111E+01 -5.907536E+01 -6.583655E-01  5.761747E+00
      3546   8 -8.047429E+01 -8.151025E+00 -1.682268E+01 -3.724459E+01 -4.583181E-01  4.531211E+00
      3547   1 -1.578250E+01  1.461618E+01  4.109945E+00 -3.078065E+01 -1.203934E+00  2.155812E+00
      3547   2 -1.776798E+01  9.764684E+00  2.343170E+00 -2.390726E+01 -1.587501E+00  1.273043E+00
      3547   3 -4.062653E+01  6.489378E+00 -1.014742E+00 -3.080580E+01  4.155650E-01  2.373946E+00
      3547   4 -4.414419E+01 -2.081215E-01 -6.042798E+00 -2.318459E+01 -4.122770E-02  1.489839E+00
      3547   5 -1.639285E+01  1.464661E+01  3.622044E+00 -3.030158E+01 -1.264362E+00  3.477600E+00
      3547   6 -1.828461E+01  9.899931E+00  2.062872E+00 -2.346479E+01 -1.643107E+00  1.965037E+00
      3547   7 -3.973645E+01  7.198230E+00 -6.252622E-01 -3.031462E+01  1.037887E+00  3.879333E+00
      3547   8 -4.320915E+01  5.729491E-01 -5.575626E+00 -2.276837E+01  5.824798E-01  2.286565E+00
      3548   1 -1.320359E+01  7.782061E+00  3.135785E+00 -2.240643E+01 -1.680493E+00  7.268707E-01
      3548   2 -1.621219E+01  9.426864E-01 -5.351529E-02 -2.029752E+01 -1.751135E+00  1.014557E-01
      3548   3 -2.091389E+01  5.178768E+00  1.422915E+00 -2.031441E+01 -4.592578E-01  9.193869E-01
      3548   4 -2.473281E+01 -2.889839E+00 -3.238219E+00 -1.795691E+01 -7.672051E-01  2.751747E-01
      3548   5 -1.335289E+01  8.116598E+00  3.100390E+00 -2.204290E+01 -1.589028E+00  1.106546E+00
      3548   6 -1.630841E+01  1.357508E+00  7.736350E-03 -2.009857E+01 -1.644041E+00  2.271452E-01
      3548   7 -1.999720E+01  5.989001E+00  1.914855E+00 -2.004425E+01 -1.088013E-01  1.331398E+00
      3548   8 -2.376933E+01 -1.982949E+00 -2.686972E+00 -1.788380E+01 -4.122580E-01  4.049804E-01
      3549   1 -8.173970E+00  2.204713E-01  2.159785E+00 -1.802674E+01 -1.493284E+00 -3.205351E-01
      3549   2 -1.062973E+01 -5.729205E+00 -7.640519E-02 -1.739627E+01 -1.421041E+00 -7.917942E-01
      3549   3 -1.118486E+01 -1.808317E+00  6.279656E-01 -1.589478E+01 -9.165501E-01 -1.191363E-01
      3549   4 -1.428961E+01 -8.796540E+00 -2.732970E+00 -1.518613E+01 -9.495076E-01 -5.575715E-01
      3549   5 -8.253414E+00  6.950388E-01  2.279633E+00 -1.787121E+01 -1.546976E+00 -3.375538E-01
      3549   6 -1.063411E+01 -5.110825E+00  1.498394E-01 -1.730832E+01 -1.467805E+00 -9.816596E-01
      3549   7 -1.084348E+01 -1.094074E+00  9.450289E-01 -1.588327E+01 -8.026370E-01 -1.428985E-01
      3549   8 -1.386954E+01 -7.907678E+00 -2.328209E+00 -1.525483E+01 -8.336038E-01 -7.718838E-01
      3550   1 -2.900262E+00 -9.034353E+00  1.949105E+00 -1.397277E+01 -8.206952E-01 -1.350942E+00
      3550   2 -5.379523E+00 -1.606708E+01  7.176242E-01 -1.372245E+01 -6.879501E-01 -2.062862E+00
      3550   3 -5.836854E+00 -1.290051E+01 -1.310155E+00 -1.117848E+01 -4.917529E-01 -1.055437E+00
      3550   4 -9.259334E+00 -2.139085E+01 -4.228083E+00 -1.089460E+01 -4.184048E-01 -1.686744E+00
      3550   5 -3.002704E+00 -8.540233E+00  2.146854E+00 -1.367561E+01 -1.259836E+00 -1.595206E+00
      3550   6 -5.395849E+00 -1.542097E+01  1.050439E+00 -1.345759E+01 -1.123178E+00 -2.542781E+00
      3550   7 -5.702748E+00 -1.216858E+01 -1.027287E+00 -1.106652E+01 -6.851969E-01 -1.361215E+00
      3550   8 -9.039027E+00 -2.047185E+01 -3.844950E+00 -1.082123E+01 -6.107248E-01 -2.255445E+00
      3551   1  1.577969E+00  3.138638E+01  2.672747E-01 -1.046541E+01 -3.218132E+00  1.116015E+01
      3551   2  3.370102E-01  2.565254E+01  1.864578E+00 -1.101588E+01 -3.134831E+00  8.596749E+00
      3551   3  5.802661E+00  4.097272E+01  3.225242E+00 -8.568841E+00 -3.633553E+00  1.010428E+01
      3551   4  3.599064E+00  3.273496E+01  4.117685E+00 -9.034780E+00 -3.621671E+00  7.822720E+00
      3551   5 -1.252983E+00  2.522508E+01 -2.391992E+00 -7.865116E+00 -4.600196E+00  9.909643E+00
      3551   6 -1.751455E+00  2.123206E+01 -6.055500E-02 -8.533497E+00 -4.514580E+00  7.684756E+00
      3551   7  1.967984E+00  3.171149E+01 -4.879872E-01 -6.150066E+00 -5.029467E+00  8.822075E+00
      3551   8  8.690878E-01  2.609824E+01  1.462281E+00 -6.782937E+00 -5.004597E+00  6.889636E+00
      3552   1  2.273431E+00  1.922216E+01  2.618046E+00 -1.382148E+01 -5.181801E+00  6.044758E+00
      3552   2 -1.930252E+00  7.835024E+00 -7.098605E-03 -1.449234E+01 -4.980522E+00  3.046470E+00
      3552   3  5.020326E+00  2.498452E+01  4.638687E+00 -1.117072E+01 -5.220062E+00  5.529033E+00
      3552   4 -6.112550E-02  1.113853E+01  1.546503E+00 -1.179152E+01 -5.064562E+00  2.632343E+00
      3552   5  3.530774E-01  1.595237E+01  1.078249E+00 -1.128492E+01 -5.941934E+00  5.557147E+00
      3552   6 -3.202244E+00  6.091394E+00 -9.118441E-01 -1.201860E+01 -5.739172E+00  2.974418E+00
      3552   7  2.718505E+00  2.017426E+01  2.601826E+00 -8.810594E+00 -6.068156E+00  5.026594E+00
      3552   8 -1.404111E+00  8.640248E+00  3.937904E-01 -9.528282E+00 -5.904331E+00  2.611763E+00
      3553   1  1.232186E+00  2.400051E+00  6.614640E-01 -1.703668E+01 -5.615495E+00  9.727575E-01
      3553   2 -1.993327E+00 -6.385416E+00 -1.304777E+00 -1.686584E+01 -5.566501E+00 -1.535637E+00
      3553   3  1.475123E+00  3.434538E+00  1.289998E+00 -1.475379E+01 -5.763717E+00  6.969469E-01
      3553   4 -2.727700E+00 -7.732322E+00 -1.552553E+00 -1.462565E+01 -5.678070E+00 -1.521857E+00
      3553   5  8.590009E-01  1.873700E+00  3.836541E-01 -1.467765E+01 -6.225530E+00  1.113414E+00
      3553   6 -1.788313E+00 -5.559365E+00 -1.007661E+00 -1.443824E+01 -6.177723E+00 -1.261867E+00
      3553   7  8.279434E-01  2.529140E+00  7.796173E-01 -1.262574E+01 -6.363955E+00  9.117084E-01
      3553   8 -2.481492E+00 -6.534783E+00 -1.187911E+00 -1.240508E+01 -6.284973E+00 -1.198208E+00
      3554   1  6.982736E-01 -1.071132E+01 -6.024259E-01 -1.584387E+01 -5.140673E+00 -3.397078E+00
      3554   2 -2.390055E+00 -1.916458E+01 -2.443594E+00 -1.481835E+01 -5.249119E+00 -5.876409E+00
      3554   3 -1.608301E+00 -1.410559E+01 -1.796728E+00 -1.377237E+01 -5.143986E+00 -3.202723E+00
      3554   4 -5.581878E+00 -2.481627E+01 -4.331301E+00 -1.283701E+01 -5.165250E+00 -5.464551E+00
      3554   5  1.834820E+00 -8.626090E+00  3.473888E-01 -1.352049E+01 -5.744853E+00 -2.997830E+00
      3554   6 -6.592885E-01 -1.568662E+01 -9.057760E-01 -1.235106E+01 -5.856124E+00 -5.265600E+00
      3554   7 -5.521553E-01 -1.125686E+01 -7.190841E-01 -1.160737E+01 -5.779183E+00 -2.758559E+00
      3554   8 -3.629574E+00 -1.984162E+01 -2.392384E+00 -1.046641E+01 -5.816300E+00 -4.804401E+00
      3555   1 -9.872168E-01 -2.425255E+01 -1.776523E+00 -1.131931E+01 -3.176400E+00 -8.018140E+00
      3555   2 -1.085870E+00 -2.696086E+01  6.029427E-01 -1.047868E+01 -3.180643E+00 -1.000402E+01
      3555   3 -4.596092E+00 -3.105015E+01 -4.042267E+00 -1.005631E+01 -3.528864E+00 -7.243131E+00
      3555   4 -5.740679E+00 -3.619807E+01 -2.709644E+00 -9.288591E+00 -3.459145E+00 -8.779138E+00
      3555   5  9.577656E-01 -1.961908E+01  1.692673E-01 -8.904282E+00 -4.390089E+00 -7.148945E+00
      3555   6  1.614220E+00 -2.056550E+01  3.303870E+00 -7.933728E+00 -4.396729E+00 -9.037002E+00
      3555   7 -2.042460E+00 -2.419632E+01 -1.375717E+00 -7.807436E+00 -4.691129E+00 -6.372626E+00
      3555   8 -2.051187E+00 -2.669405E+01  1.092932E+00 -6.858213E+00 -4.634860E+00 -7.878084E+00
      3556   1  5.124418E+00  3.921823E+01  2.347226E+00 -1.478559E+01 -3.051807E+00  8.101045E+00
      3556   2  4.377318E-01  2.500151E+01  9.416583E-01 -1.459787E+01 -3.152126E+00  6.081370E+00
      3556   3  9.614817E+00  4.983433E+01  7.354318E+00 -1.080327E+01 -3.515113E+00  5.813862E+00
      3556   4  4.026858E+00  3.340245E+01  5.159673E+00 -1.057300E+01 -3.661727E+00  4.166866E+00
      3556   5  2.964612E+00  3.377840E+01  9.128704E-03 -1.321659E+01 -4.367267E+00  8.059236E+00
      3556   6 -1.341185E+00  2.046417E+01 -1.029294E+00 -1.308512E+01 -4.461914E+00  6.176075E+00
      3556   7  6.793985E+00  4.271599E+01  4.287368E+00 -9.467213E+00 -4.770802E+00  5.942925E+00
      3556   8  1.727874E+00  2.752187E+01  2.594454E+00 -9.304660E+00 -4.909115E+00  4.416991E+00
      3557   1  2.237394E+00  1.672299E+01  1.535562E+00 -1.657860E+01 -4.569436E+00  4.244820E+00
      3557   2 -1.199354E+00  6.652148E+00  1.505808E-01 -1.749866E+01 -4.388971E+00  2.195503E+00
      3557   3  6.956126E+00  2.362617E+01  5.734516E+00 -1.320552E+01 -5.005251E+00  2.703510E+00
      3557   4  2.445847E+00  1.097055E+01  3.355866E+00 -1.421784E+01 -4.768893E+00  1.255024E+00
      3557   5  4.726796E-01  1.310184E+01 -1.674679E-01 -1.489516E+01 -5.395946E+00  4.522829E+00
      3557   6 -2.247103E+00  4.713698E+00 -8.452667E-01 -1.574881E+01 -5.222329E+00  2.520631E+00
      3557   7  4.616418E+00  1.876394E+01  3.446201E+00 -1.198221E+01 -5.796863E+00  3.114191E+00
      3557   8  1.061131E+00  8.350965E+00  2.008222E+00 -1.291593E+01 -5.570527E+00  1.684026E+00
      3558   1 -2.650732E-01  1.101531E+00  3.738377E-01 -2.068271E+01 -5.098989E+00  6.960510E-01
      3558   2 -2.498482E+00 -5.437661E+00 -5.316662E-01 -1.958092E+01 -5.083051E+00 -1.180307E+00
      3558   3 -2.020595E+00  1.468692E+00  7.512921E-01 -1.833421E+01 -5.353695E+00  2.022042E-01
      3558   4 -5.288181E+00 -7.356976E+00 -1.314992E+00 -1.720165E+01 -5.286297E+00 -1.073546E+00
      3558   5 -1.022863E+00  2.002222E-01 -2.211542E-01 -1.901728E+01 -5.646110E+00  1.031447E+00
      3558   6 -2.618659E+00 -4.866716E+00 -4.735356E-01 -1.784886E+01 -5.636477E+00 -9.275853E-01
      3558   7 -3.115158E+00  2.118270E-01 -9.650037E-02 -1.708418E+01 -5.819980E+00  6.166721E-01
      3558   8 -5.523492E+00 -6.631616E+00 -1.280830E+00 -1.586917E+01 -5.761809E+00 -7.919406E-01
      3559   1 -7.579312E-01 -9.340987E+00  1.134537E-01 -1.821007E+01 -4.557544E+00 -2.503551E+00
      3559   2 -3.580326E+00 -1.731801E+01 -1.317503E+00 -1.688079E+01 -4.561651E+00 -4.128451E+00
      3559   3 -4.826877E+00 -1.318485E+01 -1.753615E+00 -1.561870E+01 -4.759416E+00 -1.966043E+00
      3559   4 -8.666675E+00 -2.340475E+01 -4.333041E+00 -1.425368E+01 -4.701095E+00 -3.023539E+00
      3559   5 -4.267074E-01 -7.696145E+00  6.441938E-01 -1.656685E+01 -5.146208E+00 -2.307072E+00
      3559   6 -2.654033E+00 -1.430073E+01 -1.756380E-01 -1.515861E+01 -5.157962E+00 -4.009543E+00
      3559   7 -4.508581E+00 -1.106143E+01 -1.111970E+00 -1.431389E+01 -5.270127E+00 -1.777055E+00
      3559   8 -7.549659E+00 -1.944115E+01 -2.869176E+00 -1.285065E+01 -5.223000E+00 -2.960785E+00
      3560   1 -1.890145E+00 -2.289815E+01 -6.327794E-01 -1.434868E+01 -3.101588E+00 -5.667889E+00
      3560   2 -3.985682E+00 -3.028781E+01 -2.282421E-01 -1.374606E+01 -2.973344E+00 -7.321248E+00
      3560   3 -6.148160E+00 -2.975188E+01 -3.820830E+00 -1.193258E+01 -3.248260E+00 -4.172083E+00
      3560   4 -9.174876E+00 -3.904413E+01 -4.617636E+00 -1.130487E+01 -3.095059E+00 -5.350621E+00
      3560   5 -6.452154E-01 -1.887355E+01  9.302600E-01 -1.285236E+01 -4.134648E+00 -5.508080E+00
      3560   6 -2.336855E+00 -2.535387E+01  1.771790E+00 -1.220741E+01 -4.009462E+00 -7.255935E+00
      3560   7 -4.458000E+00 -2.452045E+01 -1.770439E+00 -1.063351E+01 -4.124088E+00 -4.129226E+00
      3560   8 -6.933448E+00 -3.257485E+01 -1.967534E+00 -9.956238E+00 -3.975361E+00 -5.464199E+00
      3561   1  7.371476E+00  3.796256E+01  4.981108E+00 -1.798404E+01 -2.214638E+00  4.447457E+00
      3561   2 -1.853285E-01  1.705790E+01  6.964271E-01 -2.067671E+01 -1.910056E+00  3.516747E+00
      3561   3  2.361339E+01  5.573146E+01  1.980769E+01 -1.023794E+01 -2.903034E+00  1.619221E+00
      3561   4  1.462207E+01  3.177090E+01  1.379715E+01 -1.321023E+01 -2.473531E+00  1.258224E+00
      3561   5  5.531711E+00  3.364655E+01  2.607636E+00 -1.714931E+01 -3.370599E+00  5.639406E+00
      3561   6 -1.582673E+00  1.374100E+01 -1.201434E+00 -1.974936E+01 -3.080248E+00  4.649545E+00
      3561   7  2.095321E+01  5.022805E+01  1.687291E+01 -9.897755E+00 -3.945449E+00  2.961527E+00
      3561   8  1.251246E+01  2.752158E+01  1.144357E+01 -1.275812E+01 -3.529069E+00  2.524599E+00
      3562   1 -1.814109E+00  6.358353E+00 -5.809348E-01 -2.553280E+01 -3.279905E+00  2.376877E+00
      3562   2 -9.247691E-01  6.617395E+00  2.124491E+00 -2.269525E+01 -3.520828E+00  1.106890E+00
      3562   3 -8.023533E+00  6.686825E+00  1.364474E+00 -2.519755E+01 -3.845135E+00  5.985523E-01
      3562   4 -8.249180E+00  5.177064E+00  2.122077E+00 -2.221327E+01 -3.840849E+00  1.607581E-01
      3562   5 -3.519302E+00  3.563037E+00 -2.353734E+00 -2.465386E+01 -3.958161E+00  3.486907E+00
      3562   6 -1.958483E+00  5.293977E+00  1.118055E+00 -2.161097E+01 -4.227021E+00  1.881186E+00
      3562   7 -1.048869E+01  3.075961E+00 -8.480486E-01 -2.482609E+01 -4.218183E+00  1.862392E+00
      3562   8 -9.917461E+00  3.338098E+00  7.939271E-01 -2.160557E+01 -4.239657E+00  1.036765E+00
      3563   1 -4.184716E+00  2.619884E+00  1.251807E+00 -2.492131E+01 -4.226034E+00  2.138667E-01
      3563   2 -6.035733E+00 -2.624690E+00  3.263298E-01 -2.261611E+01 -4.284694E+00 -8.257591E-01
      3563   3 -1.059628E+01  8.996580E-01  7.220453E-01 -2.304894E+01 -4.233265E+00 -2.006365E-01
      3563   4 -1.349100E+01 -6.105746E+00 -1.921626E+00 -2.056187E+01 -4.237086E+00 -6.643782E-01
      3563   5 -5.105518E+00  2.032720E+00  5.818367E-01 -2.379308E+01 -4.601749E+00  7.896787E-01
      3563   6 -6.535604E+00 -2.306517E+00  1.541367E-01 -2.142530E+01 -4.666656E+00 -5.314482E-01
      3563   7 -1.159643E+01  2.180172E-01  1.687986E-02 -2.223856E+01 -4.362127E+00  4.372800E-01
      3563   8 -1.398423E+01 -5.675408E+00 -2.049005E+00 -1.968360E+01 -4.371709E+00 -3.506281E-01
      3564   1 -3.889510E+00 -5.722359E+00  9.830198E-01 -2.038498E+01 -3.798899E+00 -1.589994E+00
      3564   2 -6.447089E+00 -1.274445E+01 -5.201550E-01 -1.897195E+01 -3.722338E+00 -2.533557E+00
      3564   3 -9.307791E+00 -9.404720E+00 -1.296939E+00 -1.782358E+01 -3.700179E+00 -1.034337E+00
      3564   4 -1.285699E+01 -1.819047E+01 -4.341848E+00 -1.626715E+01 -3.659705E+00 -1.466925E+00
      3564   5 -4.105957E+00 -4.761520E+00  1.155041E+00 -1.924290E+01 -4.222892E+00 -1.477607E+00
      3564   6 -6.286218E+00 -1.096587E+01  9.185863E-02 -1.783857E+01 -4.142219E+00 -2.645707E+00
      3564   7 -9.260477E+00 -8.106794E+00 -9.406651E-01 -1.697719E+01 -3.921082E+00 -9.272134E-01
      3564   8 -1.235235E+01 -1.588324E+01 -3.470457E+00 -1.543582E+01 -3.876816E+00 -1.618847E+00
      3565   1 -2.356275E+00 -1.784556E+01  6.133628E-01 -1.645179E+01 -2.295615E+00 -3.494986E+00
      3565   2 -5.843173E+00 -2.794638E+01 -9.088084E-01 -1.576397E+01 -2.143167E+00 -4.297580E+00
      3565   3 -7.457478E+00 -2.437612E+01 -3.584556E+00 -1.289269E+01 -2.307186E+00 -2.087056E+00
      3565   4 -1.188259E+01 -3.628423E+01 -6.426817E+00 -1.212791E+01 -2.179900E+00 -2.502128E+00
      3565   5 -1.852624E+00 -1.545266E+01  1.563033E+00 -1.541485E+01 -3.045820E+00 -3.652130E+00
      3565   6 -5.076407E+00 -2.498305E+01  3.474847E-01 -1.472915E+01 -2.890505E+00 -4.571377E+00
      3565   7 -6.629852E+00 -2.140079E+01 -2.369253E+00 -1.209920E+01 -2.911106E+00 -2.291958E+00
      3565   8 -1.072889E+01 -3.258819E+01 -4.845324E+00 -1.134078E+01 -2.781177E+00 -2.847900E+00
      3566   1 -8.881360E+00  1.550242E+01  2.067630E+00 -4.583687E+01  3.994464E-01  2.135003E+00
      3566   2 -3.261027E+00  2.635128E+01  9.953217E+00 -2.856010E+01 -9.889107E-01  1.801825E+00
      3566   3 -8.210645E+01 -1.644044E+01 -2.240968E+01 -5.689431E+01 -8.079527E-01  2.896415E-01
      3566   4 -7.712032E+01 -5.809142E+00 -1.642054E+01 -3.774693E+01 -1.161924E+00  7.905352E-01
      3566   5 -1.059875E+01  1.269470E+01  2.801732E-01 -4.577654E+01 -4.634233E-01  3.714856E+00
      3566   6 -4.286148E+00  2.508212E+01  8.934746E+00 -2.779143E+01 -1.914655E+00  2.997434E+00
      3566   7 -8.380169E+01 -1.960873E+01 -2.399162E+01 -5.722584E+01 -1.219073E+00  2.034681E+00
      3566   8 -7.809248E+01 -7.312170E+00 -1.725746E+01 -3.735512E+01 -1.591014E+00  2.126890E+00
      3567   1 -1.451571E+01  1.505799E+01  4.428452E+00 -3.203299E+01 -2.902632E+00  1.201876E+00
      3567   2 -1.650906E+01  1.006691E+01  2.775014E+00 -2.517883E+01 -3.200695E+00  7.460408E-01
      3567   3 -4.161114E+01  6.086056E+00 -2.118870E+00 -3.198664E+01 -1.779608E+00  7.915503E-01
      3567   4 -4.478211E+01 -4.787430E-01 -6.123983E+00 -2.433418E+01 -2.085940E+00  5.399689E-01
      3567   5 -1.565751E+01  1.421726E+01  3.573970E+00 -3.111125E+01 -3.078889E+00  2.298305E+00
      3567   6 -1.749532E+01  9.517748E+00  2.147438E+00 -2.424016E+01 -3.376450E+00  1.449342E+00
      3567   7 -4.152977E+01  5.718299E+00 -2.279015E+00 -3.115081E+01 -1.455830E+00  1.999871E+00
      3567   8 -4.455600E+01 -5.291668E-01 -6.118991E+00 -2.351257E+01 -1.762018E+00  1.309247E+00
      3568   1 -1.251663E+01  7.677686E+00  3.327524E+00 -2.380500E+01 -3.568180E+00  3.135477E-01
      3568   2 -1.563379E+01  5.938640E-01  2.080672E-02 -2.152379E+01 -3.561749E+00 -3.552152E-01
      3568   3 -2.140319E+01  4.800918E+00  1.622303E+00 -2.147072E+01 -2.360747E+00  2.678316E-01
      3568   4 -2.548595E+01 -3.770613E+00 -3.415368E+00 -1.890311E+01 -2.509923E+00 -2.004563E-01
      3568   5 -1.308558E+01  7.510372E+00  2.995789E+00 -2.275794E+01 -3.533339E+00  7.881683E-01
      3568   6 -1.604735E+01  7.426141E-01 -1.090143E-01 -2.056658E+01 -3.517448E+00 -1.574648E-01
      3568   7 -2.113636E+01  4.990726E+00  1.727610E+00 -2.061396E+01 -1.984201E+00  7.694744E-01
      3568   8 -2.505413E+01 -3.209111E+00 -3.131770E+00 -1.816006E+01 -2.130674E+00 -2.238584E-03
      3569   1 -7.873494E+00 -4.264824E-01  2.022694E+00 -1.911999E+01 -3.022038E+00 -8.433209E-01
      3569   2 -1.050889E+01 -6.723073E+00 -4.653856E-01 -1.840184E+01 -2.923263E+00 -1.398538E+00
      3569   3 -1.146397E+01 -2.794320E+00  4.382267E-01 -1.671489E+01 -2.188413E+00 -5.343269E-01
      3569   4 -1.487465E+01 -1.035009E+01 -3.374922E+00 -1.590005E+01 -2.179344E+00 -8.967102E-01
      3569   5 -8.043372E+00  1.465711E-02  2.091731E+00 -1.825224E+01 -3.105645E+00 -8.063847E-01
      3569   6 -1.053431E+01 -5.978282E+00 -2.184712E-01 -1.758300E+01 -3.001418E+00 -1.553234E+00
      3569   7 -1.123429E+01 -2.095706E+00  7.131862E-01 -1.605350E+01 -2.033283E+00 -5.052871E-01
      3569   8 -1.448544E+01 -9.288804E+00 -2.930884E+00 -1.529835E+01 -2.022656E+00 -1.075773E+00
      3570   1 -2.810386E+00 -1.026839E+01  1.406724E+00 -1.500308E+01 -1.618774E+00 -2.031949E+00
      3570   2 -5.571673E+00 -1.787998E+01 -1.859777E-01 -1.472854E+01 -1.454720E+00 -2.414975E+00
      3570   3 -6.175831E+00 -1.475995E+01 -2.081809E+00 -1.184417E+01 -1.116158E+00 -1.319233E+00
      3570   4 -9.973023E+00 -2.403604E+01 -5.463025E+00 -1.153044E+01 -9.894238E-01 -1.446671E+00
      3570   5 -2.772907E+00 -9.278170E+00  1.783805E+00 -1.422363E+01 -2.087880E+00 -2.244806E+00
      3570   6 -5.345117E+00 -1.649432E+01  4.259266E-01 -1.396098E+01 -1.921558E+00 -2.853300E+00
      3570   7 -5.922485E+00 -1.345582E+01 -1.594911E+00 -1.132876E+01 -1.293092E+00 -1.584883E+00
      3570   8 -9.513368E+00 -2.226360E+01 -4.756744E+00 -1.103069E+01 -1.165710E+00 -1.960061E+00
      3571   1  3.727259E-01  1.901422E+01  4.637847E+00 -8.714620E+00 -5.873251E+00  1.225100E+01
      3571   2 -9.951730E-01  1.531467E+01  3.777731E+00 -9.234636E+00 -5.536389E+00  8.903571E+00
      3571   3  1.341703E+00  2.381224E+01  3.910340E+00 -4.803782E+00 -6.466723E+00  1.419706E+01
      3571   4 -2.865828E-01  1.826679E+01  4.028175E+00 -4.899457E+00 -6.299434E+00  9.562562E+00
      3571   5  2.065349E-02  2.023835E+01  4.990365E+00 -6.719278E+00 -6.097998E+00  1.029389E+01
      3571   6 -1.152537E+00  1.703893E+01  4.279155E+00 -7.547325E+00 -5.754864E+00  8.192520E+00
      3571   7  1.205748E+00  2.398861E+01  4.504273E+00 -3.566636E+00 -7.006436E+00  1.119432E+01
      3571   8 -3.285816E-02  1.964557E+01  4.718625E+00 -4.158956E+00 -6.799003E+00  8.429337E+00
      3572   1  7.202553E-01  1.082038E+01  3.142641E+00 -1.225035E+01 -8.105648E+00  5.889973E+00
      3572   2 -2.301864E+00  3.859244E+00  3.004788E-02 -1.275770E+01 -7.911807E+00  2.816113E+00
      3572   3  1.717910E+00  1.318738E+01  4.011567E+00 -7.325448E+00 -8.847501E+00  5.999992E+00
      3572   4 -1.630942E+00  5.215761E+00  8.203428E-01 -7.690136E+00 -8.712290E+00  2.644710E+00
      3572   5  1.027831E+00  1.272640E+01  3.811915E+00 -1.053892E+01 -8.038191E+00  5.791569E+00
      3572   6 -2.380932E+00  4.872271E+00  3.035013E-01 -1.114639E+01 -7.842181E+00  2.959968E+00
      3572   7  2.257085E+00  1.504721E+01  4.764524E+00 -6.503056E+00 -8.737247E+00  5.829409E+00
      3572   8 -1.460216E+00  6.274614E+00  1.146115E+00 -7.035275E+00 -8.588155E+00  2.847713E+00
      3573   1  7.964460E-01  1.059914E+00  2.457702E-01 -1.481717E+01 -8.316653E+00  7.265423E-01
      3573   2 -1.305634E+00 -4.200273E+00 -1.500977E+00 -1.479131E+01 -8.304709E+00 -1.803463E+00
      3573   3  9.980494E-01  1.428691E+00  7.008286E-01 -1.014620E+01 -9.353119E+00  4.722716E-01
      3573   4 -1.666946E+00 -5.110974E+00 -1.642826E+00 -1.028886E+01 -9.271719E+00 -1.950271E+00
      3573   5  1.021180E+00  1.672711E+00  4.865272E-01 -1.351008E+01 -8.467127E+00  9.345916E-01
      3573   6 -1.350409E+00 -4.217587E+00 -1.528471E+00 -1.334494E+01 -8.457752E+00 -1.614219E+00
      3573   7  1.041137E+00  1.994277E+00  8.162102E-01 -9.812371E+00 -9.342386E+00  7.865492E-01
      3573   8 -1.799340E+00 -4.962889E+00 -1.694878E+00 -9.740544E+00 -9.277429E+00 -1.680988E+00
      3574   1  1.356775E+00 -6.323884E+00 -1.176976E+00 -1.365209E+01 -8.150096E+00 -3.641888E+00
      3574   2 -7.291804E-01 -1.117700E+01 -3.277050E+00 -1.292467E+01 -8.280491E+00 -6.091284E+00
      3574   3  3.052150E-01 -8.129653E+00 -1.752456E+00 -9.476795E+00 -8.885016E+00 -3.810081E+00
      3574   4 -2.088849E+00 -1.382387E+01 -4.038455E+00 -9.017444E+00 -8.901083E+00 -6.389342E+00
      3574   5  1.543233E+00 -6.636452E+00 -1.225229E+00 -1.223113E+01 -8.125278E+00 -3.429658E+00
      3574   6 -8.883486E-01 -1.229151E+01 -3.675448E+00 -1.128673E+01 -8.259901E+00 -5.758032E+00
      3574   7  1.590288E-01 -8.300959E+00 -1.914397E+00 -8.849493E+00 -8.793447E+00 -3.498040E+00
      3574   8 -2.560261E+00 -1.472511E+01 -4.554547E+00 -8.044865E+00 -8.836579E+00 -5.890748E+00
      3575   1  6.062085E-01 -1.499153E+01 -3.753996E+00 -9.373840E+00 -5.678377E+00 -8.601479E+00
      3575   2 -7.541034E-02 -1.715678E+01 -3.860803E+00 -8.711604E+00 -5.865392E+00 -1.122770E+01
      3575   3 -7.942667E-01 -1.859003E+01 -4.261434E+00 -6.018404E+00 -6.333710E+00 -9.254825E+00
      3575   4 -2.178280E+00 -2.343145E+01 -4.033388E+00 -5.777148E+00 -6.346420E+00 -1.281390E+01
      3575   5  7.596740E-01 -1.573480E+01 -3.967638E+00 -7.660033E+00 -5.942243E+00 -7.773781E+00
      3575   6  6.320122E-01 -1.656912E+01 -3.558853E+00 -6.666687E+00 -6.135706E+00 -9.354126E+00
      3575   7 -8.717964E-01 -1.855316E+01 -4.508539E+00 -5.085141E+00 -6.862175E+00 -7.987201E+00
      3575   8 -1.320152E+00 -2.096583E+01 -3.590393E+00 -4.319460E+00 -6.916149E+00 -1.000421E+01
      3576   1  4.737087E+00  3.381564E+01  6.075924E+00 -1.451817E+01 -5.605222E+00  1.324058E+01
      3576   2  5.562774E-01  2.169773E+01  4.257811E+00 -1.427718E+01 -5.572574E+00  9.633649E+00
      3576   3  7.114222E+00  4.311766E+01  6.268353E+00 -9.637866E+00 -6.256121E+00  1.298243E+01
      3576   4  2.516432E+00  2.911415E+01  4.945888E+00 -9.260011E+00 -6.336105E+00  9.209000E+00
      3576   5  3.593314E+00  3.116414E+01  5.346868E+00 -1.262097E+01 -6.422598E+00  1.172074E+01
      3576   6 -5.115378E-01  1.933632E+01  3.491843E+00 -1.249839E+01 -6.376021E+00  8.655527E+00
      3576   7  5.662585E+00  3.911990E+01  5.244831E+00 -8.080054E+00 -7.262352E+00  1.118676E+01
      3576   8  1.238689E+00  2.569063E+01  3.927780E+00 -7.852860E+00 -7.321544E+00  8.060784E+00
      3577   1  2.566595E+00  1.423575E+01  3.997261E+00 -1.681279E+01 -8.048564E+00  6.461595E+00
      3577   2 -1.116053E+00  5.116045E+00  8.414715E-01 -1.796631E+01 -7.824697E+00  3.087358E+00
      3577   3  6.691237E+00  2.083416E+01  5.938302E+00 -1.207926E+01 -8.663175E+00  6.026081E+00
      3577   4  2.304082E+00  9.198934E+00  2.949677E+00 -1.341972E+01 -8.316093E+00  2.693555E+00
      3577   5  1.677386E+00  1.255653E+01  3.384525E+00 -1.471275E+01 -8.160500E+00  6.005484E+00
      3577   6 -1.642491E+00  4.391093E+00  4.837033E-01 -1.572454E+01 -7.951871E+00  3.061966E+00
      3577   7  5.222614E+00  1.805158E+01  4.898479E+00 -1.056262E+01 -9.004788E+00  5.461332E+00
      3577   8  1.391876E+00  7.875583E+00  2.305354E+00 -1.172896E+01 -8.680453E+00  2.652799E+00
      3578   1  4.885538E-02  4.645376E-01  2.818771E-01 -2.081522E+01 -8.595177E+00  7.570608E-01
      3578   2 -2.195115E+00 -5.266711E+00 -1.466777E+00 -1.996939E+01 -8.548918E+00 -2.045181E+00
      3578   3 -1.392728E+00  6.943614E-01  3.445689E-01 -1.731572E+01 -9.159849E+00  4.768130E-01
      3578   4 -4.564773E+00 -7.526359E+00 -2.008194E+00 -1.656936E+01 -8.969367E+00 -2.019489E+00
      3578   5 -3.849815E-01  2.803317E-01  4.375140E-02 -1.880006E+01 -8.747458E+00  9.388780E-01
      3578   6 -2.240217E+00 -4.503802E+00 -1.356234E+00 -1.778580E+01 -8.719036E+00 -1.725137E+00
      3578   7 -2.290098E+00  1.851772E-01 -1.560813E-01 -1.580605E+01 -9.381142E+00  6.976880E-01
      3578   8 -4.872864E+00 -6.600753E+00 -1.979372E+00 -1.484815E+01 -9.217285E+00 -1.643036E+00
      3579   1 -5.941526E-01 -8.625148E+00 -1.613265E+00 -1.856009E+01 -8.104338E+00 -4.047047E+00
      3579   2 -3.483740E+00 -1.567239E+01 -4.197984E+00 -1.739575E+01 -8.117807E+00 -6.619457E+00
      3579   3 -4.195421E+00 -1.292287E+01 -2.770913E+00 -1.508812E+01 -8.414867E+00 -3.835219E+00
      3579   4 -7.885276E+00 -2.227983E+01 -5.713472E+00 -1.395997E+01 -8.328948E+00 -6.200500E+00
      3579   5 -2.927436E-01 -7.150206E+00 -1.230259E+00 -1.637475E+01 -8.212879E+00 -3.608873E+00
      3579   6 -2.845779E+00 -1.335744E+01 -3.533145E+00 -1.509276E+01 -8.238640E+00 -5.980901E+00
      3579   7 -3.952696E+00 -1.092483E+01 -2.322437E+00 -1.330251E+01 -8.651866E+00 -3.317087E+00
      3579   8 -7.127554E+00 -1.899845E+01 -4.831675E+00 -1.202567E+01 -8.584295E+00 -5.444886E+00
      3580   1 -1.965608E+00 -2.122039E+01 -4.326728E+00 -1.428927E+01 -5.646958E+00 -9.083926E+00
      3580   2 -4.002968E+00 -2.793951E+01 -4.398802E+00 -1.385439E+01 -5.570197E+00 -1.163964E+01
      3580   3 -5.461079E+00 -2.874187E+01 -5.514057E+00 -1.122627E+01 -5.998819E+00 -8.412997E+00
      3580   4 -8.415723E+00 -3.785358E+01 -6.251160E+00 -1.090567E+01 -5.785496E+00 -1.063633E+01
      3580   5 -9.153329E-01 -1.786964E+01 -3.268336E+00 -1.232175E+01 -6.418084E+00 -8.161689E+00
      3580   6 -2.533097E+00 -2.357851E+01 -2.952011E+00 -1.172804E+01 -6.358213E+00 -1.056214E+01
      3580   7 -4.186728E+00 -2.413315E+01 -4.140091E+00 -9.569319E+00 -6.794884E+00 -7.385992E+00
      3580   8 -6.537950E+00 -3.179030E+01 -4.320340E+00 -9.049915E+00 -6.606772E+00 -9.449446E+00
      3581   1  8.982707E+00  4.158710E+01  6.837934E+00 -1.911021E+01 -4.430284E+00  8.454347E+00
      3581   2  8.566905E-01  1.921076E+01  2.127548E+00 -2.211112E+01 -3.986740E+00  6.300208E+00
      3581   3  2.671561E+01  6.321157E+01  2.028165E+01 -1.021798E+01 -4.596592E+00  4.522096E+00
      3581   4  1.682026E+01  3.653224E+01  1.397650E+01 -1.359088E+01 -3.929509E+00  3.379717E+00
      3581   5  5.913925E+00  3.461425E+01  3.647484E+00 -1.717387E+01 -5.645481E+00  8.868864E+00
      3581   6 -1.318561E+00  1.434181E+01 -1.883548E-01 -2.000576E+01 -5.226245E+00  6.779436E+00
      3581   7  2.225774E+01  5.418804E+01  1.607412E+01 -9.139740E+00 -5.865299E+00  4.924085E+00
      3581   8  1.346427E+01  3.009715E+01  1.085345E+01 -1.231302E+01 -5.220497E+00  3.866254E+00
      3582   1 -6.161923E-02  7.976661E+00  7.939533E-01 -2.726464E+01 -6.316694E+00  4.036460E+00
      3582   2  1.660945E-01  7.064501E+00  2.465159E+00 -2.489727E+01 -6.383885E+00  1.623988E+00
      3582   3 -5.162812E+00  1.015791E+01  1.844399E+00 -2.608964E+01 -6.373409E+00  1.777597E+00
      3582   4 -5.959159E+00  6.898484E+00  2.449341E+00 -2.366695E+01 -6.130833E+00  3.636653E-01
      3582   5 -2.280119E+00  4.333427E+00 -1.174057E+00 -2.495449E+01 -6.927270E+00  4.671140E+00
      3582   6 -1.265364E+00  5.253107E+00  1.288779E+00 -2.233485E+01 -7.028147E+00  2.192353E+00
      3582   7 -8.414619E+00  5.367038E+00 -7.604137E-01 -2.446165E+01 -6.958143E+00  2.446887E+00
      3582   8 -8.243291E+00  4.361308E+00  8.164089E-01 -2.174969E+01 -6.746441E+00  9.718516E-01
      3583   1 -2.938161E+00  2.740259E+00  1.266144E+00 -2.698467E+01 -7.459735E+00 -4.892765E-03
      3583   2 -5.115281E+00 -3.059846E+00 -1.908182E-01 -2.485970E+01 -7.388509E+00 -1.807139E+00
      3583   3 -9.156877E+00  1.349516E+00  6.822846E-01 -2.468649E+01 -6.971984E+00 -5.896287E-01
      3583   4 -1.251886E+01 -6.894772E+00 -2.280045E+00 -2.239762E+01 -6.831237E+00 -1.565636E+00
      3583   5 -4.171308E+00  1.893689E+00  4.574729E-01 -2.456171E+01 -7.858011E+00  4.980059E-01
      3583   6 -5.769421E+00 -2.590253E+00 -3.856288E-01 -2.235822E+01 -7.794346E+00 -1.473845E+00
      3583   7 -1.053225E+01  3.384283E-01 -2.029908E-01 -2.272502E+01 -7.245994E+00 -4.269206E-02
      3583   8 -1.317991E+01 -6.271054E+00 -2.419054E+00 -2.035080E+01 -7.112176E+00 -1.202619E+00
      3584   1 -3.494221E+00 -6.646502E+00 -7.062057E-02 -2.261925E+01 -6.826848E+00 -3.171329E+00
      3584   2 -6.334438E+00 -1.404538E+01 -2.139134E+00 -2.123587E+01 -6.731673E+00 -4.986674E+00
      3584   3 -9.232402E+00 -1.127234E+01 -2.143456E+00 -1.970058E+01 -6.125005E+00 -2.367595E+00
      3584   4 -1.318427E+01 -2.106868E+01 -5.520015E+00 -1.818266E+01 -6.033809E+00 -3.446782E+00
      3584   5 -3.522711E+00 -5.152968E+00  2.561928E-01 -2.012746E+01 -7.240125E+00 -2.942678E+00
      3584   6 -5.841408E+00 -1.135632E+01 -1.269443E+00 -1.872666E+01 -7.144518E+00 -4.875363E+00
      3584   7 -9.021783E+00 -9.340644E+00 -1.604056E+00 -1.763642E+01 -6.457148E+00 -2.113434E+00
      3584   8 -1.232433E+01 -1.764147E+01 -4.311716E+00 -1.610289E+01 -6.365556E+00 -3.316771E+00
      3585   1 -2.604445E+00 -1.991536E+01 -1.414218E+00 -1.817738E+01 -4.517584E+00 -6.672665E+00
      3585   2 -6.227693E+00 -3.047058E+01 -2.936493E+00 -1.748804E+01 -4.317287E+00 -8.082687E+00
      3585   3 -8.370011E+00 -2.850180E+01 -5.166565E+00 -1.435350E+01 -3.915419E+00 -4.597482E+00
      3585   4 -1.321684E+01 -4.162968E+01 -8.194782E+00 -1.356413E+01 -3.766692E+00 -5.330643E+00
      3585   5 -1.621776E+00 -1.607844E+01 -2.850305E-02 -1.604422E+01 -5.397111E+00 -6.527188E+00
      3585   6 -4.764274E+00 -2.554261E+01 -1.039321E+00 -1.537295E+01 -5.191206E+00 -8.033976E+00
      3585   7 -6.858328E+00 -2.372635E+01 -3.335569E+00 -1.260494E+01 -4.682039E+00 -4.448326E+00
      3585   8 -1.111303E+01 -3.550075E+01 -5.743519E+00 -1.184091E+01 -4.528171E+00 -5.291502E+00
      3586   1 -6.108426E+00  2.153754E+01  3.055085E+00 -4.732149E+01 -5.931542E-01  6.317131E-01
      3586   2 -1.592383E+00  2.953145E+01  1.011465E+01 -3.067639E+01 -1.892951E+00  1.004009E+00
      3586   3 -7.863509E+01 -7.112604E+00 -1.655254E+01 -5.787566E+01 -1.266295E+00 -3.318314E+00
      3586   4 -7.554192E+01 -4.429216E-01 -1.291165E+01 -3.923440E+01 -2.147205E+00 -1.649123E+00
      3586   5 -9.090882E+00  1.606224E+01 -8.866461E-02 -4.599296E+01 -1.708967E+00  2.978222E+00
      3586   6 -3.672691E+00  2.604853E+01  7.985687E+00 -2.907197E+01 -3.032404E+00  2.769138E+00
      3586   7 -8.006809E+01 -1.254214E+01 -1.878383E+01 -5.699089E+01 -1.541834E+00 -7.345504E-01
      3586   8 -7.602650E+01 -3.691536E+00 -1.416248E+01 -3.811323E+01 -2.429469E+00  3.063962E-01
      3587   1 -1.228067E+01  1.704100E+01  4.666127E+00 -3.473449E+01 -5.026075E+00  4.080630E-01
      3587   2 -1.452040E+01  1.119544E+01  3.045944E+00 -2.790366E+01 -5.141924E+00  1.222148E-01
      3587   3 -3.995869E+01  9.300509E+00  3.321217E-01 -3.426982E+01 -4.222793E+00 -1.246515E+00
      3587   4 -4.413796E+01  8.410335E-01 -5.139294E+00 -2.657420E+01 -4.402510E+00 -7.093615E-01
      3587   5 -1.451141E+01  1.461677E+01  2.914570E+00 -3.274885E+01 -5.414552E+00  1.921451E+00
      3587   6 -1.625677E+01  9.816828E+00  1.896634E+00 -2.592319E+01 -5.526797E+00  1.031995E+00
      3587   7 -4.093544E+01  7.174800E+00 -6.996361E-01 -3.266777E+01 -3.750628E+00  4.171442E-01
      3587   8 -4.460040E+01 -1.153189E-01 -5.626050E+00 -2.501183E+01 -3.929319E+00  2.891208E-01
      3588   1 -1.121517E+01  8.040284E+00  3.369977E+00 -2.659231E+01 -5.834785E+00 -3.052479E-01
      3588   2 -1.452001E+01  3.621650E-01  3.196567E-02 -2.431569E+01 -5.655836E+00 -1.030771E+00
      3588   3 -2.052367E+01  5.322198E+00  2.189585E+00 -2.383670E+01 -4.406525E+00 -5.822099E-01
      3588   4 -2.510941E+01 -4.358785E+00 -3.415229E+00 -2.126639E+01 -4.256174E+00 -7.734513E-01
      3588   5 -1.234934E+01  7.424094E+00  2.707867E+00 -2.460815E+01 -5.940123E+00  2.844487E-01
      3588   6 -1.533779E+01  4.285909E-01 -2.581092E-01 -2.232273E+01 -5.759560E+00 -7.726298E-01
      3588   7 -2.122806E+01  4.867917E+00  1.803007E+00 -2.220712E+01 -4.030560E+00  3.374056E-02
      3588   8 -2.546614E+01 -4.017705E+00 -3.438323E+00 -1.963898E+01 -3.879750E+00 -5.160516E-01
      3589   1 -7.507227E+00 -1.369582E+00  1.749235E+00 -2.186627E+01 -4.816294E+00 -1.670239E+00
      3589   2 -1.034139E+01 -8.295229E+00 -7.723402E-01 -2.110297E+01 -4.655491E+00 -2.535465E+00
      3589   3 -1.169015E+01 -4.290096E+00  1.046228E-02 -1.902347E+01 -3.311588E+00 -1.041677E+00
      3589   4 -1.549278E+01 -1.287753E+01 -4.077529E+00 -1.815036E+01 -3.219398E+00 -1.396195E+00
      3589   5 -7.685188E+00 -6.178395E-01  1.899232E+00 -1.989219E+01 -5.038945E+00 -1.597092E+00
      3589   6 -1.020012E+01 -6.832347E+00 -2.693607E-01 -1.915584E+01 -4.874269E+00 -2.662606E+00
      3589   7 -1.149942E+01 -3.224782E+00  3.809755E-01 -1.742858E+01 -3.227667E+00 -9.682387E-01
      3589   8 -1.493812E+01 -1.097266E+01 -3.333488E+00 -1.659070E+01 -3.134375E+00 -1.530852E+00
      3590   1 -3.063314E+00 -1.278859E+01  8.236273E-01 -1.724901E+01 -2.659752E+00 -3.365057E+00
      3590   2 -6.157614E+00 -2.129439E+01 -9.849073E-01 -1.695971E+01 -2.482798E+00 -3.538792E+00
      3590   3 -7.113821E+00 -1.848941E+01 -3.242476E+00 -1.359747E+01 -1.669740E+00 -1.743040E+00
      3590   4 -1.157182E+01 -2.918714E+01 -7.404754E+00 -1.326244E+01 -1.530153E+00 -1.375651E+00
      3590   5 -2.499215E+00 -1.050533E+01  1.742211E+00 -1.562704E+01 -3.256812E+00 -3.578699E+00
      3590   6 -5.250967E+00 -1.826773E+01  3.320982E-01 -1.534701E+01 -3.077750E+00 -4.037944E+00
      3590   7 -6.263369E+00 -1.572120E+01 -2.138562E+00 -1.238198E+01 -1.824954E+00 -2.009621E+00
      3590   8 -1.034312E+01 -2.555225E+01 -5.906697E+00 -1.205973E+01 -1.684767E+00 -1.952489E+00
      3591   1 -2.107812E-01  6.527111E+00  7.814739E+00 -6.941517E+00 -8.672130E+00  4.960186E+00
      3591   2 -1.986409E+00  5.656851E+00  2.766238E+00 -7.551350E+00 -8.105554E+00  3.918660E+00
      3591   3 -7.417969E+00 -7.501306E+00  1.395398E+00  3.435472E+00 -9.328666E+00  6.595644E+00
      3591   4 -7.323898E+00 -5.684441E+00 -1.078978E-01  3.624093E+00 -8.939917E+00  1.709740E+00
      3591   5  3.590665E+00  1.897533E+01  1.269163E+01 -7.587320E+00 -7.062648E+00  5.434930E+00
      3591   6  7.598146E-01  1.571142E+01  6.519370E+00 -8.538776E+00 -6.488798E+00  6.101015E+00
      3591   7  6.274587E-01  1.361016E+01  1.015900E+01 -9.776650E-01 -7.961583E+00  6.405153E+00
      3591   8 -1.202850E+00  1.150625E+01  6.161884E+00 -1.523779E+00 -7.512397E+00  5.117627E+00
      3592   1 -2.700306E+00  2.889554E+00  1.977344E-02 -1.009571E+01 -8.856276E+00  2.743071E+00
      3592   2 -3.688967E+00  8.869124E-01 -1.273124E+00 -9.329791E+00 -8.950321E+00  1.178485E+00
      3592   3 -5.591887E+00 -5.215440E+00 -7.960739E-01  1.684036E+00 -1.108410E+01 -6.018674E-01
      3592   4 -4.900010E+00 -2.364482E+00 -1.340776E+00  3.146390E+00 -1.133924E+01 -5.933752E-01
      3592   5  1.051463E+00  1.120730E+01  3.539059E+00 -1.141480E+01 -8.656045E+00  4.836481E+00
      3592   6 -1.789203E+00  4.845178E+00  4.322936E-01 -1.101042E+01 -8.743500E+00  2.253415E+00
      3592   7  3.778048E-01  8.547588E+00  4.279817E+00 -3.867938E+00 -1.011090E+01  3.312660E+00
      3592   8 -1.971160E+00  3.986379E+00  1.011143E+00 -3.111992E+00 -1.031129E+01  1.432472E+00
      3593   1  5.770983E-01  9.564771E-01 -7.927372E-02 -1.027239E+01 -9.139844E+00  2.010213E-01
      3593   2 -6.326406E-01 -1.945952E+00 -1.209308E+00 -1.025610E+01 -9.169897E+00 -8.733786E-01
      3593   3  6.213953E-01  5.105518E-01  2.929385E-01  2.105377E+00 -1.178363E+01 -5.462855E-01
      3593   4  2.298790E-01  2.207877E-01 -7.223519E-01  2.010004E+00 -1.178812E+01 -3.497689E-01
      3593   5  1.125230E+00  2.059149E+00  3.958139E-01 -1.245932E+01 -9.118098E+00  6.113606E-01
      3593   6 -1.334604E+00 -3.788944E+00 -1.955541E+00 -1.238944E+01 -9.149197E+00 -1.219361E+00
      3593   7  1.279773E+00  2.105656E+00  8.015317E-01 -4.814340E+00 -1.097980E+01  2.456358E-01
      3593   8 -1.062417E+00 -2.974768E+00 -1.925345E+00 -4.800372E+00 -1.099298E+01 -9.876476E-01
      3594   1  3.498057E+00 -1.702003E+00  1.326880E-01 -9.370512E+00 -9.065354E+00 -1.709064E+00
      3594   2  2.939475E+00 -2.987867E+00 -4.433869E-01 -9.896003E+00 -8.918991E+00 -2.904254E+00
      3594   3  4.957167E+00  2.764579E+00  7.277071E-01  2.409335E+00 -1.151987E+01 -1.446248E-01
      3594   4  5.598880E+00  5.174945E+00  4.563837E-01  1.273108E+00 -1.123017E+01  2.551357E-01
      3594   5  1.248012E+00 -6.108687E+00 -1.815954E+00 -1.147525E+01 -8.995872E+00 -2.690727E+00
      3594   6 -7.922589E-01 -1.088846E+01 -3.837088E+00 -1.167320E+01 -8.855373E+00 -4.855094E+00
      3594   7  1.438955E+00 -4.587348E+00 -2.131381E+00 -4.207824E+00 -1.063045E+01 -1.984384E+00
      3594   8 -3.074458E-01 -8.053609E+00 -4.486455E+00 -4.709415E+00 -1.038947E+01 -3.413224E+00
      3595   1  2.198624E+00 -5.608906E+00 -2.856995E+00 -7.141137E+00 -8.097568E+00 -3.831630E+00
      3595   2  7.343069E-01 -6.090336E+00 -7.256621E+00 -6.759893E+00 -8.491814E+00 -4.571979E+00
      3595   3  6.798939E+00  4.642990E+00 -3.480031E-01  3.424169E+00 -9.016727E+00 -1.790802E+00
      3595   4  6.526196E+00  5.205267E+00 -1.819422E+00  2.568067E+00 -9.127998E+00 -6.371626E+00
      3595   5 -6.391005E-01 -1.478758E+01 -6.382288E+00 -8.378342E+00 -6.643994E+00 -5.819074E+00
      3595   6 -2.701468E+00 -1.659343E+01 -1.145100E+01 -7.409132E+00 -7.049814E+00 -4.774684E+00
      3595   7  7.523546E-01 -1.101580E+01 -6.198010E+00 -1.890212E+00 -7.764664E+00 -4.884390E+00
      3595   8 -6.094547E-01 -1.240446E+01 -9.348716E+00 -1.539713E+00 -7.972108E+00 -5.761828E+00
      3596   1  2.494870E+00  1.925075E+01  1.034062E+01 -1.324555E+01 -8.097848E+00  1.282543E+01
      3596   2 -6.114503E-01  1.285104E+01  6.385925E+00 -1.285898E+01 -7.867236E+00  9.038368E+00
      3596   3 -5.980386E-01  1.626233E+01  6.876598E+00 -5.561983E+00 -1.027394E+01  1.526752E+01
      3596   4 -2.065589E+00  1.242693E+01  5.820166E+00 -4.752648E+00 -1.032024E+01  9.951860E+00
      3596   5  5.810634E+00  2.832897E+01  1.426329E+01 -1.320075E+01 -7.396039E+00  1.209238E+01
      3596   6  1.145434E+00  1.844895E+01  8.592647E+00 -1.309838E+01 -7.130892E+00  9.041484E+00
      3596   7  4.060434E+00  2.723171E+01  1.187707E+01 -5.913713E+00 -9.799928E+00  1.413140E+01
      3596   8  6.994588E-01  1.921807E+01  8.687458E+00 -5.476691E+00 -9.793521E+00  9.793371E+00
      3597   1  2.611222E-01  7.785420E+00  4.265566E+00 -1.547330E+01 -1.061430E+01  5.827329E+00
      3597   2 -2.690123E+00  1.863314E+00  3.501884E-01 -1.627680E+01 -1.070275E+01  2.677016E+00
      3597   3  2.943752E+00  9.714630E+00  6.210987E+00 -7.041636E+00 -1.355332E+01  6.015957E+00
      3597   4 -1.255833E-01  3.590870E+00  2.103630E+00 -7.871738E+00 -1.366165E+01  2.661319E+00
      3597   5  2.453512E+00  1.197478E+01  6.110021E+00 -1.572244E+01 -9.879801E+00  6.080525E+00
      3597   6 -1.322243E+00  4.119610E+00  1.379349E+00 -1.656142E+01 -9.965771E+00  2.887366E+00
      3597   7  5.379821E+00  1.434081E+01  8.222706E+00 -8.079545E+00 -1.262742E+01  6.293128E+00
      3597   8  1.394018E+00  6.064562E+00  3.212947E+00 -8.952522E+00 -1.273197E+01  2.902928E+00
      3598   1  4.069430E-02 -1.814821E-01 -6.369670E-02 -1.833102E+01 -1.124975E+01  5.100174E-01
      3598   2 -1.628946E+00 -3.739113E+00 -2.071535E+00 -1.781132E+01 -1.124755E+01 -2.147367E+00
      3598   3 -8.216790E-01 -2.902363E-01  3.296498E-02 -1.090581E+01 -1.438926E+01  3.749305E-01
      3598   4 -2.728654E+00 -4.312003E+00 -2.301853E+00 -1.068881E+01 -1.414529E+01 -2.347084E+00
      3598   5  1.467534E-01  4.366842E-01  1.051832E-01 -1.901324E+01 -1.077774E+01  6.692779E-01
      3598   6 -2.108201E+00 -4.497859E+00 -2.476789E+00 -1.822266E+01 -1.080569E+01 -2.029138E+00
      3598   7 -1.260266E+00  1.370855E-01 -4.427286E-02 -1.242362E+01 -1.370951E+01  5.684607E-01
      3598   8 -3.795899E+00 -5.368614E+00 -2.990684E+00 -1.185814E+01 -1.351156E+01 -2.198102E+00
      3599   1  1.385087E+00 -4.803413E+00 -1.985272E+00 -1.667530E+01 -1.094141E+01 -4.023758E+00
      3599   2 -5.929833E-01 -8.709141E+00 -4.673110E+00 -1.616149E+01 -1.070781E+01 -6.444720E+00
      3599   3 -4.564506E-01 -5.721166E+00 -2.629446E+00 -9.789210E+00 -1.361358E+01 -4.332635E+00
      3599   4 -2.346499E+00 -9.326534E+00 -5.324237E+00 -9.547270E+00 -1.314733E+01 -6.975852E+00
      3599   5 -2.702889E-01 -7.054620E+00 -3.180145E+00 -1.691991E+01 -1.038512E+01 -3.944986E+00
      3599   6 -3.084854E+00 -1.292401E+01 -6.692634E+00 -1.612780E+01 -1.018054E+01 -6.402969E+00
      3599   7 -2.711472E+00 -8.414940E+00 -4.149037E+00 -1.063807E+01 -1.288767E+01 -4.220943E+00
      3599   8 -5.555995E+00 -1.426550E+01 -7.780224E+00 -1.004417E+01 -1.246572E+01 -6.894114E+00
      3600   1 -1.381184E-01 -1.286405E+01 -6.443653E+00 -1.297169E+01 -7.992496E+00 -8.921356E+00
      3600   2 -2.114317E+00 -1.679679E+01 -9.098242E+00 -1.257893E+01 -8.085923E+00 -1.151992E+01
      3600   3 -4.182112E-01 -1.275168E+01 -6.044032E+00 -6.670492E+00 -1.014558E+01 -9.834457E+00
      3600   4 -1.970252E+00 -1.660889E+01 -7.360299E+00 -6.460673E+00 -1.009509E+01 -1.315689E+01
      3600   5 -2.148234E+00 -1.777853E+01 -8.577144E+00 -1.291004E+01 -7.471442E+00 -8.715792E+00
      3600   6 -4.703688E+00 -2.294886E+01 -1.192499E+01 -1.236249E+01 -7.582817E+00 -1.082259E+01
      3600   7 -3.026084E+00 -1.836522E+01 -8.596102E+00 -7.228794E+00 -9.783809E+00 -9.457269E+00
      3600   8 -5.226930E+00 -2.356228E+01 -1.073519E+01 -6.817415E+00 -9.760715E+00 -1.213507E+01
      3601   1  9.192609E+00  3.588200E+01  1.209053E+01 -2.054896E+01 -8.198349E+00  1.622236E+01
      3601   2  1.724683E+00  1.683955E+01  6.239905E+00 -2.417124E+01 -7.546291E+00  1.112886E+01
      3601   3  2.219875E+01  5.047036E+01  1.204373E+01 -1.009355E+01 -8.663786E+00  1.687828E+01
      3601   4  1.519874E+01  3.019310E+01  8.987604E+00 -1.432452E+01 -7.528804E+00  1.109806E+01
      3601   5  9.413936E+00  3.636540E+01  1.316792E+01 -1.817742E+01 -8.510777E+00  1.392372E+01
      3601   6  1.427597E+00  1.635532E+01  6.556869E+00 -2.144309E+01 -7.908952E+00  9.697299E+00
      3601   7  2.091665E+01  4.986612E+01  1.226704E+01 -8.074263E+00 -9.778604E+00  1.409813E+01
      3601   8  1.344488E+01  2.870865E+01  8.518605E+00 -1.188923E+01 -8.689403E+00  9.323342E+00
      3602   1  6.667047E-01  6.991609E+00  3.654285E+00 -2.925445E+01 -1.086344E+01  6.863583E+00
      3602   2 -5.381205E-02  5.485710E+00  2.758462E+00 -2.761221E+01 -1.111108E+01  2.576215E+00
      3602   3 -4.519778E+00  7.587892E+00 -8.990099E-01 -2.639945E+01 -1.080276E+01  6.519586E+00
      3602   4 -4.813072E+00  4.940942E+00  7.702924E-01 -2.512145E+01 -1.023964E+01  2.345422E+00
      3602   5  4.933945E-01  6.281657E+00  3.719692E+00 -2.660638E+01 -1.071903E+01  6.129903E+00
      3602   6  8.899018E-02  5.735734E+00  2.917600E+00 -2.438089E+01 -1.105100E+01  2.517323E+00
      3602   7 -6.843634E+00  5.420706E+00 -1.945216E+00 -2.445365E+01 -1.138349E+01  5.558592E+00
      3602   8 -6.658732E+00  4.092221E+00 -3.888263E-04 -2.249859E+01 -1.089723E+01  2.192497E+00
      3603   1 -1.786396E+00  1.817460E+00  9.952653E-01 -2.931209E+01 -1.218161E+01 -1.245475E-01
      3603   2 -4.471500E+00 -4.322672E+00 -1.814950E+00 -2.768550E+01 -1.194270E+01 -2.982522E+00
      3603   3 -7.550603E+00 -1.488720E-01 -3.383728E-01 -2.619403E+01 -1.145422E+01 -1.911883E-01
      3603   4 -1.082331E+01 -8.427571E+00 -2.968700E+00 -2.462822E+01 -1.084637E+01 -2.588032E+00
      3603   5 -2.709595E+00  2.068646E+00  6.911493E-01 -2.629893E+01 -1.224250E+01  1.314551E-01
      3603   6 -5.044607E+00 -3.174771E+00 -1.848807E+00 -2.437438E+01 -1.204196E+01 -2.524380E+00
      3603   7 -9.300436E+00 -2.858951E-01 -9.978566E-01 -2.363469E+01 -1.176366E+01  7.553061E-02
      3603   8 -1.209272E+01 -7.370836E+00 -3.220513E+00 -2.172909E+01 -1.119079E+01 -2.067935E+00
      3604   1 -2.982159E+00 -7.806111E+00 -2.644348E+00 -2.578826E+01 -1.136385E+01 -5.198754E+00
      3604   2 -6.169327E+00 -1.488213E+01 -6.192222E+00 -2.445326E+01 -1.101400E+01 -8.316221E+00
      3604   3 -8.927236E+00 -1.312029E+01 -3.225272E+00 -2.237828E+01 -9.971809E+00 -4.550026E+00
      3604   4 -1.251454E+01 -2.207229E+01 -6.230956E+00 -2.079470E+01 -9.782379E+00 -7.386086E+00
      3604   5 -3.541992E+00 -6.224206E+00 -2.628650E+00 -2.228069E+01 -1.136955E+01 -4.577148E+00
      3604   6 -6.521529E+00 -1.271773E+01 -6.066912E+00 -2.102432E+01 -1.100302E+01 -7.427982E+00
      3604   7 -8.865659E+00 -1.091617E+01 -2.810702E+00 -1.923503E+01 -1.028241E+01 -3.820664E+00
      3604   8 -1.213190E+01 -1.902967E+01 -5.584650E+00 -1.775013E+01 -1.007777E+01 -6.329407E+00
      3605   1 -4.192122E+00 -2.121823E+01 -7.303688E+00 -2.086395E+01 -8.057699E+00 -1.119415E+01
      3605   2 -7.937238E+00 -3.072988E+01 -1.027576E+01 -2.009369E+01 -8.032150E+00 -1.409100E+01
      3605   3 -8.338509E+00 -2.919755E+01 -6.099896E+00 -1.657782E+01 -7.044584E+00 -1.004556E+01
      3605   4 -1.257323E+01 -4.063179E+01 -8.781383E+00 -1.573670E+01 -7.012259E+00 -1.273341E+01
      3605   5 -3.310732E+00 -1.810264E+01 -6.608198E+00 -1.773811E+01 -8.437407E+00 -1.001826E+01
      3605   6 -6.955897E+00 -2.729992E+01 -9.561468E+00 -1.695367E+01 -8.412563E+00 -1.265588E+01
      3605   7 -7.094596E+00 -2.528697E+01 -5.012517E+00 -1.372919E+01 -7.676167E+00 -8.673983E+00
      3605   8 -1.114039E+01 -3.620643E+01 -7.579046E+00 -1.287373E+01 -7.644485E+00 -1.105275E+01
      3606   1  6.817720E-01  3.479804E+01  7.483816E+00 -5.391192E+01 -3.557453E+00  1.392757E+00
      3606   2  2.136650E+00  3.603281E+01  1.109864E+01 -3.740221E+01 -4.541663E+00  1.168948E+00
      3606   3 -6.934964E+01  1.550767E+01 -1.564961E+00 -6.238801E+01 -3.687738E+00 -8.687843E+00
      3606   4 -7.216791E+01  1.115874E+01 -6.610247E+00 -4.367844E+01 -4.745647E+00 -5.075380E+00
      3606   5 -5.986607E+00  2.246601E+01  8.489800E-01 -4.886091E+01 -4.812511E+00  5.375792E+00
      3606   6 -2.090063E+00  2.916696E+01  7.136514E+00 -3.235943E+01 -5.792838E+00  3.808716E+00
      3606   7 -7.396191E+01  1.796288E+00 -7.326944E+00 -5.916918E+01 -2.939899E+00 -4.236691E+00
      3606   8 -7.411678E+01  3.596452E+00 -9.643364E+00 -4.054699E+01 -3.996708E+00 -2.044601E+00
      3607   1 -7.294070E+00  2.206558E+01  5.592021E+00 -4.082262E+01 -8.279271E+00  1.577002E-01
      3607   2 -1.008353E+01  1.453757E+01  3.821818E+00 -3.457006E+01 -7.767332E+00 -4.389449E-02
      3607   3 -3.263827E+01  1.775046E+01  5.177407E+00 -3.955340E+01 -6.691058E+00 -3.655805E+00
      3607   4 -3.863325E+01  5.840786E+00 -2.896169E+00 -3.253874E+01 -5.708238E+00 -2.132346E+00
      3607   5 -1.201736E+01  1.671920E+01  2.124341E+00 -3.638663E+01 -9.045397E+00  2.088768E+00
      3607   6 -1.393749E+01  1.105649E+01  1.386628E+00 -2.978556E+01 -8.558258E+00  9.711727E-01
      3607   7 -3.795719E+01  1.166662E+01  1.629965E+00 -3.597925E+01 -5.977676E+00 -1.521793E+00
      3607   8 -4.303227E+01  1.857129E+00 -5.477478E+00 -2.859913E+01 -5.001884E+00 -1.006080E+00
      3608   1 -8.331419E+00  9.783021E+00  3.667031E+00 -3.289930E+01 -8.577510E+00 -6.279454E-01
      3608   2 -1.208600E+01  4.739421E-01  4.608479E-01 -3.044529E+01 -8.042955E+00 -1.761215E+00
      3608   3 -1.928669E+01  6.873652E+00  2.142266E+00 -2.955769E+01 -4.261380E+00 -1.467968E+00
      3608   4 -2.450383E+01 -5.118246E+00 -3.256281E+00 -2.668885E+01 -4.116924E+00 -1.402362E+00
      3608   5 -1.080905E+01  7.853048E+00  2.205994E+00 -2.842183E+01 -9.094996E+00 -1.604661E-02
      3608   6 -1.382073E+01  2.389659E-01 -2.188536E-01 -2.614347E+01 -8.539896E+00 -1.394896E+00
      3608   7 -2.042020E+01  5.423299E+00  1.327788E+00 -2.586568E+01 -4.281031E+00 -8.554778E-01
      3608   8 -2.478186E+01 -4.583391E+00 -3.204395E+00 -2.321197E+01 -4.130753E+00 -1.027203E+00
      3609   1 -7.552595E+00 -3.281634E+00  1.264399E+00 -2.808585E+01 -7.022883E+00 -2.860970E+00
      3609   2 -1.092862E+01 -1.180896E+01 -1.461697E+00 -2.708599E+01 -6.919937E+00 -4.560339E+00
      3609   3 -1.314967E+01 -7.349900E+00 -5.216591E-01 -2.449494E+01 -2.983670E+00 -1.669873E+00
      3609   4 -1.777033E+01 -1.830839E+01 -4.965385E+00 -2.330317E+01 -3.177609E+00 -2.214690E+00
      3609   5 -7.315838E+00 -1.727212E+00  1.743106E+00 -2.372722E+01 -7.526782E+00 -2.644973E+00
      3609   6 -9.976961E+00 -8.611340E+00 -2.431767E-01 -2.288726E+01 -7.408200E+00 -4.513863E+00
      3609   7 -1.176389E+01 -4.984446E+00  5.870906E-01 -2.095954E+01 -3.131686E+00 -1.424965E+00
      3609   8 -1.555206E+01 -1.400750E+01 -3.017077E+00 -1.995597E+01 -3.321194E+00 -2.118449E+00
      3610   1 -4.485186E+00 -1.774958E+01 -3.538464E-01 -2.288115E+01 -4.451943E+00 -6.197449E+00
      3610   2 -8.169435E+00 -2.770746E+01 -2.676800E+00 -2.252888E+01 -4.379452E+00 -7.394607E+00
      3610   3 -9.308582E+00 -2.540549E+01 -4.180367E+00 -1.846150E+01 -1.441760E+00 -2.860336E+00
      3610   4 -1.453039E+01 -3.820217E+01 -8.789716E+00 -1.804788E+01 -1.435479E+00 -2.896235E+00
      3610   5 -2.766915E+00 -1.322714E+01  1.522723E+00 -1.884599E+01 -5.220680E+00 -6.224368E+00
      3610   6 -5.779699E+00 -2.165771E+01 -8.932670E-02 -1.852518E+01 -5.144702E+00 -7.641018E+00
      3610   7 -6.991876E+00 -1.991109E+01 -1.835801E+00 -1.521476E+01 -1.767551E+00 -2.852013E+00
      3610   8 -1.143697E+01 -3.090662E+01 -5.657263E+00 -1.483915E+01 -1.760282E+00 -3.100215E+00
      3611   1 -3.795708E-01  5.850183E-01 -9.990544E-02  1.910651E-01 -1.428246E-01  2.131185E-02
      3611   2 -2.984121E-01  1.047282E+00  6.495813E-02 -5.107878E-03  2.543625E-02  2.566753E-02
      3611   3 -4.823731E-01  8.267239E-01 -7.494464E-03  4.810875E-01 -2.293711E-01 -1.068146E-01
      3611   4 -3.843066E-01  1.334177E+00  1.832380E-01  2.082730E-01  1.363642E-04 -1.066743E-01
      3611   5  1.439128E-01  2.070836E+00  1.592222E-01  6.823894E-02 -1.068193E-01 -1.438606E-01
      3611   6  1.446816E-01  2.348674E+00  2.405453E-01 -1.553795E-01  6.188116E-02 -3.858364E-02
      3611   7  1.665431E-02  2.342511E+00  1.401434E-01  3.499960E-01 -1.812219E-01 -2.582699E-01
      3611   8  5.736726E-03  2.611237E+00  2.063229E-01  4.564293E-02  5.045796E-02 -1.348843E-01
      3612   1 -3.523731E-01  9.540171E-01  1.262189E-01  5.285132E-02 -1.747006E-01  2.600931E-01
      3612   2 -2.898937E-01  1.136369E+00  2.003909E-01  3.473258E-02 -4.115085E-02  2.806159E-01
      3612   3 -4.914332E-01  1.141854E+00  1.574123E-01  2.854498E-01 -2.662524E-01  2.060938E-01
      3612   4 -3.853669E-01  1.395863E+00  2.692807E-01  2.797414E-01 -1.066845E-01  2.251767E-01
      3612   5  9.680597E-02  2.221922E+00  3.555776E-01 -1.000304E-01 -1.672781E-01  2.693898E-01
      3612   6  2.001159E-01  2.502695E+00  4.674299E-01 -1.345923E-01 -3.343212E-02  3.864034E-01
      3612   7 -4.952022E-02  2.464995E+00  3.073142E-01  1.212104E-01 -2.520431E-01  2.157236E-01
      3612   8  1.003844E-01  2.838058E+00  4.462561E-01  9.536052E-02 -9.089909E-02  3.529705E-01
      3613   1 -3.491014E-01  6.888933E-01  2.739915E-01  3.295683E-02  1.352236E-02  3.281883E-01
      3613   2 -2.316208E-01  5.555561E-01  2.700671E-01  9.463265E-02  2.395769E-02  3.152484E-01
      3613   3 -5.123807E-01  7.929166E-01  2.713883E-01  3.608289E-01 -8.313381E-02  3.195800E-01
      3613   4 -4.156829E-01  6.365372E-01  2.585202E-01  5.213570E-01 -6.158691E-02  3.095126E-01
      3613   5  7.738200E-02  1.709390E+00  6.751057E-01 -8.046408E-02 -3.474383E-02  5.044577E-01
      3613   6  1.088016E-01  1.379421E+00  5.809432E-01 -3.382250E-02 -2.392418E-02  6.059227E-01
      3613   7 -1.368304E-01  1.770699E+00  5.454404E-01  2.307662E-01 -1.243956E-01  5.600984E-01
      3613   8 -1.663057E-01  1.345184E+00  3.811305E-01  3.670166E-01 -1.005238E-01  7.191147E-01
      3614   1 -8.010425E-02  4.913230E-01  3.191244E-01 -1.049407E-01  8.313475E-02  2.497036E-01
      3614   2  4.962134E-02  1.053222E-01  2.461405E-01 -1.545717E-01 -1.076249E-02  1.458298E-01
      3614   3 -3.377180E-01  3.715665E-01  2.588540E-01  1.805531E-01  9.256699E-02  2.296924E-01
      3614   4 -3.018827E-01 -2.892369E-01  1.025245E-01  2.540320E-01 -4.143525E-03  7.091877E-02
      3614   5  2.668799E-01  1.148185E+00  8.188758E-01 -1.339802E-01 -1.538645E-03  3.870543E-01
      3614   6  1.915636E-01  2.846120E-01  5.399915E-01 -1.135103E-01 -9.656257E-02  2.999943E-01
      3614   7 -9.223293E-02  8.032559E-01  6.454483E-01  1.866220E-01 -7.406219E-03  4.166354E-01
      3614   8 -4.207667E-01 -7.008801E-01  1.178877E-01  3.844180E-01 -1.131221E-01  3.116699E-01
      3615   1 -8.012777E-01  4.464459E-01 -2.213748E-01 -3.856440E-01 -2.232159E-01  1.873344E-01
      3615   2 -6.306928E-01  1.172512E+00  9.238349E-02 -5.469758E-01  4.146614E-02  7.793526E-02
      3615   3 -6.187899E-01  1.116649E+00  3.159188E-01  1.862212E-01 -4.794096E-01 -7.790134E-02
      3615   4 -5.105044E-01  1.903214E+00  6.479014E-01 -2.440216E-02 -1.359458E-01 -2.009566E-01
      3615   5  4.768743E-02  2.852820E+00  2.021350E-01 -4.816504E-01 -1.617979E-01 -5.911610E-02
      3615   6  1.240038E-01  3.385936E+00  3.946150E-01 -7.041594E-01  1.092431E-01 -2.074933E-02
      3615   7  1.820120E-01  3.580490E+00  5.214181E-01  8.106767E-02 -3.780046E-01 -3.166536E-01
      3615   8  1.739333E-01  4.133870E+00  6.987041E-01 -2.021774E-01 -2.551615E-02 -2.651430E-01
      3616   1 -7.091895E-01  1.084054E+00  8.247308E-02 -4.657837E-01 -2.501660E-01  3.990082E-01
      3616   2 -5.922963E-01  1.315376E+00  2.231787E-01 -4.976047E-01 -6.270543E-02  3.195323E-01
      3616   3 -7.185885E-01  1.637813E+00  4.694423E-01  5.166079E-02 -4.119372E-01  2.721858E-01
      3616   4 -5.543490E-01  1.933936E+00  6.600161E-01  2.834896E-02 -1.803763E-01  1.800983E-01
      3616   5  1.359956E-01  3.403210E+00  5.806011E-01 -6.287350E-01 -2.336401E-01  3.096394E-01
      3616   6  2.631882E-01  3.678063E+00  7.121069E-01 -6.612697E-01 -4.607743E-02  3.313576E-01
      3616   7  1.206417E-01  4.063414E+00  8.412758E-01 -1.219072E-01 -3.947813E-01  1.786008E-01
      3616   8  2.946968E-01  4.410668E+00  1.013437E+00 -1.456283E-01 -1.630726E-01  2.056394E-01
      3617   1 -6.360403E-01  9.426022E-01  2.798541E-01 -3.802820E-01 -9.735020E-02  4.495367E-01
      3617   2 -5.246739E-01  8.487322E-01  3.036946E-01 -2.368232E-01 -4.721926E-02  4.099877E-01
      3617   3 -7.288758E-01  1.373386E+00  4.938939E-01  3.098434E-01 -3.722344E-01  4.011064E-01
      3617   4 -6.481124E-01  1.286430E+00  5.195780E-01  5.352489E-01 -2.642435E-01  3.695338E-01
      3617   5  2.180402E-01  3.119049E+00  9.503419E-01 -5.155196E-01 -1.312137E-01  6.325975E-01
      3617   6  3.248173E-01  3.046781E+00  9.372830E-01 -3.912761E-01 -7.837431E-02  7.402146E-01
      3617   7  7.905864E-02  3.637940E+00  9.224544E-01  1.519441E-01 -3.896858E-01  6.324974E-01
      3617   8  1.557461E-01  3.589339E+00  8.961981E-01  3.521747E-01 -2.776826E-01  7.818816E-01
      3618   1 -4.274321E-01  6.556308E-01  3.300653E-01 -3.055663E-01  1.201184E-01  3.805285E-01
      3618   2 -2.329465E-01  4.098415E-01  3.309687E-01 -8.946530E-02  1.659642E-02  3.159225E-01
      3618   3 -6.815881E-01  8.897177E-01  4.210531E-01  5.261723E-01 -1.018285E-01  3.909988E-01
      3618   4 -6.182960E-01  4.712287E-01  3.392941E-01  7.272758E-01 -1.796073E-01  3.305246E-01
      3618   5  3.998900E-01  2.514177E+00  1.229260E+00 -4.117257E-01  3.072791E-02  7.194960E-01
      3618   6  1.960226E-01  1.361945E+00  8.087627E-01 -2.197430E-01 -6.898480E-02  7.778256E-01
      3618   7 -1.484690E-01  2.199003E+00  8.888318E-01  3.817650E-01 -1.685411E-01  9.703435E-01
      3618   8 -5.885651E-01  6.410202E-01  2.686062E-01  5.489835E-01 -2.405223E-01  1.074906E+00
      3619   1 -1.177390E+00 -1.062352E-01 -1.614252E-01 -2.069424E+00 -2.836365E-01  5.318460E-01
      3619   2 -1.076625E+00  7.954491E-01  2.525179E-01 -1.999326E+00  4.911991E-02  2.839471E-01
      3619   3 -3.149172E-01  1.160084E+00  1.207618E+00 -1.261826E+00 -6.491959E-01  1.775390E-01
      3619   4 -2.622336E-01  2.207605E+00  1.643376E+00 -1.083875E+00 -3.220450E-01 -1.004606E-01
      3619   5 -3.932234E-01  2.469801E+00 -1.235726E-01 -2.042762E+00 -1.714335E-01  5.171972E-01
      3619   6 -1.958137E-01  3.597226E+00  3.867781E-01 -2.029104E+00  1.679657E-01  2.928821E-01
      3619   7  5.823107E-01  4.001455E+00  1.357005E+00 -1.234471E+00 -4.941343E-01  7.770915E-02
      3619   8  7.565607E-01  5.332853E+00  1.914109E+00 -1.121194E+00 -1.607813E-01 -1.766110E-01
      3620   1 -1.231445E+00  6.771107E-01  1.725765E-01 -1.890892E+00 -1.676071E-01  7.860251E-01
      3620   2 -1.077393E+00  8.735983E-01  3.970043E-01 -1.888264E+00  8.031801E-02  5.316575E-01
      3620   3 -4.382981E-01  2.044798E+00  1.641231E+00 -9.558878E-01 -3.558288E-01  6.294643E-01
      3620   4 -2.498090E-01  2.296721E+00  1.883768E+00 -9.071752E-01 -1.072096E-01  3.458703E-01
      3620   5 -1.151713E-01  3.815202E+00  7.553962E-01 -1.913122E+00 -1.756109E-01  6.852134E-01
      3620   6  6.493121E-02  4.073907E+00  1.004444E+00 -1.903765E+00  7.148500E-02  4.560877E-01
      3620   7  8.072571E-01  5.494392E+00  2.343488E+00 -9.788463E-01 -3.695368E-01  4.944171E-01
      3620   8  1.030628E+00  5.829031E+00  2.619581E+00 -9.224271E-01 -1.216853E-01  2.367875E-01
      3621   1 -1.193696E+00  4.574537E-01  2.507062E-01 -1.764145E+00 -1.423563E-01  6.901095E-01
      3621   2 -1.093216E+00  3.247271E-01  3.384510E-01 -1.815812E+00  7.026395E-02  4.968695E-01
      3621   3 -3.898902E-01  1.809545E+00  1.609033E+00 -6.923468E-01 -3.187355E-01  5.914887E-01
      3621   4 -1.163605E-01  1.867848E+00  1.798071E+00 -5.650778E-01 -2.093121E-02  3.988158E-01
      3621   5  2.086844E-02  3.786366E+00  9.703430E-01 -1.748266E+00 -1.916777E-01  7.398226E-01
      3621   6  3.193010E-01  4.142515E+00  1.229051E+00 -1.759950E+00  1.575322E-02  6.378066E-01
      3621   7  9.205858E-01  5.559376E+00  2.227455E+00 -6.617449E-01 -4.059610E-01  5.044119E-01
      3621   8  1.436606E+00  6.208283E+00  2.634193E+00 -4.883983E-01 -1.129237E-01  4.205729E-01
      3622   1 -1.118719E+00  5.945049E-02  1.815361E-01 -1.607060E+00 -1.438706E-03  4.643589E-01
      3622   2 -1.000620E+00 -1.126824E-01  2.087434E-01 -1.200369E+00 -1.873256E-02  3.713839E-01
      3622   3 -2.700969E-01  1.597082E+00  1.232947E+00  1.792446E-01 -7.876055E-01  3.907460E-01
      3622   4 -2.428568E-01  1.456789E+00  1.238628E+00  7.217679E-01 -5.604688E-01  3.533345E-01
      3622   5  3.182351E-01  3.694366E+00  1.336468E+00 -1.537202E+00 -7.963223E-02  9.862526E-01
      3622   6  4.317227E-01  3.582864E+00  1.287674E+00 -1.163647E+00 -9.131152E-02  1.139335E+00
      3622   7  9.964751E-01  5.386150E+00  1.665786E+00  2.281113E-01 -8.224105E-01  9.934851E-01
      3622   8  1.043615E+00  5.357400E+00  1.626258E+00  7.311500E-01 -5.901534E-01  1.243809E+00
      3623   1 -1.134240E+00 -7.086088E-01  9.967836E-01 -6.080092E+00 -1.872564E-01  1.113680E+00
      3623   2 -1.358349E+00 -4.986153E-01  1.131727E+00 -5.580479E+00  3.117156E-02  5.856504E-01
      3623   3 -1.360828E+00 -7.318788E-01  2.577993E+00 -6.753515E+00  3.717142E-02  1.225070E+00
      3623   4 -1.163387E+00 -2.850998E-01  2.811466E+00 -6.099383E+00  7.630993E-03  6.042000E-01
      3623   5 -2.554708E+00 -3.313812E+00 -1.132906E+00 -6.341239E+00 -3.267434E-02  2.023910E+00
      3623   6 -2.548095E+00 -2.623717E+00 -7.089914E-01 -5.718381E+00  1.735739E-01  1.186714E+00
      3623   7 -2.342840E+00 -3.007159E+00  1.579901E+00 -7.037188E+00  4.681971E-02  2.069973E+00
      3623   8 -1.924936E+00 -2.062794E+00  2.050664E+00 -6.243538E+00  1.376072E-02  1.110224E+00
      3624   1 -1.499143E+00 -6.914481E-01  1.157976E+00 -5.416038E+00  1.990063E-01  1.331459E+00
      3624   2 -1.422101E+00 -7.870594E-01  1.260160E+00 -5.420335E+00  3.885902E-01  9.292770E-01
      3624   3 -1.187320E+00 -4.835091E-01  2.732972E+00 -5.924836E+00  5.294275E-01  1.445140E+00
      3624   4 -1.049570E+00 -6.157059E-01  2.765535E+00 -5.961414E+00  5.119279E-01  9.697516E-01
      3624   5 -2.498943E+00 -2.555913E+00 -3.102270E-01 -5.488977E+00  1.751556E-01  1.763741E+00
      3624   6 -2.416434E+00 -2.675444E+00 -1.658970E-01 -5.458840E+00  3.618711E-01  1.177203E+00
      3624   7 -1.893924E+00 -2.146872E+00  2.040985E+00 -6.002853E+00  4.678010E-01  1.905874E+00
      3624   8 -1.776729E+00 -2.337545E+00  2.063511E+00 -6.000806E+00  4.494790E-01  1.220365E+00
      3625   1 -1.502820E+00 -1.233402E+00  1.038131E+00 -5.555051E+00  4.063350E-01  1.151502E+00
      3625   2 -1.341363E+00 -1.575250E+00  1.083764E+00 -5.937346E+00  7.359087E-01  8.207901E-01
      3625   3 -1.045614E+00 -1.071954E+00  2.663989E+00 -6.188623E+00  1.042191E+00  1.313345E+00
      3625   4 -8.651132E-01 -1.441675E+00  2.635650E+00 -6.578194E+00  1.152869E+00  9.105080E-01
      3625   5 -2.614660E+00 -3.205253E+00 -6.961507E-01 -5.566410E+00  3.044766E-01  1.173330E+00
      3625   6 -2.399403E+00 -3.451073E+00 -5.672149E-01 -5.930565E+00  6.332154E-01  7.043803E-01
      3625   7 -1.910273E+00 -2.893035E+00  1.602875E+00 -6.201288E+00  9.282774E-01  1.290653E+00
      3625   8 -1.691577E+00 -3.182042E+00  1.621138E+00 -6.570752E+00  1.038717E+00  7.295514E-01
      3626   1 -1.545354E+00 -2.377905E+00  8.440596E-01 -6.277224E+00 -1.033957E-01  5.361909E-01
      3626   2 -2.116455E+00 -3.977758E+00  3.774495E-01 -7.279064E+00  2.876285E-01 -1.235050E-01
      3626   3 -2.309443E-01 -1.576231E+00  4.379746E+00 -7.005639E+00  4.921937E-01  8.270163E-01
      3626   4 -8.251680E-01 -3.295480E+00  3.738064E+00 -8.071261E+00  5.051974E-01  3.632281E-02
      3626   5 -2.775338E+00 -4.570237E+00 -1.063552E+00 -6.270077E+00 -1.243853E-01  7.323570E-01
      3626   6 -3.358378E+00 -6.242586E+00 -1.497465E+00 -7.254026E+00  2.651800E-01 -1.440490E-01
      3626   7 -1.014165E+00 -3.427263E+00  3.620043E+00 -6.994242E+00  4.482888E-01  9.313580E-01
      3626   8 -1.652516E+00 -5.262132E+00  2.946889E+00 -8.039383E+00  4.608788E-01 -1.110748E-01
      3627   1 -5.781781E-01 -1.423537E+00 -1.896485E-01  8.844566E-01 -2.085023E-01  1.956430E-01
      3627   2 -6.424419E-01 -9.092485E-01 -4.732298E-02  7.390998E-01 -5.114561E-02  5.837287E-02
      3627   3 -1.046003E+00 -1.436012E+00 -1.315829E-01  1.156914E+00 -2.678943E-01  7.735623E-02
      3627   4 -1.023414E+00 -7.917542E-01  1.046339E-01  9.699250E-01 -7.337705E-02 -9.584065E-02
      3627   5 -9.297086E-02 -3.989022E-02  4.406183E-02  5.929681E-01 -1.207333E-01  1.241225E-01
      3627   6 -1.832048E-01  4.160440E-01  1.581748E-01  4.019437E-01  3.729994E-02  6.176273E-02
      3627   7 -5.668358E-01 -4.513281E-03  3.414373E-02  8.466995E-01 -1.614375E-01  4.993798E-03
      3627   8 -5.836882E-01  5.587951E-01  2.198380E-01  6.086854E-01  3.642277E-02 -7.954037E-02
      3628   1 -8.020967E-01 -1.085818E+00 -1.276277E-01  7.636193E-01 -1.170183E-01  2.032537E-01
      3628   2 -7.459242E-01 -1.050541E+00 -9.151022E-02  7.746687E-01  1.448205E-02  3.857006E-02
      3628   3 -1.223829E+00 -1.112970E+00 -6.332023E-02  1.011144E+00 -1.794126E-01  1.493374E-01
      3628   4 -1.067670E+00 -1.018004E+00  5.822495E-02  1.034273E+00 -2.025463E-02 -5.836785E-02
      3628   5 -3.033719E-01  2.966009E-01  1.523699E-01  4.530083E-01 -1.222382E-01  2.517309E-01
      3628   6 -1.992020E-01  4.475101E-01  2.328465E-01  4.665643E-01  9.238553E-03  1.964265E-01
      3628   7 -7.380508E-01  3.226163E-01  1.203550E-01  6.854788E-01 -1.851744E-01  2.030938E-01
      3628   8 -5.316970E-01  5.540662E-01  2.727327E-01  7.134466E-01 -2.614222E-02  1.297460E-01
      3629   1 -6.867620E-01 -8.841096E-01 -2.791827E-01  6.857999E-01  1.325497E-01 -6.468675E-02
      3629   2 -6.273450E-01 -1.122485E+00 -3.226787E-01  6.991966E-01  1.293992E-01 -2.741210E-01
      3629   3 -1.037177E+00 -9.853041E-01 -2.289250E-01  1.024762E+00  7.732116E-02 -1.385487E-01
      3629   4 -9.139241E-01 -1.256562E+00 -2.116755E-01  1.157834E+00  8.438377E-02 -4.281866E-01
      3629   5 -1.962055E-01  2.650009E-01  2.068951E-01  4.302901E-01  9.158649E-02  1.836635E-01
      3629   6 -8.855235E-02  1.433275E-01  2.074844E-01  4.741150E-01  8.796537E-02  8.494336E-02
      3629   7 -5.305783E-01  2.768896E-01  1.975451E-01  7.692963E-01  2.778079E-02  1.460255E-01
      3629   8 -3.370082E-01  1.948141E-01  2.600016E-01  9.455991E-01  3.199647E-02  1.266316E-02
      3630   1 -3.714995E-01 -5.243160E-01 -4.656471E-01  3.451042E-01  2.088283E-01 -1.287035E-01
      3630   2 -1.091819E-01 -3.807018E-01 -3.408949E-01  1.077443E-01  9.910224E-02 -2.034022E-01
      3630   3 -5.852122E-01 -4.257892E-01 -4.598358E-01  6.417869E-01  2.644384E-01 -1.750611E-01
      3630   4 -1.972886E-01 -1.051946E-01 -2.235204E-01  4.638624E-01  1.530088E-01 -3.094870E-01
      3630   5  4.426728E-02  2.656266E-01  1.302997E-01  1.800009E-01  1.539652E-01  1.149778E-01
      3630   6  1.593886E-01  6.503131E-02  1.086071E-01 -2.014972E-03  4.333028E-02  1.134464E-02
      3630   7 -1.986872E-01  2.857182E-01  1.170732E-01  5.021350E-01  1.972334E-01  7.878601E-02
      3630   8 -4.689917E-02  4.932379E-02  1.232594E-01  4.242884E-01  7.853924E-02 -9.279019E-02
      3631   1 -1.403321E+00 -1.014485E+00  2.515378E-02  3.801384E-01 -2.350695E-01  3.688057E-01
      3631   2 -1.390817E+00 -4.949321E-01  2.675765E-01  3.116944E-01 -2.615641E-02  9.127657E-02
      3631   3 -2.434051E+00 -1.213987E+00  1.767945E-01  4.761850E-01 -3.611381E-01  2.145027E-01
      3631   4 -2.284037E+00 -5.295338E-01  5.446524E-01  4.680540E-01 -1.191835E-01 -1.097045E-01
      3631   5 -1.416197E+00 -6.711958E-01 -3.610537E-01 -1.481747E-01 -9.797793E-02  3.367648E-01
      3631   6 -1.321283E+00  5.483082E-02 -5.040692E-02 -2.314246E-01  1.117424E-01  1.335261E-01
      3631   7 -2.489378E+00 -8.805501E-01 -3.410646E-01 -8.858956E-02 -2.189703E-01  1.258426E-01
      3631   8 -2.238236E+00  5.999972E-02  1.077895E-01 -1.108007E-01  2.412990E-02 -1.148652E-01
      3632   1 -1.566785E+00 -8.128051E-01  8.194660E-02  3.574637E-01 -1.354704E-01  3.712972E-01
      3632   2 -1.300285E+00 -6.160983E-01  2.984852E-01  3.165384E-01  5.435285E-02  1.265502E-01
      3632   3 -2.474895E+00 -9.520063E-01  2.465171E-01  5.377278E-01 -1.811520E-01  2.736610E-01
      3632   4 -2.063318E+00 -6.624097E-01  5.691743E-01  5.214498E-01  4.628800E-02 -1.353924E-02
      3632   5 -1.418554E+00 -9.489988E-02 -1.418555E-01 -1.346902E-01 -1.316948E-01  4.376494E-01
      3632   6 -1.122523E+00  1.887657E-01  8.616266E-02 -1.412464E-01  5.480987E-02  2.863996E-01
      3632   7 -2.365611E+00 -2.135717E-01 -1.276403E-01  2.135425E-02 -1.978568E-01  3.352984E-01
      3632   8 -1.919109E+00  1.836497E-01  2.038088E-01  4.753409E-02  2.477917E-02  1.571435E-01
      3633   1 -1.328244E+00 -8.078443E-01 -8.712071E-02  3.674330E-01  9.634657E-02  2.525043E-02
      3633   2 -1.139957E+00 -1.078337E+00 -3.113985E-02  4.918423E-01  1.282807E-01 -2.285825E-01
      3633   3 -2.118581E+00 -1.066768E+00  8.674910E-02  7.497875E-01 -6.863398E-02 -3.698129E-02
      3633   4 -1.806740E+00 -1.317945E+00  2.244117E-01  9.902739E-01  7.000945E-03 -3.326612E-01
      3633   5 -1.062439E+00 -3.082527E-02  2.187908E-02 -2.511288E-02  4.694121E-02  3.067947E-01
      3633   6 -7.997764E-01 -1.014930E-01  1.259502E-01  1.569021E-01  7.336857E-02  1.660508E-01
      3633   7 -1.873675E+00 -1.792485E-01  1.558061E-02  3.554628E-01 -1.514073E-01  2.540726E-01
      3633   8 -1.465769E+00 -1.673358E-01  2.103711E-01  6.665856E-01 -8.393015E-02  9.586079E-02
      3634   1 -1.069028E+00 -9.162938E-01 -6.033779E-01  3.263471E-01  3.223504E-01 -2.936405E-01
      3634   2 -7.050973E-01 -8.246438E-01 -4.051989E-01  4.164358E-01  1.957861E-01 -5.125872E-01
      3634   3 -1.593628E+00 -9.018716E-01 -3.902654E-01  9.237832E-01  2.129149E-01 -4.400841E-01
      3634   4 -1.041726E+00 -7.072034E-01 -7.268466E-02  1.134377E+00  1.102927E-01 -7.026415E-01
      3634   5 -6.544487E-01 -8.137983E-02 -5.636062E-02  6.120212E-02  2.475455E-01  1.208883E-01
      3634   6 -3.010624E-01  4.949241E-03  1.119909E-01  2.446675E-01  1.115217E-01 -2.408732E-02
      3634   7 -1.184042E+00  3.619286E-02  3.695831E-02  7.015287E-01  8.179313E-02  3.261444E-02
      3634   8 -6.358731E-01  2.514979E-01  3.214569E-01  1.029246E+00 -3.522639E-02 -1.336764E-01
      3635   1 -2.704622E+00  6.803711E-01  9.492814E-01 -2.115965E+00 -1.238962E-01  5.105347E-01
      3635   2 -2.719862E+00  8.634541E-01  1.119670E+00 -1.842256E+00  1.041828E-01  2.138124E-01
      3635   3 -5.061665E+00 -2.622509E-01  7.338343E-01 -2.788770E+00 -3.612500E-01  4.512485E-01
      3635   4 -4.959652E+00  3.524016E-02  9.657563E-01 -2.325649E+00 -1.246836E-01  1.227637E-01
      3635   5 -4.141550E+00 -2.121859E+00 -1.038246E+00 -3.005406E+00  5.244061E-02  6.076622E-01
      3635   6 -3.871209E+00 -1.268641E+00 -5.860580E-01 -2.697226E+00  2.749193E-01  3.210540E-01
      3635   7 -6.587825E+00 -3.248294E+00 -1.367320E+00 -3.748042E+00 -2.210459E-01  3.718393E-01
      3635   8 -6.148463E+00 -2.160127E+00 -8.015796E-01 -3.244166E+00  1.029165E-02  5.719642E-02
      3636   1 -2.885350E+00  3.990525E-01  8.622861E-01 -1.683760E+00  1.073710E-01  6.458680E-01
      3636   2 -2.543963E+00  4.335446E-01  1.118706E+00 -1.609072E+00  3.537227E-01  3.004049E-01
      3636   3 -4.998046E+00 -3.309236E-01  9.976655E-01 -2.103123E+00  4.720903E-02  6.133208E-01
      3636   4 -4.703254E+00 -3.140880E-01  1.224146E+00 -1.960110E+00  3.331611E-01  2.358446E-01
      3636   5 -3.921212E+00 -1.446136E+00 -7.454004E-01 -2.493862E+00  1.217700E-01  8.267352E-01
      3636   6 -3.484191E+00 -1.175144E+00 -4.066965E-01 -2.412015E+00  3.683917E-01  5.409301E-01
      3636   7 -6.126832E+00 -2.301093E+00 -7.947841E-01 -2.982381E+00  6.346510E-02  7.351554E-01
      3636   8 -5.716925E+00 -2.003296E+00 -4.655487E-01 -2.833533E+00  3.496672E-01  4.260185E-01
      3637   1 -2.564492E+00 -1.823937E-02  6.884141E-01 -1.506079E+00  2.276803E-01  2.386678E-01
      3637   2 -2.131603E+00 -1.728639E-01  9.191056E-01 -1.571940E+00  3.957890E-01 -1.159920E-01
      3637   3 -4.691869E+00 -8.083996E-01  8.884089E-01 -1.842053E+00  3.012537E-01  2.162255E-01
      3637   4 -4.175854E+00 -9.541095E-01  1.134728E+00 -1.879885E+00  5.363982E-01 -1.656984E-01
      3637   5 -3.394311E+00 -1.528683E+00 -5.672057E-01 -2.258457E+00  1.671339E-01  6.031349E-01
      3637   6 -2.952615E+00 -1.641952E+00 -3.485162E-01 -2.267410E+00  3.291282E-01  3.325776E-01
      3637   7 -5.655308E+00 -2.478639E+00 -6.528153E-01 -2.645988E+00  1.960470E-01  5.923367E-01
      3637   8 -5.122723E+00 -2.566570E+00 -4.090393E-01 -2.620612E+00  4.255749E-01  3.071286E-01
      3638   1 -2.201569E+00 -5.274797E-01  1.684612E-02 -1.285451E+00  3.056019E-01 -4.249140E-01
      3638   2 -1.922356E+00 -1.080952E+00  7.229833E-02 -6.146629E-01  1.982966E-01 -7.568982E-01
      3638   3 -4.341294E+00 -1.544384E+00  1.342493E-01 -1.020319E+00 -4.149176E-01 -3.655799E-01
      3638   4 -4.150191E+00 -2.137801E+00  1.391671E-01 -1.250078E-01 -3.979969E-01 -7.159701E-01
      3638   5 -2.766691E+00 -1.732320E+00 -6.620522E-01 -1.952817E+00  2.213157E-01  1.149254E-01
      3638   6 -2.281594E+00 -1.771418E+00 -4.346964E-01 -1.283344E+00  1.163994E-01 -1.229026E-01
      3638   7 -4.969875E+00 -2.634697E+00 -8.707096E-01 -1.764140E+00 -4.807407E-01  7.402851E-02
      3638   8 -4.528245E+00 -2.612558E+00 -6.462546E-01 -8.735902E-01 -4.616412E-01 -1.604249E-01
      3639   1 -5.169816E+00  3.789984E+00  2.528568E+00 -8.333317E+00  2.760227E-02  5.776224E-01
      3639   2 -5.459053E+00  3.052545E+00  2.304388E+00 -7.649776E+00  2.474753E-01  2.728947E-01
      3639   3 -9.274041E+00  1.701871E+00  1.668327E+00 -1.045580E+01 -2.972031E-02  8.901618E-01
      3639   4 -9.484439E+00  9.988556E-01  1.418518E+00 -9.610696E+00  1.584793E-01  5.495365E-01
      3639   5 -8.504405E+00 -3.396407E+00 -1.400339E+00 -9.535982E+00  1.365002E-01  7.999744E-01
      3639   6 -8.398364E+00 -3.227093E+00 -1.213677E+00 -8.755418E+00  3.476099E-01  4.119870E-01
      3639   7 -1.273974E+01 -5.975640E+00 -2.206486E+00 -1.177133E+01 -2.510250E-02  8.989175E-01
      3639   8 -1.253080E+01 -5.704711E+00 -2.032467E+00 -1.082299E+01  1.605655E-01  4.813623E-01
      3640   1 -5.489985E+00  2.664740E+00  2.415922E+00 -7.380820E+00  5.944508E-01  7.967687E-01
      3640   2 -5.397227E+00  2.463024E+00  2.456407E+00 -7.272504E+00  8.945165E-01  5.286878E-01
      3640   3 -9.563398E+00  6.238274E-01  1.545261E+00 -9.323189E+00  8.077630E-01  9.174741E-01
      3640   4 -9.819970E+00  2.324693E-01  1.371863E+00 -9.268682E+00  1.084616E+00  6.311744E-01
      3640   5 -8.378617E+00 -3.385324E+00 -1.162787E+00 -8.455989E+00  6.343151E-01  1.149870E+00
      3640   6 -8.207547E+00 -3.413961E+00 -1.034344E+00 -8.362141E+00  9.361400E-01  8.526674E-01
      3640   7 -1.260139E+01 -5.901769E+00 -2.055768E+00 -1.051380E+01  8.707953E-01  1.240366E+00
      3640   8 -1.278926E+01 -6.135606E+00 -2.157706E+00 -1.048242E+01  1.148153E+00  9.237286E-01
      3641   1 -5.338058E+00  2.101486E+00  2.283301E+00 -7.451662E+00  1.153161E+00  6.014789E-01
      3641   2 -4.920822E+00  1.845993E+00  2.411782E+00 -8.000433E+00  1.463692E+00  3.049586E-01
      3641   3 -9.870197E+00 -1.524762E-01  1.401962E+00 -9.600020E+00  1.978626E+00  7.659820E-01
      3641   4 -9.804536E+00 -6.314309E-01  1.300760E+00 -1.030538E+01  2.272666E+00  4.538344E-01
      3641   5 -8.129705E+00 -3.793438E+00 -1.127264E+00 -8.533535E+00  1.063704E+00  1.101466E+00
      3641   6 -7.761304E+00 -4.166119E+00 -1.044378E+00 -9.088141E+00  1.376222E+00  8.140333E-01
      3641   7 -1.289819E+01 -6.645661E+00 -2.198173E+00 -1.081307E+01  1.917867E+00  1.315376E+00
      3641   8 -1.290289E+01 -7.289698E+00 -2.368805E+00 -1.153241E+01  2.212474E+00  1.011582E+00
      3642   1 -4.996799E+00  1.341340E+00  1.883224E+00 -8.230618E+00  3.675623E-01 -7.910491E-03
      3642   2 -4.945185E+00  8.770616E-01  1.896950E+00 -8.854352E+00  5.664361E-01 -5.607459E-01
      3642   3 -9.683009E+00 -7.994370E-01  1.995352E+00 -1.077153E+01  1.373504E+00  1.314377E-01
      3642   4 -1.045782E+01 -1.772086E+00  1.510107E+00 -1.177557E+01  1.447559E+00 -4.528705E-01
      3642   5 -7.754992E+00 -4.736084E+00 -1.233328E+00 -9.372249E+00  3.928428E-01  4.252990E-01
      3642   6 -7.954400E+00 -5.800670E+00 -1.456033E+00 -1.008574E+01  6.004208E-01 -1.794607E-01
      3642   7 -1.263747E+01 -7.564022E+00 -1.088280E+00 -1.208059E+01  1.535508E+00  8.035761E-01
      3642   8 -1.372360E+01 -9.267225E+00 -1.880710E+00 -1.319464E+01  1.612031E+00  1.469285E-01
      3643   1 -3.106778E-01 -2.591157E+00 -2.965977E-01  2.774456E-01 -5.862892E-02  2.793413E-01
      3643   2 -4.525223E-01 -1.955609E+00 -1.371954E-01  2.987731E-01 -4.356398E-02  4.054973E-02
      3643   3 -7.854405E-01 -2.674108E+00 -1.520020E-01  3.862149E-01 -6.169048E-02  1.442437E-01
      3643   4 -7.876510E-01 -1.844353E+00  1.520578E-01  3.760923E-01 -2.176180E-02 -1.523977E-01
      3643   5 -9.675040E-02 -2.067545E+00 -1.071186E-01 -2.423932E-02  6.686616E-02  2.579321E-01
      3643   6 -2.840585E-01 -1.536442E+00  5.183602E-03 -4.759308E-02  8.251059E-02  6.511487E-02
      3643   7 -5.936179E-01 -2.156867E+00 -2.983441E-02  6.561867E-02  7.981277E-02  1.403468E-01
      3643   8 -6.580949E-01 -1.464314E+00  2.038720E-01  6.974914E-03  1.226051E-01 -9.843662E-02
      3644   1 -6.768314E-01 -2.195972E+00 -3.191031E-01  2.976256E-01  3.759762E-02  1.686661E-01
      3644   2 -5.550617E-01 -2.209004E+00 -2.741624E-01  3.781555E-01  3.555254E-02 -8.570896E-02
      3644   3 -1.080782E+00 -2.299487E+00 -1.890279E-01  3.693480E-01  5.635328E-02  1.111920E-01
      3644   4 -8.339798E-01 -2.256472E+00 -3.652108E-02  4.495132E-01  6.041481E-02 -2.071215E-01
      3644   5 -4.798718E-01 -1.736448E+00 -1.220949E-01  1.728270E-02  7.315128E-03  1.875170E-01
      3644   6 -3.328768E-01 -1.689548E+00 -5.300196E-02  1.295991E-01  4.753180E-03 -3.837035E-02
      3644   7 -8.896003E-01 -1.828855E+00 -2.238810E-02  8.149484E-02  1.422590E-02  1.350257E-01
      3644   8 -6.171750E-01 -1.720342E+00  1.500313E-01  2.032683E-01  1.553677E-02 -1.476239E-01
      3645   1 -4.041125E-01 -1.722344E+00 -5.097559E-01  3.253108E-01  1.020976E-01 -2.849904E-01
      3645   2 -5.052111E-01 -2.210252E+00 -6.737608E-01  3.512588E-01  7.699174E-02 -5.436007E-01
      3645   3 -7.277749E-01 -2.003934E+00 -4.599225E-01  3.981155E-01  1.329675E-01 -3.576391E-01
      3645   4 -6.959374E-01 -2.607867E+00 -5.547426E-01  4.491193E-01  1.032187E-01 -7.138134E-01
      3645   5 -2.135200E-01 -1.314810E+00 -2.819814E-01  1.248772E-01  7.582775E-02 -1.950252E-01
      3645   6 -2.396687E-01 -1.627536E+00 -3.713352E-01  2.919715E-01  4.816007E-02 -4.488027E-01
      3645   7 -4.981200E-01 -1.499808E+00 -1.985319E-01  2.537073E-01  6.000810E-02 -2.771450E-01
      3645   8 -3.580992E-01 -1.849507E+00 -1.869761E-01  5.100449E-01  1.476221E-02 -6.299418E-01
      3646   1 -1.725026E-01 -1.021985E+00 -7.876265E-01  1.925805E-01  1.028272E-01 -3.445205E-01
      3646   2 -6.909537E-02 -6.143497E-01 -6.317713E-01  4.674995E-02  5.374470E-02 -3.970829E-01
      3646   3 -6.296330E-02 -7.245724E-01 -6.310148E-01  1.978560E-01  1.672630E-01 -4.145638E-01
      3646   4  3.167212E-01  1.218174E-01 -2.428705E-01 -2.715037E-02  1.310079E-01 -5.299688E-01
      3646   5 -2.275988E-02 -7.551619E-01 -5.553072E-01  9.518758E-02  1.255541E-01 -2.573914E-01
      3646   6  1.389176E-02 -5.033305E-01 -4.661667E-01  3.962535E-02  7.474988E-02 -3.150114E-01
      3646   7  5.542757E-02 -5.314585E-01 -4.294924E-01  1.642176E-01  1.666107E-01 -3.144375E-01
      3646   8  3.166253E-01  3.813518E-02 -1.595084E-01  1.142533E-01  1.165946E-01 -4.306665E-01
      3647   1 -2.091674E+00 -3.050264E+00 -4.304005E-01  1.126936E+00 -1.126731E-01  4.337223E-01
      3647   2 -2.051236E+00 -2.455111E+00 -1.371004E-01  1.029908E+00 -4.912934E-02  6.119925E-02
      3647   3 -5.405167E+00 -4.265645E+00 -1.143736E+00  1.434245E+00 -7.090528E-02  2.824035E-01
      3647   4 -4.886574E+00 -3.367162E+00 -5.729717E-01  1.294522E+00  1.548455E-02 -1.520805E-01
      3647   5 -1.647202E+00 -1.909525E+00 -8.956473E-02 -2.858198E-01  1.281506E-01  4.241581E-01
      3647   6 -1.652973E+00 -1.414836E+00  1.501674E-01 -3.066506E-01  1.821562E-01  9.201007E-02
      3647   7 -4.960860E+00 -3.079021E+00 -8.493381E-01 -7.153898E-02  1.099390E-01  2.909652E-01
      3647   8 -4.499947E+00 -2.304681E+00 -3.466963E-01 -1.116785E-01  1.827922E-01 -9.533326E-02
      3648   1 -2.258082E+00 -2.888221E+00 -4.532263E-01  9.771609E-01  3.091735E-02  3.650508E-01
      3648   2 -1.795943E+00 -2.586859E+00 -1.058314E-01  9.725161E-01  6.142258E-02 -4.086283E-02
      3648   3 -4.891361E+00 -3.785279E+00 -7.819630E-01  1.226054E+00  9.352996E-02  2.323774E-01
      3648   4 -4.189850E+00 -3.349655E+00 -2.694985E-01  1.195144E+00  1.736393E-01 -2.463070E-01
      3648   5 -1.810525E+00 -1.777579E+00 -7.201344E-02 -2.536561E-01  7.277675E-02  3.650180E-01
      3648   6 -1.367394E+00 -1.502448E+00  2.382539E-01 -2.166074E-01  9.963699E-02  4.234122E-02
      3648   7 -4.500307E+00 -2.694646E+00 -5.690814E-01 -7.612239E-02  1.128938E-01  2.633614E-01
      3648   8 -3.828095E+00 -2.301155E+00 -1.121482E-01 -5.447306E-02  1.877264E-01 -1.135186E-01
      3649   1 -1.786079E+00 -2.732992E+00 -7.302261E-01  9.720488E-01  1.115864E-01 -2.448673E-01
      3649   2 -1.482705E+00 -3.105804E+00 -6.433222E-01  1.078423E+00  7.956897E-02 -5.885680E-01
      3649   3 -4.209563E+00 -3.863180E+00 -1.143509E+00  1.260335E+00  1.489344E-01 -3.119807E-01
      3649   4 -3.565966E+00 -4.181816E+00 -8.864207E-01  1.393272E+00  1.283102E-01 -7.193414E-01
      3649   5 -1.304746E+00 -1.611471E+00 -2.473023E-01 -1.141127E-01  9.001324E-02 -1.244592E-01
      3649   6 -9.536611E-01 -1.864743E+00 -1.209010E-01  1.378418E-01  4.307612E-02 -4.377312E-01
      3649   7 -3.710503E+00 -2.650525E+00 -6.926300E-01  1.733216E-01  3.695595E-02 -1.866457E-01
      3649   8 -3.010179E+00 -2.824632E+00 -3.909839E-01  4.878638E-01 -5.770274E-03 -5.566653E-01
      3650   1 -1.347877E+00 -2.614081E+00 -1.398213E+00  9.335916E-01  1.793448E-01 -7.055455E-01
      3650   2 -1.130281E+00 -2.652822E+00 -1.293247E+00  7.976013E-01  1.298515E-01 -8.709379E-01
      3650   3 -3.151675E+00 -3.435932E+00 -1.880437E+00  1.126225E+00  3.465081E-01 -8.074264E-01
      3650   4 -2.299135E+00 -3.232356E+00 -1.485509E+00  9.811240E-01  2.737498E-01 -1.008854E+00
      3650   5 -8.523331E-01 -1.535985E+00 -8.244935E-01  7.386680E-02  2.018648E-01 -5.232597E-01
      3650   6 -5.828421E-01 -1.464547E+00 -6.567247E-01  2.436126E-01  1.185457E-01 -7.460722E-01
      3650   7 -2.536691E+00 -2.144082E+00 -1.122338E+00  4.450019E-01  1.676478E-01 -6.744683E-01
      3650   8 -1.613635E+00 -1.792571E+00 -6.402930E-01  6.920319E-01  4.340682E-02 -9.491189E-01
      3651   1 -5.892543E+00  2.222467E+00  1.066461E+00  5.726949E-01 -5.682400E-02  8.216888E-01
      3651   2 -5.736651E+00  1.760871E+00  1.206472E+00  6.482465E-01  7.048702E-02  2.287160E-01
      3651   3 -1.316974E+01 -3.616825E-01 -3.969066E-01  1.816560E-01 -4.672515E-01  1.009474E+00
      3651   4 -1.288368E+01 -8.510588E-01 -2.415540E-01  3.858763E-01 -1.568593E-01  3.424876E-01
      3651   5 -6.909063E+00  4.707717E-02 -1.465484E-01 -2.100045E+00  2.295185E-01  5.984977E-01
      3651   6 -6.591433E+00  2.474893E-02  9.332072E-02 -1.919223E+00  3.429215E-01  2.125515E-01
      3651   7 -1.454683E+01 -2.979152E+00 -2.369717E+00 -2.702598E+00 -2.706407E-01  6.346285E-01
      3651   8 -1.405749E+01 -2.936455E+00 -2.068866E+00 -2.378432E+00  2.676643E-02  2.149064E-01
      3652   1 -5.756541E+00  9.694348E-01  9.937220E-01  6.702237E-01  2.098324E-01  5.217386E-01
      3652   2 -5.177513E+00  8.268904E-01  1.360509E+00  6.789269E-01  3.533786E-01 -8.943603E-02
      3652   3 -1.272965E+01 -1.548959E+00 -2.314226E-01  4.502344E-01  2.157446E-01  5.386758E-01
      3652   4 -1.207479E+01 -1.715044E+00  1.335452E-01  5.074648E-01  5.083667E-01 -1.399809E-01
      3652   5 -6.521953E+00 -5.070458E-01 -8.117100E-02 -1.804707E+00  3.606425E-01  5.825191E-01
      3652   6 -5.884290E+00 -4.644404E-01  2.959177E-01 -1.707714E+00  4.940641E-01  1.430485E-01
      3652   7 -1.376799E+01 -3.329793E+00 -1.911721E+00 -2.216377E+00  2.969116E-01  5.773866E-01
      3652   8 -1.303622E+01 -3.271665E+00 -1.514585E+00 -2.061325E+00  5.801607E-01  1.005441E-01
      3653   1 -5.113494E+00  2.839105E-01  5.375688E-01  6.981290E-01  3.448957E-01 -3.302207E-01
      3653   2 -4.072068E+00  5.456216E-01  1.153688E+00  6.650498E-01  3.936390E-01 -9.189647E-01
      3653   3 -1.192462E+01 -2.165848E+00 -5.959624E-01  5.228167E-01  6.235095E-01 -4.978291E-01
      3653   4 -1.090071E+01 -1.935410E+00 -1.281122E-02  4.552401E-01  7.969529E-01 -1.144507E+00
      3653   5 -5.679814E+00 -8.569674E-01 -2.092860E-01 -1.589104E+00  3.541608E-01 -5.116607E-03
      3653   6 -4.712790E+00 -7.305326E-01  2.941025E-01 -1.563281E+00  3.983902E-01 -4.525169E-01
      3653   7 -1.275733E+01 -3.648344E+00 -1.889165E+00 -1.955121E+00  5.998010E-01 -6.116350E-02
      3653   8 -1.181392E+01 -3.570531E+00 -1.421722E+00 -1.961070E+00  7.690980E-01 -5.440085E-01
      3654   1 -3.992831E+00 -8.018958E-03 -3.018029E-01  7.633317E-01  4.691110E-01 -1.328726E+00
      3654   2 -3.126003E+00 -9.184219E-01 -1.020152E-01  1.197664E+00  3.439820E-01 -1.824526E+00
      3654   3 -1.084632E+01 -3.187859E+00 -1.666796E+00  8.781857E-01  4.126476E-01 -1.164694E+00
      3654   4 -9.168854E+00 -3.877990E+00 -1.176464E+00  1.459190E+00  4.066031E-01 -1.715643E+00
      3654   5 -4.431605E+00 -1.026894E+00 -7.455050E-01 -1.240372E+00  3.032483E-01 -8.172394E-01
      3654   6 -3.390908E+00 -1.498404E+00 -4.050513E-01 -4.739087E-01  1.356955E-01 -1.222734E+00
      3654   7 -1.139281E+01 -4.201480E+00 -2.474802E+00 -1.142657E+00 -8.106802E-02 -6.899371E-01
      3654   8 -9.506815E+00 -4.374767E+00 -1.806224E+00 -1.834154E-01 -1.258040E-01 -1.129526E+00
      3655   1 -1.275480E+01  1.058945E+01  4.024124E+00 -6.549896E+00 -1.200707E-01  6.279032E-01
      3655   2 -1.326852E+01  8.418326E+00  3.289093E+00 -6.030960E+00  2.488829E-01  3.710915E-01
      3655   3 -1.931408E+01  8.292561E+00  2.205303E+00 -8.486452E+00 -5.727536E-01  1.360443E+00
      3655   4 -2.027281E+01  5.823033E+00  1.197172E+00 -7.792826E+00 -1.844595E-01  1.049099E+00
      3655   5 -1.632884E+01  3.065636E+00 -3.655480E-01 -8.536677E+00 -8.387959E-02  5.280976E-01
      3655   6 -1.643979E+01  1.830962E+00 -6.944220E-01 -7.992582E+00  2.839510E-01  2.669714E-01
      3655   7 -2.313429E+01  1.542213E-01 -2.390376E+00 -1.066221E+01 -5.499243E-01  9.839502E-01
      3655   8 -2.365667E+01 -1.298156E+00 -2.961193E+00 -9.952699E+00 -1.619546E-01  6.834226E-01
      3656   1 -1.322279E+01  7.614122E+00  3.394860E+00 -5.704263E+00  6.902844E-01  6.065842E-01
      3656   2 -1.294657E+01  7.312421E+00  3.485634E+00 -5.299093E+00  1.057712E+00  1.829929E-01
      3656   3 -2.050062E+01  5.125988E+00  1.761174E+00 -7.410650E+00  2.541413E-01  7.549117E-01
      3656   4 -2.152619E+01  4.238743E+00  1.215548E+00 -7.040461E+00  7.818981E-01  3.030460E-01
      3656   5 -1.626581E+01  1.350305E+00 -4.847278E-01 -7.731867E+00  7.357229E-01  6.612979E-01
      3656   6 -1.594683E+01  1.165180E+00 -3.679946E-01 -7.514304E+00  1.121180E+00  3.647764E-01
      3656   7 -2.396104E+01 -1.890508E+00 -2.757071E+00 -9.670792E+00  5.370169E-01  7.789561E-01
      3656   8 -2.494206E+01 -2.668974E+00 -3.262961E+00 -9.527100E+00  1.069943E+00  4.715402E-01
      3657   1 -1.277000E+01  7.071151E+00  3.092567E+00 -5.386060E+00  1.589953E+00 -2.205016E-01
      3657   2 -1.187611E+01  7.360221E+00  3.585254E+00 -5.888626E+00  1.935739E+00 -8.169642E-01
      3657   3 -2.155555E+01  4.200671E+00  1.585393E+00 -7.314300E+00  2.361045E+00 -2.581730E-01
      3657   4 -2.127037E+01  4.218248E+00  1.715490E+00 -8.009273E+00  2.963949E+00 -8.840857E-01
      3657   5 -1.571416E+01  9.072882E-01 -5.574255E-01 -7.651814E+00  1.523541E+00  2.656080E-01
      3657   6 -1.495247E+01  9.213115E-01 -2.303851E-01 -8.160495E+00  1.871995E+00 -1.113960E-01
      3657   7 -2.515375E+01 -3.006459E+00 -3.201455E+00 -9.850329E+00  2.333148E+00  3.632124E-01
      3657   8 -2.501140E+01 -3.312627E+00 -3.223719E+00 -1.056694E+01  2.936812E+00 -1.708544E-02
      3658   1 -1.139735E+01  7.113793E+00  2.544314E+00 -6.010683E+00  1.402745E+00 -9.474260E-01
      3658   2 -8.939869E+00  8.396753E+00  3.810281E+00 -6.162797E+00  1.553851E+00 -1.572318E+00
      3658   3 -2.126438E+01  3.986987E+00  9.055075E-01 -8.271864E+00  2.361864E+00 -1.217642E+00
      3658   4 -2.027833E+01  4.646996E+00  1.440106E+00 -8.699323E+00  2.603178E+00 -1.853269E+00
      3658   5 -1.427390E+01  7.841915E-01 -7.145938E-01 -8.281781E+00  9.026608E-01 -3.545712E-01
      3658   6 -1.201217E+01  1.617881E+00  3.481667E-01 -8.603682E+00  1.074528E+00 -9.137511E-01
      3658   7 -2.460349E+01 -3.304678E+00 -2.933184E+00 -1.089655E+01  2.187907E+00 -3.627075E-01
      3658   8 -2.385287E+01 -3.191884E+00 -2.636129E+00 -1.153552E+01  2.435108E+00 -9.310642E-01
      3659   1  5.405321E-02 -4.438889E-01 -9.698891E-02 -8.815471E-01  1.747899E-01  7.886814E-02
      3659   2  3.731740E-02  3.242469E-01  1.367081E-01 -5.970163E-01 -2.703692E-02 -5.676485E-02
      3659   3 -4.794414E-02 -1.747237E-01  1.818104E-01 -1.193713E+00  2.728062E-01 -1.153032E-01
      3659   4 -6.579731E-02  7.406564E-01  4.919706E-01 -8.747559E-01  2.611890E-02 -2.939283E-01
      3659   5 -4.723164E-01 -1.990597E+00 -3.048464E-01 -1.047533E+00  2.778895E-01  2.067531E-01
      3659   6 -5.170386E-01 -1.289898E+00 -9.700002E-02 -8.558817E-01  7.757996E-02 -4.147735E-03
      3659   7 -5.791609E-01 -1.791740E+00  2.810440E-02 -1.372793E+00  4.178190E-01  4.151834E-02
      3659   8 -6.255756E-01 -9.535578E-01  3.202572E-01 -1.162725E+00  1.786294E-01 -2.228794E-01
      3660   1 -1.121077E-01  1.142704E-01  4.088317E-02 -6.094519E-01  1.756446E-01  1.832732E-01
      3660   2  3.227603E-02  4.103329E-02  6.764043E-02 -5.135304E-01  2.290043E-03  1.075100E-01
      3660   3 -3.895771E-01  2.112039E-01  1.107724E-01 -9.122155E-01  2.883494E-01  1.422207E-01
      3660   4 -1.349633E-01  1.670095E-01  2.027065E-01 -8.105595E-01  7.451359E-02  4.816465E-02
      3660   5 -6.967079E-01 -1.532751E+00 -2.607621E-01 -8.190503E-01  1.294529E-01  1.637890E-01
      3660   6 -5.390132E-01 -1.579106E+00 -2.165175E-01 -6.703402E-01 -4.477850E-02 -4.024667E-02
      3660   7 -9.491891E-01 -1.473223E+00 -7.017451E-02 -1.121363E+00  2.220631E-01  1.057400E-01
      3660   8 -6.672750E-01 -1.475943E+00  7.128686E-02 -9.519218E-01  3.560696E-03 -1.488469E-01
      3661   1  1.301011E-01  5.080859E-02  5.299050E-02 -4.908676E-01 -1.934938E-02 -1.968860E-02
      3661   2 -5.481018E-02 -6.768012E-01 -2.126368E-01 -3.719206E-01 -5.500942E-02 -1.767544E-01
      3661   3 -5.277112E-02 -3.683128E-02  1.199899E-01 -8.395943E-01  6.268303E-02 -4.772385E-02
      3661   4 -1.786595E-01 -9.308585E-01 -1.368103E-01 -7.988623E-01  2.014918E-02 -2.564202E-01
      3661   5 -3.834413E-01 -1.210397E+00 -3.976120E-01 -6.086958E-01 -5.305567E-02 -2.276372E-01
      3661   6 -5.351862E-01 -1.863271E+00 -6.274203E-01 -3.758985E-01 -9.075775E-02 -4.594973E-01
      3661   7 -5.739681E-01 -1.364240E+00 -2.899250E-01 -9.118443E-01 -8.239839E-03 -2.848121E-01
      3661   8 -6.605581E-01 -2.182616E+00 -4.913812E-01 -7.064840E-01 -6.312651E-02 -6.003056E-01
      3662   1  2.066475E-01  8.720152E-02 -2.348051E-01 -1.777445E-01 -7.060566E-02 -1.245502E-01
      3662   2  6.849037E-02 -2.203786E-01 -3.663366E-01  1.466040E-01 -2.312218E-02 -1.792578E-01
      3662   3  2.314097E-01  2.362854E-01 -1.529172E-01 -4.617897E-01 -7.608437E-02 -1.499174E-01
      3662   4  2.855383E-02 -1.489402E-01 -3.118402E-01 -1.292806E-01 -3.995182E-02 -2.397961E-01
      3662   5 -1.847585E-01 -7.440820E-01 -7.082081E-01 -2.444418E-01 -6.731873E-02 -2.995191E-01
      3662   6 -1.043784E-01 -5.419297E-01 -6.210147E-01 -1.954584E-03 -1.831749E-02 -3.570408E-01
      3662   7 -7.668780E-02 -4.031615E-01 -5.404619E-01 -5.871080E-01 -5.218722E-02 -3.581273E-01
      3662   8  9.461027E-02  8.313797E-02 -3.237303E-01 -4.100248E-01 -3.923595E-03 -4.713865E-01
      3663   1 -1.336334E+00 -2.322954E+00 -6.788614E-01 -1.403658E-02  2.112712E-01  5.357556E-01
      3663   2 -1.063022E+00 -9.142468E-01 -2.829056E-02 -7.995414E-02  1.205835E-02  3.395637E-02
      3663   3 -1.870526E+00 -2.127453E+00  1.374111E-01 -5.525474E-02  3.444523E-01  1.877074E-01
      3663   4 -1.145249E+00 -2.289563E-01  1.131697E+00 -3.040484E-01  2.398266E-01 -4.274304E-01
      3663   5 -1.208836E+00 -2.443613E+00 -1.332108E-01 -4.536272E-01  3.842212E-01  4.256548E-01
      3663   6 -1.222674E+00 -1.682486E+00  2.077750E-01 -4.567087E-01  1.765070E-01  2.394673E-02
      3663   7 -1.876409E+00 -2.418252E+00  4.085999E-01 -5.209188E-01  4.639425E-01  2.169752E-01
      3663   8 -1.506925E+00 -1.318097E+00  1.015253E+00 -6.884830E-01  3.472516E-01 -2.663838E-01
      3664   1 -1.223997E+00 -1.112279E+00 -3.475718E-01 -2.599138E-01  3.101851E-01  4.247207E-01
      3664   2 -5.710687E-01 -4.965231E-01  1.513344E-01 -2.726936E-01  9.185757E-02  5.587042E-02
      3664   3 -1.339475E+00 -6.306754E-01  4.923593E-01 -5.657122E-01  5.238059E-01  1.922365E-01
      3664   4 -4.215282E-01  2.137720E-01  1.192338E+00 -6.659470E-01  3.117268E-01 -2.526140E-01
      3664   5 -1.462599E+00 -2.102011E+00 -1.531825E-01 -4.980002E-01  2.210311E-01  3.709292E-01
      3664   6 -9.056227E-01 -1.715021E+00  2.546527E-01 -4.200376E-01 -6.290573E-03 -3.198643E-02
      3664   7 -1.632243E+00 -1.776911E+00  6.627001E-01 -7.994510E-01  3.791451E-01  1.992796E-01
      3664   8 -8.367136E-01 -1.225168E+00  1.247327E+00 -7.904070E-01  1.540456E-01 -2.793511E-01
      3665   1 -4.781369E-01 -7.956832E-01 -7.553018E-02 -3.377224E-01  8.950207E-02 -3.835540E-03
      3665   2 -3.557963E-01 -1.487694E+00 -1.950288E-01 -3.167885E-01  1.896763E-02 -1.348701E-01
      3665   3 -6.293158E-01 -8.479450E-01  1.749088E-01 -8.168187E-01  3.253163E-01  3.215923E-02
      3665   4 -1.338069E-01 -1.488611E+00  2.075094E-01 -8.707500E-01  1.837992E-01 -1.051608E-01
      3665   5 -8.914394E-01 -1.939196E+00 -3.096927E-01 -3.541825E-01 -4.452716E-02 -2.000682E-01
      3665   6 -6.970548E-01 -2.497026E+00 -3.232243E-01 -1.034924E-01 -1.396072E-01 -4.903994E-01
      3665   7 -9.364310E-01 -1.949242E+00  2.524884E-01 -7.275699E-01  4.255395E-02 -2.386599E-01
      3665   8 -3.556445E-01 -2.441181E+00  4.206202E-01 -4.973413E-01 -1.353251E-01 -5.732063E-01
      3666   1 -1.545300E-01 -1.037293E+00 -4.766511E-01 -2.855342E-01 -4.833541E-02 -3.409217E-01
      3666   2 -1.321300E-01 -1.162052E+00 -4.451939E-01 -4.556037E-01  4.501262E-02 -5.612963E-01
      3666   3  6.334774E-01 -3.185034E-01  3.454843E-01 -1.079504E+00  2.494820E-01 -5.043533E-01
      3666   4  1.098081E+00 -2.090873E-01  6.123048E-01 -1.430932E+00  3.912227E-01 -7.786102E-01
      3666   5 -6.194477E-01 -2.050179E+00 -1.013490E+00 -3.994568E-02 -9.521701E-02 -6.400868E-01
      3666   6 -6.479074E-01 -2.284576E+00 -1.041928E+00  2.511460E-02 -2.829215E-02 -8.103522E-01
      3666   7  5.647179E-03 -1.657727E+00 -4.080593E-01 -6.437003E-01  4.529114E-02 -7.359934E-01
      3666   8  3.891324E-01 -1.723835E+00 -2.361090E-01 -6.949943E-01  1.468161E-01 -9.455569E-01
      3667   1 -7.081214E+00 -5.120207E+00 -1.843544E+00  5.674108E+00 -1.982168E-01  9.912191E-01
      3667   2 -6.500868E+00 -4.438512E+00 -1.244600E+00  5.050564E+00 -2.574878E-01  4.165366E-01
      3667   3 -2.060851E+01 -1.146479E+01 -6.383557E+00  8.212381E+00  2.459301E-01  8.752010E-01
      3667   4 -1.894747E+01 -1.017607E+01 -5.292920E+00  7.277256E+00  1.149848E-01  2.548643E-01
      3667   5 -3.902962E+00  2.045636E+00  1.584786E+00  1.146345E+00  3.782173E-01  8.829471E-01
      3667   6 -3.721447E+00  1.773729E+00  1.807893E+00  9.191191E-01  2.627179E-01  2.551253E-01
      3667   7 -1.709346E+01 -3.661441E+00 -2.470071E+00  3.335767E+00  4.595859E-01  1.010862E+00
      3667   8 -1.590150E+01 -3.488705E+00 -1.827041E+00  2.863749E+00  2.761428E-01  3.204453E-01
      3668   1 -6.465620E+00 -5.068906E+00 -1.531002E+00  4.650240E+00  1.707488E-02  9.665684E-01
      3668   2 -5.566912E+00 -4.912203E+00 -8.375341E-01  4.353763E+00 -1.047558E-01  1.319836E-02
      3668   3 -1.770233E+01 -9.954425E+00 -3.775443E+00  6.746145E+00  3.520334E-01  8.389542E-01
      3668   4 -1.630662E+01 -9.601956E+00 -2.902118E+00  6.353704E+00  4.366775E-01 -2.528848E-01
      3668   5 -3.720100E+00  9.725444E-01  1.579282E+00  7.865841E-01  3.151869E-01  6.088515E-01
      3668   6 -2.946268E+00  9.043184E-01  2.081424E+00  7.296172E-01  1.620696E-01 -1.217607E-01
      3668   7 -1.511864E+01 -3.833497E+00 -1.284084E+00  2.609215E+00  4.349314E-01  5.924091E-01
      3668   8 -1.385703E+01 -3.732402E+00 -6.063725E-01  2.490237E+00  4.906111E-01 -2.363374E-01
      3669   1 -5.465244E+00 -5.512770E+00 -1.780322E+00  4.169381E+00 -6.940885E-02 -1.406125E-01
      3669   2 -3.978932E+00 -4.564292E+00 -7.568413E-01  4.090968E+00 -2.176850E-01 -9.011249E-01
      3669   3 -1.598442E+01 -9.965169E+00 -4.131365E+00  6.094461E+00  5.231472E-01 -6.674642E-01
      3669   4 -1.410670E+01 -8.754136E+00 -2.935553E+00  5.851512E+00  4.661007E-01 -1.512420E+00
      3669   5 -2.829698E+00  3.219038E-01  1.170155E+00  7.444138E-01  5.603274E-02 -3.524965E-01
      3669   6 -1.554630E+00  8.054255E-01  1.954446E+00  8.512020E-01 -1.143987E-01 -1.011731E+00
      3669   7 -1.340767E+01 -4.063557E+00 -1.443799E+00  2.432545E+00  4.867630E-01 -6.509901E-01
      3669   8 -1.177554E+01 -3.399907E+00 -5.192524E-01  2.397140E+00  4.093649E-01 -1.379480E+00
      3670   1 -3.789029E+00 -5.084088E+00 -1.724523E+00  3.945175E+00 -1.142472E-01 -1.218543E+00
      3670   2 -3.618679E+00 -6.894966E+00 -2.159523E+00  3.840870E+00 -1.033919E-01 -1.275720E+00
      3670   3 -1.483073E+01 -1.143745E+01 -6.501317E+00  5.576349E+00  5.906056E-01 -7.042251E-01
      3670   4 -1.323167E+01 -1.281442E+01 -6.382561E+00  5.429218E+00  2.868531E-01 -7.168816E-01
      3670   5 -1.562107E+00  1.326827E-01  4.817800E-01  9.673518E-01 -3.999809E-02 -1.404476E+00
      3670   6 -1.187101E+00 -1.297241E+00  3.480101E-01  1.391559E+00 -1.011374E-01 -1.808240E+00
      3670   7 -1.181945E+01 -5.136863E+00 -2.764322E+00  2.626795E+00  1.084716E-01 -1.129790E+00
      3670   8 -1.000497E+01 -6.099228E+00 -2.342056E+00  3.087014E+00 -2.609410E-01 -1.542825E+00
      3671   1 -1.793255E+01  1.831491E+01  5.131026E+00  4.252878E+00  1.002464E-01  2.992052E+00
      3671   2 -1.881167E+01  1.351207E+01  3.890460E+00  4.292734E+00  2.443323E-01  1.128451E+00
      3671   3 -3.710858E+01  1.308713E+01  3.331602E+00  3.499096E+00 -2.553566E+00  5.204849E+00
      3671   4 -3.990068E+01  6.855085E+00  7.584116E-01  4.198187E+00 -1.167331E+00  2.912381E+00
      3671   5 -2.099766E+01  1.113736E+01  2.091545E+00 -2.116986E+00  3.019693E-01  1.258302E+00
      3671   6 -2.111064E+01  8.344728E+00  1.394575E+00 -2.072608E+00  4.486429E-01  5.850945E-01
      3671   7 -4.243737E+01  3.275891E+00 -4.619775E+00 -3.477633E+00 -2.321050E+00  2.588344E+00
      3671   8 -4.423208E+01 -5.646517E-01 -6.259878E+00 -2.813582E+00 -9.340677E-01  1.684765E+00
      3672   1 -1.847342E+01  1.202047E+01  4.414317E+00  4.500705E+00  4.766745E-01  9.540759E-01
      3672   2 -1.759591E+01  1.188423E+01  4.858776E+00  5.027850E+00  6.901598E-01 -2.833778E-02
      3672   3 -4.203462E+01  3.640513E+00 -2.243416E+00  4.696035E+00 -6.290506E-01  1.196458E+00
      3672   4 -4.308514E+01  2.635365E+00 -2.796440E+00  5.303892E+00  5.028256E-02  8.578750E-02
      3672   5 -2.063702E+01  7.464611E+00  1.758172E+00 -1.901687E+00  7.364990E-01  6.757839E-01
      3672   6 -1.976720E+01  7.375562E+00  2.129807E+00 -1.464254E+00  9.606036E-01  7.618777E-02
      3672   7 -4.502743E+01 -1.992419E+00 -6.586529E+00 -2.393730E+00 -2.293769E-01  8.804667E-01
      3672   8 -4.605580E+01 -2.927201E+00 -7.136076E+00 -1.927529E+00  4.530011E-01  2.041382E-01
      3673   1 -1.735352E+01  1.155781E+01  3.899272E+00  5.019905E+00  1.233640E+00 -8.833428E-01
      3673   2 -1.589030E+01  1.237973E+01  4.856143E+00  4.665392E+00  1.369223E+00 -2.065114E+00
      3673   3 -4.337087E+01  2.589539E+00 -2.678766E+00  5.185178E+00  1.976308E+00 -1.196623E+00
      3673   4 -4.357230E+01  2.720312E+00 -2.622640E+00  4.776179E+00  2.599704E+00 -2.505849E+00
      3673   5 -1.933271E+01  7.221226E+00  1.638586E+00 -1.504321E+00  1.440695E+00 -5.226359E-01
      3673   6 -1.799518E+01  7.816078E+00  2.403525E+00 -1.883036E+00  1.581445E+00 -1.322895E+00
      3673   7 -4.628507E+01 -2.972416E+00 -6.830787E+00 -2.107012E+00  2.257977E+00 -6.755334E-01
      3673   8 -4.659809E+01 -3.083155E+00 -6.905129E+00 -2.583653E+00  2.882846E+00 -1.551686E+00
      3674   1 -1.513407E+01  1.248684E+01  3.114370E+00  4.344253E+00  1.738184E+00 -2.432256E+00
      3674   2 -1.069837E+01  1.622149E+01  5.965417E+00  3.975491E+00  1.657723E+00 -4.169735E+00
      3674   3 -4.167643E+01  4.725959E+00 -8.944127E-01  4.184774E+00  3.741204E+00 -4.037991E+00
      3674   4 -3.732502E+01  8.719342E+00  1.722418E+00  3.208189E+00  4.810342E+00 -6.005017E+00
      3674   5 -1.712755E+01  7.777529E+00  1.178772E+00 -2.000277E+00  1.286331E+00 -1.476916E+00
      3674   6 -1.334283E+01  1.013542E+01  3.236615E+00 -2.087971E+00  1.188382E+00 -2.403018E+00
      3674   7 -4.574207E+01 -2.584492E+00 -7.136093E+00 -2.932013E+00  3.014661E+00 -2.221358E+00
      3674   8 -4.205923E+01 -1.107843E-01 -5.228154E+00 -3.627520E+00  4.078840E+00 -3.279968E+00
      3675   1  3.802179E-01  3.020817E+00  1.776458E-01 -3.805075E-01  1.429506E-01 -3.680496E-01
      3675   2  4.302490E-01  3.418310E+00  3.084959E-01 -1.196845E-02 -1.139780E-01 -2.083433E-01
      3675   3  3.339343E-01  3.557479E+00  2.306405E-01 -8.788842E-01  2.785261E-01 -5.488018E-01
      3675   4  2.920272E-01  3.883064E+00  2.989071E-01 -3.574117E-01 -9.767000E-02 -3.528415E-01
      3675   5 -5.497366E-01  4.505100E-01 -3.518948E-01 -5.152699E-01  1.796482E-01 -8.499338E-02
      3675   6 -3.317882E-01  1.233802E+00 -4.712039E-02 -2.072268E-01 -7.622732E-02 -1.119918E-01
      3675   7 -5.398819E-01  9.522141E-01 -7.681477E-02 -1.024095E+00  3.443151E-01 -2.995988E-01
      3675   8 -3.568723E-01  1.772919E+00  2.460540E-01 -5.743816E-01 -2.667690E-02 -3.338488E-01
      3676   1  3.633250E-01  3.149400E+00  3.645625E-01 -7.125606E-02  2.028055E-01  2.097884E-01
      3676   2  4.577449E-01  3.119339E+00  3.777324E-01 -1.746480E-02 -1.582870E-03  4.115924E-01
      3676   3  1.154258E-01  3.411525E+00  2.281706E-01 -4.268377E-01  3.169456E-01  2.001709E-01
      3676   4  2.127950E-01  3.358964E+00  2.089480E-01 -3.608297E-01  6.183189E-02  4.530155E-01
      3676   5 -3.927344E-01  1.050291E+00 -5.652732E-02 -2.614680E-01  1.748683E-01  2.005022E-01
      3676   6 -3.146665E-01  9.766911E-01 -5.432378E-02 -2.109574E-01 -2.939340E-02  2.389618E-01
      3676   7 -6.105497E-01  1.259196E+00 -3.941853E-02 -6.289442E-01  2.919121E-01  1.727700E-01
      3676   8 -5.176361E-01  1.167578E+00 -3.443570E-02 -5.672733E-01  3.747279E-02  2.220702E-01
      3677   1  4.361352E-01  2.334366E+00  6.742817E-01 -1.095610E-01  2.275802E-02  4.531219E-01
      3677   2  1.970958E-01  1.160666E+00  2.465506E-01 -8.737442E-02 -1.467829E-02  5.542821E-01
      3677   3  5.242855E-02  2.133889E+00  4.277788E-01 -5.187211E-01  1.042706E-01  5.813770E-01
      3677   4 -3.544637E-01  5.204294E-01 -2.019751E-01 -5.682569E-01  4.159085E-02  7.596131E-01
      3677   5 -2.362804E-01  6.946475E-01  7.261438E-02 -2.389416E-01 -5.147884E-02  1.753067E-01
      3677   6 -3.191217E-01 -1.206582E-01 -1.928503E-01 -1.823141E-01 -8.939603E-02  1.080323E-01
      3677   7 -5.306860E-01  5.919448E-01  2.600746E-02 -6.447589E-01  2.126969E-02  2.015453E-01
      3677   8 -7.062935E-01 -5.185582E-01 -3.357533E-01 -6.479087E-01 -4.431900E-02  1.301755E-01
      3678   1  5.687718E-01  1.476118E+00  5.765120E-01  1.295574E-02 -2.823015E-02  3.090450E-01
      3678   2  2.487577E-01  9.688755E-02  7.220652E-02  5.587136E-02  6.019797E-02  1.711187E-01
      3678   3  1.747849E-01  9.739974E-01  3.819301E-01 -3.956661E-01 -3.258905E-02  3.343656E-01
      3678   4 -4.582287E-01 -1.379854E+00 -4.704258E-01 -5.347386E-01  8.898957E-02  1.369176E-01
      3678   5  8.716538E-02  4.914524E-01 -4.417730E-02 -1.147956E-02 -1.058596E-01  4.948868E-02
      3678   6  9.602292E-02 -1.185145E-01 -2.215075E-01  2.243792E-01 -2.085686E-02 -3.323239E-02
      3678   7 -1.630773E-01  3.504863E-01 -1.207660E-01 -2.979430E-01 -1.567335E-01  5.625179E-02
      3678   8 -2.173824E-01 -6.378878E-01 -4.095704E-01 -7.772911E-02 -6.253335E-02 -6.540665E-02
      3679   1  3.569556E-01  4.590972E+00  4.383026E-01  3.024272E-01  3.096169E-01 -3.145521E-01
      3679   2  4.882676E-01  5.621644E+00  8.210157E-01  7.100863E-01 -1.648649E-01 -3.100507E-01
      3679   3  1.259904E-01  5.887370E+00  9.724771E-01 -7.905261E-01  8.014504E-01 -8.359493E-01
      3679   4 -1.300699E-01  6.863976E+00  1.237060E+00 -2.457447E-01  1.112039E-01 -7.921268E-01
      3679   5 -1.498857E+00 -4.521805E-01 -7.045886E-01 -1.062459E-01  4.605555E-01  2.727914E-01
      3679   6 -1.187547E+00  9.294934E-01 -7.288316E-02  7.858742E-02  1.012867E-02 -7.702788E-02
      3679   7 -1.567286E+00  7.896079E-01  4.259845E-01 -1.237359E+00  1.103655E+00 -2.549280E-01
      3679   8 -1.597630E+00  2.194969E+00  1.014201E+00 -9.590768E-01  4.475474E-01 -6.333359E-01
      3680   1  4.873906E-01  5.613041E+00  1.003482E+00  6.015980E-01  3.160926E-01  1.821077E-01
      3680   2  8.128868E-01  5.970397E+00  1.260559E+00  5.810448E-01  2.430979E-02  1.036611E-01
      3680   3 -3.208452E-01  6.607079E+00  1.381507E+00 -3.519879E-01  6.535314E-01 -4.069097E-02
      3680   4  8.032996E-02  7.010703E+00  1.698547E+00 -3.516032E-01  2.804164E-01 -1.234990E-01
      3680   5 -1.350699E+00  7.757311E-01 -2.861743E-01 -6.156748E-02  3.397290E-01  3.731489E-01
      3680   6 -9.371433E-01  1.302657E+00  9.486530E-02 -8.163626E-02  4.845930E-02  1.046006E-01
      3680   7 -2.131321E+00  1.612627E+00  3.410386E-01 -1.059780E+00  6.803343E-01  1.080149E-01
      3680   8 -1.615714E+00  2.231286E+00  8.244860E-01 -1.058135E+00  3.079620E-01 -2.018234E-01
      3681   1  7.373368E-01  5.004290E+00  1.418888E+00  4.094589E-01  8.847361E-02  4.268987E-01
      3681   2  5.077957E-01  3.710189E+00  9.080859E-01  3.377339E-01 -1.603591E-02  6.954350E-01
      3681   3 -6.419908E-01  4.907825E+00  6.506995E-01 -6.106455E-01  3.985792E-01  6.984979E-01
      3681   4 -8.543877E-01  3.396711E+00  5.408083E-02 -7.218300E-01  1.947321E-01  1.062894E+00
      3681   5 -9.586639E-01  7.513333E-01  1.850927E-02 -1.832978E-01  3.971378E-02  1.846619E-01
      3681   6 -1.021160E+00 -2.030976E-01 -2.751478E-01 -1.946526E-01 -7.037699E-02  2.122626E-01
      3681   7 -2.203889E+00  6.641896E-01 -3.119947E-01 -1.217454E+00  3.160000E-01  3.084010E-01
      3681   8 -2.207873E+00 -4.348440E-01 -6.259803E-01 -1.254583E+00  1.038848E-01  3.736358E-01
      3682   1  7.092542E-01  3.308933E+00  1.225550E+00  4.287357E-01 -1.366112E-01  5.061706E-01
      3682   2  1.520662E-01  1.233134E+00  4.200176E-01  4.030782E-01 -3.796946E-02  5.950323E-01
      3682   3 -8.396470E-01  2.410888E+00  3.983730E-01 -5.584329E-01 -2.468883E-02  9.337376E-01
      3682   4 -1.898047E+00 -4.268658E-01 -7.942725E-01 -4.449806E-01 -8.647820E-03  1.102723E+00
      3682   5 -7.271636E-01  1.640502E-02 -2.699812E-01 -1.186371E-01 -1.908978E-01 -2.229924E-03
      3682   6 -6.169422E-01 -5.483373E-01 -3.618721E-01 -2.648381E-01 -7.736984E-02 -1.559752E-01
      3682   7 -1.743997E+00  8.460771E-02 -2.898478E-01 -1.243092E+00  9.649222E-03 -3.890595E-03
      3682   8 -1.954001E+00 -8.439180E-01 -5.637307E-01 -1.286333E+00  4.834700E-02 -1.574828E-01
      3683   1 -1.419762E-01  4.075569E+00  7.552540E-02  2.314299E+00  6.317935E-01  1.202224E+00
      3683   2  3.944329E-01  6.259231E+00  1.157590E+00  1.514215E+00  6.856632E-02  6.512250E-01
      3683   3  5.279105E+00  8.728532E+00  4.814218E+00  2.990603E-01  1.489937E+00  5.450621E-01
      3683   4  7.456394E+00  1.224617E+01  6.771087E+00 -1.152353E+00  1.025768E+00 -1.119582E-01
      3683   5 -1.697723E+00 -1.132605E+00  9.787741E-02  3.456265E+00  6.419122E-01  8.914454E-01
      3683   6 -1.769369E+00 -3.358357E-01  5.399844E-01  3.047228E+00  1.993670E-02  4.436038E-01
      3683   7  3.321762E+00  2.789132E+00  4.229141E+00  1.549983E+00  1.121019E+00  6.066278E-01
      3683   8  4.773568E+00  4.643763E+00  5.430742E+00  5.662733E-01  6.019996E-01  7.032424E-02
      3684   1  7.426043E-01  6.509639E+00  2.255435E+00  9.602586E-01  5.448823E-01  1.194622E+00
      3684   2  1.050400E+00  6.190952E+00  2.677580E+00  6.592025E-01  1.927760E-01  2.343137E-01
      3684   3  8.982422E+00  1.317399E+01  9.652993E+00 -1.869205E+00  1.006659E+00  1.065015E+00
      3684   4  9.579389E+00  1.295096E+01  1.015901E+01 -2.263792E+00  6.838086E-01 -1.540083E-02
      3684   5 -2.061376E+00 -9.767778E-01  3.952532E-01  2.722445E+00  1.786573E-01  1.099516E+00
      3684   6 -1.694434E+00 -1.147916E+00  8.669985E-01  2.511282E+00 -1.850111E-01  1.298439E-01
      3684   7  5.839286E+00  4.961858E+00  7.388006E+00  5.431590E-02  5.609013E-01  9.522256E-01
      3684   8  6.497175E+00  4.889817E+00  7.946107E+00 -2.345159E-01  2.273472E-01 -1.310230E-01
      3685   1  8.854473E-01  5.411144E+00  1.840098E+00  3.318764E-01  3.403154E-01  3.643800E-01
      3685   2  2.245749E+00  6.867708E+00  2.942284E+00  1.101317E-01  6.966391E-02 -2.538573E-01
      3685   3  9.500226E+00  1.254779E+01  8.443606E+00 -2.743502E+00  8.409376E-01 -3.436421E-01
      3685   4  1.155275E+01  1.458856E+01  9.907790E+00 -3.251729E+00  4.773620E-01 -9.835498E-01
      3685   5 -1.938084E+00 -1.972275E+00 -1.882530E-01  2.332297E+00 -1.931268E-01  9.944834E-02
      3685   6 -7.606728E-01 -9.701712E-01  7.587554E-01  2.280946E+00 -4.853448E-01 -6.219778E-01
      3685   7  6.412754E+00  4.346080E+00  6.353741E+00 -5.208937E-01  1.499707E-01 -4.727695E-01
      3685   8  8.233249E+00  5.819986E+00  7.611351E+00 -8.314946E-01 -2.334157E-01 -1.234072E+00
      3686   1  1.883141E+00  5.123917E+00  2.139756E+00 -2.252075E-01  8.075905E-02  2.072155E-01
      3686   2  8.434356E-01  1.506691E+00  6.075012E-01 -7.493434E-01  7.172653E-02  7.525445E-01
      3686   3  9.319976E+00  9.100018E+00  4.518986E+00 -4.171867E+00  1.160857E+00  1.436379E+00
      3686   4  9.880258E+00  5.879550E+00  3.597647E+00 -4.865385E+00  8.651644E-01  2.098544E+00
      3686   5 -9.544324E-01 -2.009289E+00 -1.856155E-01  2.188554E+00 -4.807471E-01 -6.909662E-01
      3686   6 -1.617549E+00 -4.830238E+00 -1.258853E+00  2.187364E+00 -5.627098E-01 -4.682069E-01
      3686   7  6.749890E+00  1.953926E+00  3.098122E+00 -1.255761E+00  3.573901E-02  1.842212E-01
      3686   8  7.712413E+00 -4.031578E-01  2.654200E+00 -1.341121E+00 -3.264666E-01  4.784334E-01
      3687   1 -1.516217E+01  3.350429E+00  8.546487E-01  2.995944E+01 -1.222902E+00  6.198146E+00
      3687   2 -1.453988E+01  1.141321E+00  1.505769E+00  2.810940E+01 -1.101528E+00  1.498698E+00
      3687   3 -8.833097E+01 -2.963997E+01 -1.758029E+01  4.380853E+01 -1.767033E+00  8.059948E+00
      3687   4 -8.803536E+01 -3.208343E+01 -1.789902E+01  4.163174E+01  4.751645E-02  2.463282E+00
      3687   5 -6.556389E+00  2.308936E+01  9.801651E+00  8.397762E+00  2.883022E-01  4.172483E+00
      3687   6 -7.054681E+00  1.857937E+01  9.018398E+00  7.835316E+00  2.969055E-01  1.260943E+00
      3687   7 -8.174385E+01 -1.087721E+01 -1.438596E+01  2.021509E+01 -1.597752E+00  6.477193E+00
      3687   8 -8.246952E+01 -1.561303E+01 -1.581663E+01  1.937221E+01  1.842198E-01  2.859735E+00
      3688   1 -1.408518E+01  3.123207E-01  1.378506E+00  2.708941E+01 -1.129179E+00  1.218417E+00
      3688   2 -1.232795E+01  1.778294E+00  2.643241E+00  2.612418E+01 -1.361470E+00  4.324796E-02
      3688   3 -9.207463E+01 -3.730905E+01 -2.938325E+01  4.040961E+01  6.041635E-01  5.769399E-01
      3688   4 -8.955682E+01 -3.543464E+01 -2.798021E+01  3.920764E+01  4.792523E-01 -6.793211E-01
      3688   5 -6.614626E+00  1.713871E+01  9.453963E+00  7.729023E+00  2.386917E-01  1.036611E+00
      3688   6 -5.390370E+00  1.738625E+01  1.016055E+01  7.986053E+00 -1.009559E-01  3.375054E-03
      3688   7 -8.416440E+01 -1.912523E+01 -2.119964E+01  1.911377E+01  5.582178E-01  8.837867E-01
      3688   8 -8.219856E+01 -1.853154E+01 -2.035579E+01  1.918898E+01  4.025241E-01 -2.337846E-01
      3689   1 -1.203223E+01  1.874062E+00  1.342317E+00  2.542719E+01 -1.162871E+00 -9.714390E-01
      3689   2 -1.044464E+01  3.112754E+00  2.533844E+00  2.460382E+01 -1.502231E+00 -2.301723E+00
      3689   3 -8.895178E+01 -3.479799E+01 -2.777344E+01  3.854209E+01  7.551528E-01 -1.779028E+00
      3689   4 -8.949129E+01 -3.468072E+01 -2.780218E+01  3.803635E+01  5.334473E-01 -3.191265E+00
      3689   5 -5.182124E+00  1.707933E+01  8.970745E+00  7.871326E+00  6.951705E-02 -8.916368E-01
      3689   6 -3.750318E+00  1.797750E+01  9.983515E+00  7.481348E+00 -3.062226E-01 -2.123585E+00
      3689   7 -8.165584E+01 -1.822076E+01 -2.003087E+01  1.901993E+01  1.462266E+00 -1.465576E+00
      3689   8 -8.232352E+01 -1.839599E+01 -2.019432E+01  1.890587E+01  1.230193E+00 -2.767574E+00
      3690   1 -9.765863E+00  3.317279E+00  1.638387E+00  2.428384E+01 -6.721975E-01 -2.160191E+00
      3690   2 -6.010580E+00  7.518872E+00  4.771648E+00  2.462270E+01 -8.156936E-01 -5.378618E+00
      3690   3 -8.662649E+01 -3.061082E+01 -1.987710E+01  3.805925E+01  1.296336E+00 -5.079407E+00
      3690   4 -8.715384E+01 -2.832300E+01 -1.913740E+01  3.877295E+01  2.419692E+00 -8.749004E+00
      3690   5 -3.474666E+00  1.782328E+01  8.103046E+00  7.337597E+00  2.103175E-01 -2.374600E+00
      3690   6 -1.128428E-01  2.126368E+01  1.068597E+01  7.627604E+00  7.622092E-02 -4.716363E+00
      3690   7 -8.153267E+01 -1.643452E+01 -1.707400E+01  1.894881E+01  2.326494E+00 -4.574773E+00
      3690   8 -8.238155E+01 -1.485248E+01 -1.670031E+01  1.950565E+01  3.452516E+00 -7.251258E+00
      3691   1 -1.577747E-02 -1.869978E-01  2.468451E-01  7.699395E-02 -8.531916E-03  2.032700E-01
      3691   2 -3.594485E-02 -1.321692E-01  1.247919E-01  6.418410E-02  2.531386E-02  1.058271E-01
      3691   3  1.300034E-01  4.352057E-01  4.772404E-01  8.479568E-02  5.514672E-02  2.305629E-01
      3691   4 -1.974225E-02  1.876850E-01  2.256089E-01  1.151134E-01  8.899249E-02  1.085513E-01
      3691   5  6.180855E-02 -1.350315E-01  3.424801E-01  3.949596E-02 -7.745499E-02  3.599933E-01
      3691   6  1.215867E-02 -1.096854E-01  1.516344E-01  2.668611E-02 -9.107184E-03  1.934420E-01
      3691   7  5.664305E-02  4.224807E-01  5.081841E-01  1.336832E-01  1.079239E-02  3.872862E-01
      3691   8 -1.225851E-01  1.454775E-01  1.877601E-01  1.640009E-01  7.914019E-02  1.961662E-01
      3692   1  1.598651E-01 -1.402780E-02  1.149086E-01  1.260926E-01  3.825779E-02  2.864398E-02
      3692   2  1.142974E-01 -3.530008E-03 -4.748152E-02  1.117502E-01  4.294094E-02 -8.478142E-02
      3692   3  1.835166E-01  8.018518E-02  1.502680E-01  2.297686E-01  1.112718E-01  1.217795E-02
      3692   4 -6.069491E-02 -3.728192E-01 -2.107660E-01  2.586151E-01  1.159550E-01 -1.291074E-01
      3692   5  1.903042E-01 -1.227346E-02  9.031733E-02  9.805986E-02  2.817229E-02  5.218544E-02
      3692   6  1.113046E-01 -3.520762E-02 -1.500807E-01  8.371748E-02  6.740652E-02 -1.671833E-01
      3692   7  6.279468E-02  1.715623E-02  6.089338E-02  3.341650E-01  1.290463E-01  3.571941E-02
      3692   8 -2.148487E-01 -4.692801E-01 -3.781484E-01  3.630115E-01  1.682805E-01 -2.115093E-01
      3693   1  2.644194E-01  7.951252E-02 -5.435859E-02  4.170149E-02  1.499125E-02 -1.331834E-01
      3693   2  2.520508E-01  9.528660E-02 -1.113615E-01  3.305947E-02 -1.060836E-02 -1.519948E-01
      3693   3  1.298233E-01 -4.478751E-01 -2.529537E-01  9.016545E-02  4.288765E-02 -1.940386E-01
      3693   4  6.450152E-02 -5.556583E-01 -3.629097E-01  7.898278E-02  1.728804E-02 -2.301484E-01
      3693   5  2.216403E-01  1.944941E-02 -2.117899E-01  2.763013E-02  4.736877E-02 -2.647004E-01
      3693   6  1.885135E-01  1.446532E-02 -3.172285E-01  1.898811E-02  1.973665E-02 -3.117535E-01
      3693   7  9.593647E-02 -5.041273E-01 -4.065741E-01  1.113962E-01  9.256364E-02 -3.255556E-01
      3693   8  9.856547E-03 -6.326686E-01 -5.649658E-01  1.002135E-01  6.493152E-02 -3.899071E-01
      3694   1  1.903739E-01  4.389686E-02 -1.384925E-01 -3.903178E-02 -5.020959E-02 -1.172087E-01
      3694   2  1.744367E-01 -5.219143E-02 -9.552795E-02 -5.406373E-02 -6.055930E-02 -3.359818E-03
      3694   3 -8.070998E-03 -5.053888E-01 -3.628117E-01 -1.436872E-01 -8.702314E-02 -1.977230E-01
      3694   4  1.814553E-01 -1.220623E-01 -1.143836E-01 -1.476990E-01 -9.737286E-02 -7.302538E-02
      3694   5  1.463685E-01 -3.017243E-02 -3.413848E-01  1.043805E-03 -2.709597E-02 -2.471953E-01
      3694   6  1.434499E-01 -1.132422E-01 -2.680436E-01 -1.398814E-02 -2.862963E-02 -2.376589E-02
      3694   7 -9.064660E-02 -5.959881E-01 -5.822340E-01 -2.405872E-01 -7.475830E-02 -3.277096E-01
      3694   8  1.118983E-01 -1.996431E-01 -3.034294E-01 -2.445991E-01 -7.629197E-02 -9.343146E-02
      3695   1  2.729626E-02 -2.032652E-01 -1.260438E-01 -3.101198E-02 -5.255462E-02  8.012274E-02
      3695   2 -1.796740E-02 -3.738634E-01 -1.063245E-01 -6.139718E-02 -2.159444E-02  1.943525E-01
      3695   3 -4.623060E-03 -1.974214E-02 -8.056271E-02 -9.809470E-02 -9.316896E-02  2.579544E-02
      3695   4  1.320351E-01  2.341439E-01  1.210784E-01 -9.605958E-02 -6.220878E-02  1.710813E-01
      3695   5  6.845169E-02 -2.228802E-01 -2.325825E-01  3.165527E-02 -1.680747E-02  1.353395E-01
      3695   6  6.045540E-02 -3.562110E-01 -1.259060E-01  1.270068E-03  4.008895E-02  3.465942E-01
      3695   7 -7.693872E-02 -8.798757E-02 -2.357318E-01 -1.567087E-01 -8.847795E-02  8.101222E-02
      3695   8  9.698680E-02  2.031659E-01  5.286646E-02 -1.546735E-01 -3.158152E-02  3.233231E-01
      3696   1  8.300450E-02  6.990105E-01  2.821477E-01  9.478818E-02  3.759021E-02  3.031120E-01
      3696   2 -6.867026E-02  3.337647E-01  1.418110E-01  1.500024E-01  6.058166E-02  1.632999E-01
      3696   3  2.188397E-01  1.207555E+00  4.754615E-01  1.142865E-01  3.050396E-02  3.434384E-01
      3696   4 -4.052710E-02  5.910275E-01  2.274328E-01  1.943918E-01  5.349541E-02  2.004646E-01
      3696   5 -6.185361E-02  6.645809E-01  3.122404E-01  2.015737E-01  5.092736E-03  4.292041E-01
      3696   6 -2.173224E-01  2.955411E-01  1.630508E-01  2.567879E-01  4.799707E-02  2.319563E-01
      3696   7 -1.313730E-02  1.135788E+00  4.682175E-01  2.928667E-01  1.168191E-03  4.695305E-01
      3696   8 -2.762981E-01  5.154672E-01  2.113360E-01  3.729720E-01  4.407253E-02  2.691210E-01
      3697   1  2.015638E-01  1.495223E-01  1.788914E-01  2.929186E-01  8.212924E-02  5.712745E-02
      3697   2 -6.469235E-02 -4.841161E-01 -7.499060E-02  3.488786E-01  8.697966E-02 -9.312885E-02
      3697   3  2.234225E-01  2.409463E-01  2.128763E-01  3.617716E-01  7.439543E-02  8.832770E-02
      3697   4 -1.691456E-01 -6.874200E-01 -1.673178E-01  4.486181E-01  7.924586E-02 -7.506215E-02
      3697   5  4.314428E-02  1.030227E-01  1.823122E-01  4.766097E-01  9.308364E-02  8.010311E-02
      3697   6 -2.388721E-01 -5.463760E-01 -1.083438E-01  5.325697E-01  1.226433E-01 -1.375196E-01
      3697   7 -4.309983E-02  1.481169E-01  1.699673E-01  6.296707E-01  9.848339E-02  1.113034E-01
      3697   8 -4.514282E-01 -7.960097E-01 -2.470007E-01  7.165172E-01  1.280430E-01 -1.194529E-01
      3698   1  1.914864E-01 -6.091463E-01 -3.964331E-02  1.058310E-01  9.613213E-03 -1.589429E-01
      3698   2  1.165220E-01 -7.632887E-01 -1.353824E-01  1.026074E-01 -3.499398E-03 -1.884938E-01
      3698   3  1.112329E-01 -9.056763E-01 -1.526783E-01  1.001662E-01  2.259736E-02 -1.486820E-01
      3698   4  1.398816E-02 -1.111806E+00 -2.706977E-01  1.212276E-01  9.484747E-03 -1.864253E-01
      3698   5  2.150823E-01 -5.919978E-01 -6.077323E-03  1.454200E-01  4.120565E-02 -2.323408E-01
      3698   6  1.302871E-01 -7.559709E-01 -1.247549E-01  1.421963E-01  4.752105E-02 -2.737747E-01
      3698   7  4.983128E-02 -9.249552E-01 -1.555399E-01  1.546088E-01  6.238213E-02 -2.220800E-01
      3698   8 -5.724428E-02 -1.140916E+00 -2.964978E-01  1.756701E-01  6.869753E-02 -2.717061E-01
      3699   1  6.878126E-03 -6.724144E-01 -1.792389E-01 -2.240228E-01 -1.135486E-01 -1.470034E-01
      3699   2  2.374097E-01 -7.494770E-02 -8.266966E-03 -2.167957E-01 -1.115926E-01 -4.098474E-03
      3699   3 -1.150896E-01 -9.407059E-01 -2.963167E-01 -3.388485E-01 -7.632385E-02 -1.462726E-01
      3699   4  2.647388E-01  5.120035E-03  2.395207E-02 -3.119358E-01 -7.436785E-02  1.169946E-03
      3699   5 -1.753990E-02 -6.823782E-01 -1.880334E-01 -4.074904E-01 -1.024764E-01 -2.074889E-01
      3699   6  2.184368E-01 -7.946632E-02 -4.356109E-03 -4.002632E-01 -8.477192E-02  1.504101E-02
      3699   7 -2.084071E-01 -9.801980E-01 -3.346395E-01 -6.218473E-01 -6.978919E-02 -2.067581E-01
      3699   8  1.768664E-01 -2.892692E-02 -1.665417E-03 -5.949346E-01 -5.208474E-02  2.030943E-02
      3700   1 -3.842176E-02  1.266470E-01 -8.529130E-02 -1.469681E-01 -1.043909E-01  1.116973E-01
      3700   2  1.293452E-01  5.736120E-01  2.696702E-02 -1.201215E-01 -7.121355E-02  2.851521E-01
      3700   3 -3.815014E-02  4.037586E-01 -2.076331E-03 -2.134101E-01 -6.969798E-02  1.211692E-01
      3700   4  2.795778E-01  1.200633E+00  2.601430E-01 -1.511975E-01 -3.652064E-02  3.015706E-01
      3700   5 -1.210187E-01  9.774335E-02 -9.903991E-02 -2.865671E-01 -9.883820E-02  1.892559E-01
      3700   6  5.508414E-02  5.530442E-01  3.266875E-02 -2.597205E-01 -3.736804E-02  4.426900E-01
      3700   7 -2.445282E-01  3.218059E-01 -6.887398E-02 -4.529831E-01 -7.109184E-02  1.987278E-01
      3700   8  8.153565E-02  1.127016E+00  2.127957E-01 -3.907705E-01 -9.621676E-03  4.591084E-01
      3701   1  1.550946E-01  1.321805E+00  2.255752E-01  1.128384E-01  1.462311E-02  2.084761E-01
      3701   2 -8.470105E-02  6.535673E-01  9.449423E-02  2.014471E-01  1.101183E-02  1.351778E-01
      3701   3  2.628529E-01  1.543147E+00  3.243053E-01  8.938394E-02 -5.332357E-02  1.733530E-01
      3701   4 -1.530987E-02  7.853861E-01  1.548572E-01  1.763330E-01 -5.693485E-02  1.411669E-01
      3701   5 -1.971835E-01  1.146744E+00 -5.682457E-03  3.270595E-01 -7.180952E-03  2.575209E-01
      3701   6 -3.876445E-01  5.278411E-01 -2.164947E-02  4.156682E-01 -1.211990E-02  1.637602E-01
      3701   7 -8.361655E-02  1.370576E+00  9.553708E-02  3.291831E-01 -1.162397E-01  2.223978E-01
      3701   8 -3.124448E-01  6.621493E-01  4.120290E-02  4.161322E-01 -1.211787E-01  1.697492E-01
      3702   1  2.288615E-01  2.761362E-01  1.720300E-01  3.744139E-01  1.944293E-02  7.857499E-02
      3702   2 -1.587651E-01 -7.228261E-01 -1.210964E-01  4.778943E-01  8.593856E-03 -2.768624E-03
      3702   3  3.054550E-01  3.644454E-01  2.215008E-01  3.401003E-01 -3.961970E-02  1.163062E-01
      3702   4 -1.106387E-01 -7.009402E-01 -1.000927E-01  4.581388E-01 -5.046877E-02  8.057182E-02
      3702   5 -8.804234E-02  1.661931E-01  1.224569E-01  6.800817E-01  1.927007E-02  9.411035E-02
      3702   6 -4.209379E-01 -7.780382E-01 -4.296373E-02  7.835621E-01  2.006750E-02 -2.415726E-03
      3702   7 -6.240228E-02  2.326651E-01  1.500905E-01  6.647462E-01 -8.540176E-02  1.318416E-01
      3702   8 -4.237650E-01 -7.779894E-01 -4.379722E-02  7.827847E-01 -8.460433E-02  8.092472E-02
      3703   1  1.494085E-01 -9.546512E-01 -5.934985E-02  7.299901E-02 -1.970802E-02 -3.896747E-02
      3703   2  5.793984E-02 -1.155207E+00 -1.636892E-01  1.145346E-01 -2.750152E-02 -5.652093E-02
      3703   3  1.817504E-01 -9.441327E-01 -4.649173E-02  4.441536E-03 -1.166382E-02  6.200225E-02
      3703   4  1.121472E-01 -1.093669E+00 -1.289656E-01  7.762866E-02 -1.945732E-02  4.700363E-02
      3703   5  1.251977E-01 -8.957909E-01  1.610620E-01  1.275428E-01 -5.920632E-03 -3.990330E-02
      3703   6  3.679488E-02 -1.093281E+00  6.387620E-02  1.690783E-01  1.160713E-02 -4.579517E-02
      3703   7  4.675908E-02 -9.327497E-01  1.264428E-01  4.440830E-02 -4.312809E-04  6.106642E-02
      3703   8 -1.977829E-02 -1.079221E+00  5.112244E-02  1.175954E-01  1.709648E-02  5.772939E-02
      3704   1 -1.051488E-01 -9.554439E-01 -2.240410E-01 -4.052393E-01 -7.325377E-02 -3.561462E-02
      3704   2  2.943713E-01  1.138555E-01  3.839320E-02 -3.590370E-01 -6.905599E-02  3.905593E-02
      3704   3 -7.221005E-02 -8.436054E-01 -1.806079E-01 -4.717964E-01  1.242488E-02  4.913462E-02
      3704   4  3.906660E-01  3.735245E-01  1.451823E-01 -3.925795E-01  1.662266E-02  6.995521E-02
      3704   5 -1.651577E-01 -9.230482E-01 -5.604661E-02 -7.401289E-01 -6.477704E-02 -8.252486E-03
      3704   6  1.697424E-01  8.163113E-02  5.560772E-02 -6.939266E-01 -3.416757E-02  1.002079E-01
      3704   7 -2.477701E-01 -8.607316E-01 -6.213535E-02 -8.489233E-01  7.475158E-02  7.649676E-02
      3704   8  1.504859E-01  2.917783E-01  1.128749E-01 -7.697064E-01  1.053610E-01  1.311072E-01
      3705   1 -7.604245E-02  5.600568E-01 -8.154510E-02 -2.359563E-01 -6.415623E-02  1.008444E-01
      3705   2  2.347167E-01  1.447917E+00  6.645817E-02 -1.572014E-01 -4.610456E-02  1.949830E-01
      3705   3  1.408377E-03  8.912060E-01  4.103491E-02 -2.311114E-01  3.756618E-02  8.927661E-02
      3705   4  3.629209E-01  1.897491E+00  2.397916E-01 -1.425285E-01  5.561786E-02  1.212431E-01
      3705   5 -3.655657E-01  4.280432E-01 -2.320671E-01 -5.245070E-01 -5.435540E-02  1.842721E-01
      3705   6 -1.294132E-01  1.241297E+00 -2.581460E-01 -4.457521E-01 -2.844129E-02  3.054792E-01
      3705   7 -3.225131E-01  7.444503E-01 -1.242292E-01 -5.534977E-01  1.095392E-01  1.727043E-01
      3705   8 -3.560718E-02  1.676129E+00 -9.955463E-02 -4.649148E-01  1.354533E-01  2.317392E-01
      3706   1  2.476575E-01  1.513864E+00  1.945297E-01  1.157523E-01  4.245730E-02  8.486155E-03
      3706   2 -3.307117E-02  7.206955E-01  5.193597E-02  1.992300E-01  1.872938E-02  2.700116E-02
      3706   3  2.819026E-01  1.396037E+00  1.694550E-01  2.112466E-01 -4.387703E-02 -4.505393E-02
      3706   4 -2.775218E-02  5.353738E-01 -2.064847E-03  2.868999E-01 -6.760496E-02  1.899101E-02
      3706   5 -1.087626E-01  1.324399E+00 -8.059912E-02  3.719722E-01  6.197486E-02 -2.861493E-02
      3706   6 -3.348553E-01  5.858668E-01 -9.570902E-02  4.554499E-01  3.198744E-02 -2.552720E-02
      3706   7 -4.713219E-02  1.218308E+00 -9.393725E-02  4.867506E-01 -6.988941E-02 -8.215502E-02
      3706   8 -3.021511E-01  4.122816E-01 -1.379733E-01  5.624039E-01 -9.987683E-02 -3.353736E-02
      3707   1  3.463145E-01  3.027390E-01  1.640865E-01  3.617636E-01  2.002676E-02  3.112286E-02
      3707   2 -6.914991E-02 -7.885540E-01 -1.295019E-01  4.755869E-01 -3.351288E-02  2.386855E-02
      3707   3  4.619892E-01  1.264829E-01  1.459121E-01  4.552624E-01 -5.614575E-02  5.830173E-02
      3707   4  2.061708E-02 -1.025261E+00 -1.735840E-01  5.430114E-01 -1.096854E-01  1.016557E-01
      3707   5 -1.945242E-02  1.646187E-01  6.945240E-02  6.996779E-01  3.453860E-02 -3.210981E-02
      3707   6 -3.741869E-01 -8.659444E-01 -8.243289E-02  8.135012E-01 -3.986045E-02 -5.318157E-02
      3707   7  1.874822E-01  2.747400E-02  9.038937E-02  8.104485E-01 -9.224216E-02 -4.930949E-03
      3707   8 -1.931600E-01 -1.063540E+00 -8.740362E-02  8.981975E-01 -1.666412E-01  2.460555E-02
      3708   1  2.573043E-01 -1.020562E+00 -4.621509E-02 -3.078386E-02  1.899980E-02  1.597224E-02
      3708   2  1.999489E-01 -1.148004E+00 -1.099584E-01  3.869602E-02 -5.592469E-02  1.653440E-03
      3708   3  4.305294E-01 -1.240741E+00 -6.030118E-02 -5.846395E-02  2.299225E-02  1.151240E-01
      3708   4  3.714865E-01 -1.372120E+00 -1.257320E-01 -3.076402E-02 -5.193224E-02  1.085664E-01
      3708   5  1.331069E-01 -1.005800E+00  1.271901E-01  4.259133E-03  5.606221E-02 -6.646483E-02
      3708   6  8.506485E-02 -1.123928E+00  8.517808E-02  7.373901E-02 -5.228624E-02 -8.168361E-02
      3708   7  4.525618E-01 -1.163309E+00  1.757740E-01 -2.229598E-02  5.229348E-02  3.268698E-02
      3708   8  4.028323E-01 -1.285374E+00  1.320745E-01  5.403947E-03 -5.605496E-02  2.522937E-02
      3709   1 -2.918516E-02 -8.894264E-01 -1.829661E-01 -5.585492E-01 -4.532880E-03 -6.794656E-03
      3709   2  4.496089E-01  3.933664E-01  1.302213E-01 -4.798823E-01 -5.704902E-02 -1.555648E-02
      3709   3  5.781715E-02 -1.124056E+00 -2.272542E-01 -7.290051E-01  9.897130E-02  8.038442E-02
      3709   4  5.751845E-01  2.487417E-01  1.245065E-01 -6.848554E-01  4.645516E-02  9.947402E-03
      3709   5 -1.999045E-01 -9.028119E-01 -5.686509E-02 -9.605486E-01  2.966261E-02 -8.293109E-02
      3709   6  2.048794E-01  3.059707E-01  8.363176E-02 -8.818817E-01 -5.046729E-02 -7.112049E-02
      3709   7  7.908017E-03 -1.085665E+00 -4.937734E-02 -1.156720E+00  1.948420E-01  4.247986E-03
      3709   8  4.512652E-01  2.131218E-01  1.296928E-01 -1.112570E+00  1.147121E-01 -4.561661E-02
      3710   1 -1.088976E-02  9.241445E-01 -1.756668E-02 -2.891246E-01 -5.737339E-02 -3.113683E-02
      3710   2  3.683781E-01  1.998393E+00  1.724108E-01 -2.014943E-01 -7.155884E-02 -6.494132E-02
      3710   3 -1.981303E-02  7.851115E-01 -6.195356E-02 -4.524646E-01  6.093309E-02 -5.503559E-02
      3710   4  4.115799E-01  1.980985E+00  1.801490E-01 -3.772649E-01  4.674765E-02 -1.621354E-01
      3710   5 -3.462743E-01  7.640205E-01 -2.159286E-01 -6.366150E-01 -8.655012E-02 -6.899528E-02
      3710   6 -5.496087E-02  1.750315E+00 -2.311781E-01 -5.489847E-01 -1.106801E-01 -7.499969E-02
      3710   7 -3.116903E-01  6.436335E-01 -2.416695E-01 -8.347051E-01  1.050517E-01 -9.289404E-02
      3710   8  3.174827E-02  1.751553E+00 -2.047939E-01 -7.595054E-01  8.092175E-02 -1.721938E-01
      3711   1  3.545814E-02  4.293634E-02  2.021541E-01  6.334594E-02  6.501091E-03  8.213540E-02
      3711   2 -1.273853E-02 -2.694163E-02  1.113765E-01  6.555711E-02  1.267301E-02  5.037648E-02
      3711   3  1.094505E-01  2.670179E-01  2.915763E-01  8.796136E-02  3.311416E-02  1.202383E-01
      3711   4  7.703349E-03  7.218874E-02  1.472482E-01  1.039399E-01  3.928608E-02  6.792863E-02
      3711   5  7.344245E-02  8.534300E-02  3.055253E-01  7.418659E-02  1.396405E-02  1.359992E-01
      3711   6  5.849373E-04 -9.195813E-03  1.572058E-01  7.639777E-02  3.114984E-02  7.567996E-02
      3711   7  9.924914E-02  2.887736E-01  3.742965E-01  1.345024E-01  6.112782E-02  1.741020E-01
      3711   8 -2.715889E-02  6.928354E-02  1.724264E-01  1.504809E-01  7.831361E-02  9.323211E-02
      3712   1  1.278302E-01 -1.333752E-02  1.133717E-01  1.206338E-01  1.249133E-02  2.637768E-02
      3712   2  6.030076E-02 -1.204783E-01 -4.585645E-03  1.155287E-01  6.949523E-03 -7.429341E-03
      3712   3  1.597668E-01  1.499943E-02  1.314537E-01  1.661730E-01  4.400877E-02  2.802117E-02
      3712   4  3.718105E-02 -2.206060E-01 -4.155987E-02  1.588519E-01  3.846696E-02 -2.869841E-02
      3712   5  1.476704E-01 -3.707612E-03  1.256312E-01  1.404395E-01  3.405609E-02  3.047964E-02
      3712   6  5.264589E-02 -1.383434E-01 -5.648133E-02  1.353343E-01  2.674154E-02 -3.269074E-02
      3712   7  1.873627E-01  2.795324E-02  1.470371E-01  2.226829E-01  8.848609E-02  3.212313E-02
      3712   8  3.728195E-02 -2.351472E-01 -9.013165E-02  2.153618E-01  8.117154E-02 -5.395981E-02
      3713   1  1.589126E-01 -1.153502E-01 -6.803518E-03  6.140426E-02 -8.602944E-03 -2.008382E-02
      3713   2  1.363947E-01 -1.482535E-01 -4.895974E-02  4.645629E-02 -2.072411E-02 -2.084949E-02
      3713   3  1.424986E-01 -2.546593E-01 -5.352045E-02  6.726742E-02  3.671026E-03 -5.222892E-02
      3713   4  1.147160E-01 -2.998468E-01 -1.009413E-01  4.066658E-02 -8.450143E-03 -5.979589E-02
      3713   5  1.726564E-01 -1.315024E-01 -7.438784E-02  6.659700E-02 -6.325623E-06 -5.712069E-02
      3713   6  1.419769E-01 -1.725673E-01 -1.355877E-01  5.164903E-02 -2.144978E-02 -6.069418E-02
      3713   7  1.970274E-01 -2.533322E-01 -1.036255E-01  7.596993E-02  1.906894E-02 -8.926579E-02
      3713   8  1.610833E-01 -3.066813E-01 -1.700900E-01  4.936910E-02 -2.374517E-03 -9.964058E-02
      3714   1  8.732832E-02 -1.637202E-01 -7.072439E-02 -2.459451E-02 -3.620445E-02 -7.712306E-03
      3714   2  1.151704E-01 -1.133400E-01 -2.829769E-02 -3.776734E-02 -4.235052E-02  2.894482E-02
      3714   3  5.846051E-02 -2.822956E-01 -1.149574E-01 -7.102062E-02 -4.531984E-02 -4.279046E-02
      3714   4  1.433449E-01 -9.881666E-02 -1.548834E-02 -9.099286E-02 -5.146590E-02  1.123621E-02
      3714   5  9.133942E-02 -1.860547E-01 -1.491840E-01 -3.586359E-02 -5.265020E-02 -3.744929E-02
      3714   6  1.400250E-01 -1.148311E-01 -5.812255E-02 -4.903641E-02 -6.423580E-02  2.963040E-02
      3714   7  8.626958E-02 -2.944311E-01 -1.832178E-01 -1.203179E-01 -7.913513E-02 -7.252744E-02
      3714   8  1.919974E-01 -9.010862E-02 -3.511408E-02 -1.402902E-01 -9.072073E-02  1.192179E-02
      3715   1  7.896744E-03 -1.408820E-01 -6.083020E-02 -2.426474E-02 -3.678910E-02  5.399855E-02
      3715   2  1.522249E-02 -1.258321E-01 -5.146097E-02 -3.236291E-02 -2.898460E-02  8.578951E-02
      3715   3  1.772188E-02 -5.291920E-02 -3.149381E-02 -6.819017E-02 -3.806627E-02  5.014213E-02
      3715   4  8.462110E-02  1.011355E-01  3.744889E-02 -6.378642E-02 -3.026178E-02  1.024084E-01
      3715   5  3.161265E-02 -1.333624E-01 -5.948091E-02 -2.812683E-02 -5.790868E-02  7.744912E-02
      3715   6  6.350879E-02 -9.374212E-02  7.219260E-03 -3.622500E-02 -4.010264E-02  1.410126E-01
      3715   7 -2.318938E-03 -6.415252E-02 -4.889741E-02 -1.117679E-01 -7.966119E-02  7.359270E-02
      3715   8  8.915068E-02  1.144726E-01  7.737623E-02 -1.073642E-01 -6.185515E-02  1.576315E-01
      3716   1  8.865306E-02  3.643867E-01  1.691479E-01  1.043530E-01  2.133032E-02  1.770901E-01
      3716   2 -2.156620E-02  1.069888E-01  5.914826E-02  1.289584E-01  2.632165E-02  1.102359E-01
      3716   3  1.870175E-01  6.354981E-01  2.799907E-01  1.245205E-01  2.119307E-02  1.713201E-01
      3716   4  1.950277E-02  2.444108E-01  1.126956E-01  1.589276E-01  2.618440E-02  1.104000E-01
      3716   5 -4.389861E-03  3.205546E-01  1.160837E-01  1.779423E-01  4.194106E-02  2.411976E-01
      3716   6 -1.074881E-01  7.027774E-02  2.269981E-02  2.025477E-01  5.477375E-02  1.437858E-01
      3716   7  5.966861E-02  5.769634E-01  2.122239E-01  2.363068E-01  3.586961E-02  2.354275E-01
      3716   8 -1.007251E-01  1.929972E-01  6.154454E-02  2.707139E-01  4.870231E-02  1.439499E-01
      3717   1  1.672592E-01  2.365669E-02  9.184886E-02  1.956383E-01  3.089654E-02  6.055199E-02
      3717   2  4.304119E-02 -2.681780E-01 -3.037661E-02  1.889689E-01  2.233528E-02 -8.332725E-03
      3717   3  2.258535E-01  8.903279E-02  1.290400E-01  2.305996E-01  2.965119E-02  6.591488E-02
      3717   4  4.482057E-02 -3.353699E-01 -5.000038E-02  2.279267E-01  2.108992E-02  5.299161E-03
      3717   5  1.970374E-01  4.009616E-02  1.168690E-01  2.794466E-01  6.546625E-02  7.182599E-02
      3717   6  8.274215E-02 -2.418157E-01  1.779668E-02  2.727772E-01  6.010221E-02 -2.736000E-02
      3717   7  2.416438E-01  9.947749E-02  1.480653E-01  3.522845E-01  5.595190E-02  7.718888E-02
      3717   8  7.053370E-02 -3.150024E-01 -7.821872E-03  3.496116E-01  5.058786E-02 -1.372811E-02
      3718   1  1.710604E-01 -3.132916E-01 -1.107164E-02  6.587466E-02 -1.843028E-02 -3.509093E-02
      3718   2  1.457340E-01 -3.586949E-01 -5.008948E-02  3.358388E-02 -3.440038E-02 -3.931097E-02
      3718   3  1.843808E-01 -4.152949E-01 -3.767652E-02  5.620644E-02 -9.873109E-03 -1.881511E-02
      3718   4  1.588441E-01 -4.611890E-01 -7.690470E-02  2.002328E-02 -2.584321E-02 -2.408079E-02
      3718   5  3.036091E-01 -2.453244E-01  8.293683E-02  7.591317E-02 -6.366186E-03 -6.525029E-02
      3718   6  2.770280E-01 -2.919825E-01  4.099119E-02  4.362239E-02 -2.545018E-02 -6.958251E-02
      3718   7  3.305528E-01 -3.414891E-01  6.217050E-02  6.638517E-02  3.236625E-03 -4.897447E-02
      3718   8  3.037613E-01 -3.886381E-01  2.001453E-02  3.020201E-02 -1.584737E-02 -5.435234E-02
      3719   1  6.899172E-02 -3.264572E-01 -8.534603E-02 -1.106641E-01 -7.632511E-02 -1.424554E-02
      3719   2  1.635633E-01 -7.344627E-02 -2.311840E-02 -1.322650E-01 -8.270133E-02  5.845452E-02
      3719   3  6.405617E-02 -3.911086E-01 -1.062221E-01 -1.725460E-01 -5.611015E-02 -4.400892E-03
      3719   4  2.242097E-01  1.492683E-02  2.158745E-02 -1.917971E-01 -6.248637E-02  5.463128E-02
      3719   5  1.564085E-01 -2.822422E-01 -2.537962E-02 -1.898838E-01 -1.065414E-01 -3.175567E-02
      3719   6  2.345787E-01 -4.563277E-02 -1.422076E-03 -2.114847E-01 -1.110378E-01  7.592142E-02
      3719   7  1.432488E-01 -3.504183E-01 -4.978036E-02 -2.954869E-01 -7.265856E-02 -2.191102E-02
      3719   8  2.870008E-01  3.921568E-02  3.975911E-02 -3.147381E-01 -7.715496E-02  7.209818E-02
      3720   1 -3.258752E-03  5.660140E-03 -8.186141E-02 -9.999696E-02 -6.422449E-02  1.104062E-01
      3720   2  8.240244E-02  2.413430E-01 -3.200692E-02 -8.736033E-02 -5.232111E-02  1.796407E-01
      3720   3  2.676324E-02  1.749064E-01 -2.208095E-02 -1.429693E-01 -4.184531E-02  9.759940E-02
      3720   4  1.816661E-01  5.721531E-01  9.701524E-02 -1.203419E-01 -2.994192E-02  1.559583E-01
      3720   5 -6.285508E-02 -2.866293E-02 -1.366753E-01 -1.750078E-01 -9.511618E-02  1.541925E-01
      3720   6  9.755404E-03  1.939692E-01 -1.172725E-01 -1.623711E-01 -7.522021E-02  2.603559E-01
      3720   7 -6.780060E-02  1.255972E-01 -9.188094E-02 -2.641412E-01 -6.186139E-02  1.413857E-01
      3720   8  7.405158E-02  5.097933E-01 -3.236424E-03 -2.415139E-01 -4.196543E-02  2.366735E-01
      3721   1  1.615034E-01  6.883883E-01  1.419698E-01  1.326518E-01  9.262379E-03  1.085983E-01
      3721   2 -5.046063E-03  2.579641E-01  1.722914E-02  1.712787E-01  4.249941E-03  7.595346E-02
      3721   3  2.239242E-01  7.922665E-01  1.918595E-01  1.346995E-01 -1.686810E-02  8.123202E-02
      3721   4  3.208955E-02  3.028435E-01  4.183365E-02  1.750532E-01 -2.188054E-02  6.818280E-02
      3721   5 -6.530056E-03  5.976085E-01  7.403995E-03  2.645892E-01  1.902908E-02  1.301937E-01
      3721   6 -1.495648E-01  1.906991E-01 -6.246895E-02  3.032160E-01  1.539811E-02  8.406343E-02
      3721   7  4.984680E-02  6.988964E-01  5.470344E-02  2.834936E-01 -2.669702E-02  1.028274E-01
      3721   8 -1.184731E-01  2.329883E-01 -4.045469E-02  3.238473E-01 -3.032799E-02  7.629277E-02
      3722   1  2.362725E-01  8.932890E-02  7.492567E-02  2.436327E-01  3.616386E-03  5.290157E-02
      3722   2  5.220284E-02 -3.737871E-01 -7.552397E-02  2.419732E-01 -1.015328E-02  2.256749E-02
      3722   3  2.965043E-01  1.151225E-01  1.007333E-01  2.442787E-01 -1.739614E-02  5.802573E-02
      3722   4  9.614703E-02 -3.859978E-01 -6.600394E-02  2.413908E-01 -3.116581E-02  4.332530E-02
      3722   5  2.482300E-01  9.796726E-02  9.176268E-02  3.831559E-01  1.524853E-02  5.289597E-02
      3722   6  8.292074E-02 -3.463883E-01 -1.491273E-02  3.814963E-01  4.962237E-04  1.387517E-02
      3722   7  3.127609E-01  1.256033E-01  1.194128E-01  3.946603E-01 -2.139765E-02  5.802013E-02
      3722   8  1.311640E-01 -3.567566E-01 -3.550238E-03  3.917724E-01 -3.614996E-02  3.463298E-02
      3723   1  2.080365E-01 -4.577822E-01 -4.302085E-02  4.092603E-02 -2.932067E-02  1.178285E-02
      3723   2  1.879202E-01 -4.941158E-01 -7.374172E-02  2.955285E-03 -4.529896E-02  1.265275E-02
      3723   3  2.588639E-01 -4.723374E-01 -3.213920E-02  8.847384E-03 -2.269285E-02  3.763289E-02
      3723   4  2.474413E-01 -4.883856E-01 -5.416633E-02 -3.011476E-02 -3.867114E-02  3.678136E-02
      3723   5  3.719542E-01 -3.698060E-01  8.631537E-02  4.903466E-02 -2.597805E-02  1.608107E-03
      3723   6  3.497721E-01 -4.082054E-01  5.077450E-02  1.106392E-02 -4.274946E-02  7.114669E-03
      3723   7  4.262514E-01 -3.828741E-01  9.868412E-02  1.116020E-02 -1.762879E-02  2.745814E-02
      3723   8  4.127631E-01 -4.009881E-01  7.183699E-02 -2.780194E-02 -3.440021E-02  3.124328E-02
      3724   1  7.141816E-02 -4.100672E-01 -1.163716E-01 -2.154913E-01 -6.062382E-02  2.510846E-02
      3724   2  2.474100E-01  5.910494E-02  1.095707E-03 -2.333184E-01 -6.777708E-02  5.826818E-02
      3724   3  1.069810E-01 -3.866977E-01 -9.869192E-02 -2.709382E-01 -2.404600E-02  4.073186E-02
      3724   4  3.143071E-01  1.555876E-01  5.010964E-02 -2.872247E-01 -3.119926E-02  5.237634E-02
      3724   5  1.525613E-01 -3.645784E-01 -4.588539E-02 -3.620814E-01 -7.214092E-02  2.738438E-02
      3724   6  3.027348E-01  7.877545E-02  1.133927E-02 -3.799086E-01 -7.806163E-02  7.725569E-02
      3724   7  1.827317E-01 -3.435200E-01 -3.051672E-02 -4.384179E-01 -1.404786E-02  4.300777E-02
      3724   8  3.642395E-01  1.729471E-01  5.804217E-02 -4.547043E-01 -1.996856E-02  7.136384E-02
      3725   1  9.608973E-03  2.438382E-01 -7.477937E-02 -1.690405E-01 -4.651789E-02  7.896460E-02
      3725   2  1.786142E-01  7.056588E-01  2.675083E-02 -1.398882E-01 -3.990698E-02  1.023486E-01
      3725   3  4.026631E-02  3.704629E-01 -2.759476E-02 -1.972959E-01 -4.345994E-03  5.533874E-02
      3725   4  2.434478E-01  9.120281E-01  1.081117E-01 -1.603081E-01  2.264918E-03  5.178767E-02
      3725   5 -1.207749E-01  1.717588E-01 -1.846602E-01 -3.154481E-01 -6.205618E-02  1.107406E-01
      3725   6  1.590834E-02  6.012574E-01 -1.585480E-01 -2.862959E-01 -4.917678E-02  1.523519E-01
      3725   7 -1.175421E-01  2.866301E-01 -1.492289E-01 -3.664878E-01  7.050741E-03  8.711477E-02
      3725   8  5.331732E-02  7.958733E-01 -8.894054E-02 -3.294999E-01  1.993013E-02  1.017910E-01
      3726   1  2.184567E-01  7.734141E-01  1.226012E-01  1.518847E-01  1.542818E-02  1.001116E-02
      3726   2  2.528427E-02  2.652246E-01 -1.311745E-02  1.899147E-01  2.816181E-03  1.950058E-02
      3726   3  2.387625E-01  7.156942E-01  1.113770E-01  1.967880E-01 -2.048042E-02 -3.159076E-02
      3726   4  3.516309E-02  1.831753E-01 -3.476862E-02  2.267428E-01 -3.309241E-02  2.613149E-03
      3726   5  3.542943E-02  6.664468E-01 -5.092913E-02  3.093932E-01  2.998516E-02 -8.587088E-03
      3726   6 -1.280856E-01  1.879147E-01 -1.174472E-01  3.474232E-01  1.091296E-02 -4.658707E-03
      3726   7  8.399857E-02  6.208398E-01 -5.004049E-02  3.612478E-01 -3.063793E-02 -5.018902E-02
      3726   8 -8.994342E-02  1.179782E-01 -1.269855E-01  3.912026E-01 -4.971013E-02 -2.154614E-02
      3727   1  3.261006E-01  7.876434E-02  6.924169E-02  2.585311E-01  4.287555E-03  2.098847E-02
      3727   2  1.199303E-01 -4.458317E-01 -9.339673E-02  2.492707E-01 -2.393337E-02  1.556403E-02
      3727   3  3.931667E-01  7.744616E-05  6.575544E-02  2.968233E-01 -2.291989E-02  2.130385E-02
      3727   4  1.670926E-01 -5.709607E-01 -1.167868E-01  2.713813E-01 -5.114082E-02  3.816389E-02
      3727   5  3.588904E-01  9.303337E-02  8.401534E-02  4.177440E-01  1.192102E-02 -9.091790E-03
      3727   6  1.794615E-01 -4.048213E-01 -1.622654E-02  4.084836E-01 -2.924523E-02 -2.513158E-02
      3727   7  4.825923E-01  3.861897E-02  1.048016E-01  4.693054E-01 -3.757091E-02 -8.776404E-03
      3727   8  2.832596E-01 -5.056778E-01 -1.534407E-02  4.438633E-01 -7.873716E-02 -2.531714E-03
      3728   1  3.028113E-01 -5.267780E-01 -4.686527E-02 -1.409839E-02 -6.594383E-03  1.363186E-02
      3728   2  2.980584E-01 -5.278586E-01 -6.162767E-02 -6.155638E-02 -4.500271E-02  1.377751E-02
      3728   3  3.902995E-01 -6.427082E-01 -5.539785E-02 -4.470875E-02 -3.384372E-04  4.423372E-02
      3728   4  3.938558E-01 -6.244008E-01 -6.185112E-02 -1.143864E-01 -3.874677E-02  4.395677E-02
      3728   5  5.056365E-01 -4.188688E-01  1.100069E-01 -1.593455E-02  2.211012E-03 -2.932718E-02
      3728   6  5.003765E-01 -4.204565E-01  9.406125E-02 -6.339255E-02 -5.397307E-02 -2.475000E-02
      3728   7  6.708936E-01 -5.014694E-01  1.348039E-01 -5.208434E-02  8.889564E-03  1.274683E-03
      3728   8  6.739428E-01 -4.836691E-01  1.271673E-01 -1.217620E-01 -4.729452E-02  5.429262E-03
      3729   1  1.314475E-01 -4.162853E-01 -1.147592E-01 -3.285652E-01 -2.110473E-02  1.571803E-02
      3729   2  3.582463E-01  1.798628E-01  4.508878E-02 -3.501428E-01 -4.603240E-02  2.087401E-02
      3729   3  1.856317E-01 -4.975861E-01 -1.228942E-01 -4.305582E-01  2.073953E-02  3.526975E-02
      3729   4  4.515627E-01  1.898704E-01  7.608597E-02 -4.681322E-01 -4.188134E-03  1.181335E-02
      3729   5  2.304311E-01 -3.604568E-01 -2.764803E-02 -5.132399E-01 -1.813595E-02 -1.354829E-02
      3729   6  4.228951E-01  2.013564E-01  5.208534E-02 -5.348175E-01 -5.586070E-02  1.247818E-02
      3729   7  3.406025E-01 -4.177631E-01 -1.178847E-02 -6.413210E-01  5.232069E-02  6.003434E-03
      3729   8  5.721987E-01  2.353586E-01  1.070771E-01 -6.788949E-01  1.459594E-02  3.417522E-03
      3730   1  4.027494E-02  4.046017E-01 -4.935272E-02 -2.387354E-01 -2.601133E-02  1.210933E-02
      3730   2  2.579455E-01  9.852445E-01  9.557316E-02 -2.012408E-01 -2.950719E-02 -1.699217E-02
      3730   3  6.008250E-02  4.216872E-01 -3.828480E-02 -3.236949E-01  1.945412E-02 -1.975334E-02
      3730   4  2.939596E-01  1.040145E+00  1.228476E-01 -2.926511E-01  1.595826E-02 -8.253876E-02
      3730   5 -1.291916E-01  3.101245E-01 -1.948102E-01 -4.202215E-01 -4.115207E-02  1.451636E-02
      3730   6  4.805826E-02  8.503466E-01 -1.441993E-01 -3.827269E-01 -4.980863E-02 -5.941664E-03
      3730   7 -8.680604E-02  3.368863E-01 -1.740660E-01 -5.159853E-01  3.799729E-02 -1.734631E-02
      3730   8  1.066504E-01  9.149235E-01 -1.072486E-01 -4.849415E-01  2.934074E-02 -7.148825E-02
      3731   1  3.418758E-02  5.843529E-02  1.434863E-01  4.969467E-02 -2.795521E-03  3.354317E-02
      3731   2  2.604579E-04 -1.761537E-03  9.059275E-02  5.239081E-02 -2.607279E-03  2.696797E-02
      3731   3  5.884452E-02  1.175368E-01  1.686139E-01  5.701364E-02  9.058514E-03  4.548380E-02
      3731   4  1.430980E-02  3.258895E-02  1.051127E-01  6.149627E-02  9.246756E-03  3.361078E-02
      3731   5  3.907986E-02  6.871984E-02  1.728759E-01  6.282952E-02  2.010378E-03  4.713277E-02
      3731   6 -1.204650E-03  2.165630E-03  1.051484E-01  6.552566E-02  3.627817E-03  3.490019E-02
      3731   7  5.748406E-02  1.251416E-01  1.953237E-01  7.722022E-02  1.916223E-02  5.907340E-02
      3731   8  6.591959E-03  3.383637E-02  1.169886E-01  8.170285E-02  2.077967E-02  4.154300E-02
      3732   1  7.986668E-02 -9.805053E-03  9.353792E-02  9.108491E-02 -4.356301E-03  2.174233E-02
      3732   2  3.288427E-02 -9.946828E-02  2.659312E-02  8.032525E-02 -7.159647E-03  1.404079E-02
      3732   3  9.859628E-02  1.053615E-02  1.052592E-01  1.011064E-01  8.120196E-03  2.359117E-02
      3732   4  3.925057E-02 -1.079748E-01  2.595105E-02  8.843462E-02  5.316850E-03  8.090110E-03
      3732   5  1.197441E-01  8.553053E-03  1.148542E-01  1.124253E-01  2.198761E-03  2.519031E-02
      3732   6  6.340226E-02 -9.046961E-02  2.607069E-02  1.016657E-01 -2.134271E-03  1.089501E-02
      3732   7  1.451661E-01  3.176242E-02  1.294436E-01  1.306890E-01  2.247479E-02  2.703916E-02
      3732   8  7.646093E-02 -9.610797E-02  2.829679E-02  1.180172E-01  1.814176E-02  4.944327E-03
      3733   1  8.653139E-02 -1.080433E-01  2.503962E-02  5.130924E-02 -1.240607E-02  1.185481E-02
      3733   2  7.160410E-02 -1.311545E-01 -1.606838E-03  3.162814E-02 -1.669874E-02  1.358411E-02
      3733   3  9.516474E-02 -1.236711E-01  2.294129E-02  4.895287E-02 -5.081589E-03  2.390130E-03
      3733   4  8.099298E-02 -1.450193E-01 -2.949641E-03  2.523057E-02 -9.374260E-03  2.318561E-03
      3733   5  1.440577E-01 -8.987924E-02  2.806018E-02  5.540118E-02 -1.192545E-02  6.443029E-03
      3733   6  1.269693E-01 -1.151515E-01 -3.628725E-03  3.572008E-02 -1.945107E-02  8.575282E-03
      3733   7  1.668352E-01 -9.944522E-02  3.202365E-02  5.254113E-02 -2.800089E-03 -3.021649E-03
      3733   8  1.505024E-01 -1.229545E-01  1.090269E-03  2.881882E-02 -1.032572E-02 -2.690271E-03
      3734   1  4.429668E-02 -1.332169E-01 -1.914150E-02 -8.459895E-03 -2.036840E-02  1.786827E-02
      3734   2  6.342680E-02 -8.196565E-02 -6.625727E-03 -2.397975E-02 -2.238500E-02  2.784348E-02
      3734   3  4.899051E-02 -1.390696E-01 -1.948916E-02 -2.401342E-02 -1.623444E-02  7.790162E-03
      3734   4  8.174330E-02 -5.603210E-02  6.649289E-03 -4.149011E-02 -1.825103E-02  2.281042E-02
      3734   5  8.652247E-02 -1.220309E-01 -2.408040E-02 -2.452048E-02 -2.755457E-02  1.566625E-02
      3734   6  1.117066E-01 -6.472554E-02  2.561488E-03 -4.004034E-02 -3.113663E-02  3.290690E-02
      3734   7  9.806520E-02 -1.249483E-01 -2.149282E-02 -4.915579E-02 -2.846565E-02  5.588149E-03
      3734   8  1.368720E-01 -3.585674E-02  1.877175E-02 -6.663248E-02 -3.204770E-02  2.787383E-02
      3735   1  8.861046E-03 -7.852114E-02 -3.385915E-02 -1.666111E-02 -1.837866E-02  3.338024E-02
      3735   2  1.508733E-02 -4.560491E-02 -4.602110E-02 -2.176534E-02 -1.644039E-02  3.853174E-02
      3735   3  1.866390E-02 -3.949562E-02 -1.921064E-02 -2.926350E-02 -6.886011E-03  3.160732E-02
      3735   4  3.527910E-02  1.766142E-02 -2.098367E-02 -3.234963E-02 -4.947748E-03  4.062062E-02
      3735   5  2.459833E-02 -7.299231E-02 -3.116700E-02 -3.000608E-02 -2.619706E-02  4.313105E-02
      3735   6  3.545879E-02 -3.544191E-02 -3.251589E-02 -3.511031E-02 -2.264432E-02  5.382330E-02
      3735   7  2.733785E-02 -3.699393E-02 -1.954564E-02 -4.953441E-02 -1.856622E-02  4.135812E-02
      3735   8  4.858722E-02  2.479728E-02 -1.050560E-02 -5.262055E-02 -1.501348E-02  5.591218E-02
      3736   1  4.523209E-02  1.374432E-01  1.009591E-01  6.299319E-02 -8.266318E-04  7.629585E-02
      3736   2  1.347172E-04  3.749407E-02  5.058362E-02  6.910374E-02 -1.613489E-03  6.045679E-02
      3736   3  9.299775E-02  2.423392E-01  1.467576E-01  7.201066E-02  2.472178E-03  7.329459E-02
      3736   4  2.892278E-02  9.810908E-02  7.740454E-02  8.078225E-02  1.685320E-03  5.838083E-02
      3736   5  2.024366E-02  1.246758E-01  8.338972E-02  9.041906E-02  9.870753E-03  9.993487E-02
      3736   6 -2.374335E-02  2.583709E-02  3.560511E-02  9.652960E-02  1.121273E-02  7.397443E-02
      3736   7  5.869565E-02  2.255803E-01  1.251967E-01  1.120883E-01  1.224426E-02  9.693360E-02
      3736   8 -4.268956E-03  8.246053E-02  5.843446E-02  1.208599E-01  1.358624E-02  7.189847E-02
      3737   1  9.788513E-02  1.011580E-02  6.698045E-02  1.088825E-01 -4.318499E-03  4.755318E-02
      3737   2  3.842284E-02 -1.239991E-01  2.887736E-03  9.438109E-02 -1.067682E-02  2.813890E-02
      3737   3  1.370118E-01  4.842539E-02  9.021134E-02  1.201059E-01 -1.424478E-03  4.611405E-02
      3737   4  5.817860E-02 -1.308883E-01  6.747692E-03  1.025178E-01 -7.782801E-03  2.751433E-02
      3737   5  1.469133E-01  3.014103E-02  8.470309E-02  1.462089E-01  1.219777E-02  5.358466E-02
      3737   6  8.842846E-02 -1.029964E-01  2.289114E-02  1.317074E-01  3.370095E-03  2.383922E-02
      3737   7  1.968434E-01  7.308066E-02  1.125640E-01  1.703462E-01  1.427723E-02  5.214553E-02
      3737   8  1.189877E-01 -1.052556E-01  3.138114E-02  1.527580E-01  5.449554E-03  2.321466E-02
      3738   1  1.015600E-01 -1.412735E-01  9.726882E-03  4.433238E-02 -2.472398E-02  2.212026E-02
      3738   2  8.979933E-02 -1.588032E-01 -1.194552E-02  1.712954E-02 -3.357901E-02  2.509130E-02
      3738   3  1.259276E-01 -1.582076E-01  1.195696E-02  3.406532E-02 -1.852912E-02  2.126342E-02
      3738   4  1.162954E-01 -1.707709E-01 -7.587020E-03  1.394703E-03 -2.738414E-02  2.278531E-02
      3738   5  1.957417E-01 -1.014975E-01  4.813199E-02  4.721690E-02 -2.334924E-02  1.445461E-02
      3738   6  1.822421E-01 -1.207661E-01  2.240196E-02  2.001407E-02 -3.657849E-02  1.856081E-02
      3738   7  2.392466E-01 -1.102298E-01  5.856374E-02  3.553090E-02 -1.570522E-02  1.359777E-02
      3738   8  2.278754E-01 -1.245322E-01  3.496214E-02  2.860275E-03 -2.893448E-02  1.625482E-02
      3739   1  4.948940E-02 -1.474322E-01 -3.343166E-02 -4.089692E-02 -4.239210E-02  3.487445E-02
      3739   2  8.821114E-02 -4.008377E-02 -1.170767E-02 -6.010685E-02 -4.641999E-02  5.863148E-02
      3739   3  6.441610E-02 -1.461691E-01 -2.857471E-02 -7.146994E-02 -3.176851E-02  3.080853E-02
      3739   4  1.270986E-01  1.708785E-02  1.711006E-02 -9.345835E-02 -3.579640E-02  5.120649E-02
      3739   5  1.118451E-01 -1.234964E-01 -1.600134E-02 -7.521028E-02 -5.913636E-02  3.343693E-02
      3739   6  1.465359E-01 -2.017886E-02 -3.682743E-03 -9.442021E-02 -6.538703E-02  6.997303E-02
      3739   7  1.364964E-01 -1.180656E-01 -6.976671E-03 -1.217572E-01 -4.515369E-02  2.937101E-02
      3739   8  1.951481E-01  4.116048E-02  2.930270E-02 -1.437456E-01 -5.140437E-02  6.254804E-02
      3740   1  1.093784E-02 -1.440863E-02 -4.618549E-02 -4.215757E-02 -3.095680E-02  7.218881E-02
      3740   2  3.558198E-02  6.602317E-02 -4.447016E-02 -4.286467E-02 -2.687640E-02  8.547111E-02
      3740   3  3.075352E-02  6.583129E-02 -1.616881E-02 -6.478244E-02 -1.662629E-02  6.244431E-02
      3740   4  7.624801E-02  1.949139E-01  6.396869E-03 -6.100802E-02 -1.254589E-02  7.274868E-02
      3740   5  1.719314E-03 -2.504137E-02 -7.240942E-02 -7.005140E-02 -4.703304E-02  9.227811E-02
      3740   6  2.278993E-02  5.181690E-02 -7.903232E-02 -7.075850E-02 -3.936742E-02  1.166806E-01
      3740   7  5.849649E-03  4.847626E-02 -4.911503E-02 -1.065765E-01 -2.972460E-02  8.253361E-02
      3740   8  4.777061E-02  1.739853E-01 -3.488758E-02 -1.028021E-01 -2.205898E-02  1.039582E-01
      3741   1  7.553972E-02  2.484562E-01  6.157642E-02  7.600069E-02 -3.084400E-03  5.207969E-02
      3741   2  1.418006E-02  9.307450E-02  1.242594E-02  8.539744E-02 -7.560928E-03  4.627013E-02
      3741   3  1.089763E-01  2.891705E-01  8.382169E-02  7.788419E-02 -1.071514E-02  3.218041E-02
      3741   4  3.818051E-02  1.117711E-01  2.523507E-02  8.632785E-02 -1.519167E-02  3.466297E-02
      3741   5  1.877197E-02  2.104820E-01 -8.236667E-03  1.230117E-01  3.337089E-03  5.946731E-02
      3741   6 -3.263715E-02  6.505078E-02 -3.416922E-02  1.324085E-01 -1.901916E-03  4.862514E-02
      3741   7  5.554440E-02  2.526259E-01  1.543825E-02  1.311860E-01 -1.258577E-02  3.956803E-02
      3741   8 -5.300871E-03  8.517707E-02 -1.993045E-02  1.396296E-01 -1.782477E-02  3.701798E-02
      3742   1  1.394934E-01  4.108153E-02  4.411892E-02  1.237118E-01 -1.228680E-02  4.061298E-02
      3742   2  5.994545E-02 -1.526999E-01 -2.725957E-02  1.035851E-01 -2.149067E-02  3.096692E-02
      3742   3  1.774977E-01  5.305913E-02  5.911347E-02  1.223400E-01 -1.739274E-02  3.476982E-02
      3742   4  8.914024E-02 -1.612777E-01 -2.107446E-02  9.836436E-02 -2.659661E-02  3.257916E-02
      3742   5  2.029252E-01  6.425985E-02  5.794818E-02  1.808286E-01 -3.761685E-03  3.940621E-02
      3742   6  1.323237E-01 -1.205751E-01  7.444823E-03  1.607018E-01 -1.604465E-02  2.506178E-02
      3742   7  2.544005E-01  8.201075E-02  7.871602E-02  1.853297E-01 -1.632303E-02  3.356304E-02
      3742   8  1.749896E-01 -1.233796E-01  1.940324E-02  1.613541E-01 -2.860599E-02  2.667402E-02
      3743   1  1.351482E-01 -1.798566E-01 -1.242723E-02  2.274569E-02 -2.913774E-02  2.895465E-02
      3743   2  1.299785E-01 -1.846293E-01 -2.488696E-02 -1.366218E-02 -3.964295E-02  3.310309E-02
      3743   3  1.685289E-01 -1.895117E-01 -5.309543E-03  2.086933E-03 -2.458150E-02  3.290952E-02
      3743   4  1.680502E-01 -1.833386E-01 -1.307822E-02 -3.906351E-02 -3.508671E-02  3.600271E-02
      3743   5  2.673216E-01 -1.204989E-01  5.325819E-02  2.254720E-02 -3.016731E-02  2.224555E-02
      3743   6  2.608856E-01 -1.265380E-01  3.784377E-02 -1.386068E-02 -4.446658E-02  2.889588E-02
      3743   7  3.173013E-01 -1.230402E-01  6.748974E-02 -1.238927E-03 -2.455582E-02  2.620041E-02
      3743   8  3.155563E-01 -1.181334E-01  5.676636E-02 -4.238937E-02 -3.885509E-02  3.179550E-02
      3744   1  6.694703E-02 -1.534100E-01 -4.917236E-02 -9.524240E-02 -3.965815E-02  3.998623E-02
      3744   2  1.393766E-01  3.928331E-02 -4.337376E-04 -1.190798E-01 -4.477842E-02  5.464286E-02
      3744   3  8.917349E-02 -1.442172E-01 -3.974659E-02 -1.296169E-01 -2.485129E-02  3.877622E-02
      3744   4  1.779865E-01  8.670401E-02  2.537543E-02 -1.557275E-01 -2.997157E-02  4.326039E-02
      3744   5  1.489260E-01 -1.191059E-01 -1.680426E-02 -1.553743E-01 -5.192009E-02  3.989303E-02
      3744   6  2.091486E-01  6.138048E-02  3.451465E-03 -1.792117E-01 -5.885887E-02  6.328748E-02
      3744   7  1.791085E-01 -1.065034E-01 -3.968778E-03 -2.006711E-01 -2.694077E-02  3.868302E-02
      3744   8  2.557145E-01  1.122109E-01  3.267034E-02 -2.267816E-01 -3.387956E-02  5.190500E-02
      3745   1  2.515937E-02  9.710837E-02 -4.090393E-02 -8.017574E-02 -2.482927E-02  5.937816E-02
      3745   2  7.989428E-02  2.506297E-01 -1.197554E-02 -7.407620E-02 -2.255724E-02  5.765860E-02
      3745   3  4.119158E-02  1.534504E-01 -1.919166E-02 -9.960613E-02 -8.700194E-03  3.993583E-02
      3745   4  1.062180E-01  3.309852E-01  2.002822E-02 -9.163578E-02 -6.428165E-03  2.636882E-02
      3745   5 -1.951981E-02  6.462827E-02 -1.044918E-01 -1.295689E-01 -3.654297E-02  7.323007E-02
      3745   6  2.099816E-02  2.039326E-01 -1.087362E-01 -1.234694E-01 -3.277429E-02  7.699930E-02
      3745   7 -1.003544E-02  1.181641E-01 -8.558569E-02 -1.558603E-01 -8.566444E-03  5.378774E-02
      3745   8  4.077401E-02  2.814819E-01 -7.953868E-02 -1.478900E-01 -4.797767E-03  4.570952E-02
      3746   1  1.054100E-01  2.760844E-01  4.521732E-02  8.618327E-02  2.876950E-03  4.774678E-03
      3746   2  3.282728E-02  9.030279E-02 -1.094335E-02  9.270851E-02 -2.684337E-03  1.425575E-02
      3746   3  1.152033E-01  2.525915E-01  4.110745E-02  1.069732E-01 -7.386812E-03 -2.128918E-02
      3746   4  3.854267E-02  5.729462E-02 -1.913119E-02  1.092104E-01 -1.294810E-02  3.429899E-04
      3746   5  5.129499E-02  2.350199E-01 -3.754934E-02  1.427827E-01  8.164555E-03 -2.978542E-03
      3746   6 -6.706395E-03  6.381960E-02 -5.968696E-02  1.493080E-01 -8.272048E-04  4.327619E-03
      3746   7  7.609666E-02  2.179591E-01 -3.522707E-02  1.662914E-01 -1.425030E-02 -2.904239E-02
      3746   8  1.401731E-02  3.724357E-02 -6.144266E-02  1.685285E-01 -2.324206E-02 -9.585143E-03
      3747   1  1.898194E-01  3.247577E-02  3.249965E-02  1.273055E-01 -4.838387E-03  1.767324E-02
      3747   2  9.806281E-02 -1.939788E-01 -4.690103E-02  9.842910E-02 -1.789517E-02  1.752890E-02
      3747   3  2.235204E-01  2.305070E-03  3.355876E-02  1.422434E-01 -1.256082E-02  1.124350E-02
      3747   4  1.227086E-01 -2.452785E-01 -5.489721E-02  1.038267E-01 -2.561760E-02  1.939208E-02
      3747   5  2.831711E-01  6.807466E-02  5.781097E-02  1.946545E-01 -2.031141E-04  5.181314E-03
      3747   6  2.013660E-01 -1.484284E-01  1.630442E-03  1.657781E-01 -2.089213E-02  2.074930E-04
      3747   7  3.502631E-01  5.221440E-02  7.318051E-02  2.156292E-01 -1.621846E-02 -1.248423E-03
      3747   8  2.594028E-01 -1.854177E-01  7.944696E-03  1.772126E-01 -3.690747E-02  2.070669E-03
      3748   1  1.877571E-01 -2.188229E-01 -2.481260E-02 -1.300324E-02 -1.209852E-02  1.854039E-02
      3748   2  1.916484E-01 -2.029215E-01 -2.774287E-02 -6.055623E-02 -3.006755E-02  2.144815E-02
      3748   3  2.328812E-01 -2.632752E-01 -2.461104E-02 -3.357161E-02 -7.835004E-03  2.294656E-02
      3748   4  2.430610E-01 -2.327007E-01 -2.125285E-02 -9.387410E-02 -2.580404E-02  2.450899E-02
      3748   5  3.594799E-01 -1.422061E-01  5.885415E-02 -1.900829E-02 -1.042861E-02  6.788549E-04
      3748   6  3.617569E-01 -1.279190E-01  5.215698E-02 -6.656128E-02 -3.859725E-02  6.940461E-03
      3748   7  4.492274E-01 -1.675341E-01  7.817998E-02 -4.376896E-02 -4.819772E-03  5.085024E-03
      3748   8  4.577928E-01 -1.385740E-01  7.777125E-02 -1.040715E-01 -3.298841E-02  1.000130E-02
      3749   1  9.979557E-02 -1.571295E-01 -5.669635E-02 -1.623859E-01 -1.693317E-02  2.377760E-02
      3749   2  2.013488E-01  1.048144E-01  1.987065E-02 -1.923107E-01 -2.827301E-02  2.723399E-02
      3749   3  1.322222E-01 -1.759660E-01 -5.261934E-02 -2.175377E-01 -1.316761E-03  2.212447E-02
      3749   4  2.548532E-01  1.351592E-01  4.502541E-02 -2.556100E-01 -1.265660E-02  1.404741E-02
      3749   5  2.025486E-01 -1.142260E-01 -1.643791E-02 -2.425812E-01 -2.078245E-02  1.461216E-02
      3749   6  2.902617E-01  1.338776E-01  2.783539E-02 -2.725059E-01 -3.864030E-02  2.931002E-02
      3749   7  2.634915E-01 -1.208413E-01 -1.396369E-04 -3.117849E-01  6.367421E-03  1.295904E-02
      3749   8  3.722823E-01  1.764438E-01  6.521142E-02 -3.498572E-01 -1.149043E-02  1.612344E-02
      3750   1  4.365429E-02  1.770816E-01 -2.701944E-02 -1.231014E-01 -1.096636E-02  2.109544E-02
      3750   2  1.192336E-01  3.731306E-01  2.886263E-02 -1.148650E-01 -1.132318E-02  8.682083E-04
      3750   3  5.902697E-02  2.099776E-01 -1.253881E-02 -1.678612E-01  1.344428E-03 -1.892862E-03
      3750   4  1.406278E-01  4.200769E-01  4.936479E-02 -1.607687E-01  9.876070E-04 -3.736542E-02
      3750   5 -1.275911E-02  1.371410E-01 -1.037413E-01 -1.833362E-01 -1.792309E-02  2.846162E-02
      3750   6  4.452582E-02  3.148956E-01 -9.054614E-02 -1.750998E-01 -1.919505E-02  1.144588E-02
      3750   7  6.617259E-03  1.717529E-01 -8.754480E-02 -2.321104E-01  9.633013E-03  5.473318E-03
      3750   8  6.992373E-02  3.635578E-01 -6.832810E-02 -2.250179E-01  8.361062E-03 -2.678775E-02
      3751   1  1.708736E-02  1.915442E-02  1.188897E-01  2.704134E-02 -6.339517E-03  1.759441E-02
      3751   2  3.399351E-03  9.426319E-04  9.147485E-02  2.689977E-02 -7.089814E-03  1.659336E-02
      3751   3  2.823627E-02  3.891607E-02  1.281629E-01  2.797060E-02  2.239790E-03  1.709867E-02
      3751   4  1.245837E-02  1.582787E-02  9.865813E-02  2.820916E-02  1.489493E-03  1.511990E-02
      3751   5  1.698797E-02  1.877189E-02  1.177140E-01  2.930323E-02 -5.032869E-03  2.178980E-02
      3751   6  2.126702E-03 -6.131584E-04  8.756153E-02  2.916166E-02 -5.479060E-03  1.967414E-02
      3751   7  2.680642E-02  3.796334E-02  1.264170E-01  3.162575E-02  4.524159E-03  2.129407E-02
      3751   8  9.855255E-03  1.370188E-02  9.417461E-02  3.186432E-02  4.077968E-03  1.820069E-02
      3752   1  4.115538E-02  1.567475E-04  9.113542E-02  5.126130E-02 -8.966629E-03  1.588782E-02
      3752   2  1.789554E-02 -4.382107E-02  5.758045E-02  4.260635E-02 -1.030905E-02  1.496131E-02
      3752   3  5.095384E-02  1.183297E-02  9.757783E-02  5.214246E-02 -2.532171E-03  1.320248E-02
      3752   4  2.472659E-02 -3.906881E-02  6.105544E-02  4.266302E-02 -3.874592E-03  9.942770E-03
      3752   5  6.822529E-02  9.916765E-03  9.659890E-02  6.162029E-02 -7.348058E-03  1.798135E-02
      3752   6  4.216562E-02 -3.686089E-02  5.651097E-02  5.296534E-02 -9.350073E-03  1.547221E-02
      3752   7  8.090947E-02  2.282973E-02  1.042780E-01  6.447973E-02  1.419601E-03  1.529601E-02
      3752   8  5.188238E-02 -3.087190E-02  6.122270E-02  5.500029E-02 -5.824135E-04  1.045368E-02
      3753   1  4.223162E-02 -4.857210E-02  5.441966E-02  3.485879E-02 -1.195183E-02  1.516521E-02
      3753   2  3.374725E-02 -5.967359E-02  3.723992E-02  2.015434E-02 -1.363444E-02  1.664879E-02
      3753   3  4.961202E-02 -4.537292E-02  5.759353E-02  3.211892E-02 -6.517225E-03  8.962892E-03
      3753   4  4.152974E-02 -5.553621E-02  4.081588E-02  1.610893E-02 -8.199838E-03  9.545530E-03
      3753   5  8.625442E-02 -3.395820E-02  5.910985E-02  3.616735E-02 -1.241314E-02  1.517533E-02
      3753   6  7.668892E-02 -4.614082E-02  3.940748E-02  2.146290E-02 -1.514018E-02  1.687336E-02
      3753   7  9.820419E-02 -2.880073E-02  6.424202E-02  3.315942E-02 -6.077592E-03  8.973012E-03
      3753   8  8.904078E-02 -4.004514E-02  4.494174E-02  1.714944E-02 -8.804632E-03  9.770097E-03
      3754   1  2.306323E-02 -5.922011E-02  2.465290E-02  4.883961E-03 -1.403173E-02  1.828512E-02
      3754   2  2.826429E-02 -3.577714E-02  1.854679E-02 -6.885472E-03 -1.492447E-02  2.127206E-02
      3754   3  2.880516E-02 -5.326177E-02  2.816298E-02 -8.559884E-04 -6.964754E-03  1.114319E-02
      3754   4  3.747035E-02 -2.173585E-02  2.552100E-02 -1.312949E-02 -7.857496E-03  1.492543E-02
      3754   5  5.568593E-02 -5.013628E-02  2.230965E-02 -4.236994E-03 -1.674497E-02  1.926442E-02
      3754   6  6.184135E-02 -2.573895E-02  1.843038E-02 -1.600643E-02 -1.804097E-02  2.409889E-02
      3754   7  6.319210E-02 -4.342184E-02  2.657583E-02 -1.228636E-02 -1.047329E-02  1.212249E-02
      3754   8  7.281164E-02 -1.094156E-02  2.616069E-02 -2.455986E-02 -1.176929E-02  1.775226E-02
      3755   1  9.152853E-03 -3.245306E-02 -1.627265E-03 -2.440264E-03 -1.212336E-02  2.263634E-02
      3755   2  3.434613E-03 -2.465894E-02 -2.848218E-02 -7.604223E-03 -1.168986E-02  2.337668E-02
      3755   3  1.430599E-02 -1.681658E-02  4.609622E-03 -6.423173E-03  1.087063E-03  1.666233E-02
      3755   4  9.903028E-03 -5.953491E-03 -2.093002E-02 -1.075092E-02  1.520561E-03  1.762541E-02
      3755   5  2.005791E-02 -3.187593E-02 -1.060854E-02 -9.196443E-03 -1.460762E-02  2.639618E-02
      3755   6  1.460695E-02 -2.381453E-02 -3.683980E-02 -1.436040E-02 -1.350515E-02  2.783799E-02
      3755   7  2.228432E-02 -1.749376E-02 -5.625962E-03 -1.405620E-02 -1.619929E-03  2.042217E-02
      3755   8  1.814863E-02 -6.363389E-03 -3.054195E-02 -1.838395E-02 -5.174639E-04  2.208672E-02
      3756   1  1.589125E-02  3.483697E-02  7.998853E-02  2.862863E-02 -9.336024E-03  3.397280E-02
      3756   2  2.750669E-03  1.120508E-02  5.981849E-02  2.916838E-02 -1.138589E-02  3.281057E-02
      3756   3  3.918056E-02  7.209647E-02  9.815317E-02  2.949715E-02 -4.942611E-03  2.822600E-02
      3756   4  2.161186E-02  3.813229E-02  7.355501E-02  3.047960E-02 -6.992479E-03  2.761713E-02
      3756   5  7.105979E-03  2.713119E-02  6.308785E-02  3.387429E-02 -5.973072E-03  4.161075E-02
      3756   6 -5.370558E-03  4.163336E-03  4.446725E-02  3.441403E-02 -7.668773E-03  3.808685E-02
      3756   7  2.884581E-02  6.372662E-02  8.058843E-02  3.769489E-02 -2.133030E-03  3.586394E-02
      3756   8  1.194115E-02  3.042649E-02  5.753971E-02  3.867734E-02 -3.828731E-03  3.289341E-02
      3757   1  4.574016E-02  7.204008E-03  6.565482E-02  5.233437E-02 -1.785420E-02  3.151185E-02
      3757   2  2.025005E-02 -4.698671E-02  3.487852E-02  4.189611E-02 -2.134701E-02  2.912591E-02
      3757   3  6.736003E-02  2.854358E-02  7.854265E-02  5.197751E-02 -1.455033E-02  2.655089E-02
      3757   4  3.658774E-02 -3.797223E-02  4.248417E-02  3.974421E-02 -1.804314E-02  2.424672E-02
      3757   5  7.632090E-02  1.690824E-02  6.742152E-02  6.668468E-02 -1.237090E-02  3.489254E-02
      3757   6  5.092892E-02 -3.718436E-02  3.687417E-02  5.624642E-02 -1.729975E-02  2.968945E-02
      3757   7  1.042234E-01  4.094037E-02  8.300191E-02  6.984927E-02 -9.148800E-03  2.993158E-02
      3757   8  7.354926E-02 -2.547731E-02  4.717239E-02  5.761598E-02 -1.407765E-02  2.481026E-02
      3758   1  4.759032E-02 -5.293161E-02  3.528616E-02  2.820622E-02 -2.557448E-02  2.947170E-02
      3758   2  4.111506E-02 -6.069421E-02  2.146458E-02  1.067868E-02 -2.972426E-02  3.280236E-02
      3758   3  6.531688E-02 -4.615112E-02  4.263828E-02  2.025641E-02 -2.098302E-02  2.433494E-02
      3758   4  6.006578E-02 -5.105738E-02  3.004084E-02 -1.116388E-04 -2.513280E-02  2.688011E-02
      3758   5  1.027726E-01 -3.280441E-02  4.719453E-02  2.884990E-02 -2.532024E-02  2.924305E-02
      3758   6  9.535476E-02 -4.150959E-02  3.117361E-02  1.132235E-02 -3.174242E-02  3.322658E-02
      3758   7  1.304409E-01 -2.176316E-02  5.880741E-02  2.008399E-02 -1.994330E-02  2.410629E-02
      3758   8  1.242473E-01 -2.761199E-02  4.401063E-02 -2.840640E-04 -2.636549E-02  2.730434E-02
      3759   1  2.574542E-02 -5.632647E-02  9.132096E-03 -7.898177E-03 -2.825824E-02  3.661415E-02
      3759   2  3.796818E-02 -1.617176E-02  9.719920E-03 -2.072692E-02 -3.036566E-02  4.369750E-02
      3759   3  3.874430E-02 -4.355753E-02  1.686244E-02 -2.139784E-02 -2.098641E-02  2.983574E-02
      3759   4  5.789403E-02  1.276012E-02  2.437724E-02 -3.523946E-02 -2.309382E-02  3.536550E-02
      3759   5  6.251192E-02 -4.521744E-02  9.395673E-03 -2.186415E-02 -3.411833E-02  3.862958E-02
      3759   6  7.287037E-02 -6.927053E-03  5.633429E-03 -3.469289E-02 -3.703604E-02  4.940732E-02
      3759   7  7.905587E-02 -3.092919E-02  1.864533E-02 -3.998180E-02 -2.529290E-02  3.185118E-02
      3759   8  9.634129E-02  2.352414E-02  2.181006E-02 -5.382342E-02 -2.821061E-02  4.107532E-02
      3760   1  1.067811E-02 -8.778998E-03 -1.003571E-02 -1.106724E-02 -1.812331E-02  4.674232E-02
      3760   2  1.062354E-02  8.432016E-03 -2.742861E-02 -1.447990E-02 -1.717350E-02  4.797757E-02
      3760   3  2.078227E-02  2.271248E-02  2.442980E-03 -1.977215E-02 -7.286854E-03  3.719750E-02
      3760   4  2.350953E-02  4.641442E-02 -1.216809E-02 -2.152095E-02 -6.337042E-03  3.667287E-02
      3760   5  1.116864E-02 -1.511379E-02 -3.164221E-02 -1.970003E-02 -2.321046E-02  5.434743E-02
      3760   6  9.002212E-03 -1.463499E-05 -5.396278E-02 -2.311269E-02 -2.092955E-02  5.706632E-02
      3760   7  1.544927E-02  1.388189E-02 -2.165932E-02 -3.025949E-02 -1.061412E-02  4.480261E-02
      3760   8  1.606467E-02  3.547197E-02 -4.119806E-02 -3.200829E-02 -8.333211E-03  4.576162E-02
      3761   1  2.342899E-02  6.012809E-02  3.601579E-02  2.950872E-02 -8.552024E-03  2.296881E-02
      3761   2  9.972351E-03  2.719574E-02  2.409268E-02  3.038530E-02 -1.194958E-02  2.555089E-02
      3761   3  4.193798E-02  7.500275E-02  4.603088E-02  2.867181E-02 -9.510480E-03  1.191024E-02
      3761   4  2.659794E-02  3.767580E-02  3.222437E-02  2.881645E-02 -1.290804E-02  1.715491E-02
      3761   5  7.090672E-03  4.554293E-02  3.736932E-03  3.924657E-02 -6.270078E-03  2.491264E-02
      3761   6 -3.170862E-03  1.580569E-02 -7.309327E-04  4.012316E-02 -1.025319E-02  2.649024E-02
      3761   7  2.816147E-02  6.151552E-02  1.484995E-02  3.966527E-02 -9.891121E-03  1.385407E-02
      3761   8  1.601653E-02  2.738367E-02  8.498681E-03  3.980991E-02 -1.387423E-02  1.809426E-02
      3762   1  6.263391E-02  1.892899E-02  3.780231E-02  5.033961E-02 -2.052299E-02  2.672302E-02
      3762   2  3.229327E-02 -5.115441E-02  6.750247E-03  3.649685E-02 -2.575622E-02  2.734325E-02
      3762   3  8.553520E-02  2.875505E-02  4.762051E-02  4.622161E-02 -2.007835E-02  2.005769E-02
      3762   4  5.228216E-02 -4.812395E-02  1.365605E-02  2.977678E-02 -2.531158E-02  2.274356E-02
      3762   5  1.030852E-01  3.169473E-02  3.990352E-02  7.021098E-02 -1.677798E-02  2.672616E-02
      3762   6  7.522329E-02 -3.590990E-02  1.463524E-02  5.636823E-02 -2.409288E-02  2.579311E-02
      3762   7  1.350937E-01  4.542391E-02  5.362485E-02  6.803459E-02 -1.839897E-02  2.006083E-02
      3762   8  1.043195E-01 -2.897633E-02  2.544416E-02  5.158976E-02 -2.571387E-02  2.119342E-02
      3763   1  6.393061E-02 -5.820975E-02  1.141844E-02  1.252401E-02 -2.841673E-02  2.914092E-02
      3763   2  6.171769E-02 -5.839693E-02  4.229241E-03 -1.006179E-02 -3.401597E-02  3.343201E-02
      3763   3  8.526736E-02 -5.508434E-02  1.875709E-02 -6.514832E-04 -2.530655E-02  2.501333E-02
      3763   4  8.527449E-02 -5.009140E-02  1.378794E-02 -2.645579E-02 -3.090579E-02  2.852858E-02
      3763   5  1.380278E-01 -2.928416E-02  3.373988E-02  1.151114E-02 -2.866868E-02  2.745563E-02
      3763   6  1.348839E-01 -3.040234E-02  2.437833E-02 -1.107466E-02 -3.684272E-02  3.293075E-02
      3763   7  1.706293E-01 -2.133100E-02  4.590628E-02 -3.144386E-03 -2.478266E-02  2.332803E-02
      3763   8  1.697054E-01 -1.726906E-02  3.876478E-02 -2.894869E-02 -3.295670E-02  2.802731E-02
      3764   1  3.611776E-02 -4.790029E-02 -7.437256E-03 -3.296481E-02 -2.855833E-02  3.681703E-02
      3764   2  6.125004E-02  2.076123E-02  7.675502E-03 -4.769521E-02 -3.146629E-02  4.177398E-02
      3764   3  5.094833E-02 -3.752859E-02  1.234281E-04 -5.106670E-02 -2.229613E-02  3.033777E-02
      3764   4  8.218825E-02  4.538407E-02  2.134382E-02 -6.721243E-02 -2.520408E-02  3.176531E-02
      3764   5  7.989904E-02 -3.357981E-02 -3.483593E-03 -5.472944E-02 -3.339838E-02  3.794144E-02
      3764   6  1.007960E-01  3.084642E-02  1.746803E-03 -6.945983E-02 -3.743860E-02  4.615579E-02
      3764   7  9.968326E-02 -2.108512E-02  6.200080E-03 -7.690307E-02 -2.360677E-02  3.146218E-02
      3764   8  1.266879E-01  5.759225E-02  1.753811E-02 -9.304880E-02 -2.764698E-02  3.614712E-02
      3765   1  1.839121E-02  3.352204E-02 -1.079087E-02 -2.661896E-02 -1.487823E-02  4.189447E-02
      3765   2  2.749584E-02  6.457916E-02 -1.149923E-02 -2.733156E-02 -1.442942E-02  3.726667E-02
      3765   3  2.659426E-02  5.640255E-02 -1.465804E-03 -3.661988E-02 -8.745109E-03  2.907748E-02
      3765   4  3.492063E-02  8.564376E-02 -2.952415E-03 -3.616540E-02 -8.296301E-03  2.030666E-02
      3765   5  5.504911E-03  1.921055E-02 -4.560954E-02 -3.759521E-02 -1.902422E-02  4.731664E-02
      3765   6  9.637902E-03  4.529604E-02 -5.791839E-02 -3.830781E-02 -1.764174E-02  4.227378E-02
      3765   7  9.623177E-03  4.034044E-02 -3.803510E-02 -4.707729E-02 -8.748067E-03  3.449965E-02
      3765   8  1.297792E-02  6.461001E-02 -5.112219E-02 -4.662281E-02 -7.365594E-03  2.531377E-02
      3766   1  3.508990E-02  6.317037E-02  1.338076E-02  3.085843E-02 -1.635377E-03  3.824896E-03
      3766   2  1.900267E-02  2.336978E-02 -4.427430E-04  2.998426E-02 -3.699126E-03  9.526240E-03
      3766   3  4.050103E-02  5.859844E-02  1.363252E-02  3.766930E-02 -3.050205E-03 -7.891581E-03
      3766   4  2.275966E-02  1.493818E-02 -1.845127E-03  3.474365E-02 -5.113954E-03  1.031757E-03
      3766   5  2.408971E-02  5.042184E-02 -1.811413E-02  4.271511E-02  2.510662E-04  1.895421E-03
      3766   6  1.186888E-02  1.448765E-02 -2.291605E-02  4.184094E-02 -3.453866E-03  6.714553E-03
      3766   7  3.668102E-02  4.892714E-02 -1.478515E-02  5.062875E-02 -4.385756E-03 -9.821057E-03
      3766   8  2.280604E-02  9.133267E-03 -2.124121E-02  4.770310E-02 -8.090688E-03 -1.779931E-03
      3767   1  8.503721E-02  1.517067E-02  1.856012E-02  4.551236E-02 -9.578495E-03  1.227741E-02
      3767   2  5.059500E-02 -6.640306E-02 -1.467354E-02  2.638666E-02 -1.468119E-02  1.409239E-02
      3767   3  9.992099E-02  7.376995E-03  2.068714E-02  4.769264E-02 -1.033385E-02  6.015741E-03
      3767   4  6.120815E-02 -8.416151E-02 -1.681712E-02  2.384476E-02 -1.543654E-02  1.070890E-02
      3767   5  1.444632E-01  3.634522E-02  2.971600E-02  6.907812E-02 -7.350512E-03  8.309125E-03
      3767   6  1.134748E-01 -4.177469E-02  4.541250E-03  4.995242E-02 -1.623095E-02  7.846446E-03
      3767   7  1.758746E-01  3.563481E-02  3.892630E-02  7.410547E-02 -1.098404E-02  2.047460E-03
      3767   8  1.406155E-01 -5.244987E-02  9.480929E-03  5.025760E-02 -1.986448E-02  4.462959E-03
      3768   1  8.903658E-02 -7.113332E-02 -5.810690E-03 -1.066261E-02 -1.330862E-02  1.582767E-02
      3768   2  9.168381E-02 -6.111977E-02 -7.000148E-03 -3.979637E-02 -2.112102E-02  1.875355E-02
      3768   3  1.109143E-01 -8.518858E-02 -3.463939E-03 -2.483803E-02 -1.091069E-02  1.312973E-02
      3768   4  1.162193E-01 -6.897367E-02 -1.995673E-03 -5.984953E-02 -1.872309E-02  1.505039E-02
      3768   5  1.877672E-01 -3.067021E-02  3.033573E-02 -1.434577E-02 -1.287021E-02  9.266866E-03
      3768   6  1.892082E-01 -2.186292E-02  2.633165E-02 -4.347954E-02 -2.538481E-02  1.361021E-02
      3768   7  2.302171E-01 -3.590884E-02  4.149909E-02 -3.029301E-02 -9.467060E-03  6.568929E-03
      3768   8  2.343158E-01 -2.090020E-02  4.015274E-02 -6.530451E-02 -2.198166E-02  9.907046E-03
      3769   1  5.318577E-02 -4.462100E-02 -1.914651E-02 -6.785495E-02 -1.224961E-02  2.055655E-02
      3769   2  9.174865E-02  5.317894E-02  1.159649E-02 -8.563502E-02 -1.787081E-02  2.255654E-02
      3769   3  7.254523E-02 -4.629228E-02 -1.384006E-02 -9.561939E-02 -7.362181E-03  1.474179E-02
      3769   4  1.205000E-01  7.342216E-02  2.629488E-02 -1.164493E-01 -1.298338E-02  1.197801E-02
      3769   5  1.084383E-01 -2.492860E-02 -8.757725E-03 -9.747347E-02 -1.464680E-02  1.776546E-02
      3769   6  1.412847E-01  6.715481E-02  8.646700E-03 -1.152535E-01 -2.270784E-02  2.477448E-02
      3769   7  1.384721E-01 -2.202518E-02  1.123428E-03 -1.314992E-01 -4.995597E-03  1.195070E-02
      3769   8  1.807104E-01  9.197273E-02  2.791978E-02 -1.523291E-01 -1.305664E-02  1.419594E-02
      3770   1  2.778502E-02  6.638952E-02 -8.061511E-03 -4.785587E-02 -4.281129E-03  1.985504E-02
      3770   2  4.259955E-02  1.024512E-01  5.258517E-03 -4.678239E-02 -4.875694E-03  1.047440E-02
      3770   3  3.851670E-02  8.647539E-02  1.183753E-03 -6.855225E-02 -3.347068E-03  5.979658E-03
      3770   4  5.479052E-02  1.259421E-01  1.596308E-02 -6.695471E-02 -3.941633E-03 -7.644345E-03
      3770   5  7.377369E-03  4.812883E-02 -4.852280E-02 -5.847947E-02 -7.311003E-03  2.419128E-02
      3770   6  1.709986E-02  7.909852E-02 -4.708420E-02 -5.740599E-02 -7.486318E-03  1.558894E-02
      3770   7  1.627483E-02  6.742861E-02 -4.006363E-02 -8.014872E-02 -2.133574E-03  1.031590E-02
      3770   8  2.745661E-02  1.018033E-01 -3.716573E-02 -7.855117E-02 -2.308890E-03 -2.529811E-03
      3771   1  3.759500E-03  2.802119E-03  1.322652E-01  8.425688E-03 -7.521099E-03  9.186091E-03
      3771   2 -2.884406E-03 -5.276894E-04  1.134486E-01  4.962504E-03 -8.676079E-03  9.559931E-03
      3771   3  1.220943E-02  1.289378E-02  1.378277E-01  8.014014E-03  8.680012E-05  1.477711E-03
      3771   4  4.989098E-03  8.218983E-03  1.184347E-01  4.819285E-03 -1.068180E-03  1.402411E-03
      3771   5  6.630587E-03 -1.253160E-03  1.158765E-01  6.768639E-03 -7.006236E-03  1.099776E-02
      3771   6 -5.522875E-04 -5.121938E-03  9.580237E-02  3.305455E-03 -7.946453E-03  1.106418E-02
      3771   7  1.414092E-02  8.435820E-03  1.210363E-01  6.741249E-03  1.050804E-03  3.289385E-03
      3771   8  6.381626E-03  3.222052E-03  1.003857E-01  3.546520E-03  1.105868E-04  2.906658E-03
      3772   1  1.596068E-02  3.520751E-03  1.116929E-01  1.975016E-02 -1.077236E-02  9.943142E-03
      3772   2  7.312195E-03 -1.070810E-02  9.709345E-02  1.295489E-02 -1.180923E-02  1.061626E-02
      3772   3  2.288915E-02  1.104656E-02  1.160292E-01  1.918821E-02 -7.053011E-03  1.122545E-03
      3772   4  1.364689E-02 -4.567753E-03  1.008360E-01  1.233427E-02 -8.089884E-03  4.332407E-04
      3772   5  2.915940E-02  3.128936E-03  9.718813E-02  2.254034E-02 -9.884168E-03  1.121895E-02
      3772   6  1.887601E-02 -1.273482E-02  7.877391E-02  1.574507E-02 -1.096798E-02  1.157539E-02
      3772   7  3.629323E-02  1.074275E-02  1.016124E-01  2.237424E-02 -4.802400E-03  2.398356E-03
      3772   8  2.541607E-02 -6.506458E-03  8.260443E-02  1.552029E-02 -5.886213E-03  1.392374E-03
      3773   1  2.550510E-02 -7.539983E-03  9.806862E-02  1.559944E-02 -1.267476E-02  1.130092E-02
      3773   2  2.151978E-02 -1.137185E-02  8.861611E-02  7.677209E-03 -1.365158E-02  1.249833E-02
      3773   3  3.140162E-02 -1.921570E-03  1.015231E-01  1.429930E-02 -9.257765E-03  1.669668E-04
      3773   4  2.753080E-02 -5.486287E-03  9.218508E-02  6.081044E-03 -1.023458E-02  1.287979E-04
      3773   5  3.987216E-02 -9.017377E-03  7.877691E-02  1.552272E-02 -1.202193E-02  1.216649E-02
      3773   6  3.440415E-02 -1.433195E-02  6.586476E-02  7.600487E-03 -1.323557E-02  1.342497E-02
      3773   7  4.680479E-02 -2.954918E-03  8.267543E-02  1.414625E-02 -7.369350E-03  1.032539E-03
      3773   8  4.145127E-02 -8.002335E-03  6.987778E-02  5.927992E-03 -8.582992E-03  1.055434E-03
      3774   1  1.827580E-02 -1.087370E-02  8.050631E-02  5.848650E-03 -1.333441E-02  1.337029E-02
      3774   2  1.693084E-02 -4.166938E-03  6.931636E-02 -1.147167E-03 -1.398339E-02  1.455510E-02
      3774   3  2.310094E-02 -5.023202E-03  8.370900E-02  4.236446E-03 -7.181287E-03  2.256336E-04
      3774   4  2.232016E-02  2.999974E-03  7.308323E-02 -2.847365E-03 -7.830267E-03  5.283628E-04
      3774   5  2.698758E-02 -1.615356E-02  5.419501E-02  1.822791E-03 -1.311787E-02  1.442941E-02
      3774   6  2.458411E-02 -1.050530E-02  4.053521E-02 -5.173026E-03 -1.383725E-02  1.591512E-02
      3774   7  3.212069E-02 -1.017107E-02  5.752969E-02 -1.655318E-04 -6.082664E-03  1.284756E-03
      3774   8  3.028141E-02 -3.206400E-03  4.443407E-02 -7.249342E-03 -6.802039E-03  1.888380E-03
      3775   1  9.853664E-03 -3.390328E-03  5.297484E-02  4.262366E-03 -1.150411E-02  1.523524E-02
      3775   2  7.183780E-04 -4.180364E-03  2.331392E-02 -1.223587E-03 -1.180253E-02  1.590858E-02
      3775   3  1.374947E-02  3.213007E-03  5.612458E-02  3.380625E-03  1.324411E-03  7.614552E-04
      3775   4  4.159730E-03  1.362581E-03  2.600921E-02 -1.659634E-03  1.025986E-03  1.095547E-03
      3775   5  1.168596E-02 -1.252994E-02  2.067718E-02  8.974123E-05 -1.129178E-02  1.661668E-02
      3775   6  2.143570E-03 -1.372708E-02 -9.933653E-03 -5.396212E-03 -1.123365E-02  1.704765E-02
      3775   7  1.402183E-02 -6.595146E-03  2.315838E-02 -4.890319E-04  1.875996E-03  2.142892E-03
      3775   8  4.024990E-03 -8.852676E-03 -7.906906E-03 -5.529291E-03  1.934127E-03  2.234609E-03
      3776   1 -2.538160E-03 -5.082093E-04  8.712269E-02  7.478487E-03 -1.409933E-02  1.191283E-02
      3776   2 -6.803335E-03 -3.148208E-03  7.554543E-02  4.527827E-03 -1.671416E-02  1.362852E-02
      3776   3  1.533042E-02  1.939488E-02  9.845419E-02  6.427070E-03 -9.529283E-03  5.264085E-03
      3776   4  9.755831E-03  1.369958E-02  8.556752E-02  3.874767E-03 -1.214412E-02  6.960808E-03
      3776   5 -1.893457E-04 -4.060714E-03  7.293219E-02  6.665898E-03 -1.151345E-02  1.534146E-02
      3776   6 -4.477284E-03 -6.723475E-03  6.130182E-02  3.715239E-03 -1.380960E-02  1.635880E-02
      3776   7  1.628499E-02  1.524484E-02  8.366616E-02  6.487427E-03 -6.924431E-03  8.692720E-03
      3776   8  1.068764E-02  9.526774E-03  7.072637E-02  3.935123E-03 -9.220579E-03  9.691087E-03
      3777   1  1.244652E-02  4.274792E-04  7.706371E-02  1.832307E-02 -2.604482E-02  1.465799E-02
      3777   2  4.127232E-03 -1.509615E-02  6.485639E-02  1.135462E-02 -2.873425E-02  1.575486E-02
      3777   3  2.844585E-02  1.534739E-02  8.633948E-02  1.652140E-02 -2.361480E-02  7.741168E-03
      3777   4  1.901492E-02 -2.770054E-03  7.302053E-02  9.298777E-03 -2.630422E-02  8.176428E-03
      3777   5  2.853591E-02  2.579969E-03  6.814928E-02  2.192524E-02 -2.151812E-02  1.691565E-02
      3777   6  1.942269E-02 -1.373760E-02  5.408945E-02  1.495679E-02 -2.441088E-02  1.741965E-02
      3777   7  4.542486E-02  1.788115E-02  7.780632E-02  2.086467E-02 -1.842648E-02  9.998825E-03
      3777   8  3.520000E-02 -1.030233E-03  6.263485E-02  1.364204E-02 -2.131924E-02  9.841213E-03
      3778   1  2.202548E-02 -1.227575E-02  6.692932E-02  1.250609E-02 -3.095390E-02  1.695618E-02
      3778   2  1.881717E-02 -1.494372E-02  5.890294E-02  3.897684E-03 -3.343060E-02  1.914135E-02
      3778   3  3.570939E-02 -9.857795E-04  7.442149E-02  8.907070E-03 -2.794260E-02  8.789209E-03
      3778   4  3.286656E-02 -2.800983E-03  6.676057E-02 -4.711985E-04 -3.041930E-02  1.002810E-02
      3778   5  4.235453E-02 -9.163507E-03  5.697442E-02  1.223592E-02 -2.708401E-02  1.847530E-02
      3778   6  3.801069E-02 -1.296701E-02  4.629844E-02  3.627514E-03 -3.017660E-02  2.085539E-02
      3778   7  5.873297E-02  3.281263E-03  6.562139E-02  8.393254E-03 -2.312643E-02  1.030833E-02
      3778   8  5.475459E-02  3.305159E-04  5.531087E-02 -9.850145E-04 -2.621902E-02  1.174214E-02
      3779   1  1.287811E-02 -1.423310E-02  5.100749E-02  2.203988E-03 -2.933562E-02  2.068329E-02
      3779   2  1.377581E-02 -3.660027E-03  4.342674E-02 -5.074079E-03 -3.066263E-02  2.271078E-02
      3779   3  2.247842E-02 -2.890773E-03  5.729027E-02 -1.736587E-03 -2.403660E-02  1.084743E-02
      3779   4  2.459750E-02  1.053220E-02  5.093092E-02 -9.457376E-03 -2.536360E-02  1.184700E-02
      3779   5  2.654831E-02 -1.511903E-02  3.438418E-02 -2.633698E-03 -2.697672E-02  2.270710E-02
      3779   6  2.621252E-02 -5.779453E-03  2.392529E-02 -9.911764E-03 -2.865790E-02  2.538600E-02
      3779   7  3.769815E-02 -3.112620E-03  4.133105E-02 -7.388529E-03 -2.064978E-02  1.287125E-02
      3779   8  3.858374E-02  9.076855E-03  3.209354E-02 -1.510932E-02 -2.233097E-02  1.452222E-02
      3780   1  5.049007E-03 -2.328576E-03  3.014301E-02  2.399837E-03 -1.788644E-02  2.379828E-02
      3780   2 -7.829563E-04 -1.160707E-03  9.535264E-03 -2.209304E-03 -1.822394E-02  2.474191E-02
      3780   3  1.160039E-02  1.014550E-02  3.585065E-02  6.020153E-04 -8.651577E-03  1.230172E-02
      3780   4  4.707660E-03  8.838235E-03  1.418213E-02 -3.274985E-03 -8.989076E-03  1.254446E-02
      3780   5  7.385134E-03 -9.210732E-03  4.866366E-03 -1.100080E-03 -1.669675E-02  2.650485E-02
      3780   6  7.121043E-04 -8.883928E-03 -1.770387E-02 -5.709221E-03 -1.644853E-02  2.688274E-02
      3780   7  1.137403E-02  2.165131E-03  9.475794E-03 -2.190720E-03 -6.760993E-03  1.500830E-02
      3780   8  3.640229E-03  1.680215E-05 -1.415521E-02 -6.067721E-03 -6.512780E-03  1.468529E-02
      3781   1 -2.646615E-03  7.690406E-04  3.392166E-02  5.653037E-03 -1.409726E-02  6.192663E-03
      3781   2 -4.387614E-03 -2.056807E-03  3.094417E-02  3.267152E-03 -1.734202E-02  9.133595E-03
      3781   3  1.477786E-02  1.438645E-02  4.323422E-02  4.589754E-03 -1.332446E-02  8.722670E-04
      3781   4  1.237072E-02  1.000629E-02  3.959060E-02  2.260179E-03 -1.656922E-02  4.367130E-03
      3781   5 -6.804943E-04 -2.036608E-03  2.260337E-02  6.195461E-03 -1.064931E-02  7.914600E-03
      3781   6 -1.756776E-03 -4.197738E-03  2.117690E-02  3.809577E-03 -1.384903E-02  1.050026E-02
      3781   7  1.654690E-02  1.149633E-02  3.183147E-02  5.576268E-03 -1.043044E-02  2.594204E-03
      3781   8  1.480448E-02  7.780891E-03  2.973886E-02  3.246692E-03 -1.363016E-02  5.733795E-03
      3782   1  1.730869E-02  1.077986E-03  3.657184E-02  1.487682E-02 -3.003201E-02  1.081644E-02
      3782   2  8.199149E-03 -1.758573E-02  2.487042E-02  7.436063E-03 -3.412981E-02  1.247313E-02
      3782   3  3.731139E-02  1.360262E-02  4.633004E-02  1.218540E-02 -2.841209E-02  6.365055E-03
      3782   4  2.753564E-02 -6.615569E-03  3.396241E-02  4.402874E-03 -3.250989E-02  8.328625E-03
      3782   5  3.800969E-02  6.897464E-03  3.526910E-02  1.965391E-02 -2.407440E-02  1.192301E-02
      3782   6  2.926841E-02 -1.139799E-02  2.442696E-02  1.221315E-02 -2.844561E-02  1.322439E-02
      3782   7  5.920858E-02  1.993476E-02  4.553996E-02  1.740663E-02 -2.276135E-02  7.471630E-03
      3782   8  4.980110E-02  8.482681E-05  3.403161E-02  9.624097E-03 -2.713257E-02  9.079890E-03
      3783   1  2.451216E-02 -1.567203E-02  2.759588E-02  5.654918E-03 -3.635792E-02  1.399759E-02
      3783   2  2.331284E-02 -1.529865E-02  2.322477E-02 -4.351331E-03 -3.998111E-02  1.650583E-02
      3783   3  4.180344E-02 -5.518996E-03  3.582918E-02  3.688932E-04 -3.437555E-02  9.739314E-03
      3783   4  4.135552E-02 -3.392344E-03  3.220947E-02 -1.058317E-02 -3.799874E-02  1.162982E-02
      3783   5  5.442410E-02 -5.772592E-03  3.068208E-02  4.868567E-03 -3.047706E-02  1.476549E-02
      3783   6  5.248350E-02 -6.140484E-03  2.458132E-02 -5.137682E-03 -3.485690E-02  1.767447E-02
      3783   7  7.502572E-02  5.799164E-03  4.033409E-02 -9.183913E-04 -2.787696E-02  1.050721E-02
      3783   8  7.383653E-02  7.184539E-03  3.498474E-02 -1.187045E-02 -3.225680E-02  1.279846E-02
      3784   1  9.375935E-03 -1.523259E-02  1.503708E-02 -5.204842E-03 -3.273266E-02  1.800833E-02
      3784   2  1.479469E-02  2.701249E-03  1.516575E-02 -1.344492E-02 -3.415958E-02  1.960499E-02
      3784   3  1.854630E-02 -5.726088E-03  2.064014E-02 -1.073972E-02 -2.942636E-02  1.246033E-02
      3784   4  2.522547E-02  1.514873E-02  2.202923E-02 -1.995580E-02 -3.085328E-02  1.283883E-02
      3784   5  3.155862E-02 -9.530065E-03  1.186282E-02 -1.146239E-02 -2.837995E-02  1.956970E-02
      3784   6  3.551558E-02  6.941977E-03  8.580620E-03 -1.970247E-02 -3.058768E-02  2.183859E-02
      3784   7  4.414501E-02  1.440449E-03  1.892989E-02 -1.783754E-02 -2.385548E-02  1.402171E-02
      3784   8  4.936238E-02  2.085346E-02  1.690811E-02 -2.705362E-02 -2.606321E-02  1.507243E-02
      3785   1  1.468689E-03  4.042255E-03  6.689320E-03 -7.666007E-04 -1.600797E-02  1.985324E-02
      3785   2  7.797510E-04  7.402304E-03  1.032811E-03 -4.326757E-03 -1.604679E-02  1.893480E-02
      3785   3  5.523789E-03  1.318063E-02  1.064736E-02 -2.707908E-03 -1.290324E-02  1.223608E-02
      3785   4  2.747308E-03  1.166975E-02  2.903311E-03 -6.134569E-03 -1.294206E-02  1.021083E-02
      3785   5  4.788643E-03  2.418962E-04 -9.298496E-03 -2.791094E-03 -1.407003E-02  2.192538E-02
      3785   6  2.771532E-03  2.273773E-03 -1.805408E-02 -6.351250E-03 -1.400205E-02  1.989358E-02
      3785   7  8.376512E-03  9.180032E-03 -5.540695E-03 -3.340705E-03 -9.858484E-03  1.430821E-02
      3785   8  4.271858E-03  6.340973E-03 -1.638382E-02 -6.767367E-03 -9.790511E-03  1.116961E-02
      3786   1  5.226809E-03  2.679487E-03  5.785362E-03  4.464912E-03 -5.287157E-03  1.185651E-03
      3786   2  2.951970E-03 -2.171527E-03  3.053579E-03  2.042024E-03 -6.410058E-03  3.210679E-03
      3786   3  1.068270E-02  6.052383E-03  8.433997E-03  5.187118E-03 -5.001567E-03 -2.541703E-03
      3786   4  7.838118E-03 -1.280236E-04  5.132475E-03  2.452986E-03 -6.124468E-03 -1.352139E-04
      3786   5  9.234092E-03  1.840994E-03 -1.016898E-03  5.752999E-03 -3.119339E-03  1.475356E-03
      3786   6  7.417007E-03 -2.552266E-03 -2.680588E-03  3.330111E-03 -4.491235E-03  3.196522E-03
      3786   7  1.577933E-02  5.680756E-03  2.098603E-03  6.855032E-03 -3.215211E-03 -2.251999E-03
      3786   8  1.339251E-02 -4.189730E-05 -1.348276E-04  4.120900E-03 -4.587107E-03 -1.493707E-04
      3787   1  3.160750E-02  2.293685E-03  1.180635E-02  1.051400E-02 -1.628217E-02  4.213586E-03
      3787   2  2.136630E-02 -1.957228E-02 -4.649992E-04  2.253306E-03 -1.894800E-02  4.928552E-03
      3787   3  4.239252E-02  5.243505E-03  1.592681E-02  8.639041E-03 -1.501332E-02  1.267420E-03
      3787   4  3.039491E-02 -2.072077E-02  1.899038E-03 -5.862340E-04 -1.767915E-02  2.692997E-03
      3787   5  5.698451E-02  1.114932E-02  1.594813E-02  1.632638E-02 -1.197172E-02  3.745332E-03
      3787   6  4.759605E-02 -9.863908E-03  5.666484E-03  8.065690E-03 -1.540922E-02  3.523542E-03
      3787   7  7.114559E-02  1.554602E-02  2.151546E-02  1.562237E-02 -1.141349E-02  7.991658E-04
      3787   8  6.000071E-02 -9.565517E-03  9.477399E-03  6.397095E-03 -1.485099E-02  1.287987E-03
      3788   1  3.821729E-02 -1.739637E-02  3.514677E-03 -4.478380E-03 -2.057822E-02  5.823277E-03
      3788   2  3.931397E-02 -1.323527E-02  3.009158E-03 -1.630730E-02 -2.508511E-02  7.552749E-03
      3788   3  5.475004E-02 -1.637743E-02  8.780183E-03 -1.243535E-02 -1.957685E-02  3.572207E-03
      3788   4  5.609905E-02 -1.162753E-02  8.527006E-03 -2.571408E-02 -2.408374E-02  4.548675E-03
      3788   5  7.691723E-02 -2.354273E-03  1.495506E-02 -6.010595E-03 -1.537397E-02  4.124652E-03
      3788   6  7.711030E-02  9.032288E-04  1.234113E-02 -1.783952E-02 -2.104072E-02  5.988705E-03
      3788   7  9.852432E-02  8.393864E-04  2.239528E-02 -1.413579E-02 -1.361960E-02  1.873581E-03
      3788   8  9.896973E-02  4.685685E-03  2.003370E-02 -2.741453E-02 -1.928634E-02  2.984632E-03
      3789   1  1.361667E-02 -1.473321E-02 -6.723684E-03 -1.675239E-02 -1.712372E-02  8.661168E-03
      3789   2  2.443093E-02  1.220633E-02  2.384332E-03 -2.670310E-02 -2.072516E-02  9.959955E-03
      3789   3  2.751862E-02 -1.230731E-02 -1.825325E-03 -2.764445E-02 -1.605731E-02  4.824851E-03
      3789   4  4.102636E-02  2.091699E-02  9.976158E-03 -3.862618E-02 -1.965875E-02  4.602909E-03
      3789   5  4.384056E-02 -4.410732E-03 -2.539310E-03 -2.481503E-02 -1.291329E-02  7.672187E-03
      3789   6  5.282996E-02  2.070394E-02  2.310666E-03 -3.476574E-02 -1.733955E-02  1.040749E-02
      3789   7  6.135109E-02 -4.382982E-04  3.905578E-03 -3.750273E-02 -1.032616E-02  3.835870E-03
      3789   8  7.303395E-02  3.096113E-02  1.144902E-02 -4.848446E-02 -1.475241E-02  5.050444E-03
      3790   1  1.424050E-03  1.092490E-02 -4.803694E-03 -5.475967E-03 -4.817424E-03  9.688316E-03
      3790   2  3.023036E-03  1.274269E-02 -1.291522E-03 -8.775977E-03 -5.797695E-03  7.647397E-03
      3790   3  7.516734E-03  1.697224E-02 -1.161688E-03 -1.109714E-02 -6.013165E-03  3.620139E-03
      3790   4  9.058333E-03  1.865612E-02  2.293097E-03 -1.418463E-02 -6.993436E-03  1.157103E-03
      3790   5  5.692273E-03  8.593107E-03 -1.684457E-02 -5.585365E-03 -3.612977E-03  1.065045E-02
      3790   6  6.784719E-03  9.904349E-03 -1.451433E-02 -8.885375E-03 -4.423229E-03  8.578922E-03
      3790   7  1.104112E-02  1.432166E-02 -1.352135E-02 -1.116828E-02 -4.386601E-03  4.582272E-03
      3790   8  1.207618E-02  1.549900E-02 -1.124850E-02 -1.425577E-02 -5.196853E-03  2.088628E-03
      3791   1 -3.453624E-02 -4.418685E-01 -1.266934E-01  7.704786E-02  2.087453E-02  2.102838E-01
      3791   2  4.411811E-02 -1.907236E-01 -1.156572E-01  2.211358E-02  5.407619E-02  9.083145E-02
      3791   3  1.239945E-01  2.047169E-01  1.148414E-01  9.632674E-02  6.313584E-02  1.835376E-01
      3791   4  2.651994E-04 -1.636655E-02 -7.650593E-02  9.440956E-02  9.633750E-02  3.549846E-02
      3791   5  1.256383E-01 -3.915625E-01 -1.191814E-01 -9.197426E-03 -5.346521E-02  3.723040E-01
      3791   6  1.699885E-01 -1.747217E-01 -1.881881E-01 -6.413170E-02  2.215013E-02  1.449138E-01
      3791   7  9.860913E-02  1.754973E-01  4.282781E-02  1.450039E-01  1.738288E-02  3.455578E-01
      3791   8 -5.942427E-02 -7.989037E-02 -2.285625E-01  1.430867E-01  9.299822E-02  8.958078E-02
      3792   1  1.944269E-01 -1.705172E-02 -8.105370E-02  6.223612E-02  6.099425E-02  3.330063E-03
      3792   2  2.034201E-01  6.785352E-02 -1.359817E-01  6.636326E-02  5.373181E-02 -1.162758E-01
      3792   3  1.809389E-01 -1.090441E-01 -1.126978E-01  1.530569E-01  1.009450E-01 -6.377663E-02
      3792   4 -8.382050E-03 -4.868717E-01 -3.659399E-01  1.510683E-01  9.368255E-02 -1.869621E-01
      3792   5  9.945391E-02 -1.037705E-01 -2.751431E-01  2.428008E-02  4.186924E-02 -2.080924E-02
      3792   6  1.041516E-01 -2.316070E-02 -3.400940E-01  2.840722E-02  2.971419E-02 -2.461827E-01
      3792   7  1.073710E-01 -1.865892E-01 -2.976136E-01  2.473103E-01  8.539955E-02 -8.791593E-02
      3792   8 -8.624538E-02 -5.687123E-01 -5.608785E-01  2.453217E-01  7.324450E-02 -3.168689E-01
      3793   1  2.980385E-01  1.171377E-01 -1.021891E-01 -1.345125E-03  2.326929E-02 -1.520173E-01
      3793   2  2.912247E-01  5.702642E-02 -6.479077E-02 -2.972325E-02  6.406538E-03 -1.300590E-01
      3793   3  7.817235E-02 -5.364064E-01 -3.642122E-01 -5.646984E-02 -4.363348E-03 -2.205249E-01
      3793   4  1.328912E-01 -4.529412E-01 -2.652811E-01 -7.081849E-02 -2.122610E-02 -1.890348E-01
      3793   5  3.151529E-01  7.749572E-02 -2.514432E-01  2.530356E-02 -2.581417E-02 -3.086257E-01
      3793   6  3.197771E-01  2.882262E-02 -1.873559E-01 -3.074559E-03 -3.145334E-02 -2.538499E-01
      3793   7  4.618349E-02 -5.970925E-01 -5.345105E-01 -7.084299E-02 -6.297859E-02 -3.771333E-01
      3793   8  1.123405E-01 -5.021892E-01 -4.088904E-01 -8.519164E-02 -6.861776E-02 -3.128257E-01
      3794   1  1.273810E-01 -3.494248E-02 -6.412512E-02 -1.177381E-01 -1.693627E-02 -8.151512E-02
      3794   2  1.884060E-01 -1.102041E-02  1.153696E-01 -1.390782E-01 -9.488694E-03  2.915091E-02
      3794   3 -4.804333E-02 -3.822027E-01 -2.209305E-01 -2.414263E-01 -9.097983E-02 -1.293384E-01
      3794   4  1.953304E-01  6.719964E-02  1.409130E-01 -2.189982E-01 -8.353226E-02  2.265275E-03
      3794   5  1.446834E-01 -6.032022E-02 -1.660201E-01 -9.918659E-02 -4.358083E-02 -1.576971E-01
      3794   6  2.308336E-01 -1.127302E-02  7.210000E-02 -1.205267E-01 -1.118708E-03  5.022159E-02
      3794   7 -1.839295E-01 -4.732327E-01 -3.884777E-01 -3.444406E-01 -1.385620E-01 -2.055203E-01
      3794   8  8.456936E-02  1.294749E-03  3.199106E-02 -3.220125E-01 -9.609988E-02  2.333596E-02
      3795   1 -3.052090E-02 -1.428413E-01  1.167963E-01 -6.596711E-02 -7.839053E-03  1.058610E-01
      3795   2 -2.837219E-02 -2.434932E-01  2.246106E-01 -8.643464E-02  2.401091E-02  2.047710E-01
      3795   3 -1.034001E-02  1.696639E-01  2.166021E-01 -1.089341E-01 -7.388006E-02  9.630954E-02
      3795   4  1.373524E-01  4.086140E-01  4.699601E-01 -8.382821E-02 -4.203009E-02  2.216396E-01
      3795   5  2.965363E-02 -1.236018E-01  1.207534E-01 -1.456679E-02  3.504665E-02  1.909408E-01
      3795   6  6.350649E-02 -1.925496E-01  3.025440E-01 -3.503431E-02  1.033553E-01  3.674740E-01
      3795   7 -1.096723E-01  1.205433E-01  1.521991E-01 -1.545629E-01 -5.741448E-02  1.813893E-01
      3795   8  6.972426E-02  3.911975E-01  4.795335E-01 -1.294570E-01  1.089419E-02  3.843427E-01
      3796   1  1.232554E-01  5.552031E-01  2.743399E-02  1.149811E-01  7.296581E-02  2.969884E-01
      3796   2 -3.573222E-02  1.295675E-01 -7.688931E-02  1.443409E-01  1.067310E-01  1.232174E-01
      3796   3  2.658555E-01  1.169313E+00  2.544471E-01  1.466667E-01  3.880058E-02  3.154196E-01
      3796   4 -3.763774E-02  4.064980E-01  5.618194E-03  2.084599E-01  7.256579E-02  1.347011E-01
      3796   5  4.261341E-02  5.332807E-01  3.500159E-02  2.483050E-01  3.741928E-02  4.518273E-01
      3796   6 -1.247113E-01  9.930814E-02 -8.877475E-02  2.776649E-01  9.713116E-02  2.009866E-01
      3796   7  7.169682E-02  1.098741E+00  2.133647E-01  3.763278E-01  1.020157E-02  4.702585E-01
      3796   8 -2.401335E-01  3.275887E-01 -5.491725E-02  4.381209E-01  6.991344E-02  2.124703E-01
      3797   1  2.309701E-01 -6.375841E-02 -1.801113E-03  2.197863E-01  1.145319E-01  7.195591E-03
      3797   2  7.279743E-03 -6.425799E-01 -1.686140E-01  2.244560E-01  1.191241E-01 -1.360108E-01
      3797   3  2.514233E-01  2.223429E-02  3.013268E-02  3.112737E-01  7.898346E-02  1.434488E-02
      3797   4 -1.153728E-01 -8.905008E-01 -2.797860E-01  3.402500E-01  8.357567E-02 -1.337558E-01
      3797   5  2.232053E-01 -6.218379E-02  1.121238E-02  3.973520E-01  8.570198E-02  2.881915E-02
      3797   6 -6.358145E-03 -6.468784E-01 -1.693044E-01  4.020216E-01  1.097395E-01 -1.907104E-01
      3797   7  1.585854E-01 -1.265101E-02  6.686253E-03  5.842432E-01  5.504785E-02  3.596845E-02
      3797   8 -2.140838E-01 -9.312592E-01 -3.169364E-01  6.132195E-01  7.908534E-02 -1.884554E-01
      3798   1  1.229614E-01 -7.315432E-01 -1.248959E-01 -8.130883E-02  1.217986E-02 -1.798714E-01
      3798   2  1.873300E-01 -5.995038E-01 -4.237316E-02 -8.204989E-02  2.533120E-03 -1.564944E-01
      3798   3  1.689462E-02 -1.059422E+00 -2.550796E-01 -9.404547E-02  8.335221E-04 -1.766293E-01
      3798   4  9.948813E-02 -8.848578E-01 -1.543319E-01 -7.163943E-02 -8.813216E-03 -1.456611E-01
      3798   5  1.294457E-01 -7.265410E-01 -1.147063E-01 -1.151442E-01 -3.317289E-02 -2.589494E-01
      3798   6  2.029237E-01 -5.853923E-01 -1.092831E-02 -1.158853E-01 -2.430194E-02 -2.258525E-01
      3798   7 -5.763596E-02 -1.089140E+00 -2.796106E-01 -1.400307E-01 -5.211038E-02 -2.557073E-01
      3798   8  3.406694E-02 -9.054669E-01 -1.576077E-01 -1.176247E-01 -4.323943E-02 -2.150192E-01
      3799   1 -5.075279E-02 -4.807860E-01 -7.596793E-02 -3.203106E-01 -7.466279E-02 -9.538208E-02
      3799   2  2.039546E-01  1.270309E-01  1.652397E-01 -2.703895E-01 -6.813634E-02  4.820289E-02
      3799   3 -1.591152E-01 -6.792446E-01 -1.680142E-01 -4.121386E-01 -6.622546E-02 -7.782026E-02
      3799   4  2.146178E-01  2.062989E-01  1.922191E-01 -3.308732E-01 -5.969902E-02  7.655620E-02
      3799   5 -2.044025E-01 -5.345935E-01 -1.016765E-01 -4.968654E-01 -1.080027E-01 -1.379470E-01
      3799   6  6.325460E-02  8.617316E-02  1.697473E-01 -4.469443E-01 -7.640094E-02  6.911834E-02
      3799   7 -4.224696E-01 -7.800684E-01 -2.407391E-01 -6.680438E-01 -1.103569E-01 -1.203852E-01
      3799   8 -3.578683E-02  1.184249E-01  1.497104E-01 -5.867784E-01 -7.875510E-02  9.747165E-02
      3800   1 -6.250339E-02  3.044526E-01  1.229421E-01 -1.397708E-01 -5.804409E-02  1.521077E-01
      3800   2  8.386748E-02  6.652417E-01  2.500559E-01 -8.898226E-02 -3.567167E-02  2.923959E-01
      3800   3 -3.850216E-02  5.468924E-01  2.028744E-01 -1.810514E-01 -4.600844E-02  1.849125E-01
      3800   4  2.146856E-01  1.156921E+00  4.368051E-01 -1.056698E-01 -2.363601E-02  3.265710E-01
      3800   5 -2.008975E-01  2.676356E-01  1.386128E-01 -2.469799E-01 -4.561532E-02  2.171107E-01
      3800   6 -5.288226E-02  6.300691E-01  2.695636E-01 -1.961914E-01 -3.568482E-03  4.143679E-01
      3800   7 -2.629719E-01  4.731858E-01  1.816556E-01 -3.594718E-01 -3.494999E-02  2.499155E-01
      3800   8 -8.139679E-03  1.084859E+00  4.194232E-01 -2.840902E-01  7.096849E-03  4.485430E-01
      3801   1  2.218763E-01  1.416290E+00  6.854290E-02  1.520150E-01  4.442417E-02  2.122130E-01
      3801   2 -7.609835E-02  5.648469E-01 -7.326267E-02  2.292533E-01  6.303113E-02  1.161479E-01
      3801   3  3.481304E-01  1.865941E+00  2.413143E-01  1.349410E-01 -5.318152E-02  1.433912E-01
      3801   4  1.751283E-03  9.015540E-01  5.110435E-02  2.219427E-01 -3.457456E-02  1.064157E-01
      3801   5 -1.310438E-01  1.217847E+00 -2.400155E-01  4.287493E-01  2.330033E-02  3.229647E-01
      3801   6 -3.581110E-01  4.373108E-01 -2.163704E-01  5.059876E-01  4.971802E-02  2.010840E-01
      3801   7 -3.896169E-02  1.652852E+00 -8.188921E-02  4.439450E-01 -1.333949E-01  2.541430E-01
      3801   8 -3.144333E-01  7.593728E-01 -1.066485E-01  5.309467E-01 -1.069772E-01  1.913517E-01
      3802   1  2.764497E-01  1.338712E-01  4.063597E-02  3.553713E-01  6.898821E-02  5.271030E-02
      3802   2 -1.088239E-01 -8.977449E-01 -2.119934E-01  4.047765E-01  7.416048E-02 -2.453953E-02
      3802   3  3.724367E-01  4.009429E-01  1.495536E-01  3.843610E-01 -1.391445E-02  8.335602E-02
      3802   4 -7.546169E-02 -7.767975E-01 -1.657005E-01  4.652722E-01 -8.742184E-03  5.733141E-02
      3802   5  1.403066E-01  9.653832E-02  5.233627E-02  6.785426E-01  3.198875E-02  1.159719E-01
      3802   6 -1.834968E-01 -8.736075E-01 -5.686250E-02  7.279477E-01  6.236582E-02  5.322273E-03
      3802   7  1.260225E-01  3.163510E-01  1.139948E-01  7.492820E-01 -1.021391E-01  1.466177E-01
      3802   8 -2.604056E-01 -7.999191E-01 -5.782864E-02  8.301932E-01 -7.176206E-02  8.719321E-02
      3803   1  5.616484E-02 -1.095136E+00 -1.523114E-01 -8.712556E-02  2.897987E-02 -4.855445E-02
      3803   2  1.334689E-01 -9.279705E-01 -6.179635E-02 -4.481099E-02  2.252520E-02 -3.691463E-02
      3803   3  1.092199E-01 -1.025130E+00 -1.153930E-01 -5.548335E-02  2.072305E-02  5.132936E-02
      3803   4  1.639771E-01 -9.105738E-01 -4.742490E-02  1.807518E-02  1.426838E-02  6.095605E-02
      3803   5  2.792444E-02 -1.038747E+00  6.389147E-02 -1.320562E-01 -1.187271E-02 -3.531931E-02
      3803   6  1.028128E-01 -8.739975E-01  1.487697E-01 -8.974160E-02  6.667799E-03 -3.570453E-02
      3803   7 -2.837438E-02 -1.015607E+00  5.394391E-02 -8.538266E-02 -1.811639E-02  6.456450E-02
      3803   8  2.396701E-02 -9.034668E-01  1.162752E-01 -1.182413E-02  4.241161E-04  6.216615E-02
      3804   1 -1.503208E-01 -7.105216E-01 -1.196159E-01 -4.399337E-01 -8.106705E-03 -5.539815E-03
      3804   2  2.168815E-01  2.391808E-01  1.546894E-01 -3.417842E-01 -1.770818E-02  6.853794E-02
      3804   3 -1.048473E-01 -6.844291E-01 -9.814607E-02 -4.240434E-01  4.995393E-02  7.538755E-02
      3804   4  2.881751E-01  3.255203E-01  2.019794E-01 -3.111097E-01  4.035245E-02  1.051885E-01
      3804   5 -3.967312E-01 -7.606330E-01 -4.024348E-02 -7.311837E-01 -2.184932E-02 -3.690738E-03
      3804   6 -8.266110E-02  1.359372E-01  1.100866E-01 -6.330342E-01 -1.962342E-02  8.415777E-02
      3804   7 -4.030025E-01 -7.567168E-01 -4.095003E-02 -7.325069E-01  8.048816E-02  7.723663E-02
      3804   8 -6.311226E-02  2.001003E-01  1.352002E-01 -6.195732E-01  8.271406E-02  1.208083E-01
      3805   1 -8.106790E-02  6.062709E-01  7.812293E-02 -1.877531E-01 -1.363909E-02  1.204971E-01
      3805   2  1.540464E-01  1.266476E+00  2.016325E-01 -1.038128E-01 -1.671579E-02  1.883742E-01
      3805   3 -1.677975E-02  7.306374E-01  1.347193E-01 -1.647818E-01  5.611388E-02  1.255801E-01
      3805   4  2.513639E-01  1.467911E+00  2.912582E-01 -8.205185E-02  5.303718E-02  1.514903E-01
      3805   5 -3.687591E-01  4.864602E-01 -3.355485E-02 -4.002983E-01  4.758322E-03  1.476051E-01
      3805   6 -1.840052E-01  1.096305E+00 -2.755299E-02 -3.163580E-01  7.133986E-04  2.330979E-01
      3805   7 -3.002350E-01  6.126421E-01  2.485695E-02 -3.993466E-01  1.164783E-01  1.526882E-01
      3805   8 -8.245181E-02  1.299555E+00  6.388813E-02 -3.166166E-01  1.124334E-01  1.962139E-01
      3806   1  3.501415E-01  1.968193E+00  1.681564E-01  1.889668E-01  6.878089E-02 -4.801712E-02
      3806   2 -1.284131E-02  9.384114E-01 -1.200482E-02  2.751712E-01  5.582051E-02 -2.030964E-02
      3806   3  3.939935E-01  1.962511E+00  1.796075E-01  3.536421E-01 -4.548258E-02 -1.419034E-01
      3806   4 -2.055900E-02  8.124003E-01 -5.212346E-02  4.279045E-01 -5.844296E-02 -4.426809E-02
      3806   5 -6.423714E-02  1.726223E+00 -2.240316E-01  5.223662E-01  1.042027E-01 -5.487028E-02
      3806   6 -3.433065E-01  7.803548E-01 -2.083949E-01  6.085705E-01  8.168876E-02 -5.466664E-02
      3806   7  2.141149E-02  1.738454E+00 -1.946678E-01  7.214212E-01 -7.998866E-02 -1.487566E-01
      3806   8 -3.092276E-01  6.722565E-01 -2.306007E-01  7.956836E-01 -1.025026E-01 -7.862509E-02
      3807   1  4.265141E-01  4.245558E-01  1.294438E-01  4.650332E-01  5.510297E-02 -8.359412E-03
      3807   2 -3.689297E-02 -8.181414E-01 -1.725491E-01  5.454790E-01  5.355032E-03 -3.418244E-03
      3807   3  5.467023E-01  2.904288E-01  1.252622E-01  6.564440E-01 -4.578085E-02  1.511525E-02
      3807   4  4.459889E-02 -1.042560E+00 -2.154271E-01  7.041124E-01 -9.552879E-02  7.971824E-02
      3807   5  1.731234E-01  3.320568E-01  7.450419E-02  8.546783E-01  4.660603E-02 -6.033756E-02
      3807   6 -2.186894E-01 -8.390463E-01 -6.043562E-02  9.351241E-01 -2.936385E-02 -7.603443E-02
      3807   7  4.080326E-01  2.470959E-01  1.194887E-01  1.071887E+00 -1.139396E-01 -3.686290E-02
      3807   8 -2.247653E-02 -1.014299E+00 -5.414743E-02  1.119555E+00 -1.899095E-01  7.102055E-03
      3808   1  1.918054E-01 -1.075300E+00 -1.000517E-01 -2.134405E-02  5.303225E-02  2.635018E-03
      3808   2  2.351881E-01 -9.829622E-01 -4.778051E-02  4.889343E-02 -1.872054E-02  1.423167E-02
      3808   3  3.555248E-01 -1.291228E+00 -1.157142E-01  4.028406E-02  4.747699E-02  1.051944E-01
      3808   4  3.992359E-01 -1.198124E+00 -6.311468E-02  7.020427E-02 -2.427580E-02  1.101936E-01
      3808   5  6.904547E-02 -1.057585E+00  8.175841E-02 -4.582165E-02  4.645490E-02 -7.747112E-02
      3808   6  1.045112E-01 -9.731641E-01  1.155566E-01  2.441583E-02 -5.755170E-02 -6.569934E-02
      3808   7  3.738753E-01 -1.213037E+00  1.265718E-01  1.558755E-02  4.749711E-02  2.508827E-02
      3808   8  4.096694E-01 -1.127850E+00  1.606983E-01  4.550777E-02 -5.650949E-02  3.026257E-02
      3809   1 -6.473945E-02 -7.675948E-01 -1.245061E-01 -4.441869E-01  3.067379E-02  2.008412E-02
      3809   2  3.284896E-01  2.667600E-01  1.519027E-01 -3.351977E-01 -2.106187E-02  2.447666E-02
      3809   3  2.055186E-02 -9.997123E-01 -1.685540E-01 -5.151102E-01  1.036865E-01  9.588551E-02
      3809   4  4.375450E-01  9.009209E-02  1.316189E-01 -4.316819E-01  5.195081E-02  5.179595E-02
      3809   5 -3.552399E-01 -8.401169E-01 -7.574600E-02 -7.647498E-01  3.425310E-02 -5.514372E-02
      3809   6 -2.018935E-02  1.360593E-01  6.491291E-02 -6.557606E-01 -3.793130E-02 -3.807699E-02
      3809   7 -1.804854E-01 -1.033893E+00 -8.145246E-02 -8.515158E-01  1.557479E-01  2.065767E-02
      3809   8  1.783293E-01 -2.267153E-03  8.297055E-02 -7.680875E-01  8.356348E-02 -1.075770E-02
      3810   1 -3.115009E-02  6.688225E-01  4.480191E-02 -1.891538E-01 -1.961460E-02  1.779871E-02
      3810   2  2.411754E-01  1.439255E+00  1.821206E-01 -1.097749E-01 -4.272300E-02 -4.838348E-03
      3810   3 -2.899693E-02  4.812766E-01 -1.081594E-02 -2.787107E-01  6.476461E-02  1.113279E-02
      3810   4  2.696757E-01  1.313186E+00  1.528500E-01 -2.072768E-01  4.165621E-02 -5.587149E-02
      3810   5 -3.169754E-01  5.417551E-01 -9.293102E-02 -4.382075E-01 -3.461875E-02 -3.497254E-02
      3810   6 -9.789058E-02  1.258947E+00 -7.984053E-02 -3.588286E-01 -6.408317E-02 -4.355776E-02
      3810   7 -2.870146E-01  3.661266E-01 -1.366313E-01 -5.453291E-01  9.412767E-02 -4.163846E-02
      3810   8 -4.158265E-02  1.144795E+00 -9.719365E-02 -4.738953E-01  6.466326E-02 -9.459090E-02
      3811   1  1.414992E-02 -1.384141E-01 -5.474134E-02  2.970826E-02  3.074111E-02  9.673358E-02
      3811   2  1.030883E-02 -1.444090E-01 -6.155001E-02  2.642622E-02  3.941381E-02  6.303759E-02
      3811   3  7.915054E-02  8.552657E-02  3.194103E-02  6.245334E-02  3.259585E-02  1.157574E-01
      3811   4  1.834434E-02 -5.338697E-02 -3.183274E-02  6.741097E-02  4.126855E-02  6.014151E-02
      3811   5  4.846558E-02 -1.106625E-01  3.448283E-03  3.078519E-02  4.343755E-02  1.516369E-01
      3811   6  1.832067E-02 -1.429613E-01 -6.473599E-02  2.750315E-02  5.870198E-02  8.755950E-02
      3811   7  8.462738E-02  1.009187E-01  7.777116E-02  1.015070E-01  6.721214E-02  1.706607E-01
      3811   8 -2.482648E-03 -6.429871E-02 -4.737822E-02  1.064646E-01  8.247658E-02  8.466342E-02
      3812   1  1.231543E-01 -1.131476E-01 -2.766080E-02  4.446734E-02  4.651057E-02  3.847760E-02
      3812   2  9.215884E-02 -1.688031E-01 -7.532340E-02  2.690110E-02  4.333568E-02  5.074450E-03
      3812   3  1.429217E-01 -9.348108E-02 -1.583063E-02  9.403045E-02  5.692755E-02  1.999581E-02
      3812   4  5.933248E-02 -2.718554E-01 -1.160870E-01  7.436257E-02  5.375266E-02 -3.406841E-02
      3812   5  1.624580E-01 -1.089764E-01 -5.306046E-02  5.679738E-02  6.223789E-02  4.161214E-02
      3812   6  1.066692E-01 -1.894252E-01 -1.585741E-01  3.923115E-02  5.738168E-02 -1.984103E-02
      3812   7  1.895811E-01 -8.615740E-02 -3.807782E-02  1.414230E-01  9.331594E-02  2.313035E-02
      3812   8  8.119863E-02 -2.893250E-01 -1.961852E-01  1.217551E-01  8.845973E-02 -5.898389E-02
      3813   1  1.453380E-01 -1.533755E-01 -5.284617E-02 -4.487134E-02  3.404378E-02 -8.953708E-03
      3813   2  1.678628E-01 -1.214678E-01 -9.671298E-03 -6.157982E-02  2.517823E-02 -1.387620E-02
      3813   3  1.189516E-01 -2.888234E-01 -1.013964E-01 -3.168124E-02  2.113748E-02 -5.264798E-02
      3813   4  1.436457E-01 -2.518541E-01 -5.605235E-02 -5.946685E-02  1.227194E-02 -4.934408E-02
      3813   5  1.513846E-01 -1.807459E-01 -1.501274E-01 -4.956283E-02  3.930818E-02 -4.371274E-02
      3813   6  1.837811E-01 -1.389665E-01 -8.391865E-02 -6.627131E-02  2.158092E-02 -4.747830E-02
      3813   7  1.637682E-01 -2.995781E-01 -1.820620E-01 -3.781888E-02  1.817549E-02 -8.740701E-02
      3813   8  1.983338E-01 -2.527371E-01 -1.136840E-01 -6.560449E-02  4.482305E-04 -8.294618E-02
      3814   1  6.575765E-02 -1.277111E-01 -7.090920E-03 -1.166230E-01  1.105626E-02 -6.278968E-03
      3814   2  1.357533E-01 -1.747158E-02  1.159884E-01 -1.252371E-01  6.753813E-03  1.939953E-02
      3814   3  4.076852E-02 -2.218728E-01 -4.283617E-02 -1.493905E-01 -2.212102E-02 -2.983917E-02
      3814   4  1.610274E-01  5.647606E-03  1.305063E-01 -1.589802E-01 -2.642346E-02  2.014532E-02
      3814   5  6.763469E-02 -1.430622E-01 -6.013837E-02 -1.367450E-01 -2.296305E-03 -2.964555E-02
      3814   6  1.667975E-01 -3.655518E-03  1.309977E-01 -1.453591E-01 -7.379259E-03  2.284001E-02
      3814   7  4.606028E-02 -2.357605E-01 -9.442016E-02 -2.030213E-01 -5.977957E-02 -5.320575E-02
      3814   8  1.954863E-01  2.092712E-02  1.469791E-01 -2.126110E-01 -6.486252E-02  2.358580E-02
      3815   1 -1.178457E-02 -3.547921E-02  1.122927E-01 -6.693973E-02 -2.920589E-03  4.043427E-02
      3815   2  3.380199E-02  2.736772E-02  2.014010E-01 -6.486831E-02  2.192928E-03  7.222373E-02
      3815   3  1.006145E-02  5.810749E-02  1.469225E-01 -9.886669E-02 -3.012167E-02  5.789260E-02
      3815   4  1.085655E-01  2.444285E-01  2.889483E-01 -8.454106E-02 -2.500815E-02  1.110356E-01
      3815   5  1.915422E-03 -1.763635E-02  1.580689E-01 -7.556992E-02 -1.801234E-02  6.401702E-02
      3815   6  7.312624E-02  7.083483E-02  3.069671E-01 -7.349849E-02 -3.095470E-03  1.240291E-01
      3815   7 -1.912824E-02  5.756905E-02  1.743174E-01 -1.427752E-01 -6.656697E-02  8.147535E-02
      3815   8  1.050001E-01  2.695143E-01  3.761331E-01 -1.284496E-01 -5.165009E-02  1.628410E-01
      3816   1  7.761896E-02  2.287964E-01 -3.168377E-02  8.613077E-02  5.420469E-02  1.963057E-01
      3816   2 -2.069936E-03  9.060396E-03 -7.757749E-02  9.797876E-02  6.690509E-02  1.222802E-01
      3816   3  1.757400E-01  5.635820E-01  9.818823E-02  1.180736E-01  3.308270E-02  1.728915E-01
      3816   4  2.609936E-02  1.806254E-01 -1.765720E-02  1.405068E-01  4.578309E-02  1.102759E-01
      3816   5  8.053996E-03  1.829274E-01 -1.150155E-01  1.561543E-01  7.746344E-02  2.782711E-01
      3816   6 -5.794303E-02 -2.311673E-02 -1.289615E-01  1.680023E-01  9.863196E-02  1.669381E-01
      3816   7  6.912696E-02  5.018353E-01 -1.021191E-03  2.347316E-01  4.493156E-02  2.548569E-01
      3816   8 -6.682179E-02  1.325705E-01 -8.491892E-02  2.571648E-01  6.610008E-02  1.549338E-01
      3817   1  1.601537E-01 -6.415244E-02 -2.024989E-02  1.336125E-01  8.723280E-02  6.762108E-02
      3817   2  6.889947E-02 -3.076432E-01 -8.093979E-02  1.140139E-01  8.220384E-02 -7.685051E-03
      3817   3  2.164469E-01  2.529034E-02  2.347091E-02  1.921894E-01  6.813012E-02  6.467973E-02
      3817   4  6.006623E-02 -3.701622E-01 -1.023455E-01  1.748819E-01  6.310115E-02  2.724125E-03
      3817   5  2.252190E-01 -3.828423E-02  9.121761E-04  2.097307E-01  1.149421E-01  8.590987E-02
      3817   6  1.499854E-01 -2.657544E-01 -2.239627E-02  1.901322E-01  1.117459E-01 -2.413037E-02
      3817   7  2.734935E-01  4.772198E-02  4.119640E-02  3.117253E-01  8.248884E-02  8.296852E-02
      3817   8  1.331335E-01 -3.317099E-01 -4.723850E-02  2.944178E-01  7.929271E-02 -1.372119E-02
      3818   1  1.477923E-01 -3.393621E-01 -4.567791E-02 -2.165489E-02  4.230248E-02 -3.468214E-02
      3818   2  1.683458E-01 -3.052032E-01 -1.132496E-02 -5.428285E-02  2.822998E-02 -3.313345E-02
      3818   3  1.548901E-01 -4.400713E-01 -7.376132E-02 -7.452495E-03  3.367786E-02 -1.940157E-02
      3818   4  1.759998E-01 -4.046147E-01 -3.885221E-02 -4.223285E-02  1.960537E-02 -1.789448E-02
      3818   5  2.803268E-01 -2.720835E-01  4.604964E-02 -2.845757E-02  3.240342E-02 -6.373246E-02
      3818   6  3.008305E-01 -2.379745E-01  8.028609E-02 -6.108553E-02  1.660901E-02 -6.188714E-02
      3818   7  2.949581E-01 -3.695641E-01  2.119483E-02 -1.462596E-02  2.382041E-02 -4.845188E-02
      3818   8  3.160179E-01 -3.341573E-01  5.598745E-02 -4.940632E-02  8.025997E-03 -4.664817E-02
      3819   1  4.545518E-02 -2.658350E-01 -3.039309E-02 -1.742299E-01 -1.325592E-02 -8.757700E-03
      3819   2  1.635181E-01  1.085909E-02  8.645604E-02 -1.825240E-01 -2.084202E-02  5.628938E-02
      3819   3  4.506432E-02 -3.299645E-01 -4.974919E-02 -2.093250E-01 -1.249728E-02  3.350158E-03
      3819   4  2.181223E-01  7.505133E-02  1.220950E-01 -2.131039E-01 -2.008337E-02  5.988449E-02
      3819   5  8.901410E-02 -2.388644E-01  1.595012E-02 -2.535455E-01 -4.927545E-02 -2.666705E-02
      3819   6  1.968618E-01  2.761443E-02  1.089635E-01 -2.618396E-01 -5.324937E-02  6.771071E-02
      3819   7  7.281997E-02 -3.097667E-01 -1.017880E-02 -3.253039E-01 -4.000406E-02 -1.455919E-02
      3819   8  2.356627E-01  8.503383E-02  1.378296E-01 -3.290828E-01 -4.397798E-02  7.130582E-02
      3820   1 -2.117354E-02  8.793414E-02  5.209941E-02 -1.207566E-01 -2.324634E-02  1.048085E-01
      3820   2  8.256069E-02  3.331206E-01  1.526938E-01 -9.845596E-02 -1.849418E-02  1.723180E-01
      3820   3  2.043756E-02  2.246281E-01  1.055909E-01 -1.486341E-01 -2.128391E-02  1.024542E-01
      3820   4  1.811549E-01  6.027750E-01  2.631683E-01 -1.167994E-01 -1.653175E-02  1.622225E-01
      3820   5 -1.020510E-01  5.165802E-02  1.205643E-02 -1.914827E-01 -5.205034E-02  1.380894E-01
      3820   6 -7.606280E-03  2.875549E-01  9.097516E-02 -1.691821E-01 -3.967100E-02  2.359900E-01
      3820   7 -9.380878E-02  1.740510E-01  5.124697E-02 -2.573489E-01 -4.234662E-02  1.357352E-01
      3820   8  5.761896E-02  5.429083E-01  1.871488E-01 -2.255142E-01 -2.996728E-02  2.258944E-01
      3821   1  1.726364E-01  7.005988E-01  2.956087E-02  1.367794E-01  4.043757E-02  1.197887E-01
      3821   2  8.275486E-03  2.521872E-01 -6.989733E-02  1.659648E-01  4.759319E-02  9.145785E-02
      3821   3  2.375273E-01  9.116409E-01  1.123408E-01  1.559415E-01 -1.266474E-04  7.118434E-02
      3821   4  3.916072E-02  3.838829E-01 -2.112305E-02  1.929896E-01  7.028968E-03  6.877779E-02
      3821   5  1.216203E-02  5.984954E-01 -1.503095E-01  2.788047E-01  4.901608E-02  1.710936E-01
      3821   6 -1.210898E-01  1.811929E-01 -1.771797E-01  3.079902E-01  6.246178E-02  1.246264E-01
      3821   7  4.953376E-02  7.977436E-01 -7.932351E-02  3.206372E-01 -1.747240E-02  1.224892E-01
      3821   8 -1.177237E-01  3.010946E-01 -1.401994E-01  3.576853E-01 -4.026704E-03  1.019464E-01
      3822   1  2.375848E-01  7.160871E-02  2.905338E-03  2.323761E-01  6.992675E-02  6.781528E-02
      3822   2  6.617361E-02 -3.857249E-01 -1.111316E-01  2.166414E-01  6.368114E-02  3.155340E-02
      3822   3  3.033535E-01  1.730222E-01  5.306000E-02  2.835911E-01  3.406787E-02  6.220553E-02
      3822   4  1.010701E-01 -3.563464E-01 -9.184913E-02  2.698625E-01  2.782225E-02  4.665632E-02
      3822   5  2.859243E-01  8.847898E-02  1.079999E-02  3.753373E-01  7.915367E-02  8.831883E-02
      3822   6  1.393684E-01 -3.439994E-01 -4.524146E-02  3.596026E-01  7.451291E-02  3.559178E-02
      3822   7  3.446718E-01  1.868834E-01  5.794555E-02  4.471338E-01  2.258211E-02  8.270907E-02
      3822   8  1.672437E-01 -3.176301E-01 -2.896808E-02  4.334052E-01  1.794135E-02  5.069470E-02
      3823   1  1.817396E-01 -4.697795E-01 -6.922415E-02  9.144809E-03  4.801230E-02  1.681215E-02
      3823   2  1.973568E-01 -4.441700E-01 -4.277657E-02 -2.667714E-02  3.316640E-02  1.280021E-02
      3823   3  2.394930E-01 -4.587376E-01 -4.858559E-02  4.028710E-02  4.124327E-02  4.009253E-02
      3823   4  2.456313E-01 -4.552453E-01 -3.161682E-02  3.771863E-03  2.639736E-02  3.770914E-02
      3823   5  3.350529E-01 -3.881101E-01  4.969384E-02  4.148620E-03  4.502601E-02  1.297348E-02
      3823   6  3.526243E-01 -3.605463E-01  8.070137E-02 -3.167333E-02  2.962548E-02  3.906166E-03
      3823   7  3.952327E-01 -3.760283E-01  7.137232E-02  4.161011E-02  3.662842E-02  3.625386E-02
      3823   8  4.033253E-01 -3.705818E-01  9.290104E-02  5.094880E-03  2.122789E-02  2.881510E-02
      3824   1  5.159361E-02 -3.658230E-01 -7.355572E-02 -2.222317E-01  1.228149E-02  2.130625E-02
      3824   2  2.263091E-01  7.485756E-02  6.814859E-02 -2.246866E-01 -6.680222E-04  4.855712E-02
      3824   3  9.347780E-02 -3.760058E-01 -6.404531E-02 -2.223985E-01  3.291346E-02  4.112480E-02
      3824   4  2.828805E-01  9.894486E-02  9.234619E-02 -2.257511E-01  1.996395E-02  5.283993E-02
      3824   5  8.396780E-02 -3.383585E-01 -1.438153E-02 -3.552143E-01  1.038618E-03  1.342895E-02
      3824   6  2.400404E-01  8.367919E-02  8.382271E-02 -3.576691E-01 -1.262910E-02  4.851300E-02
      3824   7  1.289941E-01 -3.471947E-01 -3.524483E-03 -3.651725E-01  3.720632E-02  3.324750E-02
      3824   8  2.997539E-01  1.091131E-01  1.093670E-01 -3.685251E-01  2.353861E-02  5.279581E-02
      3825   1 -3.994345E-03  2.373377E-01  1.143074E-02 -1.603256E-01 -4.488590E-03  6.946903E-02
      3825   2  1.557809E-01  6.535716E-01  1.277810E-01 -1.243205E-01 -9.243497E-03  9.935054E-02
      3825   3  3.051607E-02  2.782377E-01  3.405389E-02 -1.643902E-01  2.265205E-02  6.076339E-02
      3825   4  2.132803E-01  7.481126E-01  1.733931E-01 -1.265252E-01  1.789714E-02  7.069554E-02
      3825   5 -1.404590E-01  1.728833E-01 -6.695269E-02 -2.885550E-01 -1.611679E-02  7.677980E-02
      3825   6 -4.622954E-03  5.651779E-01 -6.460689E-03 -2.525499E-01 -1.938373E-02  1.189221E-01
      3825   7 -1.124584E-01  2.109934E-01 -4.711948E-02 -3.079455E-01  3.097321E-02  6.807416E-02
      3825   8  4.636658E-02  6.569290E-01  3.636149E-02 -2.700805E-01  2.770627E-02  9.026710E-02
      3826   1  2.501324E-01  9.858677E-01  9.612112E-02  1.942238E-01  2.914695E-02 -5.067507E-03
      3826   2  3.794206E-02  4.197156E-01 -4.502779E-02  2.320261E-01  2.602390E-02  1.908325E-02
      3826   3  2.863032E-01  1.044241E+00  1.244844E-01  2.796508E-01 -1.525392E-02 -6.883556E-02
      3826   4  5.777307E-02  4.399625E-01 -3.300441E-02  3.116511E-01 -1.837698E-02 -1.227894E-02
      3826   5  4.130250E-02  8.526425E-01 -1.391329E-01  3.712047E-01  4.866978E-02  6.936501E-03
      3826   6 -1.320008E-01  3.253775E-01 -1.895454E-01  4.090070E-01  4.090516E-02  2.237266E-02
      3826   7  9.778023E-02  9.197187E-01 -1.020668E-01  4.675249E-01 -2.813696E-02 -5.683155E-02
      3826   8 -9.186289E-02  3.543273E-01 -1.688191E-01  4.995253E-01 -3.590158E-02 -8.989520E-03
      3827   1  3.445927E-01  1.989580E-01  4.590251E-02  3.428021E-01  4.581492E-02  2.535826E-02
      3827   2  1.235383E-01 -3.827380E-01 -1.092494E-01  3.242933E-01  2.212924E-02  1.835115E-02
      3827   3  4.345372E-01  2.114479E-01  7.663283E-02  4.533546E-01  4.625899E-03  1.600121E-02
      3827   4  1.755970E-01 -4.586485E-01 -1.164050E-01  4.197799E-01 -1.905978E-02  3.670739E-02
      3827   5  3.981451E-01  2.154928E-01  4.746601E-02  5.231229E-01  5.489099E-02  1.806207E-02
      3827   6  2.103467E-01 -3.329473E-01 -3.008872E-02  5.046141E-01  1.915256E-02 -9.150839E-03
      3827   7  5.408204E-01  2.505815E-01  1.007952E-01  6.589327E-01 -1.401132E-02  8.705029E-03
      3827   8  3.151361E-01 -3.862589E-01 -1.464541E-02  6.253579E-01 -4.974975E-02  9.205401E-03
      3828   1  2.873656E-01 -4.949695E-01 -5.716875E-02  6.938603E-02  4.437087E-02  1.517687E-02
      3828   2  2.871207E-01 -5.065603E-01 -4.639413E-02  2.483047E-02  7.671700E-03  1.351166E-02
      3828   3  3.794356E-01 -5.859659E-01 -5.684665E-02  1.177435E-01  3.748371E-02  4.396705E-02
      3828   4  3.708432E-01 -6.170342E-01 -5.441958E-02  5.191464E-02  7.845416E-04  4.309462E-02
      3828   5  4.778583E-01 -3.935880E-01  9.027711E-02  7.505898E-02  5.247384E-02 -2.135052E-02
      3828   6  4.785647E-01 -4.042274E-01  1.032715E-01  3.050342E-02 -1.243982E-03 -2.746774E-02
      3828   7  6.443849E-01 -4.526744E-01  1.225092E-01  1.289815E-01  4.479391E-02  7.439665E-03
      3828   8  6.367438E-01 -4.827914E-01  1.271560E-01  6.315262E-02 -8.923915E-03  2.115212E-03
      3829   1  1.162125E-01 -4.326209E-01 -9.004126E-02 -2.312242E-01  2.311725E-02  1.435325E-02
      3829   2  3.115092E-01  6.468242E-02  6.364449E-02 -2.406849E-01 -3.878330E-03  1.831770E-02
      3829   3  1.613944E-01 -5.521596E-01 -1.123483E-01 -2.551696E-01  4.912411E-02  3.638615E-02
      3829   4  3.757282E-01 -1.043639E-02  6.037455E-02 -2.804200E-01  2.212853E-02  1.893069E-02
      3829   5  1.757642E-01 -3.919905E-01 -1.415819E-02 -3.822275E-01  2.768995E-02 -2.453942E-02
      3829   6  3.453570E-01  7.960896E-02  7.955182E-02 -3.916882E-01 -1.193740E-02 -1.042185E-02
      3829   7  2.762101E-01 -4.878446E-01 -1.278064E-02 -4.188643E-01  7.511672E-02 -2.506516E-03
      3829   8  4.648400E-01  2.817474E-02  9.996646E-02 -4.441147E-01  3.548937E-02 -9.808858E-03
      3830   1  2.489307E-02  2.427785E-01 -1.540014E-02 -1.796492E-01 -3.264312E-03  1.544076E-02
      3830   2  2.099383E-01  7.306392E-01  1.135567E-01 -1.440674E-01 -1.519675E-02  3.616378E-03
      3830   3  3.354298E-02  1.635246E-01 -3.658132E-02 -2.172729E-01  3.179097E-02 -6.514152E-04
      3830   4  2.277790E-01  6.728306E-01  1.015663E-01 -1.897889E-01  1.985853E-02 -3.669525E-02
      3830   5 -1.189539E-01  1.700952E-01 -1.138310E-01 -3.310569E-01 -1.121320E-02 -7.788311E-03
      3830   6  3.702796E-02  6.288925E-01 -5.268866E-02 -2.954751E-01 -2.962392E-02 -1.471092E-02
      3830   7 -8.196155E-02  1.029881E-01 -1.228654E-01 -3.748079E-01  4.806154E-02 -2.388049E-02
      3830   8  8.321116E-02  5.832306E-01 -5.253225E-02 -3.473239E-01  2.965082E-02 -5.502256E-02
      3831   1  1.444445E-02 -5.533363E-02 -4.843250E-02  2.219198E-02  1.902628E-02  5.146216E-02
      3831   2  1.022742E-02 -8.372143E-02 -3.410146E-02  1.560385E-02  2.178250E-02  4.390287E-02
      3831   3  3.308824E-02  1.113705E-02 -2.289815E-02  3.204210E-02  7.433738E-03  5.294745E-02
      3831   4  1.878995E-02 -4.077371E-02 -1.864838E-02  2.866012E-02  1.018996E-02  4.141748E-02
      3831   5  3.928527E-02 -4.366908E-02 -3.439147E-02  3.427737E-02  2.420013E-02  6.783670E-02
      3831   6  3.030342E-02 -7.682170E-02 -3.117835E-02  2.768924E-02  2.952127E-02  5.490072E-02
      3831   7  4.670755E-02  1.799238E-02 -1.366635E-02  5.084834E-02  1.657827E-02  6.932199E-02
      3831   8  2.764443E-02 -3.868320E-02 -2.053449E-02  4.746635E-02  2.189941E-02  5.241534E-02
      3832   1  6.480376E-02 -8.579979E-02 -6.336375E-03  2.352683E-02  2.894675E-02  3.675903E-02
      3832   2  4.574829E-02 -1.369664E-01 -1.868800E-02  7.693415E-03  2.808445E-02  2.480100E-02
      3832   3  8.084235E-02 -5.556229E-02  7.546455E-03  4.216078E-02  2.475686E-02  3.093273E-02
      3832   4  4.904193E-02 -1.364671E-01 -1.755012E-02  2.477434E-02  2.389455E-02  1.381784E-02
      3832   5  1.132291E-01 -6.904123E-02  1.100108E-03  3.958239E-02  3.759024E-02  4.330090E-02
      3832   6  8.798545E-02 -1.263961E-01 -2.569072E-02  2.374898E-02  3.548551E-02  2.454556E-02
      3832   7  1.347033E-01 -3.647418E-02  1.731249E-02  6.671298E-02  3.855720E-02  3.747460E-02
      3832   8  9.671470E-02 -1.235672E-01 -2.222329E-02  4.932653E-02  3.645247E-02  1.356241E-02
      3833   1  7.417116E-02 -1.344632E-01 -3.944209E-04 -3.166010E-02  2.651780E-02  1.856248E-02
      3833   2  8.929248E-02 -1.114236E-01  2.697040E-02 -5.324862E-02  2.357955E-02  1.347655E-02
      3833   3  8.129860E-02 -1.423179E-01 -6.126070E-04 -2.197612E-02  1.886561E-02  6.292801E-03
      3833   4  9.482579E-02 -1.229980E-01  2.515809E-02 -4.602038E-02  1.592736E-02  2.848893E-03
      3833   5  1.350074E-01 -1.168040E-01 -2.366730E-03 -3.561923E-02  3.061661E-02  1.550786E-02
      3833   6  1.520991E-01 -9.179404E-02  2.959575E-02 -5.720775E-02  2.571376E-02  9.571728E-03
      3833   7  1.507299E-01 -1.209752E-01  1.098696E-03 -2.487249E-02  2.132240E-02  3.238183E-03
      3833   8  1.662275E-01 -9.968480E-02  3.146704E-02 -4.891676E-02  1.641955E-02 -1.055929E-03
      3834   1  3.423673E-02 -1.032079E-01  2.874038E-02 -8.162379E-02  1.769879E-02  1.293703E-02
      3834   2  8.219972E-02 -1.230185E-02  9.771099E-02 -9.328692E-02  1.546802E-02  1.654898E-02
      3834   3  3.978328E-02 -1.088557E-01  2.871001E-02 -8.398815E-02  4.569034E-03  5.898275E-03
      3834   4  9.783291E-02  5.585860E-03  1.077673E-01 -9.728558E-02  2.338265E-03  1.767325E-02
      3834   5  6.661119E-02 -9.415969E-02  2.652656E-02 -1.030953E-01  1.641393E-02  1.069007E-02
      3834   6  1.243698E-01  6.541980E-03  1.183536E-01 -1.147584E-01  1.287572E-02  1.968155E-02
      3834   7  7.787776E-02 -9.735604E-02  2.894763E-02 -1.121841E-01 -4.878861E-03  3.651307E-03
      3834   8  1.457230E-01  2.688113E-02  1.308614E-01 -1.254815E-01 -8.417065E-03  2.080583E-02
      3835   1  5.181628E-04 -5.664235E-03  9.439669E-02 -5.290641E-02  7.962544E-03  2.016401E-02
      3835   2  3.346893E-02  5.188056E-02  1.466878E-01 -5.100428E-02  7.721302E-03  2.642851E-02
      3835   3  1.483345E-02  2.572775E-02  1.081089E-01 -5.857023E-02 -4.125164E-03  2.623150E-02
      3835   4  5.787725E-02  1.068230E-01  1.704930E-01 -5.505165E-02 -4.366406E-03  3.783809E-02
      3835   5  1.141677E-03 -1.236450E-03  1.085325E-01 -6.520343E-02  4.039361E-03  2.723593E-02
      3835   6  4.050296E-02  6.271886E-02  1.757814E-01 -6.330129E-02  5.091273E-03  3.888338E-02
      3835   7  9.799412E-03  2.773087E-02  1.198200E-01 -7.759593E-02 -1.339044E-02  3.330342E-02
      3835   8  5.925372E-02  1.152366E-01  1.971620E-01 -7.407735E-02 -1.233852E-02  5.029296E-02
      3836   1  3.442011E-02  6.356402E-02 -4.165808E-02  4.231765E-02  2.899210E-02  9.979616E-02
      3836   2  1.118622E-02 -1.238505E-02 -4.315531E-02  4.177925E-02  3.360674E-02  8.354196E-02
      3836   3  7.440423E-02  1.953157E-01  9.862663E-03  6.054083E-02  1.540669E-02  8.757335E-02
      3836   4  3.030558E-02  7.068218E-02 -1.249934E-02  6.456513E-02  2.002133E-02  7.377904E-02
      3836   5  2.163711E-02  4.970424E-02 -7.507435E-02  6.867524E-02  4.121683E-02  1.318885E-01
      3836   6  1.355090E-03 -2.329296E-02 -6.968390E-02  6.813684E-02  4.948163E-02  1.045065E-01
      3836   7  4.565182E-02  1.746119E-01 -3.039765E-02  1.008083E-01  2.517153E-02  1.196657E-01
      3836   8  4.505030E-03  5.293022E-02 -4.587196E-02  1.048326E-01  3.343633E-02  9.474354E-02
      3837   1  8.626984E-02 -3.672303E-02 -9.695394E-03  6.128975E-02  5.184993E-02  6.802267E-02
      3837   2  4.856089E-02 -1.412988E-01 -3.081615E-02  4.253018E-02  4.855256E-02  4.187740E-02
      3837   3  1.237104E-01  2.316022E-02  1.950175E-02  9.491711E-02  4.148231E-02  6.019132E-02
      3837   4  6.235057E-02 -1.366009E-01 -2.526988E-02  7.395913E-02  3.818495E-02  3.686331E-02
      3837   5  1.425307E-01 -1.798130E-02 -3.483823E-03  9.472314E-02  7.032732E-02  8.029712E-02
      3837   6  1.082025E-01 -1.191763E-01 -1.671627E-02  7.596357E-02  6.527123E-02  4.153805E-02
      3837   7  1.876657E-01  4.519957E-02  2.901094E-02  1.441177E-01  5.714245E-02  7.246577E-02
      3837   8  1.296866E-01 -1.111808E-01 -7.872385E-03  1.231598E-01  5.208635E-02  3.652395E-02
      3838   1  8.851464E-02 -1.529546E-01 -9.475109E-03 -1.211305E-02  4.090669E-02  3.013069E-02
      3838   2  9.912493E-02 -1.386178E-01  1.155574E-02 -3.886382E-02  3.286145E-02  2.418335E-02
      3838   3  1.134533E-01 -1.618081E-01 -4.649590E-03  5.149389E-03  3.439384E-02  2.671771E-02
      3838   4  1.214238E-01 -1.536308E-01  1.374151E-02 -2.653997E-02  2.634859E-02  2.232743E-02
      3838   5  1.780468E-01 -1.169240E-01  2.109468E-02 -1.397628E-02  4.458092E-02  2.465906E-02
      3838   6  1.905255E-01 -1.007188E-01  4.648531E-02 -4.072706E-02  3.258481E-02  1.730385E-02
      3838   7  2.202704E-01 -1.183697E-01  3.332808E-02  5.045980E-03  3.651100E-02  2.124607E-02
      3838   8  2.301095E-01 -1.083239E-01  5.607896E-02 -2.664337E-02  2.451489E-02  1.544793E-02
      3839   1  3.803695E-02 -1.236173E-01  5.161431E-03 -8.702881E-02  1.745765E-02  2.813780E-02
      3839   2  9.469369E-02  3.383628E-03  6.701636E-02 -1.019110E-01  1.149503E-02  4.488891E-02
      3839   3  5.703037E-02 -1.289878E-01  9.248289E-03 -9.297168E-02  1.420879E-02  2.661290E-02
      3839   4  1.321891E-01  4.118445E-02  8.960524E-02 -1.105493E-01  8.246161E-03  4.271128E-02
      3839   5  8.829481E-02 -1.031238E-01  2.321501E-02 -1.222009E-01  4.625158E-03  2.435484E-02
      3839   6  1.441683E-01  2.309380E-02  8.324233E-02 -1.370831E-01 -3.493809E-03  5.097369E-02
      3839   7  1.167222E-01 -1.044512E-01  3.134501E-02 -1.404784E-01  2.029010E-03  2.282993E-02
      3839   8  1.910977E-01  6.493776E-02  1.098743E-01 -1.580561E-01 -6.089957E-03  4.879606E-02
      3840   1 -4.263398E-04  2.808828E-02  5.025300E-02 -6.445459E-02  4.077915E-03  5.666978E-02
      3840   2  4.163472E-02  1.222634E-01  9.628138E-02 -5.937751E-02  3.151676E-03  7.210460E-02
      3840   3  2.865983E-02  8.823735E-02  7.702357E-02 -7.486716E-02  1.598338E-03  5.382225E-02
      3840   4  8.944283E-02  2.260970E-01  1.417739E-01 -6.714859E-02  6.720996E-04  6.807957E-02
      3840   5 -2.161318E-02  1.705561E-02  3.466428E-02 -9.051163E-02 -8.206817E-03  7.002118E-02
      3840   6  1.903489E-02  1.098178E-01  7.739567E-02 -8.543455E-02 -7.019875E-03  9.544104E-02
      3840   7 -1.772172E-03  7.324247E-02  5.747264E-02 -1.134055E-01 -9.508897E-03  6.717365E-02
      3840   8  5.759784E-02  2.096892E-01  1.189260E-01 -1.056869E-01 -8.321955E-03  9.141601E-02
      3841   1  7.793333E-02  2.537533E-01 -8.203057E-03  7.342683E-02  2.351445E-02  7.184747E-02
      3841   2  2.417761E-02  1.038867E-01 -3.752212E-02  7.987588E-02  2.611450E-02  6.964047E-02
      3841   3  1.053670E-01  3.394324E-01  2.573077E-02  9.040884E-02  8.241539E-03  4.098288E-02
      3841   4  4.056008E-02  1.637795E-01 -1.463951E-02  9.891974E-02  1.084159E-02  5.034401E-02
      3841   5  1.832414E-02  2.070422E-01 -1.042975E-01  1.214823E-01  3.360443E-02  9.254557E-02
      3841   6 -2.154981E-02  7.105734E-02 -1.012258E-01  1.279314E-01  3.785397E-02  8.444458E-02
      3841   7  3.854136E-02  2.896285E-01 -7.345644E-02  1.458318E-01  6.763382E-03  6.168097E-02
      3841   8 -1.238381E-02  1.278574E-01 -8.143593E-02  1.543427E-01  1.101292E-02  6.514812E-02
      3842   1  1.348825E-01  4.690126E-02  1.391737E-03  1.202152E-01  4.773189E-02  6.248284E-02
      3842   2  6.400466E-02 -1.419556E-01 -4.601105E-02  9.772951E-02  4.305768E-02  4.513485E-02
      3842   3  1.730185E-01  9.693330E-02  2.784213E-02  1.557036E-01  3.305995E-02  5.106623E-02
      3842   4  8.567606E-02 -1.303408E-01 -3.602518E-02  1.312425E-01  2.838574E-02  4.367821E-02
      3842   5  1.998826E-01  6.692990E-02  3.153791E-03  1.792047E-01  6.150731E-02  7.191551E-02
      3842   6  1.409567E-01 -1.099750E-01 -1.636107E-02  1.567190E-01  5.525273E-02  4.578643E-02
      3842   7  2.449326E-01  1.199251E-01  3.256736E-02  2.256695E-01  3.687540E-02  6.049889E-02
      3842   8  1.695422E-01 -9.539698E-02 -3.412024E-03  2.012083E-01  3.062082E-02  4.432979E-02
      3843   1  1.259375E-01 -1.739832E-01 -2.217276E-02  2.044707E-02  4.307354E-02  3.656650E-02
      3843   2  1.292093E-01 -1.741175E-01 -1.113253E-02 -1.462544E-02  3.313454E-02  3.050530E-02
      3843   3  1.628725E-01 -1.706267E-01 -1.008532E-02  4.497868E-02  3.821826E-02  3.910852E-02
      3843   4  1.613811E-01 -1.818750E-01 -3.808264E-03  5.601799E-03  2.827926E-02  3.401193E-02
      3843   5  2.517418E-01 -1.183240E-01  3.755368E-02  2.215010E-02  4.748914E-02  3.307414E-02
      3843   6  2.561711E-01 -1.173008E-01  5.129479E-02 -1.292241E-02  3.410665E-02  2.447258E-02
      3843   7  3.037420E-01 -1.085109E-01  5.609768E-02  4.985717E-02  4.166926E-02  3.561617E-02
      3843   8  3.034081E-01 -1.186018E-01  6.507561E-02  1.048028E-02  2.828677E-02  2.797921E-02
      3844   1  5.796627E-02 -1.499234E-01 -2.524390E-02 -9.329560E-02  2.400956E-02  3.122119E-02
      3844   2  1.331943E-01  3.337014E-02  4.222264E-02 -1.131608E-01  1.520715E-02  3.923824E-02
      3844   3  8.643882E-02 -1.568409E-01 -1.877738E-02 -8.823770E-02  2.886049E-02  3.237606E-02
      3844   4  1.699089E-01  4.568415E-02  5.693123E-02 -1.116572E-01  2.005808E-02  3.300336E-02
      3844   5  1.288803E-01 -1.187398E-01  7.787512E-03 -1.473284E-01  1.843654E-02  2.586760E-02
      3844   6  1.952407E-01  5.568610E-02  5.456280E-02 -1.671936E-01  6.790679E-03  3.828041E-02
      3844   7  1.697930E-01 -1.203258E-01  1.958550E-02 -1.477652E-01  3.067720E-02  2.702246E-02
      3844   8  2.443954E-01  7.333157E-02  7.460285E-02 -1.711847E-01  1.903134E-02  3.204553E-02
      3845   1  1.342900E-02  8.257075E-02  1.105460E-02 -7.903251E-02  7.809334E-03  4.395390E-02
      3845   2  7.136003E-02  2.309946E-01  5.573422E-02 -7.066984E-02  3.473356E-03  4.882029E-02
      3845   3  3.682915E-02  1.010380E-01  2.361481E-02 -7.999992E-02  1.609147E-02  3.191763E-02
      3845   4  1.035284E-01  2.699209E-01  7.706262E-02 -7.251897E-02  1.175549E-02  2.832406E-02
      3845   5 -3.028389E-02  5.558321E-02 -3.519096E-02 -1.242789E-01  1.922396E-03  4.631670E-02
      3845   6  1.749519E-02  1.938551E-01 -1.419925E-02 -1.159162E-01 -3.118959E-03  5.585946E-02
      3845   7 -3.797714E-03  7.537300E-02 -2.130817E-02 -1.310918E-01  1.866450E-02  3.428043E-02
      3845   8  5.274956E-02  2.341040E-01  8.451733E-03 -1.236108E-01  1.362314E-02  3.536323E-02
      3846   1  1.171641E-01  3.817595E-01  3.135001E-02  1.123484E-01  1.147451E-02  9.005576E-03
      3846   2  4.230194E-02  1.877073E-01 -2.413825E-02  1.212795E-01  1.104904E-02  2.618744E-02
      3846   3  1.386965E-01  4.284563E-01  5.181875E-02  1.553063E-01 -6.341685E-04 -2.893546E-02
      3846   4  5.778808E-02  2.202960E-01 -9.715793E-03  1.633236E-01 -1.059640E-03  3.202800E-03
      3846   5  4.037597E-02  3.228336E-01 -8.828155E-02  1.719434E-01  1.918051E-02  1.949677E-02
      3846   6 -1.653849E-02  1.467291E-01 -1.018919E-01  1.808745E-01  1.802397E-02  3.345394E-02
      3846   7  6.510680E-02  3.709011E-01 -6.644206E-02  2.189322E-01 -7.884571E-03 -1.844427E-02
      3846   8  2.146041E-03  1.806885E-01 -8.609870E-02  2.269495E-01 -9.041105E-03  1.046931E-02
      3847   1  1.950363E-01  1.152923E-01  2.104141E-02  1.904437E-01  2.882161E-02  3.073169E-02
      3847   2  9.540648E-02 -1.421128E-01 -5.365285E-02  1.624613E-01  1.790185E-02  2.596494E-02
      3847   3  2.468656E-01  1.452293E-01  4.557132E-02  2.498669E-01  1.323691E-02  1.736411E-02
      3847   4  1.271382E-01 -1.590702E-01 -4.922057E-02  2.142397E-01  2.317145E-03  2.391528E-02
      3847   5  2.769336E-01  1.412248E-01  2.558582E-02  2.693313E-01  3.882965E-02  3.289454E-02
      3847   6  1.908853E-01 -1.025987E-01 -1.741829E-02  2.413489E-01  2.179411E-02  1.740906E-02
      3847   7  3.555195E-01  1.826289E-01  6.158282E-02  3.421529E-01  1.192704E-02  1.952697E-02
      3847   8  2.493735E-01 -1.080891E-01 -1.518919E-03  3.065258E-01 -5.108504E-03  1.535940E-02
      3848   1  1.849708E-01 -1.889999E-01 -2.549427E-02  6.522771E-02  3.042587E-02  2.285410E-02
      3848   2  1.792349E-01 -2.097187E-01 -2.389501E-02  1.981635E-02  1.326883E-02  1.912190E-02
      3848   3  2.344583E-01 -2.165043E-01 -1.889934E-02  9.601747E-02  2.584143E-02  2.548634E-02
      3848   4  2.227775E-01 -2.510947E-01 -2.324503E-02  3.842399E-02  8.684387E-03  2.322742E-02
      3848   5  3.470692E-01 -1.177242E-01  4.999304E-02  7.271916E-02  3.846313E-02  9.214360E-03
      3848   6  3.431013E-01 -1.366750E-01  5.571749E-02  2.730780E-02  1.156040E-02  2.311512E-03
      3848   7  4.391942E-01 -1.269554E-01  7.486115E-02  1.074722E-01  3.240541E-02  1.184660E-02
      3848   8  4.292813E-01 -1.597778E-01  7.464064E-02  4.987875E-02  5.502672E-03  6.417034E-03
      3849   1  9.443418E-02 -1.879454E-01 -4.486512E-02 -8.875152E-02  1.781253E-02  1.755352E-02
      3849   2  1.812531E-01  2.630045E-02  3.028555E-02 -1.168314E-01  5.470518E-03  1.700084E-02
      3849   3  1.179971E-01 -2.358152E-01 -5.215718E-02 -9.521317E-02  2.510520E-02  1.928463E-02
      3849   4  2.137285E-01 -7.738370E-04  3.190587E-02 -1.324712E-01  1.276319E-02  1.077166E-02
      3849   5  1.947912E-01 -1.437482E-01  2.101849E-03 -1.524650E-01  2.047060E-02  1.322414E-03
      3849   6  2.720578E-01  6.094529E-02  5.496371E-02 -1.805449E-01  7.861083E-04  5.522996E-03
      3849   7  2.504775E-01 -1.778509E-01  8.576942E-03 -1.648682E-01  3.572356E-02  3.053527E-03
      3849   8  3.366565E-01  4.763816E-02  7.035118E-02 -2.021262E-01  1.603907E-02 -7.061778E-04
      3850   1  3.148268E-02  8.096715E-02 -1.154312E-02 -8.650671E-02  2.239866E-03  1.307644E-02
      3850   2  1.004677E-01  2.582097E-01  4.116435E-02 -8.084348E-02 -2.857843E-03  2.907487E-03
      3850   3  3.687235E-02  5.106215E-02 -1.889772E-02 -1.033162E-01  1.241333E-02 -3.581084E-04
      3850   4  1.095347E-01  2.368851E-01  3.748707E-02 -1.017373E-01  7.315620E-03 -2.225224E-02
      3850   5 -4.460083E-03  5.635085E-02 -5.765471E-02 -1.406355E-01  3.404257E-04  4.056283E-03
      3850   6  5.045472E-02  2.195232E-01 -3.777773E-02 -1.349723E-01 -8.024804E-03 -4.151437E-03
      3850   7  1.522499E-02  3.257244E-02 -5.888271E-02 -1.598965E-01  2.223906E-02 -9.378271E-03
      3850   8  7.381712E-02  2.043252E-01 -3.532840E-02 -1.583177E-01  1.387383E-02 -2.931116E-02
      3851   1  2.894218E-03 -2.872207E-02 -2.656187E-02  6.932301E-03  1.492438E-02  3.457689E-02
      3851   2  9.430456E-03 -3.511347E-02  1.617002E-03  1.350361E-03  1.567625E-02  3.121964E-02
      3851   3  8.948405E-03 -8.330076E-03 -1.862801E-02  1.057612E-02  1.397740E-03  2.807183E-02
      3851   4  1.433598E-02 -1.740170E-02  8.402191E-03  5.969202E-03  2.149607E-03  2.436266E-02
      3851   5  1.462494E-02 -2.815522E-02 -3.640312E-02  1.339612E-02  1.654085E-02  3.956014E-02
      3851   6  2.073887E-02 -3.496894E-02 -9.209623E-03  7.814184E-03  1.807274E-02  3.559027E-02
      3851   7  1.726654E-02 -9.225774E-03 -2.993180E-02  1.780572E-02  3.366127E-03  3.305508E-02
      3851   8  2.223181E-02 -1.871970E-02 -3.886972E-03  1.319880E-02  4.898014E-03  2.873330E-02
      3852   1  2.802145E-02 -3.808638E-02  2.214662E-02  5.936305E-03  2.213617E-02  2.809680E-02
      3852   2  2.327434E-02 -6.081812E-02  2.905467E-02 -6.613611E-03  2.161493E-02  2.292231E-02
      3852   3  3.685310E-02 -2.182294E-02  2.967514E-02  1.327515E-02  1.485170E-02  2.078759E-02
      3852   4  2.876383E-02 -5.235304E-02  3.324104E-02  8.292843E-04  1.433045E-02  1.472949E-02
      3852   5  6.317510E-02 -2.803256E-02  2.050570E-02  1.492862E-02  2.480585E-02  3.159077E-02
      3852   6  5.736766E-02 -5.182463E-02  2.493964E-02  2.378707E-03  2.436784E-02  2.463379E-02
      3852   7  7.164258E-02 -1.192519E-02  2.787815E-02  2.449558E-02  1.840499E-02  2.428156E-02
      3852   8  6.249299E-02 -4.351563E-02  2.896994E-02  1.204971E-02  1.796697E-02  1.644097E-02
      3853   1  3.383421E-02 -6.104802E-02  4.205619E-02 -2.106796E-02  2.233844E-02  1.961152E-02
      3853   2  4.268603E-02 -4.954955E-02  6.006376E-02 -3.642741E-02  2.105351E-02  1.574078E-02
      3853   3  4.114008E-02 -5.470874E-02  4.614973E-02 -1.481481E-02  1.661609E-02  1.145133E-02
      3853   4  4.916842E-02 -4.513170E-02  6.333383E-02 -3.102914E-02  1.533116E-02  8.553349E-03
      3853   5  7.780004E-02 -4.780108E-02  4.224682E-02 -2.239129E-02  2.429967E-02  2.050982E-02
      3853   6  8.781917E-02 -3.513530E-02  6.297813E-02 -3.775074E-02  2.233084E-02  1.619989E-02
      3853   7  8.809800E-02 -4.017948E-02  4.762268E-02 -1.558915E-02  1.760456E-02  1.234962E-02
      3853   8  9.729365E-02 -2.943513E-02  6.753052E-02 -3.180348E-02  1.563572E-02  9.012459E-03
      3854   1  1.796560E-02 -4.487487E-02  6.357554E-02 -4.302953E-02  1.797990E-02  1.389695E-02
      3854   2  4.152449E-02 -7.669367E-04  9.799726E-02 -5.235534E-02  1.679212E-02  1.273026E-02
      3854   3  2.454019E-02 -3.943228E-02  6.718070E-02 -4.059169E-02  1.119063E-02  7.963905E-03
      3854   4  5.033569E-02  9.894388E-03  1.038390E-01 -5.043401E-02  1.000286E-02  9.251495E-03
      3854   5  4.348629E-02 -3.800580E-02  6.095174E-02 -5.330404E-02  1.811839E-02  1.463192E-02
      3854   6  6.999033E-02  9.047270E-03  1.022455E-01 -6.262986E-02  1.651742E-02  1.465808E-02
      3854   7  5.186862E-02 -3.178847E-02  6.533164E-02 -5.235728E-02  8.874842E-03  8.698877E-03
      3854   8  8.060926E-02  2.048334E-02  1.088620E-01 -6.219959E-02  7.273868E-03  1.117932E-02
      3855   1  3.160592E-03 -6.519452E-04  9.837865E-02 -2.691532E-02  1.056966E-02  1.253958E-02
      3855   2  1.643048E-02  1.625753E-02  1.257021E-01 -2.744072E-02  9.610836E-03  1.318534E-02
      3855   3  1.261247E-02  1.341224E-02  1.054335E-01 -2.674575E-02  1.786166E-03  1.032058E-02
      3855   4  2.813273E-02  3.557257E-02  1.350073E-01 -2.704764E-02  8.273412E-04  1.195378E-02
      3855   5  2.336688E-03 -2.526648E-03  9.295354E-02 -2.873511E-02  9.712332E-03  1.534333E-02
      3855   6  1.679151E-02  1.556776E-02  1.230419E-01 -2.926051E-02  8.932315E-03  1.718928E-02
      3855   7  1.100629E-02  1.120227E-02  9.967310E-02 -3.006579E-02 -5.860553E-05  1.312432E-02
      3855   8  2.771147E-02  3.454754E-02  1.320118E-01 -3.036768E-02 -8.386227E-04  1.595772E-02
      3856   1  1.040475E-02  8.309622E-03 -2.279643E-02  1.457138E-02  1.968703E-02  5.999452E-02
      3856   2  1.055319E-02 -7.941215E-03 -6.050815E-03  1.102792E-02  2.085603E-02  5.593230E-02
      3856   3  2.345637E-02  4.850513E-02 -6.822293E-03  2.184281E-02  9.313787E-03  4.826167E-02
      3856   4  2.077818E-02  2.565884E-02  7.096702E-03  2.022977E-02  1.048279E-02  4.589180E-02
      3856   5  8.727409E-03 -4.546241E-04 -5.033325E-02  2.277101E-02  2.322320E-02  6.968307E-02
      3856   6  1.090666E-02 -1.467465E-02 -2.884906E-02  1.922756E-02  2.593654E-02  6.411332E-02
      3856   7  1.502260E-02  3.684527E-02 -3.725472E-02  3.192687E-02  1.115762E-02  5.795021E-02
      3856   8  1.437523E-02  1.602980E-02 -1.859715E-02  3.031382E-02  1.387095E-02  5.407281E-02
      3857   1  3.673672E-02 -1.520461E-02  1.311205E-02  2.152852E-02  3.660470E-02  5.104995E-02
      3857   2  2.495527E-02 -5.444107E-02  1.307703E-02  8.864593E-03  3.471582E-02  4.177333E-02
      3857   3  5.676807E-02  1.579449E-02  2.842119E-02  3.673828E-02  2.926319E-02  4.216342E-02
      3857   4  3.805455E-02 -3.961680E-02  2.145410E-02  2.337457E-02  2.737430E-02  3.434718E-02
      3857   5  7.039662E-02 -6.872562E-03  7.225653E-03  3.525602E-02  4.281398E-02  5.732594E-02
      3857   6  6.036763E-02 -4.435656E-02  1.127970E-02  2.259210E-02  4.036527E-02  4.435221E-02
      3857   7  9.287721E-02  2.517622E-02  2.358447E-02  5.508716E-02  3.401208E-02  4.843941E-02
      3857   8  7.591616E-02 -2.848261E-02  2.070645E-02  4.172345E-02  3.156337E-02  3.692607E-02
      3858   1  3.977603E-02 -5.914319E-02  2.543077E-02 -8.162489E-03  3.700561E-02  3.644616E-02
      3858   2  4.598359E-02 -5.249526E-02  3.947471E-02 -2.558980E-02  3.309378E-02  3.116870E-02
      3858   3  5.865855E-02 -4.768256E-02  3.453371E-02  3.758827E-03  3.210787E-02  2.983461E-02
      3858   4  6.341858E-02 -4.441223E-02  4.713011E-02 -1.612753E-02  2.819604E-02  2.532227E-02
      3858   5  9.283775E-02 -4.093608E-02  3.305938E-02 -8.382671E-03  3.887689E-02  3.738924E-02
      3858   6  9.996347E-02 -3.337000E-02  4.924569E-02 -2.580998E-02  3.299782E-02  3.133975E-02
      3858   7  1.203269E-01 -2.578689E-02  4.585090E-02  4.503670E-03  3.321402E-02  3.077768E-02
      3858   8  1.260051E-01 -2.159840E-02  6.058967E-02 -1.538269E-02  2.733495E-02  2.549333E-02
      3859   1  1.925304E-02 -4.749195E-02  3.934893E-02 -3.844470E-02  2.729662E-02  2.954376E-02
      3859   2  4.370634E-02  3.968011E-03  6.939997E-02 -4.906361E-02  2.387749E-02  3.038181E-02
      3859   3  3.579055E-02 -3.739712E-02  4.733864E-02 -3.501682E-02  2.379803E-02  2.397450E-02
      3859   4  6.512866E-02  2.546074E-02  8.227448E-02 -4.724097E-02  2.037891E-02  2.480464E-02
      3859   5  4.973614E-02 -3.824669E-02  3.968338E-02 -5.194803E-02  2.353245E-02  3.038581E-02
      3859   6  7.417995E-02  1.320378E-02  6.971227E-02 -6.256695E-02  1.882915E-02  3.382910E-02
      3859   7  7.189196E-02 -2.574401E-02  5.008093E-02 -5.177669E-02  2.004178E-02  2.481655E-02
      3859   8  1.012206E-01  3.710436E-02  8.499463E-02 -6.400084E-02  1.533847E-02  2.825192E-02
      3860   1  1.906073E-03  7.204764E-03  6.341763E-02 -2.692983E-02  1.353416E-02  3.096157E-02
      3860   2  1.395442E-02  2.917439E-02  8.160914E-02 -2.698152E-02  1.133171E-02  3.170746E-02
      3860   3  2.143062E-02  3.440830E-02  7.743605E-02 -2.760230E-02  9.694677E-03  2.513260E-02
      3860   4  3.795190E-02  6.681479E-02  1.001005E-01 -2.719396E-02  7.492230E-03  2.519848E-02
      3860   5 -4.907749E-03  2.875485E-04  4.717406E-02 -3.189047E-02  9.903392E-03  3.623562E-02
      3860   6  6.324581E-03  2.144116E-02  6.346155E-02 -3.194217E-02  8.068969E-03  3.936707E-02
      3860   7  1.300669E-02  2.680104E-02  6.050244E-02 -3.554490E-02  6.743920E-03  3.040665E-02
      3860   8  2.871196E-02  5.839151E-02  8.126286E-02 -3.513657E-02  4.909498E-03  3.285810E-02
      3861   1  2.728852E-02  6.805780E-02 -6.798313E-03  2.768419E-02  1.563958E-02  4.724058E-02
      3861   2  1.778909E-02  3.719343E-02 -7.598736E-03  2.726329E-02  1.618617E-02  4.919611E-02
      3861   3  3.572636E-02  9.230100E-02  3.005997E-03  3.637169E-02  1.020269E-02  3.006251E-02
      3861   4  2.660119E-02  6.230992E-02  2.579843E-03  3.727736E-02  1.074928E-02  3.611883E-02
      3861   5  8.148005E-03  4.807547E-02 -5.426555E-02  3.836666E-02  1.870078E-02  5.301614E-02
      3861   6  3.569521E-03  2.213205E-02 -4.358375E-02  3.794575E-02  2.030863E-02  5.517127E-02
      3861   7  1.194281E-02  7.032880E-02 -4.645111E-02  4.680464E-02  9.163100E-03  3.583807E-02
      3861   8  7.738599E-03  4.525868E-02 -3.539504E-02  4.771032E-02  1.077095E-02  4.209400E-02
      3862   1  5.927426E-02  2.422351E-02  9.905763E-03  4.933327E-02  3.520623E-02  4.746410E-02
      3862   2  3.454389E-02 -4.359063E-02 -4.714675E-03  3.526656E-02  3.244465E-02  4.077663E-02
      3862   3  8.044444E-02  5.060738E-02  2.417198E-02  6.853368E-02  2.888752E-02  3.714922E-02
      3862   4  4.956099E-02 -3.156393E-02  3.398463E-03  5.324611E-02  2.612594E-02  3.390798E-02
      3862   5  9.612991E-02  3.294573E-02  2.124186E-03  7.087516E-02  4.068454E-02  5.231116E-02
      3862   6  7.553500E-02 -3.073294E-02 -2.846831E-03  5.680844E-02  3.694627E-02  4.234206E-02
      3862   7  1.215731E-01  6.116089E-02  1.822168E-02  9.417762E-02  3.091961E-02  4.199629E-02
      3862   8  9.482510E-02 -1.687496E-02  7.097592E-03  7.889005E-02  2.718134E-02  3.547340E-02
      3863   1  5.929328E-02 -5.480520E-02  6.736383E-03  1.403197E-02  3.827069E-02  3.631271E-02
      3863   2  6.087884E-02 -5.652758E-02  1.374394E-02 -7.843142E-03  3.284251E-02  3.080452E-02
      3863   3  8.289071E-02 -4.497938E-02  1.676336E-02  3.017740E-02  3.488193E-02  3.100382E-02
      3863   4  8.219814E-02 -5.201738E-02  2.149279E-02  5.327963E-03  2.945375E-02  2.631073E-02
      3863   5  1.294855E-01 -2.836321E-02  2.468414E-02  1.568594E-02  4.060346E-02  3.623225E-02
      3863   6  1.320492E-01 -2.910746E-02  3.397400E-02 -6.189175E-03  3.279582E-02  2.950906E-02
      3863   7  1.634931E-01 -1.407589E-02  3.917261E-02  3.335012E-02  3.639960E-02  3.092336E-02
      3863   8  1.637786E-01 -2.013577E-02  4.618434E-02  8.500680E-03  2.859196E-02  2.501527E-02
      3864   1  3.058105E-02 -5.077649E-02  9.394407E-03 -3.132732E-02  2.880140E-02  2.825060E-02
      3864   2  5.919479E-02  1.507575E-02  3.892131E-02 -4.501547E-02  2.365653E-02  2.678136E-02
      3864   3  5.082811E-02 -4.640726E-02  1.677930E-02 -2.467529E-02  2.823068E-02  2.332720E-02
      3864   4  8.217691E-02  2.582678E-02  4.904125E-02 -4.075795E-02  2.308581E-02  1.986910E-02
      3864   5  7.258149E-02 -3.615235E-02  1.614110E-02 -4.994657E-02  2.678682E-02  2.704434E-02
      3864   6  9.880862E-02  2.731327E-02  4.009922E-02 -6.363472E-02  1.972634E-02  2.703379E-02
      3864   7  1.012093E-01 -2.819136E-02  2.711775E-02 -4.511791E-02  2.820495E-02  2.212093E-02
      3864   8  1.301715E-01  4.165607E-02  5.381093E-02 -6.120057E-02  2.114447E-02  2.012154E-02
      3865   1  8.943880E-03  2.264641E-02  2.535199E-02 -2.729439E-02  1.256246E-02  2.512109E-02
      3865   2  2.123443E-02  5.384573E-02  3.512115E-02 -2.694399E-02  9.160381E-03  2.205442E-02
      3865   3  2.593288E-02  3.393671E-02  3.383578E-02 -2.578069E-02  1.413833E-02  1.651365E-02
      3865   4  3.994590E-02  6.915514E-02  4.532742E-02 -2.604860E-02  1.073624E-02  1.080448E-02
      3865   5 -2.611445E-03  1.179188E-02  7.255438E-04 -3.674877E-02  1.066033E-02  2.624370E-02
      3865   6  6.508111E-03  3.982021E-02  3.095731E-03 -3.639838E-02  6.763596E-03  2.409568E-02
      3865   7  1.654166E-02  2.400966E-02  1.013681E-02 -3.638339E-02  1.487869E-02  1.763625E-02
      3865   8  2.738369E-02  5.605709E-02  1.422947E-02 -3.665131E-02  1.098195E-02  1.284574E-02
      3866   1  4.232962E-02  1.083426E-01  7.975334E-03  4.649149E-02  5.077704E-03  1.533668E-02
      3866   2  2.713622E-02  7.171965E-02 -6.046424E-03  4.809738E-02  4.278937E-03  2.299718E-02
      3866   3  5.480737E-02  1.308009E-01  1.845616E-02  6.545179E-02  4.345425E-03 -3.040253E-03
      3866   4  3.808484E-02  9.061004E-02  2.905280E-03  6.764413E-02  3.546658E-03  8.940794E-03
      3866   5  1.465668E-02  8.388141E-02 -4.588893E-02  5.720625E-02  7.695677E-03  2.012769E-02
      3866   6  4.647929E-03  5.244315E-02 -4.781315E-02  5.881214E-02  7.366069E-03  2.697266E-02
      3866   7  2.508185E-02  1.054601E-01 -3.628777E-02  7.718597E-02  2.642849E-03  1.750755E-03
      3866   8  1.354398E-02  7.045387E-02 -3.974112E-02  7.937831E-02  2.313241E-03  1.291627E-02
      3867   1  8.913957E-02  5.787638E-02  1.274052E-02  8.623637E-02  1.901398E-02  2.479328E-02
      3867   2  5.115028E-02 -3.871224E-02 -1.730185E-02  6.946909E-02  1.341643E-02  2.203981E-02
      3867   3  1.172917E-01  7.691856E-02  2.689883E-02  1.154006E-01  1.404715E-02  1.405335E-02
      3867   4  7.047408E-02 -4.026959E-02 -1.197192E-02  9.581155E-02  8.449607E-03  1.604008E-02
      3867   5  1.349371E-01  7.013937E-02  7.819632E-03  1.155360E-01  2.351201E-02  2.674683E-02
      3867   6  1.026361E-01 -2.076101E-02 -8.950188E-03  9.876875E-02  1.565706E-02  1.928489E-02
      3867   7  1.729655E-01  9.341421E-02  2.621059E-02  1.505858E-01  1.380499E-02  1.600691E-02
      3867   8  1.318360E-01 -1.808571E-02  6.123970E-04  1.309968E-01  5.950030E-03  1.328516E-02
      3868   1  8.823577E-02 -5.604437E-02 -5.612435E-03  4.302032E-02  2.231417E-02  1.982625E-02
      3868   2  8.492718E-02 -6.792975E-02 -4.755695E-03  1.504196E-02  1.481571E-02  1.653219E-02
      3868   3  1.118050E-01 -6.353668E-02 -7.893683E-04  6.196239E-02  1.971083E-02  1.594790E-02
      3868   4  1.062024E-01 -8.077470E-02 -2.226620E-03  2.841000E-02  1.221238E-02  1.370934E-02
      3868   5  1.815060E-01 -1.873086E-02  2.549571E-02  4.730871E-02  2.609877E-02  1.490010E-02
      3868   6  1.794640E-01 -2.934962E-02  2.930788E-02  1.933035E-02  1.414109E-02  1.038258E-02
      3868   7  2.245843E-01 -1.786211E-02  3.867983E-02  6.778011E-02  2.243993E-02  1.102175E-02
      3868   8  2.202484E-01 -3.383352E-02  4.019801E-02  3.422771E-02  1.048225E-02  7.559733E-03
      3869   1  4.814197E-02 -6.450263E-02 -1.326693E-02 -2.147344E-02  1.520176E-02  1.457653E-02
      3869   2  8.062925E-02  1.232197E-02  1.819938E-02 -4.007929E-02  1.046388E-02  1.252763E-02
      3869   3  5.808797E-02 -8.077762E-02 -1.516563E-02 -1.937785E-02  1.583986E-02  1.113766E-02
      3869   4  9.491364E-02  6.169921E-03  2.063908E-02 -4.248271E-02  1.110198E-02  6.350227E-03
      3869   5  1.091358E-01 -4.072049E-02  5.013018E-03 -4.364210E-02  1.640075E-02  8.826012E-03
      3869   6  1.383369E-01  3.281788E-02  2.881144E-02 -6.224796E-02  8.063669E-03  9.090929E-03
      3869   7  1.348283E-01 -5.024698E-02  9.862819E-03 -4.443878E-02  1.977738E-02  5.387140E-03
      3869   8  1.683678E-01  3.341432E-02  3.799964E-02 -6.754364E-02  1.144030E-02  2.913525E-03
      3870   1  1.775296E-02  1.990380E-02 -1.556638E-04 -2.700550E-02  3.407705E-03  9.624933E-03
      3870   2  3.284202E-02  5.780351E-02  1.224149E-02 -2.819267E-02  1.574855E-03  3.743510E-03
      3870   3  2.148929E-02  1.334815E-02 -1.001459E-03 -3.186543E-02  5.090145E-03  1.319954E-03
      3870   4  3.814508E-02  5.490356E-02  1.296242E-02 -3.494575E-02  3.257295E-03 -7.635577E-03
      3870   5  1.194210E-02  1.171859E-02 -2.162884E-02 -3.841082E-02  3.061741E-03  7.340992E-03
      3870   6  2.334223E-02  4.592936E-02 -1.783919E-02 -3.959799E-02 -2.856222E-04  2.295159E-03
      3870   7  2.230442E-02  8.002653E-03 -1.963492E-02 -4.431524E-02  7.818290E-03 -9.639865E-04
      3870   8  3.527128E-02  4.586913E-02 -1.427855E-02 -4.739556E-02  4.470927E-03 -9.083928E-03
      3871   1  3.835190E-04 -4.862840E-03  3.088628E-02  1.085168E-03  1.727744E-02  2.207118E-02
      3871   2  9.910310E-03 -3.758032E-03  6.153744E-02 -4.993886E-03  1.698340E-02  1.961318E-02
      3871   3  4.151648E-03  1.479121E-03  3.391931E-02  1.685923E-03  4.074707E-03  5.849540E-03
      3871   4  1.428714E-02  4.004221E-03  6.517917E-02 -3.697316E-03  3.780666E-03  3.722955E-03
      3871   5  2.194240E-03 -1.521023E-02 -5.415728E-03  5.296160E-03  1.512175E-02  2.339475E-02
      3871   6  1.211873E-02 -1.370772E-02  2.616340E-02 -7.828937E-04  1.538436E-02  2.126139E-02
      3871   7  3.527019E-03 -9.911986E-03 -3.426422E-03  5.491117E-03  1.587604E-03  7.173114E-03
      3871   8  1.406021E-02 -6.989187E-03  2.876140E-02  1.078778E-04  1.850214E-03  5.371166E-03
      3872   1  1.608382E-02 -4.754277E-03  7.800014E-02  6.484120E-04  2.416589E-02  1.791498E-02
      3872   2  1.778325E-02 -1.099808E-02  8.990869E-02 -6.883259E-03  2.350374E-02  1.573341E-02
      3872   3  2.207824E-02  3.714777E-03  8.233918E-02  2.935482E-03  1.778518E-02  2.474887E-03
      3872   4  2.318840E-02 -3.903973E-03  9.365847E-02 -4.495135E-03  1.712303E-02  1.191687E-03
      3872   5  2.391657E-02 -1.198488E-02  4.606539E-02  4.620025E-03  2.196470E-02  1.956698E-02
      3872   6  2.669404E-02 -1.715063E-02  6.048938E-02 -2.911647E-03  2.138339E-02  1.707114E-02
      3872   7  2.955729E-02 -3.667405E-03  5.025285E-02  7.299938E-03  1.468562E-02  4.126892E-03
      3872   8  3.174550E-02 -1.020811E-02  6.408758E-02 -1.306792E-04  1.410432E-02  2.529418E-03
      3873   1  2.038657E-02 -1.160431E-02  9.815095E-02 -7.935397E-03  2.447078E-02  1.413991E-02
      3873   2  2.465019E-02 -7.509373E-03  1.082681E-01 -1.652070E-02  2.344983E-02  1.196798E-02
      3873   3  2.704198E-02 -4.582938E-03  1.022540E-01 -5.536799E-03  2.081234E-02  3.846385E-04
      3873   4  3.102200E-02 -1.149716E-03  1.120875E-01 -1.413459E-02  1.979139E-02 -5.370603E-04
      3873   5  3.392879E-02 -1.523270E-02  7.251412E-02 -7.851056E-03  2.238429E-02  1.530725E-02
      3873   6  3.969269E-02 -9.637473E-03  8.613191E-02 -1.643636E-02  2.135334E-02  1.298407E-02
      3873   7  4.062792E-02 -8.192580E-03  7.663590E-02 -5.263396E-03  1.747561E-02  1.551975E-03
      3873   8  4.610823E-02 -3.259076E-03  8.997009E-02 -1.386119E-02  1.644467E-02  4.790263E-04
      3874   1  6.427245E-03 -1.067231E-02  1.076890E-01 -1.286235E-02  2.064360E-02  1.066637E-02
      3874   2  1.526854E-02  3.544706E-03  1.229430E-01 -2.022737E-02  1.945943E-02  9.282246E-03
      3874   3  1.356083E-02 -3.895393E-03  1.118621E-01 -1.150802E-02  1.663567E-02 -8.765003E-04
      3874   4  2.281594E-02  1.128719E-02  1.275299E-01 -1.873794E-02  1.545150E-02 -8.821687E-04
      3874   5  1.835336E-02 -1.347623E-02  8.641646E-02 -1.555021E-02  1.865653E-02  1.170788E-02
      3874   6  2.884881E-02  2.394937E-03  1.055301E-01 -2.291523E-02  1.758043E-02  1.054445E-02
      3874   7  2.501410E-02 -6.901960E-03  9.038696E-02 -1.447175E-02  1.327014E-02  1.650067E-04
      3874   8  3.592336E-02  9.934769E-03  1.099144E-01 -2.170167E-02  1.219405E-02  3.800384E-04
      3875   1 -3.353972E-03 -6.393296E-04  1.251041E-01 -4.679013E-03  1.270759E-02  8.486677E-03
      3875   2  3.184293E-03  2.108610E-03  1.441504E-01 -8.630954E-03  1.132201E-02  7.697268E-03
      3875   3  5.533710E-03  8.552134E-03  1.305278E-01 -4.271612E-03  4.890079E-03 -1.011196E-03
      3875   4  1.291259E-02  1.326150E-02  1.504147E-01 -7.892938E-03  3.504504E-03 -1.358038E-03
      3875   5 -9.196267E-04 -6.108866E-03  1.044379E-01 -2.783850E-03  1.137224E-02  9.993765E-03
      3875   6  6.149719E-03 -2.829845E-03  1.247234E-01 -6.735791E-03  1.025115E-02  9.652682E-03
      3875   7  6.810903E-03  2.586675E-03  1.093658E-01 -2.936858E-03  3.112162E-03  4.958915E-04
      3875   8  1.472086E-02  7.827125E-03  1.304918E-01 -6.558184E-03  1.991078E-03  5.973764E-04
      3876   1 -1.395428E-03 -1.300901E-03  1.537268E-02  2.338797E-03  2.288942E-02  3.070246E-02
      3876   2  4.208857E-03 -2.444301E-03  3.519703E-02 -2.446442E-03  2.246816E-02  2.801224E-02
      3876   3  4.976922E-03  1.005735E-02  2.069186E-02  3.521729E-03  1.400188E-02  1.815211E-02
      3876   4  1.174022E-02  1.161832E-02  4.167522E-02 -3.255590E-04  1.358062E-02  1.609604E-02
      3876   5  2.924926E-04 -9.183459E-03 -1.259044E-02  5.712640E-03  1.959759E-02  3.311809E-02
      3876   6  6.657751E-03 -9.565885E-03  9.009519E-03  9.274003E-04  1.992668E-02  3.104601E-02
      3876   7  3.382014E-03  7.678652E-04 -8.678183E-03  6.122894E-03  1.007591E-02  2.056774E-02
      3876   8  1.090629E-02  3.089810E-03  1.408079E-02  2.275606E-03  1.040500E-02  1.912981E-02
      3877   1  1.195985E-02 -4.046362E-03  4.808209E-02  5.505610E-03  3.984086E-02  2.597433E-02
      3877   2  1.147423E-02 -1.416164E-02  5.657864E-02 -1.973564E-03  3.841230E-02  2.309686E-02
      3877   3  2.386251E-02  1.182177E-02  5.641333E-02  1.024026E-02  3.422701E-02  1.460994E-02
      3877   4  2.212049E-02 -1.225100E-03  6.365348E-02  2.527372E-03  3.279844E-02  1.260590E-02
      3877   5  2.449969E-02 -6.464873E-03  2.748056E-02  1.032044E-02  3.580806E-02  2.898909E-02
      3877   6  2.506218E-02 -1.553204E-02  3.842270E-02  2.841265E-03  3.419252E-02  2.544154E-02
      3877   7  3.722034E-02  9.753834E-03  3.616236E-02  1.589269E-02  2.932077E-02  1.762470E-02
      3877   8  3.652644E-02 -2.244927E-03  4.584811E-02  8.179800E-03  2.770524E-02  1.495058E-02
      3878   1  1.701451E-02 -1.501728E-02  6.491091E-02 -2.887890E-03  4.301943E-02  2.097554E-02
      3878   2  2.050981E-02 -1.243678E-02  7.398139E-02 -1.168893E-02  4.042082E-02  1.805744E-02
      3878   3  3.214763E-02 -1.361731E-03  7.354750E-02  1.950463E-03  3.953493E-02  1.110791E-02
      3878   4  3.517249E-02  1.210863E-04  8.214756E-02 -7.393361E-03  3.693633E-02  9.019361E-03
      3878   5  3.597699E-02 -1.365688E-02  5.048309E-02 -2.430492E-03  3.811560E-02  2.298312E-02
      3878   6  4.046774E-02 -1.008092E-02  6.187632E-02 -1.123153E-02  3.508276E-02  1.981412E-02
      3878   7  5.300985E-02  8.128461E-04  5.993387E-02  2.721485E-03  3.380155E-02  1.311549E-02
      3878   8  5.703017E-02  3.291123E-03  7.085666E-02 -6.622339E-03  3.076872E-02  1.077604E-02
      3879   1  3.234612E-03 -1.529828E-02  7.266592E-02 -1.012462E-02  3.621214E-02  1.640801E-02
      3879   2  1.146807E-02 -4.427609E-04  8.525526E-02 -1.732292E-02  3.331630E-02  1.481976E-02
      3879   3  1.939498E-02 -1.722761E-03  8.158668E-02 -7.699429E-03  3.348972E-02  7.882308E-03
      3879   4  2.863786E-02  1.548810E-02  9.518545E-02 -1.494645E-02  3.059388E-02  6.864369E-03
      3879   5  1.819783E-02 -1.473166E-02  5.959141E-02 -1.343565E-02  3.069413E-02  1.826991E-02
      3879   6  2.711566E-02  8.082227E-04  7.377761E-02 -2.063395E-02  2.775932E-02  1.722003E-02
      3879   7  3.452870E-02 -1.083073E-03  6.858525E-02 -1.168341E-02  2.740140E-02  9.744208E-03
      3879   8  4.445596E-02  1.681216E-02  8.378088E-02 -1.893043E-02  2.446658E-02  9.264634E-03
      3880   1 -7.200566E-03 -4.075883E-03  8.378517E-02 -3.848140E-03  1.966927E-02  1.348377E-02
      3880   2 -3.409427E-03 -1.845166E-03  9.419158E-02 -7.165881E-03  1.678703E-02  1.142202E-02
      3880   3  1.080337E-02  1.391457E-02  9.458348E-02 -3.098594E-03  1.553473E-02  5.724755E-03
      3880   4  1.602645E-02  1.948650E-02  1.064218E-01 -5.917541E-03  1.265248E-02  3.629211E-03
      3880   5 -4.899289E-03 -8.410089E-03  6.703654E-02 -3.067930E-03  1.615092E-02  1.636063E-02
      3880   6 -1.148701E-03 -6.219922E-03  7.734833E-02 -6.385671E-03  1.366771E-02  1.506258E-02
      3880   7  1.135886E-02  8.832174E-03  7.708666E-02 -3.273016E-03  1.205017E-02  8.601611E-03
      3880   8  1.654140E-02  1.436355E-02  8.883040E-02 -6.091962E-03  9.566956E-03  7.269772E-03
      3881   1 -1.399193E-04  7.869026E-03  3.693218E-03  4.609590E-03  1.869121E-02  2.299260E-02
      3881   2  9.172935E-05  4.415140E-03  7.919267E-03  1.197470E-03  1.857511E-02  2.255892E-02
      3881   3  2.846945E-03  1.387085E-02  6.389824E-03  6.398749E-03  1.619471E-02  1.465198E-02
      3881   4  5.027548E-03  1.496452E-02  1.256483E-02  3.237580E-03  1.607861E-02  1.527201E-02
      3881   5  1.793761E-03  2.978466E-03 -1.454233E-02  6.452357E-03  1.563702E-02  2.431468E-02
      3881   6  3.289857E-03  7.890275E-04 -7.365902E-03  3.040238E-03  1.572167E-02  2.492045E-02
      3881   7  3.902299E-03  8.603863E-03 -1.222215E-02  6.942214E-03  1.208681E-02  1.597407E-02
      3881   8  7.347350E-03  1.096198E-02 -3.096767E-03  3.781044E-03  1.217147E-02  1.763354E-02
      3882   1  1.244274E-02  2.775498E-03  1.583871E-02  1.433160E-02  4.007567E-02  2.162338E-02
      3882   2  7.459297E-03 -1.474823E-02  1.675094E-02  6.225498E-03  3.859018E-02  1.950114E-02
      3882   3  2.361630E-02  1.646805E-02  2.329854E-02  2.077472E-02  3.639087E-02  1.508992E-02
      3882   4  1.735782E-02 -4.030739E-03  2.293574E-02  1.182803E-02  3.490538E-02  1.397241E-02
      3882   5  3.297396E-02  7.094500E-03  9.704163E-03  2.060174E-02  3.504308E-02  2.411647E-02
      3882   6  2.919620E-02 -9.223535E-03  1.342968E-02  1.249564E-02  3.288513E-02  2.131421E-02
      3882   7  4.708955E-02  2.204792E-02  1.842487E-02  2.789488E-02  3.035354E-02  1.758301E-02
      3882   8  4.203676E-02  2.754825E-03  2.087535E-02  1.894819E-02  2.819559E-02  1.578549E-02
      3883   1  2.112423E-02 -1.502456E-02  2.544343E-02  5.968631E-03  4.612723E-02  1.769003E-02
      3883   2  2.247040E-02 -1.581460E-02  3.072070E-02 -3.857055E-03  4.241549E-02  1.486425E-02
      3883   3  4.002249E-02 -1.859806E-03  3.506233E-02  1.210811E-02  4.367029E-02  1.269881E-02
      3883   4  4.062162E-02 -4.392933E-03  3.959256E-02  1.508746E-03  3.995855E-02  1.033676E-02
      3883   5  4.952466E-02 -6.275500E-03  2.620653E-02  7.036736E-03  3.975078E-02  1.910837E-02
      3883   6  5.142730E-02 -6.509069E-03  3.278223E-02 -2.788950E-03  3.542009E-02  1.588417E-02
      3883   7  7.113081E-02  8.049776E-03  3.698595E-02  1.367424E-02  3.683011E-02  1.411715E-02
      3883   8  7.228641E-02  6.073123E-03  4.281462E-02  3.074875E-03  3.249942E-02  1.135668E-02
      3884   1  7.273600E-03 -1.777447E-02  2.886013E-02 -5.731610E-03  3.855976E-02  1.315747E-02
      3884   2  1.608400E-02 -1.924607E-04  4.064612E-02 -1.305809E-02  3.430006E-02  1.132024E-02
      3884   3  2.778195E-02 -5.419144E-03  3.871923E-02 -2.780618E-03  3.670002E-02  8.649378E-03
      3884   4  3.722960E-02  1.364979E-02  5.114247E-02 -1.027548E-02  3.244032E-02  6.401423E-03
      3884   5  2.750658E-02 -1.219446E-02  2.722719E-02 -1.011741E-02  3.195595E-02  1.415596E-02
      3884   6  3.582411E-02  4.894689E-03  3.786317E-02 -1.744390E-02  2.756155E-02  1.265859E-02
      3884   7  4.860426E-02  4.134400E-04  3.733886E-02 -7.591260E-03  3.050693E-02  9.647868E-03
      3884   8  5.755905E-02  1.898952E-02  4.861210E-02 -1.508612E-02  2.611252E-02  7.739782E-03
      3885   1 -4.711873E-03 -3.293549E-03  3.503987E-02 -2.494766E-03  1.863399E-02  9.505466E-03
      3885   2 -3.462459E-03 -6.870905E-04  3.659812E-02 -5.060771E-03  1.520287E-02  6.384662E-03
      3885   3  1.327401E-02  1.008077E-02  4.444793E-02 -1.594621E-03  1.844097E-02  4.221515E-03
      3885   4  1.515732E-02  1.416632E-02  4.664008E-02 -3.968372E-03  1.500984E-02  5.138480E-04
      3885   5 -2.071597E-03 -5.785283E-03  2.409381E-02 -3.173288E-03  1.469900E-02  1.109197E-02
      3885   6 -1.526418E-03 -3.883059E-03  2.400885E-02 -5.739293E-03  1.142168E-02  8.309244E-03
      3885   7  1.524139E-02  7.300659E-03  3.321349E-02 -2.695741E-03  1.509284E-02  5.808020E-03
      3885   8  1.642047E-02  1.068197E-02  3.376243E-02 -5.069492E-03  1.181551E-02  2.438431E-03
      3886   1  2.363134E-03  1.409334E-02 -6.368614E-04  8.937734E-03  6.377587E-03  8.741655E-03
      3886   2  5.407906E-04  1.213686E-02 -4.754853E-03  5.942989E-03  5.184453E-03  1.021507E-02
      3886   3  9.006251E-03  1.965117E-02  3.023422E-03  1.408521E-02  7.812367E-03  2.525715E-03
      3886   4  7.187249E-03  1.770248E-02 -1.091228E-03  1.129420E-02  6.619234E-03  4.427843E-03
      3886   5  5.385611E-03  1.112633E-02 -1.354938E-02  9.004805E-03  4.724523E-03  9.500673E-03
      3886   6  4.077720E-03  9.684300E-03 -1.646698E-02  6.010061E-03  3.694375E-03  1.097587E-02
      3886   7  1.131567E-02  1.637856E-02 -1.019469E-02  1.415005E-02  5.730593E-03  3.284733E-03
      3886   8  1.001112E-02  1.494433E-02 -1.310895E-02  1.135904E-02  4.700445E-03  5.188643E-03
      3887   1  2.238345E-02  1.300222E-02  1.962442E-03  2.734496E-02  2.284032E-02  1.025212E-02
      3887   2  1.191513E-02 -1.351964E-02 -6.410115E-03  1.774281E-02  1.910739E-02  8.879918E-03
      3887   3  3.924951E-02  2.124863E-02  9.496181E-03  3.885207E-02  2.153046E-02  5.136792E-03
      3887   4  2.634086E-02 -1.096731E-02 -1.316696E-03  2.829977E-02  1.779754E-02  5.171548E-03
      3887   5  4.985256E-02  2.126704E-02  2.042738E-03  3.537172E-02  1.883400E-02  1.053719E-02
      3887   6  4.107259E-02 -3.566466E-03 -2.390335E-03  2.576958E-02  1.434095E-02  7.863482E-03
      3887   7  7.004416E-02  3.093868E-02  1.100171E-02  4.850571E-02  1.611719E-02  5.421860E-03
      3887   8  5.882387E-02  4.110979E-04  4.128319E-03  3.795341E-02  1.162414E-02  4.155113E-03
      3888   1  3.703638E-02 -1.234756E-02  3.418945E-03  1.771112E-02  2.727175E-02  7.746281E-03
      3888   2  3.588515E-02 -1.701728E-02  4.251239E-03  6.338491E-03  2.286868E-02  6.021331E-03
      3888   3  5.348452E-02 -1.066080E-02  8.859416E-03  2.687935E-02  2.603205E-02  4.814757E-03
      3888   4  5.228891E-02 -1.543407E-02  9.647330E-03  1.416780E-02  2.162898E-02  3.805230E-03
      3888   5  7.332277E-02  1.193560E-03  1.226963E-02  1.947037E-02  2.262846E-02  6.244799E-03
      3888   6  7.303005E-02 -2.617657E-03  1.510510E-02  8.097739E-03  1.715427E-02  4.496179E-03
      3888   7  9.445711E-02  4.888697E-03  1.971847E-02  2.866818E-02  2.067334E-02  3.313275E-03
      3888   8  9.412001E-02  9.739293E-04  2.250957E-02  1.595663E-02  1.519914E-02  2.280078E-03
      3889   1  2.030355E-02 -1.923114E-02  8.856619E-04 -6.983752E-04  2.018671E-02  5.139319E-03
      3889   2  3.003451E-02  1.311408E-03  1.277964E-02 -8.570478E-03  1.770852E-02  4.454568E-03
      3889   3  2.892922E-02 -1.975619E-02  3.315848E-03  2.039428E-03  1.883482E-02  2.920449E-03
      3889   4  4.046191E-02  4.990414E-03  1.701156E-02 -6.694929E-03  1.635663E-02  1.512713E-03
      3889   5  4.519327E-02 -1.008563E-02  6.480983E-03 -6.104171E-03  1.621620E-02  3.957227E-03
      3889   6  5.405664E-02  9.589337E-03  1.635060E-02 -1.397627E-02  1.304821E-02  4.233402E-03
      3889   7  5.683682E-02 -9.317294E-03  1.020455E-02 -4.567525E-03  1.558730E-02  1.738358E-03
      3889   8  6.750193E-02  1.456172E-02  2.187590E-02 -1.330188E-02  1.241931E-02  1.291546E-03
      3890   1  2.613619E-03 -3.012705E-03  4.261032E-03 -1.444245E-03  6.351525E-03  3.464047E-03
      3890   2  4.645132E-03  1.778649E-03  6.241388E-03 -3.826114E-03  5.307363E-03  1.442645E-03
      3890   3  7.612798E-03 -4.929943E-05  6.649807E-03 -1.933551E-03  6.383498E-03  1.168164E-04
      3890   4  1.015296E-02  5.928905E-03  9.138813E-03 -4.529856E-03  5.339336E-03 -2.289107E-03
      3890   5  6.933486E-03 -3.456578E-03 -1.538410E-03 -2.824165E-03  4.289199E-03  3.693900E-03
      3890   6  8.503574E-03  8.733507E-04 -6.347131E-04 -5.206035E-03  3.073491E-03  1.943778E-03
      3890   7  1.268318E-02 -1.715204E-04  1.172017E-03 -3.652572E-03  4.705694E-03  3.466686E-04
      3890   8  1.476192E-02  5.345259E-03  2.584364E-03 -6.248876E-03  3.489985E-03 -1.787974E-03
      3891   1 -1.132630E+00 -5.242283E-01  2.903008E+00  6.687637E+00 -1.156259E-01  1.397964E+00
      3891   2 -9.094825E-01 -2.288757E-01  3.102372E+00  6.065283E+00 -4.782164E-02  7.126713E-01
      3891   3 -1.036440E+00 -5.171384E-01  1.129230E+00  5.910554E+00  1.573296E-01  1.226189E+00
      3891   4 -1.295833E+00 -4.622845E-01  1.219534E+00  5.429650E+00 -3.717360E-02  6.424480E-01
      3891   5 -2.233551E+00 -3.153034E+00  1.862076E+00  6.943157E+00 -9.382670E-02  2.267526E+00
      3891   6 -1.807137E+00 -2.400772E+00  2.282087E+00  6.159792E+00 -2.203552E-02  1.229054E+00
      3891   7 -2.577343E+00 -3.456679E+00 -1.067573E+00  6.146241E+00  1.490352E-02  2.148453E+00
      3891   8 -2.619134E+00 -2.954246E+00 -6.995056E-01  5.523262E+00 -1.657987E-01  1.243447E+00
      3892   1 -9.430103E-01 -5.012476E-01  2.927126E+00  5.908619E+00 -5.840671E-01  1.479358E+00
      3892   2 -7.618173E-01 -6.157387E-01  2.978470E+00  5.958311E+00 -5.545551E-01  9.939125E-01
      3892   3 -1.417944E+00 -6.762915E-01  1.293032E+00  5.275001E+00 -2.408052E-01  1.367550E+00
      3892   4 -1.327530E+00 -7.552953E-01  1.405731E+00  5.280253E+00 -4.156363E-01  9.544841E-01
      3892   5 -1.834666E+00 -2.620807E+00  2.074498E+00  5.928062E+00 -5.086386E-01  1.945609E+00
      3892   6 -1.684624E+00 -2.818295E+00  2.105003E+00  5.931978E+00 -4.781531E-01  1.253128E+00
      3892   7 -2.575483E+00 -2.942612E+00 -2.991125E-01  5.295405E+00 -2.100879E-01  1.797525E+00
      3892   8 -2.488272E+00 -3.065053E+00 -1.536501E-01  5.260205E+00 -3.815239E-01  1.203164E+00
      3893   1 -7.140863E-01 -1.061116E+00  2.944407E+00  6.201535E+00 -1.124636E+00  1.344484E+00
      3893   2 -5.239966E-01 -1.468329E+00  2.909158E+00  6.605137E+00 -1.210879E+00  9.128823E-01
      3893   3 -1.400514E+00 -1.205008E+00  1.180984E+00  5.415016E+00 -4.761728E-01  1.169690E+00
      3893   4 -1.217177E+00 -1.552879E+00  1.236504E+00  5.780434E+00 -7.953597E-01  8.151884E-01
      3893   5 -1.770980E+00 -3.379906E+00  1.740217E+00  6.147237E+00 -1.000310E+00  1.326724E+00
      3893   6 -1.571728E+00 -3.774629E+00  1.723021E+00  6.532718E+00 -1.086386E+00  7.254902E-01
      3893   7 -2.694574E+00 -3.626796E+00 -7.107624E-01  5.365833E+00 -3.603316E-01  1.173746E+00
      3893   8 -2.480664E+00 -3.934522E+00 -5.934754E-01  5.715113E+00 -6.789308E-01  6.722849E-01
      3894   1  4.151189E-01 -1.500207E+00  5.404553E+00  7.196633E+00 -8.602243E-01  8.987370E-01
      3894   2 -2.046041E-01 -3.570154E+00  4.661877E+00  8.532806E+00 -8.069331E-01 -9.027320E-02
      3894   3 -1.436404E+00 -2.489193E+00  9.942266E-01  6.195606E+00  3.886053E-02  5.064998E-01
      3894   4 -2.067004E+00 -4.385758E+00  4.625993E-01  7.402027E+00 -3.589798E-01 -3.257498E-01
      3894   5 -5.611227E-01 -3.948098E+00  4.598305E+00  7.109256E+00 -7.723360E-01  9.979517E-01
      3894   6 -1.293562E+00 -6.295651E+00  3.757516E+00  8.408374E+00 -7.183124E-01 -2.870681E-01
      3894   7 -2.892219E+00 -5.247077E+00 -1.100607E+00  6.123158E+00  8.616598E-02  6.496186E-01
      3894   8 -3.589113E+00 -7.349830E+00 -1.647023E+00  7.297491E+00 -3.090907E-01 -4.349033E-01
      3895   1 -3.809675E-01  9.938464E-01  1.165441E+00  1.219782E+00  6.205536E-01  1.772491E-01
      3895   2 -3.149651E-01  2.061226E+00  1.610268E+00  1.042398E+00  3.125748E-01 -1.038687E-01
      3895   3 -1.157948E+00 -1.896259E-01 -1.469839E-01  1.965580E+00  2.687523E-01  5.322010E-01
      3895   4 -1.052165E+00  7.251146E-01  2.714334E-01  1.898862E+00 -4.920457E-02  2.820746E-01
      3895   5  4.452304E-01  3.625117E+00  1.288163E+00  1.213161E+00  4.648313E-01  7.022202E-02
      3895   6  6.447978E-01  5.002965E+00  1.867739E+00  1.097659E+00  1.509715E-01 -1.956392E-01
      3895   7 -4.445749E-01  2.186572E+00 -1.452725E-01  1.958197E+00  1.536696E-01  5.155408E-01
      3895   8 -2.314285E-01  3.350559E+00  3.817769E-01  1.945547E+00 -1.705862E-01  2.814518E-01
      3896   1 -4.597558E-01  1.920237E+00  1.684856E+00  9.303066E-01  3.068182E-01  6.285334E-01
      3896   2 -2.758326E-01  2.155293E+00  1.928726E+00  8.972128E-01  6.847218E-02  3.179226E-01
      3896   3 -1.207768E+00  6.001492E-01  1.863317E-01  1.802102E+00  1.392855E-01  7.829129E-01
      3896   4 -1.045471E+00  7.898800E-01  4.195928E-01  1.809231E+00 -1.055353E-01  5.056022E-01
      3896   5  7.216743E-01  5.186832E+00  2.356361E+00  9.718027E-01  3.182988E-01  4.708337E-01
      3896   6  9.415037E-01  5.504962E+00  2.636844E+00  9.342252E-01  8.032610E-02  1.767928E-01
      3896   7 -1.591157E-01  3.562181E+00  7.198084E-01  1.840775E+00  1.479924E-01  6.602989E-01
      3896   8  3.093935E-02  3.815916E+00  9.815908E-01  1.843854E+00 -9.642522E-02  4.001987E-01
      3897   1 -4.248306E-01  1.649647E+00  1.621383E+00  7.166789E-01  2.485419E-01  5.480287E-01
      3897   2 -1.250333E-01  1.719092E+00  1.829628E+00  6.332003E-01 -5.459559E-02  3.302877E-01
      3897   3 -1.174424E+00  3.522741E-01  2.322526E-01  1.700280E+00  1.278725E-01  6.522940E-01
      3897   4 -1.059743E+00  2.228647E-01  3.339440E-01  1.796979E+00 -9.814022E-02  4.380401E-01
      3897   5  8.243959E-01  5.241272E+00  2.193846E+00  7.045145E-01  3.407020E-01  4.064812E-01
      3897   6  1.385481E+00  5.943175E+00  2.640592E+00  5.703831E-01  4.281631E-02  2.879448E-01
      3897   7 -3.064157E-02  3.516673E+00  8.804611E-01  1.702698E+00  1.782738E-01  6.608556E-01
      3897   8  2.990138E-01  3.913676E+00  1.172320E+00  1.755440E+00 -4.202179E-02  5.294139E-01
      3898   1 -3.498550E-01  1.359993E+00  1.069896E+00 -1.521591E-01  8.062757E-01  3.485432E-01
      3898   2 -3.157451E-01  1.187933E+00  1.061959E+00 -7.101267E-01  5.715631E-01  3.343958E-01
      3898   3 -1.099132E+00 -5.479945E-02  1.372448E-01  1.581633E+00  1.850674E-02  3.961012E-01
      3898   4 -1.016768E+00 -2.949360E-01  1.265880E-01  1.188760E+00  2.431924E-02  3.262471E-01
      3898   5  8.975250E-01  5.105235E+00  1.482588E+00 -1.941064E-01  8.489694E-01  8.732669E-01
      3898   6  1.007997E+00  5.175557E+00  1.486810E+00 -7.242378E-01  6.104714E-01  1.139455E+00
      3898   7  2.894368E-01  3.475844E+00  1.235163E+00  1.523878E+00  9.327712E-02  8.794606E-01
      3898   8  4.161420E-01  3.409570E+00  1.198450E+00  1.154147E+00  9.493896E-02  1.048467E+00
      3899   1 -6.064167E-01  9.815313E-01  3.158987E-01 -2.035144E-01  4.557303E-01 -8.871804E-02
      3899   2 -4.877259E-01  1.794438E+00  6.615908E-01  1.159254E-02  1.239892E-01 -2.235624E-01
      3899   3 -7.913111E-01  3.250742E-01 -2.298906E-01  3.435347E-01  2.099798E-01  1.792587E-01
      3899   4 -6.113669E-01  1.073893E+00  9.539320E-02  5.089083E-01 -4.710591E-02  6.051310E-02
      3899   5  1.620300E-01  3.343545E+00  5.153743E-01 -1.005133E-01  3.540119E-01 -3.293398E-01
      3899   6  1.689217E-01  3.931594E+00  7.132599E-01  1.876152E-01  1.319827E-02 -2.993344E-01
      3899   7  2.092298E-02  2.629713E+00  1.729178E-01  4.375155E-01  1.484606E-01 -6.825820E-02
      3899   8  1.102554E-01  3.192476E+00  3.822184E-01  6.643972E-01 -1.150177E-01 -4.739782E-02
      3900   1 -7.022134E-01  1.526268E+00  4.558783E-01 -4.857799E-02  3.788692E-01  2.478127E-01
      3900   2 -5.217764E-01  1.836001E+00  6.583551E-01 -7.526012E-03  1.461340E-01  1.469104E-01
      3900   3 -6.961368E-01  9.859046E-01  5.930989E-02  4.388027E-01  2.335615E-01  3.763278E-01
      3900   4 -5.692082E-01  1.226851E+00  2.079586E-01  4.862827E-01  4.371342E-02  2.898742E-01
      3900   5  1.052691E-01  3.867102E+00  8.066527E-01  1.208533E-01  3.656244E-01  1.300977E-01
      3900   6  3.069719E-01  4.253102E+00  1.003748E+00  1.589799E-01  1.331652E-01  1.415775E-01
      3900   7  1.133667E-01  3.217856E+00  5.257037E-01  5.985092E-01  2.191401E-01  2.677815E-01
      3900   8  2.601315E-01  3.523493E+00  6.757816E-01  6.439486E-01  2.948267E-02  2.770924E-01
      3901   1 -7.078699E-01  1.262394E+00  4.516029E-01 -2.974429E-01  3.633750E-01  3.723365E-01
      3901   2 -6.295462E-01  1.160038E+00  4.714298E-01 -5.076552E-01  2.443525E-01  3.452707E-01
      3901   3 -6.168272E-01  8.562016E-01  2.464688E-01  3.634846E-01  9.942280E-02  4.167727E-01
      3901   4 -5.166290E-01  7.419245E-01  2.604957E-01  2.379631E-01  3.826208E-02  3.814671E-01
      3901   5  8.120404E-02  3.492239E+00  8.520038E-01 -1.488048E-01  3.836914E-01  5.724813E-01
      3901   6  1.843451E-01  3.494826E+00  8.496126E-01 -3.390421E-01  2.613641E-01  7.215908E-01
      3901   7  2.068229E-01  2.974333E+00  8.738373E-01  4.920844E-01  1.332572E-01  5.804708E-01
      3901   8  3.257625E-01  2.935537E+00  8.748551E-01  3.816351E-01  6.986558E-02  6.889651E-01
      3902   1 -6.364133E-01  8.323913E-01  3.997332E-01 -5.243991E-01  1.135759E-01  3.467432E-01
      3902   2 -5.752625E-01  4.303392E-01  3.264286E-01 -6.975548E-01  1.803067E-01  2.760215E-01
      3902   3 -4.198300E-01  5.690542E-01  2.724040E-01  2.897450E-01 -1.030202E-01  3.490179E-01
      3902   4 -2.241995E-01  3.336018E-01  2.794889E-01  1.010360E-01 -4.838092E-03  2.753864E-01
      3902   5 -1.147470E-01  2.127265E+00  8.437468E-01 -3.880268E-01  1.774987E-01  9.151712E-01
      3902   6 -5.418090E-01  6.237373E-01  2.445420E-01 -5.223697E-01  2.377908E-01  1.017892E+00
      3902   7  3.934331E-01  2.396902E+00  1.155433E+00  3.856568E-01 -1.391146E-02  6.783873E-01
      3902   8  2.026108E-01  1.284489E+00  7.513032E-01  2.249219E-01  8.004015E-02  7.344757E-01
      3903   1 -4.650770E-01  7.389820E-01 -9.331753E-03 -4.778320E-01  2.155952E-01 -1.170489E-01
      3903   2 -3.622960E-01  1.257021E+00  1.870347E-01 -2.037595E-01 -8.061279E-03 -1.238611E-01
      3903   3 -3.729971E-01  4.989230E-01 -1.103004E-01 -1.977842E-01  1.343329E-01  1.124173E-02
      3903   4 -2.865642E-01  9.703527E-01  5.910636E-02 -3.973679E-04 -2.976901E-02  1.003786E-02
      3903   5  1.703152E-02  2.204241E+00  1.324376E-01 -3.521798E-01  1.678229E-01 -2.706480E-01
      3903   6  1.366758E-02  2.489441E+00  2.078266E-01 -4.637089E-02 -5.802105E-02 -1.595601E-01
      3903   7  1.318943E-01  1.934426E+00  1.371681E-01 -8.009742E-02  9.878930E-02 -1.556627E-01
      3903   8  1.399718E-01  2.226028E+00  2.252178E-01  1.448586E-01 -6.575531E-02 -6.036385E-02
      3904   1 -4.759900E-01  1.064081E+00  1.358269E-01 -2.740283E-01  2.519414E-01  1.846083E-01
      3904   2 -3.669309E-01  1.315748E+00  2.484216E-01 -2.574082E-01  8.994119E-02  2.016254E-01
      3904   3 -3.427162E-01  8.821992E-01  1.023973E-01 -5.375822E-02  1.667870E-01  2.379813E-01
      3904   4 -2.770070E-01  1.063332E+00  1.772722E-01 -2.751500E-02  3.053840E-02  2.571527E-01
      3904   5 -4.852142E-02  2.353891E+00  2.709122E-01 -1.160540E-01  2.394232E-01  1.797913E-01
      3904   6  1.163558E-01  2.751778E+00  4.233472E-01 -8.093199E-02  7.596635E-02  3.095210E-01
      3904   7  8.864315E-02  2.112286E+00  3.101753E-01  9.341295E-02  1.605414E-01  2.361880E-01
      3904   8  2.044292E-01  2.413267E+00  4.321247E-01  1.347723E-01  2.401905E-02  3.479948E-01
      3905   1 -4.903226E-01  7.330649E-01  2.429444E-01 -3.547680E-01  8.687894E-02  2.928663E-01
      3905   2 -3.987574E-01  5.732440E-01  2.293802E-01 -4.845462E-01  5.431392E-02  2.760511E-01
      3905   3 -3.365551E-01  6.285755E-01  2.369017E-01 -4.242373E-02 -4.854136E-03  3.049724E-01
      3905   4 -2.247481E-01  4.901448E-01  2.300573E-01 -8.063992E-02 -2.333402E-02  2.877196E-01
      3905   5 -1.242943E-01  1.703129E+00  4.929740E-01 -2.299504E-01  1.271948E-01  5.258879E-01
      3905   6 -1.312390E-01  1.339415E+00  3.549374E-01 -3.353088E-01  9.230460E-02  6.818789E-01
      3905   7  7.351647E-02  1.623188E+00  6.091946E-01  6.599169E-02  4.246703E-02  4.769572E-01
      3905   8  1.186550E-01  1.333489E+00  5.313899E-01  4.292857E-02  2.360277E-02  5.776566E-01
      3906   1 -3.104412E-01  3.570363E-01  2.213361E-01 -1.884419E-01 -7.362899E-02  2.095947E-01
      3906   2 -2.696340E-01 -2.896889E-01  7.070179E-02 -2.042116E-01  1.926759E-02  5.038989E-02
      3906   3 -6.502315E-02  4.613320E-01  2.733429E-01  8.369069E-02 -5.980304E-02  2.310379E-01
      3906   4  6.570920E-02  7.413887E-02  2.003008E-01  1.738825E-01  3.724099E-02  1.261568E-01
      3906   5 -7.429036E-02  7.652089E-01  6.003328E-01 -2.019386E-01  2.658924E-02  3.945285E-01
      3906   6 -3.529566E-01 -6.172055E-01  1.204764E-01 -3.393908E-01  1.282864E-01  3.049191E-01
      3906   7  2.578463E-01  1.055286E+00  7.556208E-01  1.045197E-01  2.546335E-02  3.640973E-01
      3906   8  2.067994E-01  2.451605E-01  4.995797E-01  1.259400E-01  1.236084E-01  2.850905E-01
      3907   1 -9.334457E+00  1.913183E+00  1.845045E+00  1.004245E+01 -2.271177E-02  1.060971E+00
      3907   2 -9.585186E+00  1.058487E+00  1.541221E+00  9.253472E+00 -2.050293E-01  6.658954E-01
      3907   3 -5.093119E+00  3.999956E+00  2.598226E+00  7.953027E+00 -4.652966E-02  7.029769E-01
      3907   4 -5.428306E+00  3.116421E+00  2.328852E+00  7.322954E+00 -2.623502E-01  3.484556E-01
      3907   5 -1.272333E+01 -5.600064E+00 -1.937959E+00  1.142719E+01 -2.099573E-02  1.056531E+00
      3907   6 -1.256091E+01 -5.495102E+00 -1.824274E+00  1.052701E+01 -2.006002E-01  5.866727E-01
      3907   7 -8.352291E+00 -3.031093E+00 -1.234634E+00  9.218988E+00 -1.565696E-01  9.102609E-01
      3907   8 -8.298269E+00 -3.021561E+00 -1.099708E+00  8.484529E+00 -3.629986E-01  4.746256E-01
      3908   1 -9.687433E+00  6.308555E-01  1.620645E+00  8.989529E+00 -8.654929E-01  9.746962E-01
      3908   2 -9.940578E+00  2.541776E-01  1.454080E+00  8.943988E+00 -1.141839E+00  6.667982E-01
      3908   3 -5.443393E+00  2.709685E+00  2.489522E+00  7.079018E+00 -6.491949E-01  8.618392E-01
      3908   4 -5.331978E+00  2.529419E+00  2.546925E+00  6.980684E+00 -9.397509E-01  5.713834E-01
      3908   5 -1.266519E+01 -5.756503E+00 -1.917856E+00  1.023955E+01 -9.311694E-01  1.279560E+00
      3908   6 -1.285012E+01 -5.976296E+00 -2.013931E+00  1.021785E+01 -1.208035E+00  9.509610E-01
      3908   7 -8.260446E+00 -3.198099E+00 -9.928719E-01  8.207871E+00 -6.910096E-01  1.196646E+00
      3908   8 -8.072346E+00 -3.207377E+00 -8.508413E-01  8.124336E+00 -9.833776E-01  8.855592E-01
      3909   1 -9.971847E+00 -1.238895E-01  1.522908E+00  9.289350E+00 -2.097056E+00  7.998968E-01
      3909   2 -9.894878E+00 -6.224312E-01  1.421075E+00  1.000459E+01 -2.388056E+00  4.593044E-01
      3909   3 -5.263766E+00  2.164204E+00  2.373447E+00  7.175678E+00 -1.253306E+00  6.281675E-01
      3909   4 -4.828476E+00  1.892676E+00  2.509032E+00  7.738294E+00 -1.553446E+00  3.034541E-01
      3909   5 -1.293614E+01 -6.474879E+00 -2.007075E+00  1.056122E+01 -2.031160E+00  1.350357E+00
      3909   6 -1.292681E+01 -7.131819E+00 -2.175972E+00  1.128874E+01 -2.322700E+00  1.024687E+00
      3909   7 -7.985034E+00 -3.590616E+00 -9.426264E-01  8.310324E+00 -1.160092E+00  1.130217E+00
      3909   8 -7.597185E+00 -3.974858E+00 -8.524665E-01  8.876979E+00 -1.462124E+00  8.201447E-01
      3910   1 -9.590794E+00 -6.885730E-01  2.498561E+00  1.067627E+01 -1.850242E+00  1.141224E-01
      3910   2 -1.030783E+01 -1.746885E+00  2.012045E+00  1.204608E+01 -1.847812E+00 -5.873650E-01
      3910   3 -4.910237E+00  1.330861E+00  1.955177E+00  8.090258E+00 -4.718755E-01 -3.906130E-02
      3910   4 -4.849189E+00  7.900144E-01  1.973792E+00  9.008202E+00 -6.741295E-01 -6.983525E-01
      3910   5 -1.241359E+01 -7.312716E+00 -2.866038E-01  1.203059E+01 -1.981318E+00  8.616613E-01
      3910   6 -1.352642E+01 -9.300863E+00 -1.162620E+00  1.349170E+01 -1.980960E+00  3.839394E-02
      3910   7 -7.613328E+00 -4.664939E+00 -1.059328E+00  9.275073E+00 -4.881682E-01  4.125702E-01
      3910   8 -7.872867E+00 -5.976040E+00 -1.339078E+00  1.026621E+01 -6.977296E-01 -3.385148E-01
      3911   1 -5.040292E+00 -3.338700E-01  6.857407E-01  2.659344E+00  3.332279E-01  4.584451E-01
      3911   2 -4.917018E+00 -4.082689E-04  9.346019E-01  2.219654E+00  1.040281E-01  1.283643E-01
      3911   3 -2.652674E+00  6.188964E-01  9.149936E-01  1.992323E+00  1.092416E-01  5.264223E-01
      3911   4 -2.655081E+00  8.337942E-01  1.098530E+00  1.734019E+00 -1.090021E-01  2.276500E-01
      3911   5 -6.535920E+00 -3.270873E+00 -1.362685E+00  3.629675E+00  1.938473E-01  3.752198E-01
      3911   6 -6.088199E+00 -2.176091E+00 -7.936511E-01  3.145988E+00 -2.975095E-02  6.208750E-02
      3911   7 -4.055818E+00 -2.131857E+00 -1.011402E+00  2.892103E+00 -6.884795E-02  6.132836E-01
      3911   8 -3.783591E+00 -1.271564E+00 -5.578103E-01  2.596586E+00 -2.810920E-01  3.272718E-01
      3912   1 -4.923984E+00 -3.476069E-01  1.035060E+00  2.026315E+00 -1.134865E-01  6.357343E-01
      3912   2 -4.622549E+00 -3.418611E-01  1.265775E+00  1.911883E+00 -3.904512E-01  2.399887E-01
      3912   3 -2.814126E+00  3.717166E-01  8.542613E-01  1.597536E+00 -1.456537E-01  6.667691E-01
      3912   4 -2.468972E+00  3.962732E-01  1.114845E+00  1.546357E+00 -3.855490E-01  3.048471E-01
      3912   5 -6.033341E+00 -2.301367E+00 -7.090335E-01  2.911232E+00 -1.268559E-01  7.490334E-01
      3912   6 -5.620035E+00 -2.022925E+00 -3.781171E-01  2.789047E+00 -4.038739E-01  4.179449E-01
      3912   7 -3.833249E+00 -1.458197E+00 -7.129028E-01  2.413139E+00 -1.586272E-01  8.372620E-01
      3912   8 -3.394963E+00 -1.203729E+00 -3.717904E-01  2.353136E+00 -3.985801E-01  5.317908E-01
      3913   1 -4.608093E+00 -8.439855E-01  9.161936E-01  1.851535E+00 -3.962047E-01  2.095944E-01
      3913   2 -4.067428E+00 -9.797167E-01  1.176983E+00  1.975538E+00 -6.302715E-01 -1.864215E-01
      3913   3 -2.489727E+00 -6.517204E-02  6.776347E-01  1.474148E+00 -2.462698E-01  2.372635E-01
      3913   4 -2.043877E+00 -2.120475E-01  9.189826E-01  1.612070E+00 -4.200399E-01 -1.298129E-01
      3913   5 -5.565973E+00 -2.529520E+00 -5.912034E-01  2.655159E+00 -2.837080E-01  5.756231E-01
      3913   6 -5.021320E+00 -2.638494E+00 -3.438800E-01  2.710814E+00 -5.116052E-01  2.695778E-01
      3913   7 -3.317497E+00 -1.585901E+00 -5.608702E-01  2.227751E+00 -1.828310E-01  5.860601E-01
      3913   8 -2.873159E+00 -1.717303E+00 -3.400347E-01  2.304331E+00 -3.498847E-01  2.975097E-01
      3914   1 -4.287630E+00 -1.646658E+00  4.135373E-02  1.108842E+00  4.241916E-01 -3.581219E-01
      3914   2 -4.110151E+00 -2.283661E+00  2.169354E-02  2.557230E-01  4.027550E-01 -6.837504E-01
      3914   3 -2.115987E+00 -5.675154E-01  1.502594E-02  1.326104E+00 -2.670441E-01 -4.416928E-01
      3914   4 -1.870818E+00 -1.166230E+00  3.856259E-02  6.804829E-01 -1.666094E-01 -7.502350E-01
      3914   5 -4.953593E+00 -2.830258E+00 -9.949216E-01  1.844686E+00  4.938999E-01  6.624759E-02
      3914   6 -4.550031E+00 -2.909214E+00 -8.190192E-01  9.883369E-01  4.712316E-01 -1.434083E-01
      3914   7 -2.704130E+00 -1.828153E+00 -6.848114E-01  1.990350E+00 -1.869003E-01  6.822545E-02
      3914   8 -2.273662E+00 -1.961039E+00 -5.094405E-01  1.339238E+00 -8.781601E-02 -1.456208E-01
      3915   1 -2.362930E+00 -1.234843E+00  1.739679E-01 -4.464951E-01  3.312855E-01  2.041641E-01
      3915   2 -2.202954E+00 -5.227820E-01  5.523697E-01 -4.324182E-01  1.001531E-01 -1.205224E-01
      3915   3 -1.362045E+00 -1.042609E+00  1.441398E-02 -3.664113E-01  2.156797E-01  3.627177E-01
      3915   4 -1.336867E+00 -4.966919E-01  2.680360E-01 -2.947240E-01  1.570569E-02  8.503217E-02
      3915   5 -2.435434E+00 -9.652405E-01 -3.373170E-01  1.043750E-01  1.904958E-01  1.164290E-01
      3915   6 -2.175900E+00 -2.044133E-03  1.218098E-01  1.335563E-01 -4.191808E-02 -1.302401E-01
      3915   7 -1.393974E+00 -7.617781E-01 -3.728482E-01  1.488544E-01  8.056805E-02  3.301200E-01
      3915   8 -1.287662E+00 -1.327846E-02 -5.136265E-02  2.361428E-01 -1.203089E-01  1.219729E-01
      3916   1 -2.395469E+00 -9.471845E-01  2.466042E-01 -4.791553E-01  1.375380E-01  2.715996E-01
      3916   2 -1.979100E+00 -6.579304E-01  5.699683E-01 -4.317992E-01 -8.629529E-02 -1.467404E-02
      3916   3 -1.510599E+00 -8.100171E-01  7.712951E-02 -3.255663E-01  1.136065E-01  3.680076E-01
      3916   4 -1.237935E+00 -6.120255E-01  2.954692E-01 -2.601948E-01 -7.358156E-02  1.241643E-01
      3916   5 -2.310053E+00 -2.841985E-01 -1.316614E-01  2.361625E-02  1.579709E-01  3.240760E-01
      3916   6 -1.860092E+00  1.079730E-01  2.007585E-01  2.770933E-02 -6.096899E-02  1.406347E-01
      3916   7 -1.387954E+00 -1.647620E-01 -1.593086E-01  1.538918E-01  1.131784E-01  4.252887E-01
      3916   8 -1.086812E+00  1.166274E-01  7.056052E-02  1.841630E-01 -7.062941E-02  2.697118E-01
      3917   1 -2.040438E+00 -1.081997E+00  7.824745E-02 -6.583240E-01  6.052493E-02 -3.067890E-02
      3917   2 -1.742129E+00 -1.368377E+00  1.975707E-01 -8.651335E-01 -1.833985E-02 -3.149201E-01
      3917   3 -1.260303E+00 -8.021738E-01 -7.720136E-02 -3.142882E-01 -8.521995E-02  2.146998E-02
      3917   4 -1.087558E+00 -1.102461E+00 -3.733221E-02 -4.140830E-01 -1.208808E-01 -2.228447E-01
      3917   5 -1.829080E+00 -2.820487E-01 -1.717374E-02 -2.795781E-01  1.464853E-01  2.419917E-01
      3917   6 -1.438523E+00 -3.158334E-01  1.570479E-01 -5.612644E-01  7.635855E-02  8.986988E-02
      3917   7 -1.027331E+00 -1.045659E-01  1.765520E-03  6.526655E-02 -3.500110E-02  2.852009E-01
      3917   8 -7.830790E-01 -2.127924E-01  8.792862E-02 -9.553040E-02 -6.476342E-02  1.496081E-01
      3918   1 -1.510425E+00 -9.170057E-01 -3.766894E-01 -8.416877E-01 -1.751792E-01 -4.376073E-01
      3918   2 -9.703938E-01 -7.159699E-01 -5.998706E-02 -1.053721E+00 -7.848352E-02 -7.021316E-01
      3918   3 -1.018627E+00 -9.416830E-01 -6.057419E-01 -2.780492E-01 -2.851214E-01 -2.877678E-01
      3918   4 -6.565132E-01 -8.399714E-01 -4.045817E-01 -3.744155E-01 -1.678528E-01 -5.077201E-01
      3918   5 -1.127671E+00 -3.875297E-02  2.090181E-02 -6.305638E-01 -4.800719E-02  3.673394E-04
      3918   6 -5.872002E-01  1.900493E-01  3.113057E-01 -9.530681E-01  6.222285E-02 -1.768562E-01
      3918   7 -6.349050E-01 -1.657619E-01 -1.025892E-01 -2.698186E-02 -2.108909E-01  9.858540E-02
      3918   8 -2.795749E-01 -6.231083E-02  7.421877E-02 -2.115145E-01 -8.472970E-02 -5.422644E-02
      3919   1 -9.996453E-01 -1.410155E+00 -1.219292E-01 -1.094704E+00  2.477701E-01  6.913321E-02
      3919   2 -9.714977E-01 -7.618527E-01  1.166547E-01 -9.065631E-01  6.120940E-02 -1.025226E-01
      3919   3 -5.566915E-01 -1.401210E+00 -1.856431E-01 -8.405559E-01  1.940177E-01  1.870305E-01
      3919   4 -6.113691E-01 -8.816595E-01 -3.896706E-02 -6.931926E-01  4.323369E-02  5.115056E-02
      3919   5 -5.553168E-01 -7.461590E-02  2.362715E-02 -7.985188E-01  1.436526E-01 -3.597444E-03
      3919   6 -5.643107E-01  4.974237E-01  2.146683E-01 -5.594368E-01 -4.625464E-02 -9.174413E-02
      3919   7 -1.065771E-01 -1.103156E-01  2.384317E-02 -5.623120E-01  1.086076E-01  1.153641E-01
      3919   8 -1.857500E-01  3.541845E-01  1.439191E-01 -3.694810E-01 -4.285362E-02  5.006720E-02
      3920   1 -1.172748E+00 -1.088115E+00 -6.001459E-02 -9.367175E-01  1.621246E-01  1.456001E-01
      3920   2 -1.018231E+00 -1.009596E+00  5.469104E-02 -9.382063E-01  5.489766E-03 -5.526789E-02
      3920   3 -7.672183E-01 -1.057155E+00 -1.219568E-01 -7.101756E-01  1.089221E-01  1.960936E-01
      3920   4 -7.107388E-01 -1.033830E+00 -8.959835E-02 -7.045394E-01 -1.966939E-02  3.661333E-02
      3920   5 -7.220972E-01  2.560651E-01  9.797387E-02 -6.266252E-01  1.709534E-01  1.899131E-01
      3920   6 -5.167204E-01  4.717365E-01  2.450609E-01 -6.367237E-01  1.472647E-02  1.173999E-01
      3920   7 -3.040777E-01  2.365980E-01  1.280920E-01 -4.137650E-01  1.159942E-01  2.361088E-01
      3920   8 -1.994041E-01  3.758481E-01  2.051724E-01 -4.136649E-01 -1.252064E-02  1.812430E-01
      3921   1 -9.783504E-01 -9.684491E-01 -2.149327E-01 -9.488645E-01 -6.296629E-02 -1.404486E-01
      3921   2 -8.609761E-01 -1.250854E+00 -2.030829E-01 -1.061360E+00 -7.384584E-02 -4.281773E-01
      3921   3 -6.447182E-01 -8.653101E-01 -2.687640E-01 -6.345123E-01 -1.140329E-01 -6.768496E-02
      3921   4 -5.809547E-01 -1.106410E+00 -3.118216E-01 -6.380644E-01 -1.145098E-01 -2.757011E-01
      3921   5 -5.068292E-01  2.127373E-01  1.756184E-01 -7.106207E-01 -1.238885E-02  1.259173E-01
      3921   6 -3.218426E-01  1.117969E-01  2.313773E-01 -8.625508E-01 -2.071801E-02 -1.406469E-02
      3921   7 -1.886067E-01  2.085076E-01  1.777900E-01 -3.968905E-01 -7.113923E-02  1.648802E-01
      3921   8 -7.846734E-02  7.953626E-02  1.771898E-01 -4.284131E-01 -7.119452E-02  6.166793E-02
      3922   1 -5.436539E-01 -4.430093E-01 -4.651600E-01 -6.089847E-01 -2.289174E-01 -1.711050E-01
      3922   2 -1.335601E-01 -7.373103E-02 -2.035798E-01 -4.282265E-01 -1.284576E-01 -3.249260E-01
      3922   3 -3.438610E-01 -5.554905E-01 -4.861440E-01 -3.385797E-01 -1.760250E-01 -1.153725E-01
      3922   4 -5.710166E-02 -3.761351E-01 -3.428354E-01 -1.155548E-01 -7.509649E-02 -1.995786E-01
      3922   5 -1.667067E-01  2.627859E-01  8.553537E-02 -4.781214E-01 -1.610251E-01  6.257765E-02
      3922   6 -8.124366E-03  4.069294E-02  1.001154E-01 -3.811279E-01 -5.458564E-02 -1.171625E-01
      3922   7  7.303943E-02  2.511934E-01  9.684015E-02 -1.881222E-01 -1.182919E-01  1.036444E-01
      3922   8  2.070518E-01  7.357469E-02  8.796620E-02 -1.208491E-02 -1.661521E-02 -3.562678E-03
      3923   1 -1.929419E+01  8.268966E+00  2.453816E+00  7.785599E+00  5.356653E-01  1.669303E+00
      3923   2 -2.029342E+01  5.619146E+00  1.388417E+00  7.165447E+00  1.071190E-01  1.220596E+00
      3923   3 -1.239603E+01  1.060034E+01  4.015103E+00  5.919882E+00  8.819276E-02  8.753866E-01
      3923   4 -1.298476E+01  8.248899E+00  3.234535E+00  5.484113E+00 -2.696296E-01  4.921669E-01
      3923   5 -2.306361E+01  3.196903E-01 -2.161637E+00  1.012704E+01  5.202860E-01  1.193655E+00
      3923   6 -2.361385E+01 -1.280465E+00 -2.780066E+00  9.466731E+00  9.264771E-02  8.185370E-01
      3923   7 -1.583597E+01  3.336639E+00 -1.876669E-01  8.058280E+00  3.541502E-02  6.923238E-01
      3923   8 -1.601710E+01  1.943255E+00 -5.676297E-01  7.575239E+00 -3.192644E-01  3.597107E-01
      3924   1 -2.059099E+01  4.807838E+00  1.753829E+00  6.821054E+00 -3.595478E-01  8.228556E-01
      3924   2 -2.155308E+01  3.976419E+00  1.247135E+00  6.482740E+00 -8.897260E-01  3.227232E-01
      3924   3 -1.292721E+01  7.422394E+00  3.397070E+00  5.200989E+00 -7.561189E-01  6.900291E-01
      3924   4 -1.261572E+01  7.166224E+00  3.523031E+00  4.826283E+00 -1.109438E+00  2.197430E-01
      3924   5 -2.393354E+01 -1.930337E+00 -2.649818E+00  9.208347E+00 -6.323253E-01  8.459227E-01
      3924   6 -2.485769E+01 -2.667584E+00 -3.124245E+00  9.081362E+00 -1.167323E+00  5.073243E-01
      3924   7 -1.583412E+01  1.440504E+00 -3.107603E-01  7.344693E+00 -8.075576E-01  7.373653E-01
      3924   8 -1.548790E+01  1.285148E+00 -1.698179E-01  7.143664E+00 -1.177684E+00  4.093110E-01
      3925   1 -2.159495E+01  3.927138E+00  1.584178E+00  6.777531E+00 -2.494737E+00 -2.561007E-01
      3925   2 -2.135629E+01  3.918708E+00  1.694995E+00  7.489723E+00 -3.084005E+00 -9.191674E-01
      3925   3 -1.245080E+01  6.921859E+00  3.110619E+00  4.934404E+00 -1.673976E+00 -2.142461E-01
      3925   4 -1.158806E+01  7.193389E+00  3.597397E+00  5.451531E+00 -2.000785E+00 -8.465939E-01
      3925   5 -2.506464E+01 -3.006700E+00 -3.047627E+00  9.422702E+00 -2.482133E+00  3.903164E-01
      3925   6 -2.497705E+01 -3.357833E+00 -3.097666E+00  1.015496E+01 -3.072092E+00 -2.314662E-02
      3925   7 -1.526672E+01  1.017511E+00 -3.714472E-01  7.298524E+00 -1.626357E+00  2.867476E-01
      3925   8 -1.454440E+01  9.957390E-01 -5.944085E-02  7.819938E+00 -1.955591E+00 -1.225227E-01
      3926   1 -2.126442E+01  3.806305E+00  8.820628E-01  8.007453E+00 -2.953017E+00 -1.371764E+00
      3926   2 -1.996305E+01  4.759649E+00  1.601409E+00  8.873698E+00 -3.109180E+00 -2.037202E+00
      3926   3 -1.112709E+01  6.983326E+00  2.497839E+00  5.725776E+00 -1.489900E+00 -1.021892E+00
      3926   4 -8.596903E+00  8.446697E+00  3.847331E+00  6.244673E+00 -1.641716E+00 -1.682242E+00
      3926   5 -2.441593E+01 -3.234678E+00 -2.581997E+00  1.070403E+01 -2.715133E+00 -4.359601E-01
      3926   6 -2.342814E+01 -3.013095E+00 -2.176136E+00  1.172307E+01 -2.875859E+00 -1.085460E+00
      3926   7 -1.389972E+01  8.313451E-01 -5.922736E-01  8.071555E+00 -9.992528E-01 -4.027069E-01
      3926   8 -1.162938E+01  1.688086E+00  4.976829E-01  8.708744E+00 -1.167159E+00 -1.039196E+00
      3927   1 -1.276718E+01 -3.599884E-01 -4.198788E-01 -1.974023E-01  3.899861E-01  9.748057E-01
      3927   2 -1.246472E+01 -7.570667E-01 -2.401197E-01 -3.833340E-01  1.084591E-01  3.312993E-01
      3927   3 -5.724739E+00  2.140221E+00  1.004558E+00 -5.834659E-01  2.178643E-02  8.133093E-01
      3927   4 -5.550958E+00  1.761778E+00  1.166096E+00 -6.528186E-01 -9.142837E-02  2.404644E-01
      3927   5 -1.408496E+01 -2.895768E+00 -2.276698E+00  2.592816E+00  1.973542E-01  6.341780E-01
      3927   6 -1.359579E+01 -2.804099E+00 -1.963312E+00  2.291471E+00 -7.166112E-02  2.175174E-01
      3927   7 -6.706791E+00  2.097139E-02 -1.496980E-01  2.002127E+00 -2.573069E-01  6.112851E-01
      3927   8 -6.384260E+00  4.646905E-02  1.037331E-01  1.831494E+00 -3.571206E-01  2.283048E-01
      3928   1 -1.226851E+01 -1.401340E+00 -1.188506E-01 -4.159678E-01 -3.095693E-01  5.644658E-01
      3928   2 -1.161747E+01 -1.574195E+00  2.448787E-01 -4.382589E-01 -5.863654E-01 -1.191136E-01
      3928   3 -5.565192E+00  9.970331E-01  9.749464E-01 -6.533233E-01 -2.638185E-01  5.473531E-01
      3928   4 -5.002226E+00  8.427387E-01  1.335484E+00 -6.323620E-01 -3.979099E-01 -6.848077E-02
      3928   5 -1.328470E+01 -3.173577E+00 -1.733945E+00  2.160232E+00 -3.802669E-01  6.037058E-01
      3928   6 -1.255830E+01 -3.127685E+00 -1.337735E+00  2.037078E+00 -6.473119E-01  1.127219E-01
      3928   7 -6.317294E+00 -4.776460E-01 -5.738136E-02  1.738755E+00 -4.069681E-01  6.077385E-01
      3928   8 -5.696582E+00 -4.508733E-01  3.145758E-01  1.668978E+00 -5.305264E-01  1.556175E-01
      3929   1 -1.147857E+01 -2.022903E+00 -4.945967E-01 -3.990384E-01 -7.230763E-01 -4.774483E-01
      3929   2 -1.047420E+01 -1.778261E+00  8.463782E-02 -2.487091E-01 -8.893023E-01 -1.117038E+00
      3929   3 -4.941322E+00  3.050788E-01  5.386457E-01 -6.211858E-01 -3.672305E-01 -3.048771E-01
      3929   4 -3.921795E+00  5.775863E-01  1.148914E+00 -5.156657E-01 -4.206911E-01 -8.877030E-01
      3929   5 -1.229544E+01 -3.510809E+00 -1.729614E+00  1.988396E+00 -6.977818E-01 -5.786763E-02
      3929   6 -1.137484E+01 -3.429566E+00 -1.266195E+00  2.078744E+00 -8.599645E-01 -5.476853E-01
      3929   7 -5.506933E+00 -8.513932E-01 -1.902542E-01  1.582581E+00 -3.740898E-01  4.810148E-03
      3929   8 -4.563898E+00 -7.224752E-01  3.086308E-01  1.630807E+00 -4.231487E-01 -4.486591E-01
      3930   1 -1.047731E+01 -3.057741E+00 -1.639935E+00 -6.961631E-01 -3.751074E-01 -1.107567E+00
      3930   2 -8.862432E+00 -3.746234E+00 -1.179851E+00 -1.248225E+00 -3.660421E-01 -1.621954E+00
      3930   3 -3.846500E+00  3.917579E-02 -2.652513E-01 -6.220893E-01 -4.228096E-01 -1.282035E+00
      3930   4 -3.017454E+00 -8.632138E-01 -8.751106E-02 -1.040981E+00 -3.040046E-01 -1.744529E+00
      3930   5 -1.103735E+01 -4.126467E+00 -2.438028E+00  1.248442E+00  1.049017E-01 -6.657287E-01
      3930   6 -9.231345E+00 -4.341139E+00 -1.814658E+00  3.300514E-01  1.514373E-01 -1.077768E+00
      3930   7 -4.300677E+00 -1.018475E+00 -7.215234E-01  1.306893E+00 -2.603065E-01 -8.090894E-01
      3930   8 -3.311976E+00 -1.517805E+00 -4.146601E-01  5.663340E-01 -1.004165E-01 -1.188590E+00
      3931   1 -5.209327E+00 -4.024458E+00 -1.073336E+00 -1.324513E+00  3.382100E-02  2.615207E-01
      3931   2 -4.694137E+00 -3.116626E+00 -5.040690E-01 -1.191605E+00 -4.264399E-02 -1.641023E-01
      3931   3 -2.035864E+00 -2.869584E+00 -4.056194E-01 -1.055052E+00  8.651083E-02  4.157279E-01
      3931   4 -1.979574E+00 -2.257859E+00 -1.049050E-01 -9.622153E-01  3.077826E-02  5.097913E-02
      3931   5 -4.827441E+00 -3.001220E+00 -8.236207E-01  1.217731E-01 -1.409014E-01  2.774577E-01
      3931   6 -4.363504E+00 -2.203625E+00 -3.149587E-01  1.606304E-01 -2.045747E-01 -1.052335E-01
      3931   7 -1.652659E+00 -1.884706E+00 -1.131467E-01  3.018229E-01 -1.448905E-01  4.146294E-01
      3931   8 -1.637330E+00 -1.361966E+00  1.400173E-01  3.227897E-01 -1.916098E-01  8.583333E-02
      3932   1 -4.708814E+00 -3.536425E+00 -7.241085E-01 -1.105451E+00 -1.429172E-01  2.297607E-01
      3932   2 -4.025524E+00 -3.111032E+00 -2.263556E-01 -1.043023E+00 -2.177125E-01 -2.314643E-01
      3932   3 -2.178426E+00 -2.678972E+00 -4.117905E-01 -8.982101E-01 -5.552543E-02  3.585136E-01
      3932   4 -1.724309E+00 -2.382731E+00 -7.260481E-02 -8.661994E-01 -8.427152E-02 -3.267345E-02
      3932   5 -4.373460E+00 -2.596583E+00 -5.461050E-01  1.463889E-01 -1.594323E-01  2.636351E-01
      3932   6 -3.717697E+00 -2.211882E+00 -9.941446E-02  1.584644E-01 -2.292063E-01 -1.063052E-01
      3932   7 -1.790634E+00 -1.717109E+00 -8.101445E-02  2.848866E-01 -9.344767E-02  3.630625E-01
      3932   8 -1.354395E+00 -1.446325E+00  2.240358E-01  2.769042E-01 -1.187251E-01  4.645887E-02
      3933   1 -4.053526E+00 -3.641260E+00 -1.074852E+00 -1.111923E+00 -1.548173E-01 -2.832044E-01
      3933   2 -3.445641E+00 -3.989070E+00 -8.443508E-01 -1.216544E+00 -1.371185E-01 -6.703614E-01
      3933   3 -1.711002E+00 -2.535624E+00 -6.640947E-01 -8.712865E-01 -1.011307E-01 -2.269250E-01
      3933   4 -1.426311E+00 -2.927968E+00 -5.934620E-01 -9.564877E-01 -7.278224E-02 -5.539624E-01
      3933   5 -3.618038E+00 -2.584224E+00 -6.802640E-01 -6.720245E-02 -4.449468E-02 -1.694622E-01
      3933   6 -2.957521E+00 -2.798546E+00 -4.078075E-01 -3.466267E-01 -5.550389E-03 -5.242230E-01
      3933   7 -1.290851E+00 -1.558046E+00 -2.411673E-01  1.725039E-01 -7.770942E-02 -1.177722E-01
      3933   8 -9.616802E-01 -1.839399E+00 -1.332637E-01 -5.288891E-02 -3.501955E-02 -4.184066E-01
      3934   1 -3.037448E+00 -3.273125E+00 -1.788203E+00 -1.005204E+00 -3.047662E-01 -7.661882E-01
      3934   2 -2.228434E+00 -3.133910E+00 -1.426242E+00 -8.920324E-01 -2.346549E-01 -9.640654E-01
      3934   3 -1.282327E+00 -2.448272E+00 -1.317335E+00 -8.329336E-01 -1.545869E-01 -6.740280E-01
      3934   4 -1.061195E+00 -2.522107E+00 -1.222231E+00 -7.190071E-01 -1.087394E-01 -8.369209E-01
      3934   5 -2.483030E+00 -2.114357E+00 -1.098914E+00 -3.504640E-01 -1.280389E-01 -6.522800E-01
      3934   6 -1.582707E+00 -1.778763E+00 -6.289673E-01 -6.050169E-01 -9.786183E-03 -9.249232E-01
      3934   7 -8.550109E-01 -1.520848E+00 -8.203748E-01 -1.289278E-02 -1.661704E-01 -5.030980E-01
      3934   8 -5.655864E-01 -1.446290E+00 -6.460213E-01 -1.859210E-01 -8.869235E-02 -7.242899E-01
      3935   1 -7.865806E-01 -2.534474E+00 -1.485078E-01 -3.415287E-01  4.275491E-02  1.332324E-01
      3935   2 -7.799666E-01 -1.718040E+00  1.519824E-01 -3.284211E-01  8.647591E-03 -1.518353E-01
      3935   3 -3.125719E-01 -2.449338E+00 -2.802610E-01 -2.496960E-01  4.641227E-02  2.656485E-01
      3935   4 -4.415187E-01 -1.822078E+00 -1.199253E-01 -2.656297E-01  3.520622E-02  3.642425E-02
      3935   5 -6.266220E-01 -2.102317E+00 -4.746921E-02 -2.465577E-02 -9.373792E-02  1.309547E-01
      3935   6 -6.752507E-01 -1.407475E+00  1.904704E-01  3.606187E-02 -1.306760E-01 -1.020960E-01
      3935   7 -1.317006E-01 -2.009237E+00 -1.174578E-01  4.846849E-02 -7.425623E-02  2.474279E-01
      3935   8 -3.008572E-01 -1.474321E+00  1.189287E-03  7.632151E-02 -8.603512E-02  5.950984E-02
      3936   1 -1.065239E+00 -2.171570E+00 -1.803271E-01 -3.117367E-01 -6.927438E-02  1.164219E-01
      3936   2 -8.240282E-01 -2.137177E+00 -3.529260E-02 -3.669056E-01 -7.258307E-02 -1.859568E-01
      3936   3 -6.570553E-01 -2.062242E+00 -2.935734E-01 -2.573577E-01 -4.193698E-02  1.700910E-01
      3936   4 -5.351784E-01 -2.079603E+00 -2.505018E-01 -3.184139E-01 -3.883688E-02 -7.172041E-02
      3936   5 -9.033264E-01 -1.775073E+00 -3.711767E-02 -2.576071E-02 -2.726217E-02  1.359092E-01
      3936   6 -6.402343E-01 -1.684686E+00  1.248622E-01 -1.202134E-01 -2.800115E-02 -1.357449E-01
      3936   7 -4.892940E-01 -1.673353E+00 -1.232580E-01  2.073029E-02 -1.099046E-02  1.846117E-01
      3936   8 -3.454580E-01 -1.638548E+00 -5.915500E-02 -7.035358E-02 -7.407493E-03 -3.271315E-02
      3937   1 -7.189305E-01 -1.909131E+00 -4.348198E-01 -3.393188E-01 -1.149575E-01 -3.341302E-01
      3937   2 -7.038454E-01 -2.546011E+00 -5.467244E-01 -3.821847E-01 -8.789848E-02 -6.790861E-01
      3937   3 -3.832462E-01 -1.613771E+00 -4.703615E-01 -2.829762E-01 -8.322112E-02 -2.671236E-01
      3937   4 -4.872642E-01 -2.120746E+00 -6.413216E-01 -3.042874E-01 -6.050013E-02 -5.182859E-01
      3937   5 -5.171920E-01 -1.468837E+00 -2.026525E-01 -1.900389E-01 -4.299065E-02 -2.675146E-01
      3937   6 -3.863651E-01 -1.834528E+00 -1.999392E-01 -4.275511E-01 -1.271406E-03 -6.136151E-01
      3937   7 -2.225296E-01 -1.272580E+00 -2.758304E-01 -8.131187E-02 -5.542246E-02 -1.883878E-01
      3937   8 -2.464164E-01 -1.592396E+00 -3.668453E-01 -2.365021E-01 -3.027799E-02 -4.376084E-01
      3938   1 -6.004602E-02 -6.924621E-01 -6.050299E-01 -1.563848E-01 -1.490333E-01 -3.946423E-01
      3938   2  3.300455E-01  7.461009E-02 -2.379150E-01 -1.274080E-02 -1.131395E-01 -5.063168E-01
      3938   3 -1.196872E-01 -9.384348E-01 -7.306350E-01 -1.288077E-01 -1.004486E-01 -3.293863E-01
      3938   4  6.151338E-02 -5.413874E-01 -5.546626E-01 -2.190137E-02 -6.030641E-02 -3.811884E-01
      3938   5  2.793058E-02 -5.589477E-01 -4.452891E-01 -1.307454E-01 -1.334057E-01 -3.010005E-01
      3938   6  3.505642E-01  4.753796E-02 -1.424469E-01 -9.214320E-02 -8.937785E-02 -4.335810E-01
      3938   7 -2.092172E-02 -7.743349E-01 -5.655166E-01 -6.676456E-02 -9.864044E-02 -2.372109E-01
      3938   8  1.192517E-01 -4.734159E-01 -4.301729E-01 -1.492443E-02 -5.748054E-02 -3.031089E-01
      3939   1 -3.573273E+01  1.301916E+01  3.718801E+00 -4.049773E+00  2.218322E+00  5.365080E+00
      3939   2 -3.848758E+01  6.720679E+00  1.142747E+00 -4.623039E+00  9.148510E-01  3.001016E+00
      3939   3 -1.708080E+01  1.801004E+01  5.047163E+00 -4.717303E+00 -1.886044E-01  3.148027E+00
      3939   4 -1.802552E+01  1.309470E+01  3.773572E+00 -4.658384E+00 -3.055932E-01  1.207868E+00
      3939   5 -4.075980E+01  3.749545E+00 -3.768473E+00  2.799229E+00  2.010945E+00  2.868657E+00
      3939   6 -4.254991E+01 -2.361357E-01 -5.441549E+00  2.236370E+00  7.072949E-01  1.835779E+00
      3939   7 -1.993763E+01  1.126053E+01  2.273900E+00  1.536254E+00 -3.885969E-01  1.500049E+00
      3939   8 -2.014068E+01  8.289521E+00  1.528206E+00  1.569644E+00 -5.062063E-01  7.002111E-01
      3940   1 -4.047504E+01  3.614477E+00 -1.713953E+00 -5.024201E+00  3.583929E-01  1.158029E+00
      3940   2 -4.129167E+01  2.807404E+00 -2.132585E+00 -5.501189E+00 -3.085250E-01 -2.367047E-02
      3940   3 -1.766734E+01  1.164216E+01  4.391478E+00 -4.789707E+00 -5.702444E-01  9.688440E-01
      3940   4 -1.677841E+01  1.160337E+01  4.885348E+00 -5.213682E+00 -7.602494E-01 -8.085060E-02
      3940   5 -4.332507E+01 -1.711973E+00 -5.887609E+00  1.882709E+00  1.421003E-02  9.151478E-01
      3940   6 -4.414312E+01 -2.502962E+00 -6.327041E+00  1.495806E+00 -6.545744E-01  1.808466E-01
      3940   7 -1.967388E+01  7.393513E+00  1.951670E+00  1.451039E+00 -8.287016E-01  7.411601E-01
      3940   8 -1.881535E+01  7.351393E+00  2.347530E+00  1.072422E+00 -1.025216E+00  8.619436E-02
      3941   1 -4.171576E+01  2.602810E+00 -2.373448E+00 -5.365203E+00 -2.106054E+00 -1.228795E+00
      3941   2 -4.205845E+01  2.628487E+00 -2.391617E+00 -5.001818E+00 -2.649770E+00 -2.515477E+00
      3941   3 -1.660489E+01  1.123728E+01  3.852154E+00 -5.179493E+00 -1.302978E+00 -9.136614E-01
      3941   4 -1.524528E+01  1.197822E+01  4.752289E+00 -4.855302E+00 -1.401267E+00 -2.081277E+00
      3941   5 -4.440782E+01 -2.595820E+00 -6.148349E+00  1.692291E+00 -2.415121E+00 -6.916325E-01
      3941   6 -4.484734E+01 -2.778879E+00 -6.280536E+00  2.142868E+00 -2.960723E+00 -1.586176E+00
      3941   7 -1.843774E+01  7.172446E+00  1.807477E+00  1.132318E+00 -1.516456E+00 -5.302253E-01
      3941   8 -1.718791E+01  7.717555E+00  2.537505E+00  1.499013E+00 -1.621365E+00 -1.352970E+00
      3942   1 -4.048098E+01  4.505785E+00 -1.543932E+00 -4.140148E+00 -4.280004E+00 -4.162220E+00
      3942   2 -3.587053E+01  9.000170E+00  1.288433E+00 -2.669317E+00 -5.112124E+00 -5.890720E+00
      3942   3 -1.454380E+01  1.219578E+01  2.953194E+00 -4.383365E+00 -1.751197E+00 -2.440681E+00
      3942   4 -1.012211E+01  1.626520E+01  5.856466E+00 -3.597105E+00 -1.679263E+00 -3.995762E+00
      3942   5 -4.409950E+01 -2.259124E+00 -6.840772E+00  2.743184E+00 -3.530729E+00 -2.382885E+00
      3942   6 -4.022339E+01  5.544998E-01 -4.775413E+00  3.889018E+00 -4.356825E+00 -3.376642E+00
      3942   7 -1.640346E+01  7.724549E+00  1.225546E+00  1.763410E+00 -1.335689E+00 -1.539510E+00
      3942   8 -1.267525E+01  1.029110E+01  3.320089E+00  2.231574E+00 -1.242506E+00 -2.431538E+00
      3943   1 -1.963860E+01 -1.067528E+01 -6.067466E+00 -7.815040E+00 -3.379091E-01  7.535857E-01
      3943   2 -1.800285E+01 -9.349690E+00 -4.989919E+00 -6.918650E+00 -1.873473E-01  1.862362E-01
      3943   3 -6.840292E+00 -4.678555E+00 -1.736010E+00 -5.440922E+00  1.437026E-01  8.974373E-01
      3943   4 -6.237493E+00 -3.942991E+00 -1.131916E+00 -4.846581E+00  2.122249E-01  3.685106E-01
      3943   5 -1.632827E+01 -3.372421E+00 -2.335885E+00 -3.205869E+00 -5.319609E-01  9.445198E-01
      3943   6 -1.514236E+01 -3.121388E+00 -1.683257E+00 -2.749980E+00 -3.315240E-01  2.901988E-01
      3943   7 -3.868520E+00  2.006564E+00  1.484777E+00 -1.161419E+00 -3.950040E-01  8.480453E-01
      3943   8 -3.647134E+00  1.825468E+00  1.734153E+00 -9.441131E-01 -2.730623E-01  2.512977E-01
      3944   1 -1.677550E+01 -9.104964E+00 -3.429740E+00 -6.390596E+00 -4.493924E-01  8.041071E-01
      3944   2 -1.547964E+01 -8.798328E+00 -2.611460E+00 -5.991304E+00 -5.069877E-01 -2.461895E-01
      3944   3 -6.195052E+00 -4.539733E+00 -1.393994E+00 -4.449924E+00 -7.876961E-02  9.294561E-01
      3944   4 -5.346661E+00 -4.409051E+00 -7.356785E-01 -4.146463E+00  4.685436E-02  9.798989E-03
      3944   5 -1.435833E+01 -3.426991E+00 -1.050481E+00 -2.478605E+00 -5.334127E-01  6.017372E-01
      3944   6 -1.319263E+01 -3.369533E+00 -4.169012E-01 -2.329628E+00 -5.645714E-01 -2.165483E-01
      3944   7 -3.638990E+00  1.057095E+00  1.529385E+00 -7.978894E-01 -3.592252E-01  6.188881E-01
      3944   8 -2.910764E+00  9.663008E-01  2.008625E+00 -7.138994E-01 -2.050447E-01 -1.045013E-01
      3945   1 -1.521116E+01 -9.205670E+00 -3.833768E+00 -5.693627E+00 -6.200995E-01 -6.154110E-01
      3945   2 -1.342429E+01 -8.075219E+00 -2.703468E+00 -5.392838E+00 -5.571091E-01 -1.411702E+00
      3945   3 -5.249128E+00 -5.009440E+00 -1.614752E+00 -3.943691E+00  3.056475E-02 -1.186097E-01
      3945   4 -3.828998E+00 -4.122304E+00 -6.448578E-01 -3.800580E+00  1.637389E-01 -8.379976E-01
      3945   5 -1.279793E+01 -3.723207E+00 -1.272144E+00 -2.224332E+00 -5.798643E-01 -6.170497E-01
      3945   6 -1.122837E+01 -3.079893E+00 -3.790331E-01 -2.120005E+00 -4.976728E-01 -1.323712E+00
      3945   7 -2.804697E+00  3.876717E-01  1.136238E+00 -6.993233E-01 -8.187637E-02 -3.237925E-01
      3945   8 -1.570463E+00  8.627040E-01  1.898582E+00 -7.316150E-01  7.220049E-02 -9.651747E-01
      3946   1 -1.415816E+01 -1.072694E+01 -6.115996E+00 -5.217093E+00 -5.032810E-01 -6.189430E-01
      3946   2 -1.273934E+01 -1.218943E+01 -6.078559E+00 -5.136732E+00 -2.219130E-01 -6.322997E-01
      3946   3 -3.637896E+00 -4.644940E+00 -1.563561E+00 -3.680000E+00  1.176688E-01 -1.144134E+00
      3946   4 -3.473765E+00 -6.460485E+00 -2.003571E+00 -3.618539E+00  1.078452E-01 -1.197647E+00
      3946   5 -1.134693E+01 -4.834309E+00 -2.637859E+00 -2.401701E+00 -6.024821E-02 -1.056805E+00
      3946   6 -9.697288E+00 -5.839804E+00 -2.288017E+00 -2.866281E+00  2.797163E-01 -1.442928E+00
      3946   7 -1.567806E+00  2.096793E-01  4.821203E-01 -8.555827E-01  6.417635E-02 -1.340953E+00
      3946   8 -1.186915E+00 -1.189547E+00  3.483249E-01 -1.268882E+00  1.186022E-01 -1.717611E+00
      3947   1 -1.933414E+00 -1.966371E+00  9.671101E-02  9.907522E-03 -3.508584E-01  1.702606E-01
      3947   2 -1.215252E+00 -1.291505E-01  1.062269E+00  2.466949E-01 -2.444240E-01 -4.195917E-01
      3947   3 -1.344435E+00 -2.126303E+00 -6.560727E-01 -3.260949E-02 -2.132528E-01  5.079519E-01
      3947   4 -1.062517E+00 -7.593884E-01 -2.124334E-02  3.156642E-02 -1.841144E-02  2.654035E-02
      3947   5 -1.945003E+00 -2.271054E+00  3.627628E-01  4.888642E-01 -4.646207E-01  1.974230E-01
      3947   6 -1.556385E+00 -1.173413E+00  9.694195E-01  6.471594E-01 -3.466025E-01 -2.717962E-01
      3947   7 -1.231404E+00 -2.270281E+00 -1.353229E-01  4.192358E-01 -3.783415E-01  4.050107E-01
      3947   8 -1.215220E+00 -1.502728E+00  2.130867E-01  4.226526E-01 -1.753380E-01  1.488970E-02
      3948   1 -1.406817E+00 -5.336029E-01  4.325717E-01  5.156658E-01 -5.372216E-01  1.989780E-01
      3948   2 -5.244922E-01  2.812352E-01  1.102145E+00  6.436404E-01 -3.333257E-01 -2.163842E-01
      3948   3 -1.213456E+00 -9.580908E-01 -3.206658E-01  2.155901E-01 -3.102796E-01  4.211676E-01
      3948   4 -5.875359E-01 -3.647958E-01  1.559146E-01  2.534472E-01 -1.030907E-01  7.638807E-02
      3948   5 -1.681602E+00 -1.630688E+00  6.137066E-01  7.734045E-01 -4.027884E-01  1.997436E-01
      3948   6 -9.158042E-01 -1.096712E+00  1.175719E+00  7.974786E-01 -1.865366E-01 -2.562349E-01
      3948   7 -1.442624E+00 -1.910513E+00 -1.321365E-01  4.752921E-01 -2.285207E-01  3.648919E-01
      3948   8 -9.080433E-01 -1.536537E+00  2.592978E-01  4.269423E-01 -1.279675E-02 -1.927058E-02
      3949   1 -7.205807E-01 -7.722394E-01  1.575835E-01  7.822890E-01 -3.153362E-01  6.869321E-02
      3949   2 -2.571118E-01 -1.441655E+00  1.685037E-01  8.461467E-01 -1.850816E-01 -6.047158E-02
      3949   3 -4.876827E-01 -6.659846E-01 -3.805643E-02  3.162447E-01 -8.367647E-02  2.361157E-02
      3949   4 -3.629078E-01 -1.368161E+00 -1.621989E-01  3.071620E-01 -1.984896E-02 -1.002325E-01
      3949   5 -1.016999E+00 -1.828565E+00  2.258481E-01  7.316246E-01 -4.471060E-02 -2.047762E-01
      3949   6 -4.667158E-01 -2.343197E+00  3.713658E-01  5.320534E-01  1.190915E-01 -5.217538E-01
      3949   7 -8.861347E-01 -1.764938E+00 -2.672759E-01  3.607844E-01  4.972800E-02 -1.768448E-01
      3949   8 -6.880068E-01 -2.328213E+00 -2.858099E-01  1.384785E-01  1.362013E-01 -4.523143E-01
      3950   1  5.064900E-01 -3.115138E-01  3.131279E-01  1.037463E+00 -2.339149E-01 -4.573201E-01
      3950   2  9.788784E-01 -2.683982E-01  5.611725E-01  1.386496E+00 -3.721654E-01 -7.242556E-01
      3950   3 -1.464181E-01 -9.161436E-01 -4.294541E-01  2.725614E-01  5.412870E-02 -3.106747E-01
      3950   4 -1.239638E-01 -1.095029E+00 -4.150209E-01  4.441123E-01 -3.661888E-02 -5.256577E-01
      3950   5 -9.340966E-02 -1.590861E+00 -4.071903E-01  6.406383E-01 -2.160794E-02 -6.890262E-01
      3950   6  3.037378E-01 -1.709886E+00 -2.478086E-01  6.797075E-01 -1.184335E-01 -8.932307E-01
      3950   7 -5.906189E-01 -1.884695E+00 -9.415721E-01  6.858803E-02  1.043969E-01 -6.064718E-01
      3950   8 -6.148306E-01 -2.163649E+00 -9.826234E-01 -2.766260E-03  4.086691E-02 -7.728452E-01
      3951   1 -9.555298E-02 -1.041368E-01  1.620132E-01  1.135190E+00 -2.714576E-01 -1.083584E-01
      3951   2 -9.812745E-02  7.846980E-01  4.663680E-01  8.369279E-01 -3.242994E-02 -2.755250E-01
      3951   3  2.695971E-02 -3.533635E-01 -9.109161E-02  8.320954E-01 -1.736709E-01  7.863854E-02
      3951   4  1.953951E-02  3.916159E-01  1.379623E-01  5.661911E-01  2.228829E-02 -4.780941E-02
      3951   5 -6.114172E-01 -1.676056E+00  1.438438E-02  1.317826E+00 -4.082668E-01  3.683622E-02
      3951   6 -6.375764E-01 -8.527123E-01  3.056152E-01  1.121424E+00 -1.762531E-01 -2.152038E-01
      3951   7 -4.851390E-01 -1.858019E+00 -2.934315E-01  1.001630E+00 -2.712712E-01  1.971377E-01
      3951   8 -5.163972E-01 -1.170779E+00 -8.609874E-02  8.227119E-01 -7.673135E-02 -3.608987E-03
      3952   1 -4.089267E-01  2.575203E-01  1.082944E-01  8.809916E-01 -2.849354E-01  1.602067E-01
      3952   2 -1.704256E-01  2.028151E-01  1.901850E-01  7.981951E-01 -8.151596E-02  7.444492E-02
      3952   3 -1.241253E-01  1.733314E-01  5.328368E-02  5.844739E-01 -1.720102E-01  1.975343E-01
      3952   4  1.293230E-02  9.402013E-02  7.563442E-02  5.030526E-01 -5.947798E-03  1.283367E-01
      3952   5 -9.497861E-01 -1.368201E+00 -6.884926E-02  1.091540E+00 -2.221851E-01  1.162237E-01
      3952   6 -6.839441E-01 -1.380481E+00  6.175298E-02  9.478309E-01 -1.461253E-02 -1.238512E-01
      3952   7 -6.887788E-01 -1.415885E+00 -2.396783E-01  7.941772E-01 -1.271434E-01  1.701888E-01
      3952   8 -5.378755E-01 -1.466905E+00 -1.994663E-01  6.653053E-01  3.969931E-02 -2.231557E-02
      3953   1 -8.418548E-02 -1.388823E-02  1.246915E-01  8.198297E-01 -5.825286E-02 -2.267558E-02
      3953   2 -2.041717E-01 -9.374426E-01 -1.400138E-01  7.918984E-01 -2.022988E-02 -2.272460E-01
      3953   3  1.209270E-01  1.007808E-01  7.493720E-02  4.785138E-01  2.231204E-02  5.367371E-04
      3953   4 -4.433677E-02 -6.396593E-01 -1.887801E-01  3.711874E-01  5.524509E-02 -1.541187E-01
      3953   5 -5.874936E-01 -1.292454E+00 -2.744367E-01  8.924577E-01  1.862368E-02 -2.575122E-01
      3953   6 -6.668743E-01 -2.136360E+00 -4.834385E-01  7.050151E-01  6.854858E-02 -5.626368E-01
      3953   7 -3.747049E-01 -1.114387E+00 -3.620019E-01  5.945086E-01  6.333075E-02 -2.064437E-01
      3953   8 -5.057547E-01 -1.777490E+00 -5.890093E-01  3.765273E-01  9.823130E-02 -4.314599E-01
      3954   1  2.325757E-01  2.701155E-01 -1.314474E-01  4.554842E-01  8.144842E-02 -1.338932E-01
      3954   2 -1.166052E-02 -2.203470E-01 -3.316227E-01  1.668143E-01  4.527248E-02 -2.339806E-01
      3954   3  2.296239E-01  1.692197E-01 -1.969789E-01  1.684299E-01  8.058589E-02 -1.079763E-01
      3954   4  1.932880E-02 -2.125197E-01 -3.720577E-01 -1.297700E-01  3.844636E-02 -1.682618E-01
      3954   5 -7.132817E-02 -3.651294E-01 -5.092155E-01  5.817455E-01  5.838577E-02 -3.378782E-01
      3954   6  4.687768E-02 -8.889028E-03 -3.479534E-01  3.492622E-01  1.788801E-02 -4.452383E-01
      3954   7 -1.525495E-01 -6.503609E-01 -6.513095E-01  2.727015E-01  6.486580E-02 -2.853749E-01
      3954   8 -1.505775E-01 -5.366846E-01 -6.142469E-01  5.120795E-03  2.218556E-02 -3.405132E-01
      3955   1 -8.118349E+01 -2.897326E+01 -1.635181E+01 -4.150166E+01  1.228345E+00  7.321841E+00
      3955   2 -8.099674E+01 -3.110142E+01 -1.663320E+01 -3.935311E+01 -2.749165E-01  2.211616E+00
      3955   3 -1.452805E+01  1.756472E+00  4.639309E-01 -2.821251E+01  1.079388E+00  5.732584E+00
      3955   4 -1.395666E+01 -2.262724E-01  1.082560E+00 -2.645325E+01  9.590514E-01  1.384897E+00
      3955   5 -7.385540E+01 -9.063472E+00 -1.183462E+01 -2.009341E+01  1.032987E+00  6.324153E+00
      3955   6 -7.482003E+01 -1.380402E+01 -1.334155E+01 -1.911412E+01 -4.416504E-01  2.839325E+00
      3955   7 -5.715307E+00  2.207557E+01  9.520626E+00 -8.648356E+00 -2.950594E-01  4.162177E+00
      3955   8 -6.348469E+00  1.753894E+01  8.677988E+00 -8.021275E+00 -3.163094E-01  1.294529E+00
      3956   1 -8.450194E+01 -3.550621E+01 -2.653769E+01 -3.816640E+01 -7.359942E-01  3.936694E-01
      3956   2 -8.227932E+01 -3.357201E+01 -2.519993E+01 -3.703664E+01 -6.009340E-01 -9.422169E-01
      3956   3 -1.353830E+01 -9.045516E-01  9.655935E-01 -2.548351E+01  9.541713E-01  1.114189E+00
      3956   4 -1.184413E+01  7.130074E-01  2.275480E+00 -2.457215E+01  1.206256E+00 -1.395803E-01
      3956   5 -7.647198E+01 -1.705641E+01 -1.822094E+01 -1.877147E+01 -7.535348E-01  7.996802E-01
      3956   6 -7.482048E+01 -1.644751E+01 -1.746163E+01 -1.876118E+01 -5.914000E-01 -3.959340E-01
      3956   7 -5.954337E+00  1.616815E+01  9.172788E+00 -7.854164E+00 -3.068853E-01  1.017349E+00
      3956   8 -4.811036E+00  1.652587E+01  9.906249E+00 -8.017512E+00  3.962446E-02 -9.287924E-02
      3957   1 -8.196070E+01 -3.299341E+01 -2.542820E+01 -3.641119E+01 -8.509851E-01 -1.997486E+00
      3957   2 -8.244559E+01 -3.252816E+01 -2.533777E+01 -3.593542E+01 -6.183205E-01 -3.384273E+00
      3957   3 -1.160198E+01  8.961836E-01  9.657103E-01 -2.393312E+01  9.861531E-01 -1.069888E+00
      3957   4 -1.001602E+01  2.363728E+00  2.219784E+00 -2.322266E+01  1.339839E+00 -2.381620E+00
      3957   5 -7.462135E+01 -1.632869E+01 -1.762841E+01 -1.855876E+01 -1.548632E+00 -1.545502E+00
      3957   6 -7.534741E+01 -1.641988E+01 -1.778547E+01 -1.840109E+01 -1.307376E+00 -2.825736E+00
      3957   7 -4.706501E+00  1.620529E+01  8.641549E+00 -7.883742E+00 -1.468024E-01 -9.417165E-01
      3957   8 -3.374976E+00  1.710130E+01  9.619029E+00 -7.534506E+00  2.370322E-01 -2.154138E+00
      3958   1 -8.122185E+01 -2.964534E+01 -2.030108E+01 -3.601165E+01 -1.372438E+00 -4.958151E+00
      3958   2 -8.314319E+01 -2.787708E+01 -2.017333E+01 -3.689915E+01 -2.172254E+00 -7.931493E+00
      3958   3 -9.373771E+00  2.740719E+00  1.347135E+00 -2.293900E+01  5.755355E-01 -2.122664E+00
      3958   4 -5.832541E+00  6.981382E+00  4.294267E+00 -2.324445E+01  6.983792E-01 -4.783077E+00
      3958   5 -7.568290E+01 -1.508142E+01 -1.640185E+01 -1.828380E+01 -2.771073E+00 -4.628912E+00
      3958   6 -7.781393E+01 -1.377021E+01 -1.651599E+01 -1.868019E+01 -3.581027E+00 -6.884209E+00
      3958   7 -3.161967E+00  1.708980E+01  7.704070E+00 -7.280585E+00 -2.614811E-01 -2.362312E+00
      3958   8  1.078054E-01  2.081069E+01  1.026612E+01 -7.239279E+00 -1.743917E-01 -4.389500E+00
      3959   1  4.664136E+00  8.165762E+00  4.551157E+00 -5.723087E-01 -1.333354E+00  5.722994E-01
      3959   2  6.765929E+00  1.159099E+01  6.464789E+00  8.006834E-01 -9.519823E-01 -1.381097E-01
      3959   3 -2.665428E-01  3.840712E+00  8.654311E-03 -2.412043E+00 -5.753115E-01  1.197920E+00
      3959   4  2.987644E-01  6.006509E+00  1.101671E+00 -1.651494E+00 -4.922360E-02  6.123043E-01
      3959   5  2.810384E+00  2.644245E+00  3.893502E+00 -1.663749E+00 -9.979854E-01  5.469663E-01
      3959   6  4.218663E+00  4.495333E+00  5.069560E+00 -7.280912E-01 -5.653243E-01  2.065617E-02
      3959   7 -1.663729E+00 -9.199540E-01  1.120318E-01 -3.407432E+00 -5.943694E-01  8.256442E-01
      3959   8 -1.682408E+00 -6.959966E-02  5.738721E-01 -3.012618E+00 -1.334755E-02  3.967101E-01
      3960   1  8.102891E+00  1.240602E+01  8.928459E+00  1.501506E+00 -9.892857E-01  1.003048E+00
      3960   2  8.705427E+00  1.233455E+01  9.455914E+00  1.912910E+00 -6.603341E-01  1.367074E-05
      3960   3  6.210890E-01  6.259698E+00  2.104642E+00 -1.116016E+00 -5.288703E-01  1.157460E+00
      3960   4  9.427581E-01  6.059125E+00  2.538626E+00 -8.189600E-01 -1.916980E-01  2.594474E-01
      3960   5  5.227065E+00  4.807923E+00  6.940472E+00 -2.169310E-01 -5.876538E-01  9.077704E-01
      3960   6  5.842799E+00  4.769865E+00  7.478503E+00  9.785685E-02 -2.489144E-01 -1.200672E-01
      3960   7 -1.960807E+00 -6.720491E-01  4.300685E-01 -2.689993E+00 -1.999647E-01  1.055589E+00
      3960   8 -1.619834E+00 -8.247474E-01  8.805238E-01 -2.475087E+00  1.477802E-01  1.306824E-01
      3961   1  8.567696E+00  1.183542E+01  7.771760E+00  2.420538E+00 -8.512602E-01 -1.930178E-01
      3961   2  1.043979E+01  1.363029E+01  9.081886E+00  2.954903E+00 -4.975139E-01 -7.458354E-01
      3961   3  8.118831E-01  5.323756E+00  1.821413E+00 -4.802995E-01 -3.361797E-01  4.217786E-01
      3961   4  2.068199E+00  6.602978E+00  2.810727E+00 -2.060663E-01 -9.458277E-02 -1.221263E-01
      3961   5  5.709703E+00  4.170144E+00  5.910395E+00  4.252215E-01 -2.133952E-01 -3.867277E-01
      3961   6  7.394530E+00  5.497353E+00  7.063965E+00  7.812816E-01  1.580625E-01 -1.085227E+00
      3961   7 -1.846003E+00 -1.630426E+00 -8.402160E-02 -2.276954E+00  1.608531E-01  1.287890E-01
      3961   8 -7.338485E-01 -7.210085E-01  7.945608E-01 -2.156689E+00  4.217312E-01 -5.394593E-01
      3962   1  8.607127E+00  8.606595E+00  4.531470E+00  3.839716E+00 -1.107643E+00  1.439902E+00
      3962   2  9.332550E+00  5.528292E+00  3.740435E+00  4.566292E+00 -9.016985E-01  1.947728E+00
      3962   3  1.748227E+00  4.927667E+00  2.091825E+00  1.331351E-01 -7.962466E-02  2.723171E-01
      3962   4  7.714421E-01  1.403800E+00  6.482426E-01  6.763266E-01 -8.678703E-02  6.987079E-01
      3962   5  6.106810E+00  1.835025E+00  2.968653E+00  1.129286E+00  2.789006E-02  2.448833E-01
      3962   6  7.201228E+00 -4.368487E-01  2.601173E+00  1.209108E+00  3.047035E-01  4.785850E-01
      3962   7 -9.035876E-01 -1.735078E+00 -8.480326E-02 -2.072933E+00  4.553891E-01 -6.215591E-01
      3962   8 -1.536981E+00 -4.517520E+00 -1.125171E+00 -2.086051E+00  5.259325E-01 -4.366477E-01
      3963   1  1.097363E-01  5.697886E+00  9.138373E-01  6.842751E-01 -7.714429E-01 -7.835324E-01
      3963   2 -1.009548E-01  6.675118E+00  1.188991E+00  1.831998E-01 -1.112106E-01 -7.390184E-01
      3963   3  3.234146E-01  4.462310E+00  4.070247E-01 -3.564723E-01 -2.988640E-01 -2.819881E-01
      3963   4  4.647183E-01  5.476155E+00  7.854125E-01 -7.336522E-01  1.544855E-01 -2.755253E-01
      3963   5 -1.488927E+00  8.622825E-01  4.205625E-01  1.105874E+00 -1.054093E+00 -2.416317E-01
      3963   6 -1.490144E+00  2.233843E+00  9.996366E-01  8.518589E-01 -4.254905E-01 -6.033773E-01
      3963   7 -1.433977E+00 -3.251789E-01 -6.634574E-01  2.928838E-02 -4.413661E-01  2.640125E-01
      3963   8 -1.125724E+00  1.011666E+00 -5.157199E-02 -1.412593E-01 -1.030357E-02 -7.054059E-02
      3964   1 -2.909950E-01  6.394459E+00  1.327169E+00  3.018681E-01 -6.437306E-01  1.970322E-02
      3964   2  6.336783E-02  6.731870E+00  1.602343E+00  3.191342E-01 -2.947863E-01 -4.692660E-02
      3964   3  4.692535E-01  5.454091E+00  9.847734E-01 -6.168149E-01 -3.137606E-01  2.210940E-01
      3964   4  7.673739E-01  5.762195E+00  1.213365E+00 -5.786969E-01 -4.134312E-02  1.563944E-01
      3964   5 -2.009440E+00  1.651788E+00  3.416904E-01  9.667840E-01 -6.701517E-01  1.343276E-01
      3964   6 -1.531178E+00  2.228452E+00  7.906090E-01  9.880404E-01 -3.226127E-01 -1.507678E-01
      3964   7 -1.279628E+00  8.528947E-01 -2.436342E-01  4.984759E-03 -3.341909E-01  3.823801E-01
      3964   8 -8.853023E-01  1.351046E+00  1.155940E-01  4.680394E-02 -6.274412E-02  1.349764E-01
      3965   1 -5.924231E-01  4.731535E+00  6.969590E-01  5.713907E-01 -3.972411E-01  7.143765E-01
      3965   2 -7.959612E-01  3.243461E+00  1.229160E-01  7.075708E-01 -2.174156E-01  1.034779E+00
      3965   3  7.016364E-01  4.829735E+00  1.386886E+00 -4.090934E-01 -9.225843E-02  4.540908E-01
      3965   4  4.714761E-01  3.550743E+00  8.892098E-01 -3.172349E-01  3.448998E-03  6.899763E-01
      3965   5 -2.082545E+00  7.046030E-01 -2.431806E-01  1.138144E+00 -3.109858E-01  3.386941E-01
      3965   6 -2.092279E+00 -3.968813E-01 -5.578021E-01  1.195142E+00 -1.221517E-01  3.933435E-01
      3965   7 -9.009026E-01  8.088954E-01  6.592895E-02  1.481269E-01 -4.285164E-02  2.115991E-01
      3965   8 -9.751755E-01 -1.506545E-01 -2.315650E-01  1.755234E-01  5.893700E-02  2.332890E-01
      3966   1 -7.974607E-01  2.312826E+00  3.764938E-01  5.396756E-01  1.058012E-02  9.195828E-01
      3966   2 -1.797793E+00 -3.604620E-01 -7.526168E-01  4.291005E-01  1.565716E-03  1.093353E+00
      3966   3  6.596767E-01  3.147113E+00  1.169632E+00 -4.028187E-01  1.199503E-01  5.116229E-01
      3966   4  1.582975E-01  1.190427E+00  4.144564E-01 -3.903432E-01  2.513751E-02  6.047089E-01
      3966   5 -1.648055E+00  1.084612E-01 -2.544575E-01  1.183558E+00 -2.226529E-02  2.243131E-02
      3966   6 -1.876153E+00 -8.343549E-01 -5.399292E-01  1.240018E+00 -5.533115E-02 -1.236290E-01
      3966   7 -6.860326E-01  6.679364E-02 -2.357473E-01  9.980090E-02  1.811848E-01  1.841119E-02
      3966   8 -5.794990E-01 -5.183447E-01 -3.360940E-01  2.407352E-01  7.056942E-02 -1.298065E-01
      3967   1  3.049715E-01  3.481715E+00  2.168461E-01  8.129951E-01 -2.718484E-01 -5.090748E-01
      3967   2  2.651076E-01  3.793649E+00  2.813498E-01  3.199114E-01  8.804956E-02 -3.165243E-01
      3967   3  3.584726E-01  2.973060E+00  1.759887E-01  3.356876E-01 -1.404358E-01 -3.365356E-01
      3967   4  4.081961E-01  3.354182E+00  3.017785E-01 -1.220600E-02  1.060193E-01 -1.792489E-01
      3967   5 -5.309884E-01  9.872497E-01 -7.522166E-02  9.549535E-01 -3.349136E-01 -2.786370E-01
      3967   6 -3.539550E-01  1.776774E+00  2.346822E-01  5.316940E-01  1.991236E-02 -3.071084E-01
      3967   7 -5.315533E-01  5.117767E-01 -3.294814E-01  4.674328E-01 -1.751477E-01 -7.312693E-02
      3967   8 -3.196972E-01  1.265441E+00 -3.579094E-02  1.783805E-01  7.028105E-02 -9.510599E-02
      3968   1  9.719039E-02  3.317586E+00  2.354688E-01  3.944295E-01 -3.138825E-01  2.287924E-01
      3968   2  1.847159E-01  3.240778E+00  2.080911E-01  3.444447E-01 -7.429097E-02  4.668662E-01
      3968   3  3.431916E-01  3.073024E+00  3.676357E-01  5.108131E-02 -2.004054E-01  2.357809E-01
      3968   4  4.304785E-01  3.023069E+00  3.730867E-01  9.764146E-03 -6.098128E-03  4.260314E-01
      3968   5 -5.977950E-01  1.262573E+00 -2.613535E-02  5.918542E-01 -2.885226E-01  1.954053E-01
      3968   6 -5.098367E-01  1.160208E+00 -2.651493E-02  5.465712E-01 -4.963377E-02  2.442166E-01
      3968   7 -3.786911E-01  1.069642E+00 -3.525811E-02  2.367476E-01 -1.720194E-01  2.198188E-01
      3968   8 -3.028456E-01  9.879985E-01 -3.625671E-02  1.989570E-01  2.215575E-02  2.581608E-01
      3969   1  3.641555E-02  2.070866E+00  4.245957E-01  4.913161E-01 -1.049359E-01  5.826071E-01
      3969   2 -3.490017E-01  5.320326E-01 -1.745078E-01  5.503736E-01 -4.472007E-02  7.495820E-01
      3969   3  4.100487E-01  2.261523E+00  6.596469E-01  9.497268E-02 -2.297821E-02  4.618868E-01
      3969   4  1.814154E-01  1.134729E+00  2.494101E-01  7.628015E-02  1.341527E-02  5.561976E-01
      3969   5 -5.223370E-01  5.913443E-01  4.160851E-02  6.188637E-01 -2.558430E-02  2.182200E-01
      3969   6 -7.134138E-01 -5.295046E-01 -3.276777E-01  6.353058E-01  3.727182E-02  1.454465E-01
      3969   7 -2.256614E-01  7.093186E-01  9.281805E-02  2.248662E-01  4.841893E-02  1.914313E-01
      3969   8 -3.230711E-01 -1.171523E-01 -1.803305E-01  1.744387E-01  8.524886E-02  1.231786E-01
      3970   1  1.508144E-01  9.137420E-01  3.640557E-01  3.966060E-01  1.793874E-02  3.444765E-01
      3970   2 -3.693228E-01 -1.246250E+00 -3.904660E-01  4.779849E-01 -9.822182E-02  1.148981E-01
      3970   3  5.268615E-01  1.348948E+00  5.233041E-01  9.791182E-03  9.218317E-03  3.377988E-01
      3970   4  3.280021E-01  8.270926E-02  8.996995E-02 -7.089678E-02 -7.711380E-02  1.848769E-01
      3970   5 -1.571096E-01  3.595681E-01 -1.081837E-01  2.887352E-01  1.518657E-01  6.844465E-02
      3970   6 -1.906334E-01 -6.487728E-01 -3.923124E-01  1.000096E-01  5.598828E-02 -7.385372E-02
      3970   7  1.107305E-01  5.147330E-01 -2.958434E-02 -9.735054E-03  1.086850E-01  6.932499E-02
      3970   8  1.942747E-01 -9.053429E-02 -1.825442E-01 -2.379637E-01  2.489052E-02 -2.435159E-02
      3971   1 -8.141422E-02  1.361935E+00 -8.618477E-02 -4.029442E-01  5.632270E-02  5.628715E-02
      3971   2 -3.123234E-01  5.942370E-01 -8.818390E-02 -4.854498E-01  1.783575E-02  5.298597E-02
      3971   3  2.733597E-01  1.551698E+00  1.915842E-01 -1.345497E-01  3.509892E-02  5.712017E-03
      3971   4 -1.862924E-02  7.229201E-01  4.706568E-02 -2.170553E-01  6.250879E-03 -2.184712E-02
      3971   5 -2.257258E-02  1.242653E+00 -1.043170E-01 -5.255681E-01 -5.813233E-02  1.002902E-01
      3971   6 -2.898687E-01  3.900516E-01 -1.427031E-01 -5.984347E-01 -9.661928E-02  5.626920E-02
      3971   7  2.984651E-01  1.417957E+00  1.589936E-01 -2.329156E-01 -3.863628E-02  4.971507E-02
      3971   8 -2.991073E-02  5.042763E-01 -2.191190E-02 -3.057822E-01 -6.748433E-02 -1.856390E-02
      3972   1  3.173440E-03  1.432969E-01  7.348788E-02 -7.429130E-01  2.155733E-02  5.672422E-02
      3972   2 -3.834437E-01 -9.550588E-01 -1.168802E-01 -8.702892E-01 -7.417604E-02  7.023848E-02
      3972   3  4.110599E-01  2.964309E-01  1.760482E-01 -3.870437E-01  9.147693E-03 -3.293576E-02
      3972   4 -3.155988E-02 -8.579274E-01 -1.449926E-01 -5.144199E-01 -5.764128E-02 -3.567134E-02
      3972   5  2.037503E-01 -2.691297E-02  8.259796E-02 -8.436436E-01 -7.656718E-02  3.143737E-02
      3972   6 -2.072417E-01 -1.182143E+00 -1.321449E-01 -9.420755E-01 -1.723005E-01  7.616565E-03
      3972   7  5.103313E-01  8.280447E-02  1.417417E-01 -4.715245E-01 -5.164175E-02 -5.822261E-02
      3972   8  4.333680E-02 -1.128428E+00 -2.036739E-01 -5.699563E-01 -1.184307E-01 -9.829326E-02
      3973   1  3.179539E-01 -1.033363E+00  1.732919E-01 -1.461072E-03  6.839954E-02  8.288706E-02
      3973   2  2.750118E-01 -1.154289E+00  1.510768E-01 -4.611782E-02 -7.060803E-02  1.039294E-01
      3973   3  3.520078E-01 -1.088623E+00 -4.496063E-02  3.753042E-02  2.362967E-02 -2.961530E-02
      3973   4  2.877189E-01 -1.230895E+00 -1.169851E-01 -7.126323E-03 -6.983718E-02 -1.033429E-02
      3973   5  6.357268E-01 -1.218610E+00  2.130498E-01  3.505612E-02  5.803609E-02  1.390573E-03
      3973   6  5.901428E-01 -1.345700E+00  1.881926E-01  3.594009E-02 -8.097147E-02  8.201656E-03
      3973   7  5.103882E-01 -1.342181E+00 -7.351388E-02  7.580891E-02  2.749744E-02 -1.111118E-01
      3973   8  4.434574E-01 -1.490617E+00 -1.481802E-01  7.669288E-02 -6.596941E-02 -1.060620E-01
      3974   1 -1.367283E-01 -9.628795E-01 -4.284020E-02  1.073155E+00  7.059726E-02  1.173622E-01
      3974   2  2.928334E-01  3.287767E-01  9.737592E-02  9.917009E-01 -3.433577E-02  1.330191E-01
      3974   3  2.737672E-02 -9.616832E-01 -2.029575E-01  6.421081E-01  1.396553E-02  1.055027E-02
      3974   4  5.400468E-01  4.130814E-01  1.311782E-01  5.606537E-01 -5.083923E-02  4.832698E-02
      3974   5  7.031945E-02 -1.179322E+00 -4.565852E-02  1.280715E+00  2.152700E-01  3.670537E-02
      3974   6  5.330608E-01  1.897538E-01  1.277373E-01  1.239389E+00  1.103370E-01  1.077679E-01
      3974   7  9.397552E-02 -1.238318E+00 -2.659683E-01  8.275482E-01  1.032327E-01 -7.010654E-02
      3974   8  6.398253E-01  2.138662E-01  1.013472E-01  7.862221E-01  3.842794E-02  2.307577E-02
      3975   1 -2.010706E-01  8.545947E-01 -1.891037E-01  7.044956E-01 -9.176441E-02  1.430561E-01
      3975   2  1.005264E-01  1.891156E+00 -2.203413E-01  6.470849E-01 -1.128156E-01  1.548210E-01
      3975   3  2.762326E-02  9.684672E-01 -3.822252E-02  3.370136E-01 -5.261117E-02  8.230667E-02
      3975   4  4.254254E-01  2.101233E+00  1.550186E-01  2.796030E-01 -6.585630E-02  1.373642E-01
      3975   5 -2.185156E-01  6.735484E-01 -2.486511E-01  9.355095E-01  7.465288E-02  1.615605E-01
      3975   6  1.480205E-01  1.861634E+00 -2.149496E-01  8.859049E-01  5.360169E-02  2.374621E-01
      3975   7 -1.714295E-02  7.757118E-01 -1.094790E-01  5.247349E-01  4.966937E-02  1.008110E-01
      3975   8  4.455983E-01  2.060002E+00  1.487011E-01  4.751302E-01  3.642423E-02  2.200053E-01
      3976   1  5.472950E-02  6.887944E-01 -5.722186E-02 -3.340784E-01  2.294900E-02  2.610523E-02
      3976   2 -1.206529E-01  1.768631E-01 -1.298986E-01 -3.722903E-01  4.459641E-04  1.772327E-02
      3976   3  2.417114E-01  7.993524E-01  1.243230E-01 -1.658039E-01  1.097856E-02 -1.358855E-03
      3976   4  3.568415E-02  2.567763E-01 -1.985836E-02 -2.040159E-01 -3.828491E-03 -1.544233E-02
      3976   5  9.229399E-02  6.264246E-01 -6.466343E-02 -3.820819E-01 -2.840385E-02  6.159864E-02
      3976   6 -9.164068E-02  9.453804E-02 -1.458924E-01 -4.125978E-01 -5.090689E-02  3.278678E-02
      3976   7  2.523400E-01  7.254387E-01  1.053374E-01 -2.081059E-01 -1.994439E-02  3.413455E-02
      3976   8  3.776043E-02  1.629072E-01 -4.739619E-02 -2.386219E-01 -3.475144E-02 -3.788215E-04
      3977   1  4.303101E-01  9.024499E-02  9.655354E-02 -4.413385E-01  2.716773E-03  1.916975E-02
      3977   2  2.389241E-01 -4.367661E-01 -1.438848E-02 -4.242471E-01 -4.726918E-02  3.150357E-02
      3977   3  3.715160E-01  6.563362E-02  7.330967E-02 -2.735259E-01 -2.443188E-03 -2.017245E-02
      3977   4  1.518456E-01 -4.896620E-01 -1.036295E-01 -2.564346E-01 -3.546683E-02 -1.901189E-02
      3977   5  5.462476E-01  2.752621E-02  1.125192E-01 -4.834251E-01 -3.750519E-02  1.985350E-02
      3977   6  3.381018E-01 -5.385913E-01 -1.518274E-02 -4.493715E-01 -8.749114E-02  1.333097E-02
      3977   7  4.280855E-01 -2.252862E-02  6.383183E-02 -3.044393E-01 -2.380881E-02 -1.948870E-02
      3977   8  1.916551E-01 -6.169307E-01 -1.298673E-01 -2.703856E-01 -5.683244E-02 -3.718449E-02
      3978   1  5.820633E-01 -4.497409E-01  1.149228E-01  3.762648E-02  3.329991E-03  3.411711E-02
      3978   2  5.772964E-01 -4.440176E-01  9.330967E-02  9.234357E-02 -6.496470E-02  2.892363E-02
      3978   3  3.539222E-01 -5.684478E-01 -5.262580E-02  3.238134E-02 -7.359910E-03 -1.806074E-02
      3978   4  3.518341E-01 -5.600457E-01 -6.798843E-02  8.709844E-02 -5.242368E-02 -1.662272E-02
      3978   5  7.428280E-01 -5.299214E-01  1.390980E-01  8.194520E-02  1.175308E-02  9.696281E-03
      3978   6  7.480083E-01 -5.009878E-01  1.274322E-01  1.598932E-01 -5.654161E-02  6.288645E-03
      3978   7  4.333786E-01 -6.834747E-01 -6.329693E-02  7.006855E-02 -7.226705E-04 -4.248158E-02
      3978   8  4.412377E-01 -6.518623E-01 -6.871230E-02  1.480166E-01 -4.578644E-02 -3.925771E-02
      3979   1  3.024594E-01 -3.670200E-01 -3.128990E-02  5.762921E-01 -9.399833E-03  1.775287E-02
      3979   2  5.146217E-01  2.483024E-01  6.059542E-02  6.102682E-01 -5.377921E-02 -7.572721E-03
      3979   3  1.638444E-01 -4.376829E-01 -1.282178E-01  3.747121E-01 -1.660347E-02 -1.553335E-02
      3979   4  4.122698E-01  2.139025E-01  4.828132E-02  4.086881E-01 -4.530794E-02 -1.399516E-02
      3979   5  4.078579E-01 -4.169527E-01 -1.465016E-02  7.121996E-01  5.073867E-02  4.620357E-03
      3979   6  6.603159E-01  2.923929E-01  1.175308E-01  7.618505E-01  6.359287E-03  3.470144E-03
      3979   7  2.143807E-01 -5.111280E-01 -1.350905E-01  4.837557E-01  1.935965E-02 -2.866587E-02
      3979   8  5.031018E-01  2.344807E-01  8.170438E-02  5.334067E-01 -9.344824E-03 -2.952292E-03
      3980   1 -1.240395E-01  3.445816E-01 -2.240494E-01  4.630771E-01 -3.395773E-02 -3.653738E-03
      3980   2  5.995737E-02  9.098764E-01 -1.760214E-01  4.246023E-01 -4.207309E-02  3.237872E-02
      3980   3  5.669065E-02  4.483620E-01 -5.884473E-02  2.724282E-01 -2.214885E-02  3.132967E-03
      3980   4  2.850305E-01  1.058000E+00  9.265035E-02  2.339533E-01 -2.405543E-02  4.838968E-02
      3980   5 -8.545570E-02  3.805081E-01 -2.016963E-01  5.659838E-01  3.402668E-02  2.705838E-02
      3980   6  1.123776E-01  9.780879E-01 -1.398319E-01  5.337177E-01  2.591132E-02  9.265284E-02
      3980   7  7.354374E-02  4.749754E-01 -4.580480E-02  3.661106E-01  1.627355E-02  3.384508E-02
      3980   8  3.157200E-01  1.116898E+00  1.195267E-01  3.338445E-01  1.436697E-02  1.086638E-01
      3981   1  6.408163E-02  2.373402E-01 -4.202869E-02 -1.513120E-01  5.182077E-03  7.977018E-03
      3981   2  4.755105E-03  6.011805E-02 -6.256162E-02 -1.560557E-01 -5.170661E-03  3.193000E-04
      3981   3  1.149870E-01  2.787583E-01  4.512608E-02 -9.236418E-02  1.316220E-03 -1.952635E-03
      3981   4  3.907030E-02  8.494591E-02 -1.411730E-02 -9.710785E-02 -4.563083E-03 -1.229026E-02
      3981   5  8.542174E-02  2.181155E-01 -4.139406E-02 -1.729480E-01 -1.421472E-02  3.084538E-02
      3981   6  2.207534E-02  3.151370E-02 -6.594685E-02 -1.732182E-01 -2.456746E-02  1.212753E-02
      3981   7  1.206701E-01  2.528234E-01  3.905055E-02 -1.113203E-01 -7.020451E-03  2.091573E-02
      3981   8  4.073352E-02  4.963140E-02 -2.421269E-02 -1.115905E-01 -1.289975E-02 -4.820290E-04
      3982   1  3.222257E-01  7.009125E-02  6.567367E-02 -2.029662E-01 -5.229681E-03 -1.399946E-03
      3982   2  2.338065E-01 -1.604786E-01  1.512622E-03 -1.692657E-01 -2.871026E-02  1.560706E-03
      3982   3  2.124122E-01  2.767858E-02  3.411166E-02 -1.318909E-01 -7.682560E-03 -1.671540E-02
      3982   4  1.144255E-01 -2.124587E-01 -5.237332E-02 -9.819042E-02 -2.205332E-02 -1.846749E-02
      3982   5  3.814346E-01  5.170802E-02  7.792135E-02 -2.177430E-01 -1.735879E-02  4.025389E-03
      3982   6  2.859462E-01 -1.953564E-01  6.691199E-03 -1.749327E-01 -4.083937E-02  6.077719E-04
      3982   7  2.397366E-01 -4.369377E-03  3.269462E-02 -1.419550E-01 -1.343340E-02 -1.129007E-02
      3982   8  1.346809E-01 -2.610012E-01 -6.085947E-02 -9.914472E-02 -2.780416E-02 -1.942042E-02
      3983   1  4.106391E-01 -1.476570E-01  6.473210E-02  3.324646E-02 -1.170184E-02 -3.846018E-04
      3983   2  4.157242E-01 -1.248224E-01  5.884769E-02  8.857607E-02 -4.386511E-02 -8.659933E-03
      3983   3  2.128024E-01 -2.348345E-01 -2.802280E-02  2.437167E-02 -1.287430E-02 -2.025042E-02
      3983   4  2.199317E-01 -2.099556E-01 -2.913731E-02  7.970128E-02 -3.302368E-02 -2.336940E-02
      3983   5  4.934118E-01 -1.689425E-01  8.317828E-02  6.210844E-02 -6.217094E-03 -3.173313E-03
      3983   6  5.062314E-01 -1.280606E-01  8.502839E-02  1.294519E-01 -3.838036E-02 -1.008581E-02
      3983   7  2.535265E-01 -2.741408E-01 -2.759746E-02  4.807730E-02 -8.752392E-03 -2.303913E-02
      3983   8  2.683904E-01 -2.312147E-01 -2.097744E-02  1.154208E-01 -2.890177E-02 -2.479528E-02
      3984   1  2.288744E-01 -1.128669E-01 -2.111041E-02  2.756169E-01 -1.823888E-02 -1.754234E-02
      3984   2  3.254658E-01  1.593156E-01  2.867856E-02  3.094661E-01 -3.841360E-02 -3.353418E-02
      3984   3  1.145813E-01 -1.594616E-01 -6.213308E-02  1.878214E-01 -1.550329E-02 -2.500968E-02
      3984   4  2.263892E-01  1.279373E-01  2.316102E-02  2.216706E-01 -2.804920E-02 -2.637205E-02
      3984   5  2.882849E-01 -1.087405E-01 -2.049351E-03  3.466946E-01  5.162348E-03 -1.475631E-02
      3984   6  4.068206E-01  2.146451E-01  6.968385E-02  3.881726E-01 -1.501237E-02 -2.060383E-02
      3984   7  1.472910E-01 -1.667785E-01 -5.451524E-02  2.442696E-01 -2.246383E-03 -2.222365E-02
      3984   8  2.810431E-01  1.718237E-01  5.272310E-02  2.857476E-01 -1.479229E-02 -1.344169E-02
      3985   1 -3.898119E-03  1.585433E-01 -1.142073E-01  1.988785E-01 -1.569631E-02 -3.183536E-02
      3985   2  5.249114E-02  3.354593E-01 -1.031591E-01  1.922055E-01 -1.511431E-02 -1.120225E-02
      3985   3  5.181944E-02  2.009150E-01 -2.868583E-02  1.386151E-01 -9.876533E-03 -1.748134E-02
      3985   4  1.284181E-01  3.980403E-01  2.951752E-02  1.319422E-01 -8.704397E-03  8.170872E-03
      3985   5  1.559593E-02  2.079093E-01 -9.354921E-02  2.515213E-01  6.974220E-03 -1.026050E-02
      3985   6  7.951383E-02  4.023922E-01 -7.497237E-02  2.454385E-01  7.556215E-03  2.384552E-02
      3985   7  6.924800E-02  2.493958E-01 -8.913009E-03  1.862388E-01 -6.789058E-04  4.093518E-03
      3985   8  1.533753E-01  4.640880E-01  5.681900E-02  1.801560E-01  4.932298E-04  4.321864E-02
      3986   1  3.004939E-02  4.972208E-02 -1.811614E-02 -4.335834E-02 -5.552248E-04 -1.685229E-03
      3986   2  1.727502E-02  1.318452E-02 -2.415983E-02 -4.150002E-02 -4.130717E-03 -5.525471E-03
      3986   3  3.802549E-02  6.141481E-02  1.288356E-02 -3.147675E-02 -1.802251E-03 -3.720270E-03
      3986   4  2.146842E-02  2.109457E-02 -1.986414E-03 -2.961843E-02 -3.557050E-03 -8.939752E-03
      3986   5  3.951105E-02  4.796267E-02 -1.580546E-02 -5.022671E-02 -3.920566E-03  7.968250E-03
      3986   6  2.466782E-02  6.597779E-03 -2.391801E-02 -4.654770E-02 -7.496058E-03  1.606212E-03
      3986   7  4.111472E-02  5.692437E-02  1.246320E-02 -3.696588E-02 -2.645797E-03  5.933209E-03
      3986   8  2.248880E-02  1.177678E-02 -4.475638E-03 -3.328687E-02 -4.400596E-03 -1.808069E-03
      3987   1  1.623655E-01  3.901541E-02  3.280534E-02 -6.901072E-02 -8.998919E-03 -7.063273E-03
      3987   2  1.292776E-01 -4.341440E-02  4.942097E-03 -4.696073E-02 -1.843577E-02 -7.424381E-03
      3987   3  9.329767E-02  1.404755E-02  1.864697E-02 -4.433977E-02 -1.014240E-02 -1.180035E-02
      3987   4  5.691533E-02 -7.167669E-02 -1.690327E-02 -2.228978E-02 -1.520938E-02 -1.439616E-02
      3987   5  1.882889E-01  3.659092E-02  3.985500E-02 -7.128858E-02 -1.161126E-02 -1.658527E-03
      3987   6  1.518489E-01 -5.366036E-02  8.639700E-03 -4.486871E-02 -2.104811E-02 -4.215921E-03
      3987   7  1.039265E-01  5.068247E-03  1.914182E-02 -4.438292E-02 -1.055845E-02 -6.395604E-03
      3987   8  6.419207E-02 -8.847746E-02 -1.976048E-02 -1.796306E-02 -1.562543E-02 -1.118770E-02
      3988   1  2.084908E-01 -3.029414E-02  3.205823E-02  2.292285E-02 -1.326074E-02 -9.535752E-03
      3988   2  2.110599E-01 -1.784768E-02  2.817558E-02  5.554221E-02 -2.705064E-02 -1.494302E-02
      3988   3  9.852563E-02 -7.502057E-02 -7.064696E-03  1.798419E-02 -1.314403E-02 -1.654510E-02
      3988   4  1.027225E-01 -6.094641E-02 -7.149365E-03  5.060356E-02 -2.157340E-02 -1.982028E-02
      3988   5  2.462414E-01 -3.414201E-02  4.222906E-02  4.029386E-02 -1.003485E-02 -6.734001E-03
      3988   6  2.520087E-01 -1.423326E-02  4.154453E-02  7.827375E-02 -2.382474E-02 -1.105613E-02
      3988   7  1.175144E-01 -8.690923E-02 -4.934660E-03  3.322312E-02 -1.100328E-02 -1.374335E-02
      3988   8  1.249094E-01 -6.537278E-02 -1.821206E-03  7.120301E-02 -1.943265E-02 -1.593339E-02
      3989   1  1.203785E-01 -2.117138E-02 -1.077227E-02  1.112731E-01 -1.365064E-02 -1.980214E-02
      3989   2  1.569283E-01  8.024385E-02  9.645085E-03  1.311172E-01 -2.245851E-02 -2.767024E-02
      3989   3  5.956668E-02 -4.229501E-02 -2.037252E-02  7.884032E-02 -1.132470E-02 -2.156699E-02
      3989   4  1.021718E-01  6.517559E-02  1.417404E-02  9.868443E-02 -1.754888E-02 -2.306391E-02
      3989   5  1.485588E-01 -1.413657E-02 -2.077374E-04  1.454323E-01 -5.584428E-03 -1.404045E-02
      3989   6  1.946653E-01  1.095778E-01  2.976638E-02  1.678601E-01 -1.439230E-02 -1.787163E-02
      3989   7  7.870401E-02 -3.913574E-02 -1.368353E-02  1.066284E-01 -7.295404E-03 -1.580530E-02
      3989   8  1.308659E-01  9.063399E-02  3.041979E-02  1.290562E-01 -1.351958E-02 -1.326531E-02
      3990   1  8.924732E-03  5.704473E-02 -5.231500E-02  6.350755E-02 -6.645687E-03 -2.731360E-02
      3990   2  1.838484E-02  8.526110E-02 -4.899769E-02  6.245181E-02 -5.665486E-03 -1.847115E-02
      3990   3  3.132633E-02  7.733487E-02 -7.082811E-03  5.412941E-02 -3.638630E-03 -1.971699E-02
      3990   4  4.568285E-02  1.104477E-01  7.659471E-03  5.307368E-02 -3.772943E-03 -9.076118E-03
      3990   5  1.688893E-02  8.216254E-02 -4.239040E-02  8.651803E-02 -3.574293E-03 -1.484257E-02
      3990   6  2.904668E-02  1.166734E-01 -3.637545E-02  8.434779E-02 -2.594091E-03 -2.735844E-03
      3990   7  4.319134E-02  1.041245E-01  4.513567E-03  7.534147E-02 -3.831510E-03 -7.245966E-03
      3990   8  6.024549E-02  1.435317E-01  2.195349E-02  7.317123E-02 -3.965824E-03  6.659185E-03
      3991   1  1.170403E-02  2.115964E-03 -8.189167E-04 -5.078421E-03 -2.986928E-03 -1.757351E-03
      3991   2  9.725775E-03 -2.189803E-03 -3.107320E-03 -2.291136E-03 -3.983883E-03 -2.800737E-03
      3991   3  6.356690E-03  2.343196E-03  5.285862E-03 -3.914663E-03 -4.976500E-03 -1.334604E-03
      3991   4  4.068701E-03 -2.272308E-03  2.274738E-03 -1.127378E-03 -5.723681E-03 -2.833453E-03
      3991   5  1.582749E-02  5.091011E-03  1.310637E-03 -5.790909E-03 -2.831852E-03  1.181422E-03
      3991   6  1.316604E-02 -8.088772E-04 -1.660962E-03 -2.753850E-03 -3.828807E-03 -6.845575E-05
      3991   7  9.605944E-03  4.943582E-03  7.040754E-03 -4.171688E-03 -4.614932E-03  1.604169E-03
      3991   8  6.634760E-03 -1.266043E-03  3.346435E-03 -1.134629E-03 -5.362113E-03 -1.011720E-04
      3992   1  6.243759E-02  1.270474E-02  1.648233E-02 -1.490650E-02 -1.216365E-02 -3.130640E-03
      3992   2  5.261314E-02 -9.074293E-03  5.513184E-03 -5.634739E-03 -1.529979E-02 -2.988567E-03
      3992   3  3.369471E-02  2.505397E-03  1.122738E-02 -8.929213E-03 -1.654232E-02 -3.700455E-03
      3992   4  2.311417E-02 -2.002972E-02 -1.505962E-03  3.425516E-04 -1.877321E-02 -4.570300E-03
      3992   5  7.255937E-02  1.541461E-02  2.033182E-02 -1.307026E-02 -1.159130E-02 -6.584386E-04
      3992   6  6.121705E-02 -9.906138E-03  7.844803E-03 -2.893246E-03 -1.472745E-02 -1.020424E-03
      3992   7  4.064811E-02  3.857382E-03  1.371900E-02 -6.081056E-03 -1.546591E-02 -1.228254E-03
      3992   8  2.854970E-02 -2.221945E-02 -5.322238E-04  4.095962E-03 -1.769681E-02 -2.602156E-03
      3993   1  8.366818E-02 -7.139071E-04  1.540553E-02  9.259627E-03 -1.518901E-02 -3.717179E-03
      3993   2  8.426232E-02  3.588579E-03  1.308351E-02  2.275992E-02 -2.118130E-02 -5.849857E-03
      3993   3  3.952086E-02 -1.786064E-02  2.397066E-03  7.405453E-03 -2.089268E-02 -5.598757E-03
      3993   4  4.128497E-02 -1.238819E-02  2.804963E-03  2.090574E-02 -2.558728E-02 -7.538712E-03
      3993   5  1.018188E-01  1.689004E-03  2.157159E-02  1.811880E-02 -1.373093E-02 -1.648043E-03
      3993   6  1.027021E-01  6.666023E-03  1.953866E-02  3.291679E-02 -1.972322E-02 -3.000744E-03
      3993   7  5.312958E-02 -1.740427E-02  6.616589E-03  1.607190E-02 -2.021458E-02 -3.529621E-03
      3993   8  5.518277E-02 -1.125729E-02  7.313572E-03  3.086989E-02 -2.490917E-02 -4.689599E-03
      3994   1  4.698508E-02 -2.513384E-03 -3.275196E-03  2.832572E-02 -1.221405E-02 -7.796907E-03
      3994   2  5.686291E-02  2.464838E-02  2.489144E-03  3.963254E-02 -1.723058E-02 -1.098367E-02
      3994   3  1.285550E-02 -1.402931E-02 -7.532046E-03  1.968375E-02 -1.696975E-02 -8.756225E-03
      3994   4  2.476161E-02  1.516074E-02  2.964959E-03  3.099058E-02 -2.127060E-02 -1.014258E-02
      3994   5  6.310392E-02  1.653785E-03  2.810609E-03  4.136029E-02 -1.015731E-02 -4.167368E-03
      3994   6  7.568237E-02  3.511698E-02  1.127556E-02  5.338279E-02 -1.517383E-02 -6.001941E-03
      3994   7  2.646947E-02 -1.093566E-02 -2.519760E-03  3.091792E-02 -1.626520E-02 -5.126686E-03
      3994   8  4.107620E-02  2.455581E-02  1.067786E-02  4.294042E-02 -2.056604E-02 -5.160851E-03
      3995   1  5.619154E-03  1.084657E-02 -1.760818E-02  5.568352E-03 -3.018933E-03 -1.154976E-02
      3995   2  6.801173E-03  1.071772E-02 -1.353927E-02  9.359370E-03 -3.754973E-03 -9.909574E-03
      3995   3  6.492261E-04  1.345868E-02 -3.931224E-03  6.223786E-03 -4.332948E-03 -9.929614E-03
      3995   4  2.059749E-03  1.355833E-02  6.708652E-04  1.001480E-02 -5.598421E-03 -7.961424E-03
      3995   5  1.062551E-02  1.762113E-02 -1.407390E-02  1.190199E-02 -4.462380E-03 -6.017334E-03
      3995   6  1.229954E-02  1.864031E-02 -9.512980E-03  1.516358E-02 -5.198421E-03 -4.224815E-03
      3995   7  7.508597E-03  2.102739E-02  3.972010E-04  1.222942E-02 -5.928731E-03 -4.397190E-03
      3995   8  9.411130E-03  2.227507E-02  5.491300E-03  1.549100E-02 -7.194204E-03 -2.276664E-03
      3996   1 -1.634130E-01  1.413697E+00 -1.970496E-02 -3.784111E-01 -2.428073E-02 -1.395204E-01
      3996   2 -3.892390E-01  6.776935E-01 -3.645460E-02 -4.711029E-01 -4.704317E-02 -1.039913E-01
      3996   3  2.178824E-01  1.609609E+00  2.520389E-01 -1.233223E-01 -2.524476E-03 -1.418537E-01
      3996   4 -6.480344E-02  8.167454E-01  1.026163E-01 -2.160141E-01 -2.041278E-02 -1.095651E-01
      3996   5 -8.724439E-02  1.439674E+00  1.093873E-02 -3.635137E-01 -1.288189E-01 -1.016044E-01
      3996   6 -3.179311E-01  6.923288E-01 -1.067166E-02 -4.513313E-01 -1.515814E-01 -1.039818E-01
      3996   7  2.769915E-01  1.628275E+00  2.753713E-01 -1.051843E-01 -6.915610E-02 -1.039377E-01
      3996   8 -1.055510E-02  8.240696E-01  1.210880E-01 -1.930020E-01 -8.704440E-02 -1.095556E-01
      3997   1 -1.347506E-01  2.205314E-01  9.211072E-02 -7.489420E-01 -3.007592E-02 -7.487429E-02
      3997   2 -5.121469E-01 -8.489539E-01 -9.639153E-02 -8.844910E-01 -5.135467E-02 -3.085441E-02
      3997   3  2.959388E-01  3.801228E-01  1.933925E-01 -4.028975E-01 -2.129848E-02 -8.267302E-02
      3997   4 -1.441150E-01 -7.520201E-01 -1.413105E-01 -5.384465E-01 -4.434995E-02 -4.149122E-02
      3997   5 -7.197304E-02  2.251540E-01  1.123308E-01 -7.175378E-01 -1.245229E-01 -1.040291E-01
      3997   6 -4.536264E-01 -8.542646E-01 -8.042862E-02 -8.548595E-01 -1.458017E-01 -1.017808E-01
      3997   7  3.649208E-01  3.874044E-01  2.162716E-01 -3.686551E-01 -7.397383E-02 -1.118278E-01
      3997   8 -7.939005E-02 -7.546717E-01 -1.226885E-01 -5.059769E-01 -9.702530E-02 -1.124176E-01
      3998   1  1.868057E-01 -9.427858E-01  1.662631E-01 -1.287899E-01 -6.831131E-03 -1.058959E-02
      3998   2  8.946250E-02 -1.151503E+00  5.050257E-02 -1.759271E-01 -1.356713E-02  7.550733E-04
      3998   3  2.214494E-01 -1.002417E+00 -6.714998E-02 -7.310305E-02 -2.984737E-02 -1.761897E-02
      3998   4  1.213391E-01 -1.213901E+00 -1.893672E-01 -1.202403E-01 -4.697011E-02  6.419442E-03
      3998   5  1.998376E-01 -9.572847E-01  1.658230E-01 -4.536347E-02  2.377533E-03 -9.748072E-02
      3998   6  1.215350E-01 -1.121573E+00  6.910312E-02 -1.028875E-01 -4.358465E-03 -8.798082E-02
      3998   7  2.708349E-01 -1.001335E+00 -5.200996E-02 -2.370415E-03 -1.879395E-02 -1.045101E-01
      3998   8  1.897652E-01 -1.168391E+00 -1.551865E-01 -5.989441E-02 -3.591669E-02 -8.231645E-02
      3999   1 -1.747611E-01 -9.520364E-01 -1.144574E-01  8.759207E-01 -1.777512E-02 -8.373091E-03
      3999   2  2.105327E-01  2.344135E-01 -1.659477E-02  8.131212E-01  4.766604E-03 -4.465636E-02
      3999   3 -5.696110E-02 -9.598354E-01 -2.582538E-01  4.753426E-01 -4.475275E-02  7.932273E-03
      3999   4  4.160823E-01  3.143642E-01  4.435791E-02  4.125432E-01 -4.661970E-02 -1.197301E-02
      3999   5 -2.291991E-01 -9.287803E-01 -1.238120E-01  9.646909E-01  1.259404E-01 -7.637182E-02
      3999   6  1.806617E-01  3.149926E-01 -1.382331E-03  8.774828E-01  1.484822E-01 -5.415536E-02
      3999   7 -2.596872E-02 -8.999662E-01 -2.309953E-01  5.477349E-01  4.046308E-02 -6.006646E-02
      3999   8  4.716416E-01  4.315563E-01  9.618336E-02  4.605267E-01  3.859612E-02 -2.147201E-02
      4000   1 -2.983318E-01  7.057024E-01 -3.246150E-01  6.165093E-01 -3.873721E-02 -6.877485E-02
      4000   2 -2.224847E-02  1.686104E+00 -3.847386E-01  5.503890E-01 -3.645840E-02 -9.838453E-02
      4000   3 -1.430768E-02  8.574858E-01 -1.026945E-01  2.643503E-01 -4.967803E-02 -3.023696E-02
      4000   4  3.566673E-01  1.932779E+00  5.859582E-02  1.982300E-01 -4.311491E-02 -6.022972E-02
      4000   5 -2.485008E-01  8.371668E-01 -2.702264E-01  6.190198E-01  1.293663E-01 -3.370629E-02
      4000   6  2.700791E-02  1.816227E+00 -3.309246E-01  5.571837E-01  1.316451E-01 -5.484706E-05
      4000   7  2.052823E-02  9.825238E-01 -5.473235E-02  2.672438E-01  5.516432E-02  4.831605E-03
      4000   8  3.909286E-01  2.056476E+00  1.059834E-01  2.054078E-01  6.172744E-02  3.809997E-02
      4001   1 -1.512839E-03  7.090733E-01 -1.933381E-02 -3.078765E-01  3.720574E-03 -7.974731E-02
      4001   2 -1.661272E-01  2.339018E-01 -9.287679E-02 -3.540751E-01 -1.099845E-02 -5.368284E-02
      4001   3  2.051399E-01  8.233290E-01  1.548655E-01 -1.525979E-01 -9.738926E-04 -7.964837E-02
      4001   4  1.093265E-02  3.185645E-01  1.227236E-02 -1.987965E-01 -1.190843E-02 -6.156982E-02
      4001   5  5.015215E-02  7.314982E-01  2.893128E-03 -3.141951E-01 -4.181511E-02 -4.977546E-02
      4001   6 -1.264411E-01  2.283759E-01 -8.262872E-02 -3.566092E-01 -5.653414E-02 -4.343962E-02
      4001   7  2.435592E-01  8.400771E-01  1.714157E-01 -1.509306E-01 -2.678095E-02 -4.967652E-02
      4001   8  3.737306E-02  3.073619E-01  1.684369E-02 -1.933447E-01 -3.771549E-02 -5.132660E-02
      4002   1  3.183965E-01  1.378953E-01  9.774873E-02 -4.378870E-01 -1.788271E-02 -3.718747E-02
      4002   2  1.291878E-01 -3.681847E-01 -2.686666E-02 -4.324457E-01 -4.012503E-02 -1.818572E-02
      4002   3  2.962510E-01  1.266325E-01  8.235152E-02 -2.794513E-01 -1.732809E-02 -4.941419E-02
      4002   4  8.618622E-02 -4.003037E-01 -9.092814E-02 -2.740100E-01 -3.558708E-02 -3.428292E-02
      4002   5  3.779045E-01  1.284653E-01  1.127721E-01 -4.291366E-01 -5.017933E-02 -3.925466E-02
      4002   6  1.828902E-01 -3.911615E-01 -1.764898E-02 -4.197119E-01 -7.242166E-02 -3.415700E-02
      4002   7  3.418173E-01  1.112275E-01  9.139992E-02 -2.668304E-01 -3.572064E-02 -5.148139E-02
      4002   8  1.259469E-01 -4.292554E-01 -8.768546E-02 -2.574057E-01 -5.397963E-02 -5.025420E-02
      4003   1  4.509972E-01 -3.953485E-01  8.236668E-02 -4.405669E-02 -3.798578E-02 -1.436362E-02
      4003   2  4.264172E-01 -4.319045E-01  3.698967E-02  3.776283E-04 -5.843346E-02 -2.292318E-02
      4003   3  2.658814E-01 -4.915956E-01 -5.334127E-02 -3.806862E-02 -3.720407E-02 -2.951798E-02
      4003   4  2.467523E-01 -5.227008E-01 -8.599961E-02  6.365699E-03 -5.634894E-02 -3.163117E-02
      4003   5  4.998325E-01 -4.177172E-01  9.030666E-02  3.864372E-03 -2.758723E-02 -3.409404E-02
      4003   6  4.849221E-01 -4.317110E-01  5.459920E-02  4.960150E-02 -4.803491E-02 -3.901970E-02
      4003   7  3.101569E-01 -5.159185E-01 -4.735550E-02  3.406071E-03 -3.043943E-02 -4.924840E-02
      4003   8  3.006974E-01 -5.244614E-01 -7.034429E-02  4.914320E-02 -4.958430E-02 -4.772769E-02
      4004   1  2.096279E-01 -3.716147E-01 -7.282771E-02  4.299213E-01 -5.365964E-02 -3.658749E-02
      4004   2  3.845825E-01  1.479366E-01 -9.197010E-03  4.564738E-01 -6.400898E-02 -6.535950E-02
      4004   3  1.067568E-01 -4.213808E-01 -1.358437E-01  2.576229E-01 -5.101606E-02 -3.772464E-02
      4004   4  3.150758E-01  1.315349E-01  5.637321E-03  2.841754E-01 -6.013105E-02 -5.225910E-02
      4004   5  2.441449E-01 -3.600707E-01 -5.900942E-02  5.006559E-01  2.002319E-03 -4.321241E-02
      4004   6  4.404558E-01  2.093121E-01  2.597760E-02  5.284427E-01 -8.347024E-03 -4.974147E-02
      4004   7  1.369535E-01 -4.116884E-01 -1.238770E-01  3.141200E-01 -1.759706E-02 -4.434956E-02
      4004   8  3.666289E-01  1.910588E-01  3.896040E-02  3.419068E-01 -2.671205E-02 -3.664107E-02
      4005   1 -1.498166E-01  2.381195E-01 -2.628385E-01  3.698051E-01 -4.972063E-02 -7.788313E-02
      4005   2  2.668513E-04  7.299712E-01 -2.544118E-01  3.325865E-01 -4.253490E-02 -8.332633E-02
      4005   3  3.237564E-02  3.458747E-01 -8.584676E-02  1.989210E-01 -3.889620E-02 -5.518012E-02
      4005   4  2.269591E-01  8.822264E-01  2.641323E-02  1.617025E-01 -3.429380E-02 -4.862603E-02
      4005   5 -1.409122E-01  3.068015E-01 -2.395626E-01  4.105112E-01  2.110779E-02 -4.326487E-02
      4005   6  2.716725E-02  8.406436E-01 -2.131400E-01  3.707094E-01  2.829352E-02 -1.904140E-02
      4005   7  5.032173E-02  4.184317E-01 -5.869585E-02  2.276298E-01  2.265548E-03 -2.056185E-02
      4005   8  2.629012E-01  9.967738E-01  7.156007E-02  1.878280E-01  6.867957E-03  1.565890E-02
      4006   1  3.321592E-02  2.501352E-01 -2.121151E-02 -1.404391E-01 -3.699703E-03 -3.886079E-02
      4006   2 -2.409229E-02  8.518251E-02 -4.728615E-02 -1.497823E-01 -1.245532E-02 -3.462083E-02
      4006   3  9.576236E-02  2.939952E-01  6.244210E-02 -8.661682E-02 -6.452289E-03 -4.065146E-02
      4006   4  2.628657E-02  1.168749E-01  7.976423E-03 -9.596003E-02 -1.303946E-02 -3.944559E-02
      4006   5  6.117457E-02  2.570013E-01 -1.076409E-02 -1.426013E-01 -1.931649E-02 -1.896400E-02
      4006   6 -6.847756E-04  8.142927E-02 -4.138987E-02 -1.497760E-01 -2.807210E-02 -2.283576E-02
      4006   7  1.161315E-01  2.976087E-01  6.963685E-02 -8.574491E-02 -1.395735E-02 -2.075466E-02
      4006   8  4.210452E-02  1.098690E-01  1.062004E-02 -9.291968E-02 -2.054452E-02 -2.766052E-02
      4007   1  2.482388E-01  8.479998E-02  5.967826E-02 -2.042402E-01 -1.782237E-02 -3.112445E-02
      4007   2  1.655956E-01 -1.301384E-01 -8.608919E-04 -1.795656E-01 -3.309836E-02 -2.581211E-02
      4007   3  1.717246E-01  5.763505E-02  4.564278E-02 -1.380927E-01 -1.972736E-02 -3.791794E-02
      4007   4  7.985553E-02 -1.665291E-01 -3.642324E-02 -1.134180E-01 -3.083699E-02 -3.495018E-02
      4007   5  2.915146E-01  8.393674E-02  7.240200E-02 -1.993481E-01 -2.887442E-02 -2.455972E-02
      4007   6  2.053545E-01 -1.392076E-01  8.345983E-03 -1.705071E-01 -4.415041E-02 -2.539792E-02
      4007   7  2.004180E-01  5.052227E-02  5.211698E-02 -1.308560E-01 -2.462888E-02 -3.135321E-02
      4007   8  1.050321E-01 -1.818479E-01 -3.346590E-02 -1.020149E-01 -3.573850E-02 -3.453599E-02
      4008   1  3.219708E-01 -1.287786E-01  5.226853E-02 -1.720857E-02 -3.579979E-02 -2.716801E-02
      4008   2  3.168479E-01 -1.308360E-01  3.724944E-02  2.708425E-02 -5.268878E-02 -3.618473E-02
      4008   3  1.649200E-01 -1.972438E-01 -1.889784E-02 -1.874137E-02 -3.274493E-02 -3.570269E-02
      4008   4  1.617906E-01 -1.973076E-01 -2.926539E-02  2.555145E-02 -4.477355E-02 -4.072635E-02
      4008   5  3.682803E-01 -1.333165E-01  6.480000E-02  1.199353E-02 -3.085170E-02 -2.851862E-02
      4008   6  3.691470E-01 -1.213981E-01  5.577051E-02  6.114673E-02 -4.774069E-02 -3.620633E-02
      4008   7  1.942182E-01 -2.090722E-01 -1.365694E-02  6.467663E-03 -2.912586E-02 -3.705330E-02
      4008   8  1.970784E-01 -1.951603E-01 -1.803488E-02  5.562086E-02 -4.115448E-02 -4.074794E-02
      4009   1  1.764559E-01 -1.236338E-01 -2.830662E-02  1.881395E-01 -4.673992E-02 -4.528946E-02
      4009   2  2.499654E-01  9.179059E-02  1.300552E-03  2.161084E-01 -5.457567E-02 -6.114730E-02
      4009   3  8.425182E-02 -1.599003E-01 -5.699061E-02  1.171821E-01 -3.770085E-02 -4.529257E-02
      4009   4  1.713930E-01  6.915586E-02  4.423841E-03  1.451509E-01 -4.327602E-02 -5.274407E-02
      4009   5  2.038763E-01 -1.118911E-01 -1.655766E-02  2.331322E-01 -2.478876E-02 -4.149824E-02
      4009   6  2.899953E-01  1.329555E-01  2.565903E-02  2.633616E-01 -3.262451E-02 -4.826829E-02
      4009   7  1.037602E-01 -1.515484E-01 -4.863253E-02  1.537684E-01 -2.483749E-02 -4.150135E-02
      4009   8  2.035109E-01  1.069299E-01  2.539144E-02  1.839978E-01 -3.041265E-02 -3.986506E-02
      4010   1 -1.255010E-02  9.620258E-02 -1.216518E-01  1.492458E-01 -3.144848E-02 -6.259953E-02
      4010   2  3.141501E-02  2.505520E-01 -1.294508E-01  1.436790E-01 -2.814588E-02 -5.070923E-02
      4010   3  3.787332E-02  1.354923E-01 -4.110947E-02  9.405369E-02 -2.192534E-02 -5.025278E-02
      4010   4  9.995569E-02  3.079590E-01 -6.634927E-03  8.848683E-02 -1.959058E-02 -3.599496E-02
      4010   5 -5.589066E-03  1.344623E-01 -1.080855E-01  1.714738E-01 -5.566398E-03 -4.197324E-02
      4010   6  4.192733E-02  2.970980E-01 -1.123333E-01  1.649391E-01 -2.263802E-03 -1.800477E-02
      4010   7  4.822178E-02  1.752038E-01 -2.609149E-02  1.139142E-01 -8.121431E-03 -2.962649E-02
      4010   8  1.138554E-01  3.559568E-01  1.193433E-02  1.073795E-01 -5.786671E-03 -3.290500E-03
      4011   1  1.229976E-02  5.292024E-02 -5.962902E-03 -4.230029E-02 -7.853762E-03 -1.933105E-02
      4011   2  1.724405E-03  2.101557E-02 -9.309411E-03 -4.281495E-02 -1.318996E-02 -2.221025E-02
      4011   3  2.989624E-02  6.948743E-02  3.166455E-02 -3.163563E-02 -8.930073E-03 -2.015895E-02
      4011   4  1.554435E-02  3.380621E-02  1.950612E-02 -3.215029E-02 -1.301698E-02 -2.355943E-02
      4011   5  2.973459E-02  5.802690E-02  7.995452E-04 -4.123446E-02 -1.146819E-02 -8.800918E-03
      4011   6  1.837731E-02  2.429772E-02 -3.328895E-03 -4.049983E-02 -1.680438E-02 -1.419780E-02
      4011   7  4.295859E-02  7.272016E-02  3.655308E-02 -3.004851E-02 -1.002681E-02 -9.628813E-03
      4011   8  2.782477E-02  3.521444E-02  2.361272E-02 -2.931388E-02 -1.411372E-02 -1.554699E-02
      4012   1  1.250989E-01  4.079660E-02  3.890342E-02 -7.567208E-02 -2.099850E-02 -2.380786E-02
      4012   2  9.401733E-02 -3.556557E-02  1.166020E-02 -5.878565E-02 -2.962814E-02 -2.529343E-02
      4012   3  7.553620E-02  2.500672E-02  3.583321E-02 -5.303180E-02 -2.256633E-02 -2.567280E-02
      4012   4  4.145861E-02 -5.435143E-02  1.599398E-03 -3.614537E-02 -2.858689E-02 -2.804613E-02
      4012   5  1.525053E-01  4.721380E-02  4.905049E-02 -7.018527E-02 -2.291770E-02 -1.744802E-02
      4012   6  1.200920E-01 -3.225555E-02  2.047562E-02 -5.068976E-02 -3.154734E-02 -2.093090E-02
      4012   7  9.381077E-02  2.751029E-02  4.206666E-02 -4.665723E-02 -2.248821E-02 -1.931296E-02
      4012   8  5.840153E-02 -5.495503E-02  6.501194E-03 -2.716172E-02 -2.850877E-02 -2.368360E-02
      4013   1  1.640473E-01 -2.785467E-02  3.406760E-02 -7.038783E-03 -3.116901E-02 -2.834708E-02
      4013   2  1.621313E-01 -2.656447E-02  2.639043E-02  1.967969E-02 -4.036321E-02 -3.520424E-02
      4013   3  7.635799E-02 -6.210707E-02  7.582288E-03 -8.641928E-03 -2.991838E-02 -3.074008E-02
      4013   4  7.547496E-02 -5.978381E-02  2.315587E-03  1.807655E-02 -3.622918E-02 -3.572677E-02
      4013   5  1.926375E-01 -2.243888E-02  4.426940E-02  1.024010E-02 -2.828848E-02 -2.446354E-02
      4013   6  1.935272E-01 -1.460201E-02  3.939794E-02  3.984198E-02 -3.748267E-02 -3.063200E-02
      4013   7  9.485627E-02 -6.101638E-02  1.345898E-02  6.766483E-03 -2.772655E-02 -2.685654E-02
      4013   8  9.677895E-02 -5.214646E-02  1.099799E-02  3.636836E-02 -3.403734E-02 -3.115452E-02
      4014   1  9.530446E-02 -3.080016E-02 -5.544573E-03  6.698017E-02 -3.278185E-02 -4.037960E-02
      4014   2  1.205112E-01  4.456529E-02  3.112302E-03  8.431210E-02 -3.710984E-02 -4.766176E-02
      4014   3  4.377234E-02 -4.766843E-02 -1.024000E-02  4.190079E-02 -2.838195E-02 -3.887202E-02
      4014   4  7.415117E-02  3.286915E-02  1.048518E-02  5.923272E-02 -3.156320E-02 -4.247831E-02
      4014   5  1.127138E-01 -1.903165E-02  3.208784E-03  9.025187E-02 -2.450694E-02 -3.429318E-02
      4014   6  1.434343E-01  6.919937E-02  1.737947E-02  1.087305E-01 -2.883493E-02 -3.812726E-02
      4014   7  5.716808E-02 -3.762003E-02 -3.206761E-03  6.149661E-02 -2.355512E-02 -3.278560E-02
      4014   8  9.306072E-02  5.578312E-02  2.303223E-02  7.997529E-02 -2.673637E-02 -3.294380E-02
      4015   1  7.414384E-03  2.853572E-02 -5.104646E-02  4.262039E-02 -1.712509E-02 -4.664089E-02
      4015   2  1.172366E-02  5.444902E-02 -6.259550E-02  4.334402E-02 -1.551206E-02 -3.656964E-02
      4015   3  2.325732E-02  4.582592E-02 -9.255406E-03  3.181838E-02 -1.353371E-02 -4.066988E-02
      4015   4  3.352453E-02  7.769715E-02 -6.902598E-03  3.254201E-02 -1.292462E-02 -3.212287E-02
      4015   5  1.072527E-02  4.701470E-02 -4.450950E-02  5.174521E-02 -9.195936E-03 -3.439046E-02
      4015   6  1.274819E-02  6.759317E-02 -5.834490E-02  5.146489E-02 -7.582900E-03 -2.034726E-02
      4015   7  3.008203E-02  6.581083E-02 -1.212520E-03  4.246744E-02 -9.576504E-03 -2.841945E-02
      4015   8  3.806289E-02  9.234723E-02 -1.146067E-03  4.218712E-02 -8.967419E-03 -1.590048E-02
      4016   1  2.334152E-03 -3.561951E-04  1.652388E-02 -5.749489E-03 -1.059928E-02 -6.434473E-03
      4016   2  1.534728E-03 -2.235099E-03  1.573804E-02 -3.063063E-03 -1.422639E-02 -8.958855E-03
      4016   3 -6.692424E-04  2.013262E-03  2.742547E-02 -5.209750E-03 -1.408333E-02 -5.178239E-03
      4016   4 -2.158792E-03 -5.557671E-04  2.502933E-02 -2.523324E-03 -1.770353E-02 -8.037393E-03
      4016   5  1.691340E-02  9.481293E-03  2.384890E-02 -5.067322E-03 -1.060607E-02 -2.168409E-03
      4016   6  1.561182E-02  6.430688E-03  2.256090E-02 -2.373989E-03 -1.423318E-02 -5.152875E-03
      4016   7  1.388583E-02  1.184039E-02  3.474013E-02 -4.192810E-03 -1.363003E-02 -9.121753E-04
      4016   8  1.189413E-02  8.099659E-03  3.184183E-02 -1.499478E-03 -1.725024E-02 -4.231413E-03
      4017   1  4.565405E-02  1.030013E-02  3.185062E-02 -1.968108E-02 -2.548371E-02 -1.051874E-02
      4017   2  3.633734E-02 -9.567937E-03  2.066300E-02 -1.105919E-02 -3.046393E-02 -1.225604E-02
      4017   3  2.074439E-02  2.634255E-03  3.120735E-02 -1.440540E-02 -3.188631E-02 -9.808563E-03
      4017   4  1.091020E-02 -1.775130E-02  1.881225E-02 -5.783512E-03 -3.663335E-02 -1.178834E-02
      4017   5  6.415009E-02  2.025608E-02  4.038622E-02 -1.667787E-02 -2.454825E-02 -7.007437E-03
      4017   6  5.446967E-02 -4.606369E-04  2.883489E-02 -7.822798E-03 -2.952847E-02 -9.089731E-03
      4017   7  3.842430E-02  1.224043E-02  3.939317E-02 -1.115971E-02 -3.060586E-02 -6.297261E-03
      4017   8  2.822640E-02 -8.993776E-03  2.663437E-02 -2.304645E-03 -3.535290E-02 -8.622027E-03
      4018   1  6.332632E-02 -3.368525E-03  2.809464E-02 -3.132104E-03 -3.204642E-02 -1.419521E-02
      4018   2  6.215880E-02 -2.657424E-03  2.349179E-02  8.825737E-03 -3.701579E-02 -1.775582E-02
      4018   3  2.636706E-02 -1.641210E-02  2.157530E-02 -4.071416E-03 -3.911096E-02 -1.359002E-02
      4018   4  2.610968E-02 -1.479086E-02  1.909611E-02  7.886425E-03 -4.329889E-02 -1.653255E-02
      4018   5  8.162690E-02  6.203691E-03  3.645648E-02  3.565464E-03 -3.032876E-02 -1.093309E-02
      4018   6  8.138651E-02  9.078089E-03  3.278076E-02  1.630474E-02 -3.529813E-02 -1.388694E-02
      4018   7  4.193262E-02 -8.012040E-03  2.876499E-02  2.008067E-03 -3.800005E-02 -1.032790E-02
      4018   8  4.260236E-02 -4.227504E-03  2.721293E-02  1.474734E-02 -4.218799E-02 -1.266367E-02
      4019   1  3.596951E-02 -7.329615E-03  9.602488E-03  1.377171E-02 -2.890397E-02 -1.996748E-02
      4019   2  4.142508E-02  1.169684E-02  8.761273E-03  2.361026E-02 -3.134225E-02 -2.244924E-02
      4019   3  8.295581E-03 -1.532646E-02  1.062027E-02  6.986272E-03 -3.473007E-02 -1.819709E-02
      4019   4  1.545736E-02  5.406202E-03  1.376020E-02  1.682481E-02 -3.628526E-02 -1.980220E-02
      4019   5  4.715906E-02  2.524150E-03  1.591548E-02  2.093338E-02 -2.575558E-02 -1.546017E-02
      4019   6  5.392961E-02  2.461889E-02  1.638925E-02  3.165502E-02 -2.819385E-02 -1.680446E-02
      4019   7  1.639431E-02 -6.797333E-03  1.560862E-02  1.327129E-02 -3.271915E-02 -1.368978E-02
      4019   8  2.487106E-02  1.700361E-02  2.006353E-02  2.399292E-02 -3.427433E-02 -1.415742E-02
      4020   1  5.670969E-03  3.009028E-03 -9.615815E-03  1.994122E-03 -1.320293E-02 -2.227823E-02
      4020   2  4.166947E-03  3.804282E-03 -1.542448E-02  6.138959E-03 -1.300420E-02 -1.932926E-02
      4020   3  7.822959E-04  6.410028E-03  6.609527E-03  8.444837E-04 -1.589062E-02 -1.982615E-02
      4020   4  7.168822E-04  8.643891E-03  4.157619E-03  4.989321E-03 -1.580904E-02 -1.828648E-02
      4020   5  8.653520E-03  1.129320E-02 -6.235798E-03  2.913546E-03 -1.105061E-02 -1.586606E-02
      4020   6  5.035557E-03  7.155925E-03 -1.415840E-02  6.941231E-03 -1.085188E-02 -1.195802E-02
      4020   7  4.174880E-03  1.486993E-02  1.016527E-02  3.173202E-03 -1.469738E-02 -1.341398E-02
      4020   8  1.995525E-03  1.217126E-02  5.599423E-03  7.200887E-03 -1.461580E-02 -1.091523E-02
      4021   1 -1.372968E-01  1.157764E+00  2.369821E-01 -3.599066E-01 -2.775760E-02 -4.112909E-01
      4021   2 -3.593571E-01  5.390049E-01  1.155403E-01 -4.476202E-01 -1.436891E-02 -2.438851E-01
      4021   3  1.612221E-01  1.280856E+00  3.487686E-01 -1.615570E-01  1.237104E-02 -3.147181E-01
      4021   4 -9.011265E-02  6.328222E-01  1.590201E-01 -2.492706E-01  2.080943E-02 -1.879800E-01
      4021   5 -3.929801E-02  1.475686E+00  3.617582E-01 -3.774446E-01 -7.806693E-02 -4.169435E-01
      4021   6 -3.223600E-01  7.145895E-01  1.793149E-01 -4.701086E-01 -6.467824E-02 -2.690538E-01
      4021   7  2.765469E-01  1.606203E+00  4.809702E-01 -1.384273E-01 -1.842207E-02 -3.203707E-01
      4021   8 -3.578941E-02  8.158323E-01  2.302201E-01 -2.310912E-01 -9.983686E-03 -2.131488E-01
      4022   1 -7.748835E-02  1.717141E-01  1.829923E-01 -7.564164E-01  2.277088E-02 -1.256730E-01
      4022   2 -4.528148E-01 -7.990406E-01 -9.734112E-02 -8.661675E-01  4.104209E-02  2.988247E-02
      4022   3  2.491281E-01  2.788283E-01  2.134232E-01 -4.587022E-01  3.315321E-02 -9.732512E-02
      4022   4 -1.509074E-01 -7.166354E-01 -1.245647E-01 -5.684534E-01  3.301405E-02  2.361050E-02
      4022   5 -9.891577E-02  2.435249E-01  1.981073E-01 -7.593595E-01 -2.472564E-02 -1.640146E-01
      4022   6 -5.261720E-01 -8.483993E-01 -1.341559E-01 -8.875210E-01 -6.454433E-03 -2.493191E-02
      4022   7  2.921370E-01  3.782547E-01  2.561538E-01 -4.270255E-01  2.129426E-03 -1.356668E-01
      4022   8 -1.598283E-01 -7.383786E-01 -1.337640E-01 -5.551870E-01  1.990275E-03 -3.120388E-02
      4023   1  3.072328E-01 -8.615890E-01  1.382868E-01 -2.802615E-01 -1.590659E-02  8.912475E-02
      4023   2  1.547382E-01 -1.177853E+00 -5.376510E-02 -2.811638E-01  1.531013E-02  9.542220E-02
      4023   3  2.230314E-01 -9.475950E-01 -6.419853E-02 -1.983771E-01 -2.077819E-02  7.595573E-02
      4023   4  8.120884E-02 -1.253187E+00 -2.313489E-01 -1.992794E-01 -2.062468E-02  9.802992E-02
      4023   5  1.782208E-01 -9.545057E-01  7.170818E-02 -1.917306E-01  3.872039E-03  3.088509E-02
      4023   6  4.939122E-02 -1.215551E+00 -9.667860E-02 -2.236961E-01  3.508876E-02  4.429726E-02
      4023   7  2.027406E-01 -9.939169E-01 -8.418231E-02 -1.256229E-01 -8.114277E-03  1.771607E-02
      4023   8  8.458316E-02 -1.244290E+00 -2.276676E-01 -1.575884E-01 -7.960775E-03  4.690498E-02
      4024   1  2.942651E-02 -1.029985E+00 -1.566631E-01  6.442004E-01 -1.133198E-01  2.887281E-02
      4024   2  3.500456E-01 -9.096244E-02 -2.695553E-02  6.524315E-01 -5.172007E-02 -1.592410E-01
      4024   3 -5.347594E-02 -1.096426E+00 -2.952282E-01  3.349985E-01 -9.923802E-02  6.013311E-02
      4024   4  3.181984E-01 -1.063475E-01 -4.639188E-02  3.432296E-01 -8.309595E-02 -6.547709E-02
      4024   5 -1.392822E-01 -1.012974E+00 -2.021722E-01  7.900455E-01 -1.786404E-02 -7.189627E-03
      4024   6  2.750923E-01  1.448115E-01  2.129065E-02  7.528189E-01  4.373571E-02 -1.612666E-01
      4024   7 -6.308275E-02 -1.011228E+00 -2.725509E-01  4.183401E-01 -3.781904E-02  2.407067E-02
      4024   8  4.023469E-01  1.976129E-01  7.004082E-02  3.811135E-01 -2.167696E-02 -6.750273E-02
      4025   1 -2.792540E-01  1.798796E-01 -3.236971E-01  5.111741E-01 -8.351178E-02 -3.145933E-01
      4025   2 -3.331394E-02  9.604557E-01 -2.844731E-01  4.636184E-01 -3.441351E-02 -5.509101E-01
      4025   3 -7.824561E-02  2.857766E-01 -1.717153E-01  2.438561E-01 -8.680180E-02 -1.751809E-01
      4025   4  2.193698E-01  1.118028E+00 -1.191541E-02  1.963004E-01 -5.244181E-02 -3.492871E-01
      4025   5 -2.419793E-01  5.941757E-01 -1.882259E-01  5.876122E-01  1.984623E-02 -2.915510E-01
      4025   6  9.727660E-02  1.592489E+00 -5.568606E-02  5.253182E-01  6.894450E-02 -4.934175E-01
      4025   7  1.061308E-02  7.221801E-01 -1.413669E-02  2.580836E-01 -1.789405E-02 -1.521385E-01
      4025   8  4.015444E-01  1.772169E+00  2.389791E-01  1.957896E-01  1.646593E-02 -2.917945E-01
      4026   1 -4.495781E-03  5.756193E-01  9.444920E-02 -2.697453E-01  2.271187E-02 -2.218122E-01
      4026   2 -1.559519E-01  1.828054E-01 -1.759070E-02 -3.103844E-01  2.747751E-02 -1.391654E-01
      4026   3  1.572014E-01  6.560382E-01  2.008148E-01 -1.490664E-01  1.083489E-02 -1.749046E-01
      4026   4 -1.040756E-02  2.470714E-01  5.108505E-02 -1.897056E-01  1.051672E-02 -1.154467E-01
      4026   5  4.918578E-02  7.326472E-01  1.576620E-01 -2.959662E-01  3.003745E-03 -2.088388E-01
      4026   6 -1.370537E-01  2.586721E-01  1.083877E-02 -3.416892E-01  7.769383E-03 -1.369605E-01
      4026   7  2.286763E-01  8.206918E-01  2.716533E-01 -1.520984E-01  1.895292E-03 -1.619313E-01
      4026   8  2.628399E-02  3.305639E-01  8.714024E-02 -1.978214E-01  1.577117E-03 -1.132419E-01
      4027   1  2.696563E-01  1.081693E-01  1.268081E-01 -4.173200E-01  3.049059E-02 -8.546745E-02
      4027   2  9.558178E-02 -3.407752E-01 -4.495913E-03 -4.102419E-01  2.278353E-02 -2.140880E-02
      4027   3  2.368643E-01  8.953349E-02  9.748074E-02 -2.798851E-01  1.283385E-02 -7.548409E-02
      4027   4  4.799942E-02 -3.742013E-01 -6.833399E-02 -2.728070E-01  2.861265E-03 -2.576197E-02
      4027   5  3.116061E-01  1.546717E-01  1.533438E-01 -4.347208E-01  9.105331E-03 -9.081323E-02
      4027   6  1.160267E-01 -3.444507E-01  5.349149E-04 -4.299082E-01  1.398278E-03 -3.661478E-02
      4027   7  2.867434E-01  1.394341E-01  1.274147E-01 -2.829493E-01  1.308790E-03 -8.082987E-02
      4027   8  7.637372E-02 -3.744785E-01 -5.990486E-02 -2.781367E-01 -8.663795E-03 -4.096795E-02
      4028   1  4.009384E-01 -3.661213E-01  9.114547E-02 -1.037420E-01 -2.394867E-02  3.650021E-05
      4028   2  3.637929E-01 -4.344822E-01  3.568807E-02 -5.751040E-02 -3.577443E-02 -5.432491E-03
      4028   3  2.122611E-01 -4.623355E-01 -4.089125E-02 -8.813422E-02 -2.773897E-02 -7.618858E-03
      4028   4  1.788195E-01 -5.269926E-01 -8.770637E-02 -4.190268E-02 -4.122948E-02 -7.773072E-03
      4028   5  4.308456E-01 -3.751764E-01  9.740108E-02 -7.288972E-02 -1.479272E-02 -1.787476E-02
      4028   6  4.016722E-01 -4.249356E-01  4.991585E-02 -2.832292E-02 -2.661848E-02 -2.087453E-02
      4028   7  2.479949E-01 -4.688935E-01 -3.213853E-02 -6.259677E-02 -2.105225E-02 -2.553012E-02
      4028   8  2.225254E-01 -5.149489E-01 -7.098148E-02 -1.802997E-02 -3.454276E-02 -2.321511E-02
      4029   1  1.903771E-01 -4.014796E-01 -5.645372E-02  3.040337E-01 -8.795731E-02 -3.485608E-02
      4029   2  3.262738E-01  2.417085E-03 -7.361494E-03  3.339075E-01 -8.946489E-02 -1.097738E-01
      4029   3  7.234909E-02 -4.597600E-01 -1.326938E-01  1.700337E-01 -7.121962E-02 -2.638567E-02
      4029   4  2.310246E-01 -3.308447E-02 -3.045089E-02  1.999075E-01 -7.548930E-02 -7.708201E-02
      4029   5  2.083592E-01 -3.695718E-01 -4.148673E-02  3.772365E-01 -4.455508E-02 -4.383589E-02
      4029   6  3.805880E-01  1.190998E-01  4.393759E-02  4.043482E-01 -4.606267E-02 -1.035677E-01
      4029   7  9.999859E-02 -4.237091E-01 -1.135836E-01  2.190151E-01 -4.300329E-02 -3.536548E-02
      4029   8  2.950062E-01  8.774136E-02  2.499134E-02  2.461268E-01 -4.727297E-02 -7.087593E-02
      4030   1 -8.983939E-02  6.449624E-02 -2.020649E-01  2.717637E-01 -7.960274E-02 -1.684135E-01
      4030   2  2.145821E-02  4.233615E-01 -1.899381E-01  2.521790E-01 -5.510896E-02 -2.537024E-01
      4030   3  6.422809E-03  1.215890E-01 -1.080177E-01  1.479799E-01 -5.664455E-02 -1.154122E-01
      4030   4  1.452294E-01  5.079633E-01 -3.170323E-02  1.283952E-01 -4.436744E-02 -1.694360E-01
      4030   5 -9.606570E-02  2.132601E-01 -1.593036E-01  3.326278E-01 -3.001734E-02 -1.499363E-01
      4030   6  6.212960E-02  6.815532E-01 -1.002791E-01  3.008264E-01 -5.523557E-03 -2.168859E-01
      4030   7  4.295484E-02  2.886779E-01 -4.693146E-02  1.775789E-01 -2.539849E-02 -9.693506E-02
      4030   8  2.286592E-01  7.844801E-01  7.628073E-02  1.457775E-01 -1.312137E-02 -1.326195E-01
      4031   1  2.184779E-02  2.005889E-01  4.641461E-02 -1.242948E-01  3.620910E-03 -1.029614E-01
      4031   2 -3.380131E-02  6.333650E-02 -1.830052E-03 -1.336745E-01  1.239032E-03 -7.911356E-02
      4031   3  7.121776E-02  2.311994E-01  9.907991E-02 -8.349317E-02 -4.211087E-03 -8.377942E-02
      4031   4  1.025826E-02  8.863669E-02  3.844434E-02 -9.287286E-02 -7.147293E-03 -6.865039E-02
      4031   5  5.895729E-02  2.712985E-01  7.876035E-02 -1.355339E-01 -8.131426E-05 -9.193401E-02
      4031   6 -9.769985E-03  1.035304E-01  1.743752E-02 -1.454679E-01 -2.463192E-03 -7.162646E-02
      4031   7  1.102674E-01  3.027406E-01  1.322571E-01 -8.601346E-02 -4.373050E-03 -7.275206E-02
      4031   8  3.622974E-02  1.296621E-01  5.854340E-02 -9.594748E-02 -7.309257E-03 -6.116329E-02
      4032   1  1.977159E-01  6.518866E-02  7.764042E-02 -1.961999E-01  1.931750E-03 -6.152473E-02
      4032   2  1.241424E-01 -1.189584E-01  1.654281E-02 -1.760700E-01 -8.060913E-03 -3.731897E-02
      4032   3  1.340312E-01  4.176370E-02  6.324186E-02 -1.409130E-01 -1.019661E-02 -5.693303E-02
      4032   4  5.358092E-02 -1.492603E-01 -1.390185E-02 -1.207832E-01 -1.797859E-02 -4.004962E-02
      4032   5  2.395777E-01  9.624862E-02  9.951698E-02 -2.033967E-01 -4.306149E-03 -5.701154E-02
      4032   6  1.550208E-01 -1.135267E-01  2.743582E-02 -1.810562E-01 -1.429881E-02 -3.739037E-02
      4032   7  1.681557E-01  6.950765E-02  8.180239E-02 -1.407875E-01 -1.184991E-02 -5.241983E-02
      4032   8  7.672188E-02 -1.471446E-01 -6.324858E-03 -1.184470E-01 -1.963189E-02 -4.012102E-02
      4033   1  2.651731E-01 -1.193642E-01  5.950111E-02 -5.333639E-02 -2.915066E-02 -3.035556E-02
      4033   2  2.523218E-01 -1.384947E-01  3.579399E-02 -1.540280E-02 -4.202324E-02 -3.553696E-02
      4033   3  1.303139E-01 -1.783563E-01 -2.279928E-03 -5.019678E-02 -2.921715E-02 -3.490604E-02
      4033   4  1.189174E-01 -1.960320E-01 -2.259240E-02 -1.226319E-02 -3.873678E-02 -3.773694E-02
      4033   5  3.034014E-01 -1.159820E-01  7.198427E-02 -3.471367E-02 -2.372274E-02 -3.175004E-02
      4033   6  2.940759E-01 -1.268858E-01  5.180290E-02  6.572869E-03 -3.659532E-02 -3.596154E-02
      4033   7  1.568069E-01 -1.800035E-01  5.173799E-03 -3.392456E-02 -2.475913E-02 -3.630052E-02
      4033   8  1.489362E-01 -1.894524E-01 -1.161292E-02  7.361977E-03 -3.427876E-02 -3.816151E-02
      4034   1  1.494360E-01 -1.392994E-01 -1.934289E-02  1.170510E-01 -5.943167E-02 -4.923400E-02
      4034   2  1.978656E-01  1.334756E-02 -1.055779E-02  1.429285E-01 -6.437368E-02 -8.147361E-02
      4034   3  6.301396E-02 -1.739664E-01 -4.847779E-02  6.494239E-02 -4.396409E-02 -4.634757E-02
      4034   4  1.230643E-01 -9.698792E-03 -1.257768E-02  9.081985E-02 -4.798084E-02 -6.704137E-02
      4034   5  1.710626E-01 -1.217839E-01 -7.600236E-03  1.570357E-01 -3.960942E-02 -4.646792E-02
      4034   6  2.368110E-01  7.127343E-02  1.850359E-02  1.838384E-01 -4.455143E-02 -7.096038E-02
      4034   7  8.140223E-02 -1.578388E-01 -3.812303E-02  9.338120E-02 -3.188898E-02 -4.358149E-02
      4034   8  1.587713E-01  4.683919E-02  1.509581E-02  1.201839E-01 -3.590573E-02 -5.652814E-02
      4035   1 -8.801742E-03  9.266094E-03 -1.135027E-01  1.038684E-01 -4.319593E-02 -9.959407E-02
      4035   2  2.013075E-02  1.206060E-01 -1.284009E-01  1.023136E-01 -3.637051E-02 -1.168605E-01
      4035   3  2.059075E-02  3.554880E-02 -5.528617E-02  6.266475E-02 -2.941183E-02 -7.741976E-02
      4035   4  6.025212E-02  1.576176E-01 -4.515036E-02  6.110986E-02 -2.526404E-02 -8.508027E-02
      4035   5  5.707420E-04  7.663803E-02 -9.047938E-02  1.311310E-01 -2.128057E-02 -8.362716E-02
      4035   6  4.391207E-02  2.215985E-01 -9.096879E-02  1.268985E-01 -1.445514E-02 -9.374096E-02
      4035   7  3.933494E-02  1.069372E-01 -2.824640E-02  8.032145E-02 -1.464905E-02 -6.145285E-02
      4035   8  9.340514E-02  2.626266E-01 -3.701760E-03  7.608893E-02 -1.050126E-02 -6.196077E-02
      4036   1  7.298507E-03  4.295352E-02  4.135877E-02 -4.065455E-02 -8.027597E-03 -4.424148E-02
      4036   2 -5.774695E-03  1.546407E-02  2.527088E-02 -4.164706E-02 -1.116119E-02 -4.145229E-02
      4036   3  2.248969E-02  5.615970E-02  7.018818E-02 -3.344643E-02 -1.062250E-02 -3.763874E-02
      4036   4  7.885935E-03  2.713969E-02  5.052899E-02 -3.443893E-02 -1.374102E-02 -3.724023E-02
      4036   5  2.817018E-02  7.076349E-02  5.596326E-02 -4.214491E-02 -6.520253E-03 -3.642986E-02
      4036   6  1.151096E-02  3.490666E-02  3.628935E-02 -4.312234E-02 -9.653843E-03 -3.466105E-02
      4036   7  4.330863E-02  8.394707E-02  8.477007E-02 -3.254610E-02 -8.094785E-03 -2.982712E-02
      4036   8  2.511885E-02  4.655968E-02  6.152486E-02 -3.352354E-02 -1.121331E-02 -3.044899E-02
      4037   1  9.780209E-02  3.171118E-02  5.937399E-02 -7.936279E-02 -1.647296E-02 -3.903753E-02
      4037   2  6.847453E-02 -3.585906E-02  2.918566E-02 -6.581167E-02 -2.280798E-02 -3.522947E-02
      4037   3  5.939141E-02  2.040274E-02  6.008987E-02 -6.024146E-02 -2.149193E-02 -3.655635E-02
      4037   4  2.840166E-02 -4.882967E-02  2.602314E-02 -4.669034E-02 -2.608443E-02 -3.508645E-02
      4037   5  1.236964E-01  4.989784E-02  7.259828E-02 -7.813119E-02 -1.604258E-02 -3.302537E-02
      4037   6  9.086160E-02 -2.585599E-02  3.890270E-02 -6.283755E-02 -2.237760E-02 -3.032542E-02
      4037   7  7.918694E-02  3.597563E-02  7.070040E-02 -5.667168E-02 -1.995343E-02 -3.054418E-02
      4037   8  4.468994E-02 -4.144038E-02  3.312641E-02 -4.137805E-02 -2.454593E-02 -3.018241E-02
      4038   1  1.314368E-01 -3.081723E-02  4.551224E-02 -2.917167E-02 -2.929470E-02 -3.564024E-02
      4038   2  1.247967E-01 -3.860845E-02  3.116963E-02 -6.709711E-03 -3.672933E-02 -4.057056E-02
      4038   3  5.994532E-02 -5.738483E-02  2.844509E-02 -2.859614E-02 -2.944011E-02 -3.595273E-02
      4038   4  5.433697E-02 -6.414425E-02  1.651002E-02 -6.134176E-03 -3.453136E-02 -3.978933E-02
      4038   5  1.569893E-01 -2.075900E-02  5.619545E-02 -1.759914E-02 -2.544347E-02 -3.089002E-02
      4038   6  1.519897E-01 -2.472223E-02  4.349341E-02  7.206204E-03 -3.287810E-02 -3.513246E-02
      4038   7  7.729596E-02 -5.084167E-02  3.561323E-02 -1.811731E-02 -2.627675E-02 -3.120251E-02
      4038   8  7.332818E-02 -5.377310E-02  2.531873E-02  6.688027E-03 -3.136800E-02 -3.435124E-02
      4039   1  7.822477E-02 -4.360673E-02  4.056558E-03  3.391880E-02 -3.632009E-02 -4.599332E-02
      4039   2  9.347909E-02  8.750816E-03  2.546753E-03  4.971289E-02 -3.969858E-02 -5.587828E-02
      4039   3  3.276633E-02 -5.747697E-02  3.280835E-03  1.536719E-02 -3.090388E-02 -4.342318E-02
      4039   4  5.153430E-02 -1.605784E-03  9.969545E-03  3.116128E-02 -3.346386E-02 -4.951443E-02
      4039   5  9.390469E-02 -2.954350E-02  1.297950E-02  5.188577E-02 -2.793803E-02 -3.944606E-02
      4039   6  1.148496E-01  3.609202E-02  1.716026E-02  6.849837E-02 -3.131652E-02 -4.698858E-02
      4039   7  4.558149E-02 -4.464150E-02  1.097602E-02  2.954045E-02 -2.486425E-02 -3.687592E-02
      4039   8  7.004002E-02  2.450767E-02  2.335530E-02  4.615305E-02 -2.742423E-02 -4.062473E-02
      4040   1  1.078454E-02 -2.823548E-03 -4.430150E-02  2.669342E-02 -2.263177E-02 -5.926332E-02
      4040   2  9.275959E-03  1.591350E-02 -6.806714E-02  2.991897E-02 -2.003598E-02 -5.862648E-02
      4040   3  1.564009E-02  8.483091E-03 -1.146824E-02  1.657061E-02 -1.789240E-02 -5.117939E-02
      4040   4  1.829605E-02  3.138469E-02 -2.551662E-02  1.979616E-02 -1.685913E-02 -4.963693E-02
      4040   5  1.382517E-02  2.157651E-02 -3.606929E-02  3.590779E-02 -1.150324E-02 -4.850001E-02
      4040   6  1.367502E-02  4.348324E-02 -5.847650E-02  3.757081E-02 -8.907448E-03 -4.508681E-02
      4040   7  2.414953E-02  3.522693E-02 -8.922586E-04  2.487935E-02 -9.540228E-03 -4.041609E-02
      4040   8  2.816394E-02  6.129820E-02 -1.358220E-02  2.654237E-02 -8.506960E-03 -3.609726E-02
      4041   1 -5.518149E-04 -2.323726E-03  5.836380E-02 -6.685382E-03 -1.280364E-02 -1.486943E-02
      4041   2 -3.915382E-03 -4.286979E-03  4.911516E-02 -3.644712E-03 -1.601224E-02 -1.644864E-02
      4041   3 -2.999497E-03  1.309932E-03  7.292368E-02 -7.385539E-03 -1.616771E-02 -1.136173E-02
      4041   4 -6.532475E-03 -8.227319E-04  6.327975E-02 -4.344869E-03 -1.963748E-02 -1.375890E-02
      4041   5  1.593985E-02  1.476615E-02  6.843826E-02 -6.183047E-03 -9.861100E-03 -9.406324E-03
      4041   6  1.134934E-02  9.940016E-03  5.796268E-02 -3.403552E-03 -1.306970E-02 -1.109847E-02
      4041   7  1.440628E-02  1.879157E-02  8.338990E-02 -6.065239E-03 -1.311223E-02 -5.898617E-03
      4041   8  9.646356E-03  1.379603E-02  7.251902E-02 -3.285744E-03 -1.658201E-02 -8.408733E-03
      4042   1  3.427316E-02  6.598420E-03  5.928139E-02 -2.365054E-02 -2.555693E-02 -1.739560E-02
      4042   2  2.474830E-02 -1.193664E-02  4.606689E-02 -1.541419E-02 -2.943119E-02 -1.840352E-02
      4042   3  1.355809E-02  2.356053E-03  6.585524E-02 -1.914544E-02 -3.164376E-02 -1.518795E-02
      4042   4  4.440075E-03 -1.577216E-02  5.359005E-02 -1.090909E-02 -3.529827E-02 -1.669501E-02
      4042   5  5.114456E-02  2.013658E-02  6.840425E-02 -2.154940E-02 -2.371211E-02 -1.198749E-02
      4042   6  4.087098E-02 -1.454600E-04  5.444105E-02 -1.309330E-02 -2.758638E-02 -1.272418E-02
      4042   7  2.966036E-02  1.556459E-02  7.464848E-02 -1.654517E-02 -3.007018E-02 -9.779843E-03
      4042   8  1.979364E-02 -4.310602E-03  6.163459E-02 -8.089066E-03 -3.372469E-02 -1.101567E-02
      4043   1  5.037076E-02 -6.819629E-03  5.103918E-02 -1.210876E-02 -3.158643E-02 -1.983761E-02
      4043   2  4.679603E-02 -9.919542E-03  4.222332E-02 -1.447400E-03 -3.554919E-02 -2.274769E-02
      4043   3  2.216045E-02 -1.370721E-02  5.629087E-02 -1.234617E-02 -3.730487E-02 -1.818434E-02
      4043   4  1.977833E-02 -1.561451E-02  5.025778E-02 -1.684809E-03 -4.052793E-02 -2.074621E-02
      4043   5  6.672034E-02  4.910959E-03  5.946323E-02 -7.332000E-03 -2.896586E-02 -1.376797E-02
      4043   6  6.366793E-02  3.029791E-03  5.116969E-02  4.069066E-03 -3.292863E-02 -1.588297E-02
      4043   7  3.592107E-02 -3.086181E-03  6.360537E-02 -7.917623E-03 -3.547938E-02 -1.211470E-02
      4043   8  3.406127E-02 -3.774734E-03  5.809459E-02  3.483443E-03 -3.870244E-02 -1.388149E-02
      4044   1  3.038017E-02 -1.324734E-02  2.928438E-02  4.259752E-03 -3.037362E-02 -2.474726E-02
      4044   2  3.153200E-02 -1.056531E-03  2.093303E-02  1.311308E-02 -3.245664E-02 -2.730010E-02
      4044   3  1.077308E-02 -1.514776E-02  4.255672E-02 -1.259734E-03 -3.434114E-02 -2.236509E-02
      4044   4  1.368973E-02 -1.192143E-03  3.832326E-02  7.593596E-03 -3.593955E-02 -2.422609E-02
      4044   5  4.124397E-02 -1.785221E-03  3.598216E-02  9.304028E-03 -2.562203E-02 -1.716088E-02
      4044   6  4.343358E-02  1.282705E-02  2.866857E-02  1.864196E-02 -2.770504E-02 -1.853718E-02
      4044   7  1.994078E-02 -4.412551E-03  4.852759E-02  3.092696E-03 -3.076609E-02 -1.477871E-02
      4044   8  2.389520E-02  1.196453E-02  4.533190E-02  1.243063E-02 -3.236450E-02 -1.546316E-02
      4045   1  7.093420E-03 -6.274424E-03  8.368284E-04  6.188046E-04 -1.689834E-02 -2.798368E-02
      4045   2  1.123640E-03 -6.170992E-03 -1.916587E-02  5.600899E-03 -1.664985E-02 -2.729840E-02
      4045   3  3.925676E-03  5.220205E-04  2.665939E-02 -2.417801E-03 -1.892190E-02 -2.502382E-02
      4045   4 -7.348038E-04  1.934753E-03  9.711724E-03  2.564293E-03 -1.925493E-02 -2.534228E-02
      4045   5  1.066348E-02  3.712333E-03  4.903873E-03  1.379248E-03 -9.881883E-03 -1.847062E-02
      4045   6  3.188092E-03  3.026858E-04 -1.660443E-02  5.779818E-03 -9.633389E-03 -1.691248E-02
      4045   7  9.531067E-03  1.138106E-02  3.159872E-02 -6.536211E-04 -1.277831E-02 -1.551076E-02
      4045   8  3.364982E-03  9.280717E-03  1.314545E-02  3.746949E-03 -1.311134E-02 -1.495636E-02
      4046   1 -3.967863E-02  6.085042E-01  4.324180E-01 -1.926663E-01  2.902337E-02 -4.898414E-01
      4046   2 -1.950290E-01  3.001607E-01  2.229269E-01 -2.466502E-01  8.280767E-02 -2.494852E-01
      4046   3  8.731989E-02  6.275350E-01  3.688556E-01 -1.161698E-01  5.427983E-02 -3.363159E-01
      4046   4 -5.339566E-02  3.338264E-01  1.935124E-01 -1.701536E-01  8.469866E-02 -1.742654E-01
      4046   5  2.364656E-03  1.065167E+00  5.820299E-01 -3.103954E-01  5.609375E-02 -5.311380E-01
      4046   6 -2.704443E-01  4.827536E-01  2.550802E-01 -3.877447E-01  1.098780E-01 -2.810252E-01
      4046   7  2.111423E-01  1.119246E+00  5.535157E-01 -1.555931E-01  7.159366E-02 -3.776125E-01
      4046   8 -4.703181E-02  5.514675E-01  2.607139E-01 -2.329425E-01  1.020125E-01 -2.058054E-01
      4047   1  8.410681E-02  1.333495E-01  1.973122E-01 -5.273679E-01  1.314418E-01 -7.319491E-02
      4047   2 -2.368333E-01 -5.450026E-01 -1.941361E-01 -5.822164E-01  1.740755E-01  1.680828E-01
      4047   3  2.469330E-01  1.864787E-01  2.115836E-01 -3.486619E-01  1.152875E-01 -5.512973E-02
      4047   4 -3.900957E-02 -4.568758E-01 -9.820381E-02 -4.035104E-01  1.226626E-01  1.083044E-01
      4047   5 -3.801319E-02  1.326271E-01  1.604595E-01 -6.942544E-01  1.666959E-01 -9.262384E-02
      4047   6 -4.757188E-01 -8.181777E-01 -3.477543E-01 -7.843614E-01  2.093296E-01  1.719856E-01
      4047   7  2.482178E-01  2.386441E-01  2.276187E-01 -4.377048E-01  1.272099E-01 -7.455867E-02
      4047   8 -1.544903E-01 -6.771632E-01 -1.989343E-01 -5.278117E-01  1.345851E-01  1.122071E-01
      4048   1  3.748149E-01 -5.587909E-01 -8.095886E-02 -2.440676E-01  9.263343E-02  2.722799E-01
      4048   2  2.269719E-01 -8.351823E-01 -2.973776E-01 -2.065881E-01  9.623976E-02  3.156738E-01
      4048   3  2.734685E-01 -5.851782E-01 -6.757017E-02 -1.797935E-01  4.689039E-02  1.777427E-01
      4048   4  1.561368E-01 -8.310583E-01 -2.127959E-01 -1.423139E-01  3.072261E-02  2.040175E-01
      4048   5  2.203869E-01 -8.950807E-01 -2.281742E-01 -2.942852E-01  1.269213E-01  2.921679E-01
      4048   6  4.686535E-02 -1.231389E+00 -4.702715E-01 -2.765798E-01  1.305276E-01  3.559026E-01
      4048   7  1.882499E-01 -8.918069E-01 -1.851243E-01 -2.128920E-01  6.083739E-02  1.976307E-01
      4048   8  4.523964E-02 -1.197603E+00 -3.560286E-01 -1.951866E-01  4.466960E-02  2.442464E-01
      4049   1  1.403668E-01 -7.432765E-01 -3.208214E-01  4.019375E-01 -3.339799E-02  2.573933E-01
      4049   2  4.456491E-01 -4.691593E-02  4.258247E-04  4.467222E-01 -2.901899E-02  5.477425E-02
      4049   3  4.109821E-02 -7.529757E-01 -2.538836E-01  2.063984E-01 -8.631161E-02  1.637968E-01
      4049   4  3.080405E-01 -9.495523E-02 -2.209652E-02  2.511830E-01 -9.651135E-02  2.763686E-02
      4049   5 -1.535449E-02 -1.077433E+00 -4.677847E-01  5.402072E-01 -4.138044E-02  2.957118E-01
      4049   6  3.896165E-01 -1.484653E-01 -4.684876E-02  5.704131E-01 -3.700144E-02  6.753273E-02
      4049   7 -6.359748E-02 -1.065264E+00 -3.789787E-01  2.782089E-01 -6.873400E-02  2.021153E-01
      4049   8  3.030335E-01 -1.746365E-01 -4.750300E-02  3.084149E-01 -7.893374E-02  4.039534E-02
      4050   1 -2.309341E-01 -3.745525E-02 -1.898977E-01  2.402464E-01 -1.075940E-01 -1.381421E-01
      4050   2 -9.591608E-02  2.729284E-01 -5.022133E-02  1.781679E-01 -1.000890E-01 -4.625803E-01
      4050   3 -1.559917E-02  5.372252E-02 -1.013067E-01  1.525636E-01 -1.074262E-01 -9.892203E-02
      4050   4  1.001733E-01  3.448606E-01 -6.536600E-03  9.048505E-02 -8.534053E-02 -3.085274E-01
      4050   5 -1.983716E-01  8.855745E-02 -1.423251E-01  4.180977E-01 -1.099232E-01 -1.394355E-01
      4050   6  1.088957E-01  8.008560E-01  1.696005E-01  3.705998E-01 -1.024182E-01 -4.767041E-01
      4050   7 -3.406885E-02  1.578643E-01 -7.560509E-02  2.155821E-01 -9.692500E-02 -1.002154E-01
      4050   8  2.539529E-01  8.509173E-01  1.914143E-01  1.680841E-01 -7.483935E-02 -3.226512E-01
      4051   1  1.231888E-02  2.948153E-01  2.030265E-01 -1.772729E-01  5.435557E-02 -2.687013E-01
      4051   2 -1.001258E-01  5.859658E-02  6.442961E-02 -2.016397E-01  7.236047E-02 -1.618717E-01
      4051   3  9.096326E-02  3.247261E-01  2.240847E-01 -1.153859E-01  2.930603E-02 -1.916159E-01
      4051   4 -1.874975E-02  9.123903E-02  9.186174E-02 -1.397527E-01  3.676093E-02 -1.216115E-01
      4051   5  6.492972E-02  5.376066E-01  2.916471E-01 -2.379415E-01  6.743167E-02 -2.731275E-01
      4051   6 -1.027527E-01  1.724997E-01  9.781246E-02 -2.728583E-01  8.543657E-02 -1.644768E-01
      4051   7  1.804991E-01  5.833423E-01  3.285303E-01 -1.392293E-01  4.056100E-02 -1.960422E-01
      4051   8  1.554830E-02  2.209671E-01  1.410696E-01 -1.741461E-01  4.801590E-02 -1.242167E-01
      4052   1  2.242388E-01  4.299797E-02  1.406979E-01 -3.008285E-01  9.355424E-02 -8.089443E-02
      4052   2  9.686725E-02 -2.459696E-01  5.093541E-03 -2.897094E-01  8.716330E-02  3.350993E-02
      4052   3  1.813132E-01  2.231052E-02  1.146654E-01 -2.200305E-01  5.033227E-02 -6.788301E-02
      4052   4  5.093381E-02 -2.696649E-01 -2.795720E-02 -2.089114E-01  4.159017E-02  8.901675E-03
      4052   5  2.661243E-01  9.812435E-02  1.698015E-01 -3.814437E-01  9.767064E-02 -8.356697E-02
      4052   6  8.232316E-02 -3.225121E-01 -2.223243E-02 -3.726758E-01  9.127970E-02  2.883218E-02
      4052   7  2.314277E-01  8.096363E-02  1.472956E-01 -2.630260E-01  5.645386E-02 -7.055555E-02
      4052   8  4.461876E-02 -3.426806E-01 -5.175644E-02 -2.542581E-01  4.771177E-02  4.223930E-03
      4053   1  3.421914E-01 -2.418818E-01  6.959553E-02 -1.071338E-01  2.242367E-02  8.041703E-02
      4053   2  3.132346E-01 -2.959890E-01  2.717978E-02 -6.536742E-02  3.777673E-04  9.416525E-02
      4053   3  1.875499E-01 -3.129905E-01 -1.279204E-02 -9.455866E-02  1.322359E-03  4.070519E-02
      4053   4  1.576598E-01 -3.680310E-01 -5.738534E-02 -5.279227E-02 -1.700875E-02  5.080932E-02
      4053   5  3.597843E-01 -3.478044E-01  4.309663E-02 -1.129176E-01  2.915310E-02  7.477760E-02
      4053   6  3.253613E-01 -4.146659E-01 -4.785261E-03 -6.743645E-02  7.107203E-03  8.790367E-02
      4053   7  1.921411E-01 -4.244853E-01 -4.486313E-02 -9.669838E-02  8.673951E-03  3.506576E-02
      4053   8  1.567848E-01 -4.922801E-01 -9.492257E-02 -5.121721E-02 -9.657160E-03  4.454774E-02
      4054   1  1.699330E-01 -3.090630E-01 -4.795845E-02  1.530787E-01 -9.473804E-02  5.510882E-02
      4054   2  2.370845E-01 -1.065168E-01 -2.666629E-02  1.777685E-01 -1.086140E-01 -6.534354E-02
      4054   3  7.979005E-02 -3.498264E-01 -9.369327E-02  8.538134E-02 -6.484582E-02  2.580927E-02
      4054   4  1.633485E-01 -1.308732E-01 -3.411831E-02  1.100712E-01 -7.418678E-02 -5.259627E-02
      4054   5  1.745497E-01 -3.907975E-01 -7.109379E-02  2.439708E-01 -7.180836E-02  5.262308E-02
      4054   6  3.047714E-01 -4.108741E-02  1.326859E-02  2.731956E-01 -8.568435E-02 -5.689133E-02
      4054   7  6.853409E-02 -4.383634E-01 -1.236312E-01  1.342266E-01 -5.285409E-02  2.332353E-02
      4054   8  2.151627E-01 -7.224638E-02 -9.859701E-04  1.634515E-01 -6.219505E-02 -4.414407E-02
      4055   1 -1.263600E-02 -9.628905E-02 -1.343770E-01  1.388342E-01 -9.490780E-02 -1.500914E-01
      4055   2  4.882003E-02  7.661759E-02 -1.024302E-01  1.400851E-01 -7.186996E-02 -2.611745E-01
      4055   3  2.334014E-03 -7.881741E-02 -9.110820E-02  8.310894E-02 -6.087482E-02 -1.067841E-01
      4055   4  6.560468E-02  9.590386E-02 -5.492725E-02  8.435975E-02 -4.981618E-02 -1.764224E-01
      4055   5 -2.830745E-02  2.072983E-02 -1.039727E-01  2.198369E-01 -8.015318E-02 -1.371928E-01
      4055   6  9.531580E-02  3.386933E-01 -9.858719E-03  2.091085E-01 -5.711535E-02 -2.470662E-01
      4055   7  2.858978E-02  5.617027E-02 -4.273517E-02  1.226668E-01 -4.732996E-02 -9.388552E-02
      4055   8  1.540277E-01  3.759484E-01  5.561301E-02  1.119384E-01 -3.627133E-02 -1.623141E-01
      4056   1  3.163134E-02  1.182299E-01  1.378749E-01 -9.168068E-02  1.546137E-02 -1.080172E-01
      4056   2 -1.777047E-02  2.274835E-02  6.868376E-02 -9.724022E-02  1.808546E-02 -8.207404E-02
      4056   3  4.754481E-02  1.230243E-01  1.379427E-01 -6.864080E-02  2.686615E-03 -8.141635E-02
      4056   4  9.860127E-04  3.038576E-02  7.538532E-02 -7.420034E-02  2.662690E-03 -6.613952E-02
      4056   5  6.234827E-02  2.073967E-01  1.738400E-01 -1.125444E-01  2.535603E-02 -1.103805E-01
      4056   6 -3.053006E-03  7.458304E-02  8.864941E-02 -1.207519E-01  2.798012E-02 -8.254197E-02
      4056   7  8.752980E-02  2.161631E-01  1.778799E-01 -7.883818E-02  1.068593E-02 -8.377962E-02
      4056   8  2.497154E-02  8.619248E-02  9.932299E-02 -8.704573E-02  1.066201E-02 -6.660745E-02
      4057   1  1.559680E-01  3.039590E-02  1.075609E-01 -1.572657E-01  2.675283E-02 -5.987110E-02
      4057   2  9.239557E-02 -1.050732E-01  3.112199E-02 -1.414431E-01  1.808746E-02 -2.515468E-02
      4057   3  1.015611E-01  7.634198E-03  8.609543E-02 -1.213174E-01  5.554595E-03 -5.230430E-02
      4057   4  3.971937E-02 -1.261043E-01  1.369484E-02 -1.054948E-01 -5.500128E-04 -2.978260E-02
      4057   5  1.976470E-01  6.987776E-02  1.319091E-01 -1.838391E-01  3.318606E-02 -5.922297E-02
      4057   6  1.157825E-01 -1.082729E-01  3.717817E-02 -1.654558E-01  2.452069E-02 -2.335275E-02
      4057   7  1.342774E-01  4.327492E-02  1.066025E-01 -1.356960E-01  1.083403E-02 -5.165617E-02
      4057   8  5.414361E-02 -1.331451E-01  1.590986E-02 -1.173127E-01  4.729426E-03 -2.798068E-02
      4058   1  2.018501E-01 -1.053169E-01  5.110788E-02 -6.636677E-02 -8.277773E-03 -1.290638E-02
      4058   2  1.836924E-01 -1.336987E-01  1.896395E-02 -3.754971E-02 -2.313525E-02 -1.415982E-02
      4058   3  1.052061E-01 -1.443268E-01  1.771889E-02 -6.125473E-02 -1.340451E-02 -2.169990E-02
      4058   4  8.945076E-02 -1.703063E-01 -8.819598E-03 -3.243767E-02 -2.248665E-02 -2.213923E-02
      4058   5  2.406610E-01 -1.138080E-01  6.020382E-02 -6.181781E-02 -1.284667E-03 -1.009592E-02
      4058   6  2.237245E-01 -1.393404E-01  2.928104E-02 -2.722541E-02 -1.614215E-02 -9.747807E-03
      4058   7  1.238033E-01 -1.614809E-01  1.815181E-02 -5.751987E-02 -8.012963E-03 -1.888944E-02
      4058   8  1.092691E-01 -1.846110E-01 -7.165519E-03 -2.292747E-02 -1.709510E-02 -1.772722E-02
      4059   1  1.215693E-01 -1.395077E-01 -1.554959E-02  5.298486E-02 -4.841037E-02 -2.762574E-02
      4059   2  1.539885E-01 -4.814563E-02  1.152284E-03  7.532775E-02 -5.523505E-02 -6.316187E-02
      4059   3  5.106082E-02 -1.653304E-01 -3.111686E-02  2.351343E-02 -3.340008E-02 -3.037391E-02
      4059   4  8.401076E-02 -7.343761E-02 -1.317655E-02  4.585631E-02 -3.788520E-02 -5.243214E-02
      4059   5  1.413335E-01 -1.388893E-01 -9.434828E-03  8.917071E-02 -4.055172E-02 -2.249800E-02
      4059   6  1.939695E-01 -3.545537E-04  2.748390E-02  1.138532E-01 -4.737640E-02 -5.768030E-02
      4059   7  6.263646E-02 -1.682214E-01 -2.851145E-02  4.622137E-02 -2.589527E-02 -2.524618E-02
      4059   8  1.158032E-01 -2.915588E-02  9.645712E-03  7.090383E-02 -3.038038E-02 -4.695057E-02
      4060   1  1.148711E-02 -6.131294E-02 -6.528293E-02  5.498294E-02 -4.275493E-02 -8.484553E-02
      4060   2  2.600520E-02 -1.680887E-03 -7.652133E-02  5.777329E-02 -3.698268E-02 -1.085502E-01
      4060   3  1.047324E-02 -5.674612E-02 -4.904632E-02  3.242596E-02 -2.728345E-02 -6.512828E-02
      4060   4  2.590853E-02  3.803129E-03 -5.814460E-02  3.521631E-02 -2.397467E-02 -7.775654E-02
      4060   5  2.086010E-02 -9.609420E-04 -4.436543E-02  8.346463E-02 -2.987668E-02 -7.901064E-02
      4060   6  5.199289E-02  9.743871E-02 -3.898914E-02  8.379151E-02 -2.410443E-02 -1.021039E-01
      4060   7  2.846837E-02  7.301079E-03 -2.443362E-02  4.983119E-02 -1.501667E-02 -5.929339E-02
      4060   8  6.051834E-02  1.066179E-01 -1.691722E-02  5.015807E-02 -1.170788E-02 -7.131019E-02
      4061   1  1.254605E-02  2.645538E-02  9.936739E-02 -3.489098E-02 -3.402270E-03 -4.513544E-02
      4061   2 -3.071386E-03  4.276383E-03  6.948828E-02 -3.515757E-02 -4.591423E-03 -4.183949E-02
      4061   3  1.843463E-02  3.181078E-02  1.113301E-01 -3.161020E-02 -7.262658E-03 -3.691637E-02
      4061   4  3.533275E-03  1.034787E-02  8.312190E-02 -3.187679E-02 -8.987256E-03 -3.585486E-02
      4061   5  2.903668E-02  5.700584E-02  1.134797E-01 -3.871087E-02  3.728567E-03 -4.183176E-02
      4061   6  1.006760E-02  2.700633E-02  8.024896E-02 -3.951290E-02  2.539414E-03 -3.805842E-02
      4061   7  3.679932E-02  6.316441E-02  1.262456E-01 -3.319565E-02 -6.092076E-04 -3.361270E-02
      4061   8  1.854632E-02  3.388098E-02  9.468574E-02 -3.399769E-02 -2.333805E-03 -3.207379E-02
      4062   1  7.953410E-02  1.786937E-02  8.715967E-02 -7.347903E-02 -4.748668E-03 -3.813396E-02
      4062   2  5.152558E-02 -3.823275E-02  4.990006E-02 -6.259393E-02 -9.372510E-03 -3.130620E-02
      4062   3  4.771731E-02  7.822786E-03  8.548784E-02 -5.943223E-02 -1.169947E-02 -3.409758E-02
      4062   4  2.065780E-02 -4.733032E-02  5.044258E-02 -4.854713E-02 -1.483855E-02 -3.035813E-02
      4062   5  1.017721E-01  3.893245E-02  1.001500E-01 -7.811625E-02 -1.231210E-04 -3.394658E-02
      4062   6  6.913113E-02 -2.797874E-02  5.825792E-02 -6.574639E-02 -4.746963E-03 -2.648615E-02
      4062   7  6.475866E-02  2.665873E-02  9.625103E-02 -6.098115E-02 -7.706593E-03 -2.991020E-02
      4062   8  3.306669E-02 -3.930346E-02  5.657331E-02 -4.861129E-02 -1.084567E-02 -2.553808E-02
      4063   1  1.053803E-01 -3.431617E-02  5.846580E-02 -3.980242E-02 -1.595724E-02 -2.949785E-02
      4063   2  9.622996E-02 -4.649627E-02  4.014494E-02 -2.127812E-02 -2.210018E-02 -3.138512E-02
      4063   3  4.845272E-02 -5.419510E-02  4.913022E-02 -3.828752E-02 -1.780467E-02 -2.953575E-02
      4063   4  4.020423E-02 -6.547340E-02  3.291356E-02 -1.976322E-02 -2.169295E-02 -3.102840E-02
      4063   5  1.268237E-01 -2.523438E-02  6.762338E-02 -3.512102E-02 -1.137195E-02 -2.422618E-02
      4063   6  1.182653E-01 -3.603335E-02  4.989443E-02 -1.434206E-02 -1.751490E-02 -2.551224E-02
      4063   7  6.200487E-02 -4.849530E-02  5.490581E-02 -3.400073E-02 -1.382058E-02 -2.426407E-02
      4063   8  5.434830E-02 -5.839247E-02  3.928106E-02 -1.322177E-02 -1.770887E-02 -2.515553E-02
      4064   1  6.511692E-02 -5.224797E-02  1.798391E-02  1.015446E-02 -2.623095E-02 -3.546465E-02
      4064   2  7.289421E-02 -1.994064E-02  1.160087E-02  2.416767E-02 -2.946281E-02 -4.472289E-02
      4064   3  2.565280E-02 -6.368567E-02  1.932234E-02 -2.110562E-03 -2.165480E-02 -3.365109E-02
      4064   4  3.463959E-02 -3.016885E-02  1.576146E-02  1.190264E-02 -2.380228E-02 -3.932374E-02
      4064   5  7.914878E-02 -4.105270E-02  2.555204E-02  2.273693E-02 -1.915079E-02 -2.907658E-02
      4064   6  9.230444E-02  3.804163E-03  2.454738E-02  3.783452E-02 -2.238265E-02 -3.752848E-02
      4064   7  3.588932E-02 -5.411698E-02  2.526390E-02  6.886323E-03 -1.538097E-02 -2.726302E-02
      4064   8  5.025447E-02 -8.050622E-03  2.708139E-02  2.198391E-02 -1.752845E-02 -3.212934E-02
      4065   1  1.822593E-02 -2.832327E-02 -2.525762E-02  1.286117E-02 -1.999824E-02 -4.889872E-02
      4065   2  1.223317E-02 -1.875763E-02 -5.479911E-02  1.838337E-02 -1.805328E-02 -5.104907E-02
      4065   3  1.053542E-02 -2.496936E-02 -6.387423E-03  5.081969E-03 -1.556613E-02 -4.164801E-02
      4065   4  5.643441E-03 -1.430295E-02 -3.336045E-02  1.060418E-02 -1.488378E-02 -4.232537E-02
      4065   5  2.229466E-02 -5.863210E-03 -1.729899E-02  2.051810E-02 -8.223867E-03 -4.114057E-02
      4065   6  1.851138E-02  8.857879E-03 -4.463100E-02  2.477771E-02 -6.278915E-03 -4.255707E-02
      4065   7  1.902324E-02 -6.154077E-04  3.465108E-03  1.126592E-02 -4.525613E-03 -3.388986E-02
      4065   8  1.634074E-02  1.520645E-02 -2.129844E-02  1.552553E-02 -3.843257E-03 -3.383338E-02
      4066   1  3.068205E-03 -2.982348E-03  1.056580E-01 -7.012598E-03 -9.493541E-03 -1.711385E-02
      4066   2 -3.766591E-03 -6.231418E-03  8.612438E-02 -3.355296E-03 -1.155374E-02 -1.804868E-02
      4066   3  8.991979E-05  1.353971E-03  1.230906E-01 -8.805461E-03 -1.172804E-02 -1.356771E-02
      4066   4 -6.214908E-03 -1.365131E-03  1.047937E-01 -5.148158E-03 -1.416966E-02 -1.508328E-02
      4066   5  1.559810E-02  1.251944E-02  1.140675E-01 -6.907659E-03 -3.144148E-03 -1.056567E-02
      4066   6  7.892190E-03  7.237770E-03  9.366277E-02 -3.631781E-03 -5.204343E-03 -1.114718E-02
      4066   7  1.395480E-02  1.742790E-02  1.320723E-01 -8.119779E-03 -5.731959E-03 -7.019525E-03
      4066   8  6.778858E-03  1.267619E-02  1.129042E-01 -4.843902E-03 -8.173578E-03 -8.181785E-03
      4067   1  2.982719E-02  3.386217E-03  8.978672E-02 -2.472521E-02 -1.578420E-02 -1.837920E-02
      4067   2  1.954419E-02 -1.375930E-02  7.265556E-02 -1.685498E-02 -1.830327E-02 -1.834738E-02
      4067   3  1.333342E-02  2.632916E-03  1.037695E-01 -2.129396E-02 -1.999310E-02 -1.586515E-02
      4067   4  4.432373E-03 -1.313065E-02  8.986289E-02 -1.342372E-02 -2.230304E-02 -1.648569E-02
      4067   5  4.241503E-02  1.596400E-02  9.733641E-02 -2.450150E-02 -1.236012E-02 -1.101117E-02
      4067   6  3.115348E-02 -3.464782E-03  7.922670E-02 -1.642213E-02 -1.487919E-02 -1.005804E-02
      4067   7  2.518928E-02  1.489700E-02  1.110055E-01 -2.041788E-02 -1.749033E-02 -8.497115E-03
      4067   8  1.530969E-02 -3.149829E-03  9.612033E-02 -1.233851E-02 -1.980027E-02 -8.196353E-03
      4068   1  4.277916E-02 -9.561030E-03  7.442804E-02 -1.683649E-02 -1.974238E-02 -1.893230E-02
      4068   2  3.767632E-02 -1.474490E-02  6.260245E-02 -7.353979E-03 -2.256207E-02 -2.056217E-02
      4068   3  2.313418E-02 -1.024098E-02  9.180651E-02 -1.679598E-02 -2.318887E-02 -1.726908E-02
      4068   4  1.968145E-02 -1.377474E-02  8.383117E-02 -7.313465E-03 -2.534379E-02 -1.878879E-02
      4068   5  5.514293E-02  4.897989E-04  8.115242E-02 -1.465548E-02 -1.638100E-02 -9.903091E-03
      4068   6  5.020532E-02 -4.308539E-03  6.949205E-02 -4.508195E-03 -1.920070E-02 -1.043288E-02
      4068   7  3.317124E-02 -1.187315E-03  9.753373E-02 -1.472512E-02 -2.092757E-02 -8.239867E-03
      4068   8  2.988373E-02 -4.335548E-03  8.972361E-02 -4.577832E-03 -2.308249E-02 -8.659509E-03
      4069   1  2.773342E-02 -1.720631E-02  5.035370E-02 -1.813255E-03 -2.064004E-02 -2.193949E-02
      4069   2  2.600922E-02 -1.003111E-02  3.743117E-02  6.421466E-03 -2.227238E-02 -2.407255E-02
      4069   3  1.527909E-02 -1.319121E-02  7.619173E-02 -6.262957E-03 -2.244382E-02 -1.990700E-02
      4069   4  1.511021E-02 -4.460683E-03  6.689827E-02  1.971764E-03 -2.375315E-02 -2.144231E-02
      4069   5  3.649533E-02 -7.644102E-03  5.585094E-02  1.280885E-03 -1.504087E-02 -1.102803E-02
      4069   6  3.566777E-02  1.623250E-03  4.382504E-02  9.838610E-03 -1.667321E-02 -1.212421E-02
      4069   7  2.291048E-02 -4.113500E-03  8.120446E-02 -3.766574E-03 -1.788153E-02 -8.995544E-03
      4069   8  2.363824E-02  6.709170E-03  7.280764E-02  4.791152E-03 -1.919086E-02 -9.493968E-03
      4070   1  1.002881E-02 -1.298539E-02  1.634764E-02 -5.969366E-04 -1.427548E-02 -2.490737E-02
      4070   2  3.442604E-04 -1.441016E-02 -1.450941E-02  5.357917E-03 -1.425889E-02 -2.505507E-02
      4070   3  7.957105E-03 -3.147381E-03  5.121270E-02 -4.726824E-03 -1.518147E-02 -2.225283E-02
      4070   4 -9.665875E-04 -3.811298E-03  2.213097E-02  1.228030E-03 -1.572116E-02 -2.293192E-02
      4070   5  1.395252E-02 -3.719404E-03  2.030455E-02  8.928761E-05 -3.689233E-03 -1.239384E-02
      4070   6  3.470894E-03 -7.004030E-03 -1.134958E-02  5.487851E-03 -3.672635E-03 -1.203431E-02
      4070   7  1.382784E-02  6.953037E-03  5.600404E-02 -3.509213E-03 -5.102453E-03 -9.739308E-03
      4070   8  4.107063E-03  4.429265E-03  2.612524E-02  1.889351E-03 -5.642146E-03 -9.911163E-03
      4071   1  9.963114E-02 -1.641261E-01  4.142715E-01 -3.198200E-02 -6.777456E-02 -4.006060E-01
      4071   2  4.714860E-02 -9.972978E-02  1.749334E-01 -1.228468E-02  2.383262E-02 -2.230239E-01
      4071   3 -7.678318E-03 -2.320409E-01  2.951983E-01 -9.042142E-02  6.478041E-03 -2.139685E-01
      4071   4 -2.009066E-02 -1.275744E-01  1.493573E-01 -7.072409E-02  5.040762E-02 -1.141844E-01
      4071   5  5.896229E-02  3.516945E-01  5.568170E-01 -1.180657E-01  2.565321E-02 -4.261852E-01
      4071   6 -1.102173E-01  1.437977E-01  2.007819E-01 -1.460460E-01  1.172604E-01 -2.218896E-01
      4071   7  1.185244E-01  3.552961E-01  5.092602E-01 -9.870708E-02  7.319235E-02 -2.395477E-01
      4071   8 -1.058494E-02  1.874695E-01  2.467222E-01 -1.266873E-01  1.171219E-01 -1.130501E-01
      4072   1  2.383911E-01  2.612859E-03  8.241274E-02 -1.354297E-01  8.304451E-02 -6.949397E-02
      4072   2  1.208506E-01 -7.896701E-02 -2.278092E-01 -1.148281E-01  1.358091E-01  1.723755E-01
      4072   3  1.979480E-01  3.372926E-03  1.253894E-01 -1.534100E-01  8.535254E-02 -3.419785E-02
      4072   4  1.221924E-01 -3.642196E-02 -8.733419E-02 -1.328084E-01  9.233132E-02  8.454535E-02
      4072   5  1.066593E-01  4.700242E-02  5.621006E-02 -3.776313E-01  1.793852E-01 -4.838566E-02
      4072   6 -1.955706E-01 -4.655192E-01 -4.387012E-01 -4.028155E-01  2.321498E-01  2.213404E-01
      4072   7  2.264664E-01  1.164412E-01  1.678654E-01 -2.724854E-01  1.538366E-01 -1.308954E-02
      4072   8 -3.397845E-02 -3.542955E-01 -2.295475E-01 -2.976696E-01  1.608154E-01  1.335103E-01
      4073   1  3.272190E-01  7.931426E-03 -2.669032E-01 -2.641288E-02  1.208825E-01  2.906842E-01
      4073   2  3.023388E-01  2.425243E-02 -3.661580E-01  9.468091E-03  7.435180E-02  3.720401E-01
      4073   3  2.973500E-01  4.982439E-02 -9.739101E-02 -4.701346E-02  6.702727E-02  1.367236E-01
      4073   4  2.915194E-01  8.519494E-02 -1.521969E-01 -1.113248E-02  2.696531E-02  1.605339E-01
      4073   5  2.591354E-01 -4.611346E-01 -4.280481E-01 -1.722914E-01  1.580698E-01  3.544938E-01
      4073   6  1.479369E-01 -6.462232E-01 -6.136213E-01 -1.299418E-01  1.115391E-01  4.485494E-01
      4073   7  2.066260E-01 -4.289447E-01 -2.682389E-01 -1.353464E-01  9.151491E-02  2.005332E-01
      4073   8  1.144770E-01 -5.949837E-01 -4.093632E-01 -9.299676E-02  5.145295E-02  2.370432E-01
      4074   1  9.635997E-02 -7.445756E-02 -4.533083E-01  3.403045E-02  2.639260E-02  3.066572E-01
      4074   2  1.109715E-01 -1.236838E-01 -3.553768E-01  3.960180E-02 -3.247379E-02  4.667184E-02
      4074   3  1.957553E-01  3.608048E-02 -1.842435E-01  6.594935E-02 -2.273046E-02  1.285170E-01
      4074   4  2.026037E-01 -2.090895E-02 -1.044262E-01  7.152070E-02 -4.898435E-02  1.723482E-02
      4074   5  3.518209E-02 -6.096486E-01 -6.322189E-01  2.663078E-01 -1.526733E-02  3.859206E-01
      4074   6  2.728484E-01 -1.384138E-01 -3.112328E-01  3.044917E-01 -7.413373E-02  1.207598E-01
      4074   7  2.043365E-02 -5.480293E-01 -4.120729E-01  1.495236E-01 -5.921494E-02  2.077804E-01
      4074   8  2.503368E-01 -8.455770E-02 -1.092009E-01  1.877074E-01 -8.546883E-02  9.132274E-02
      4075   1  1.150923E-01 -2.167149E-01 -2.596236E-01 -7.338467E-02 -3.447786E-02 -1.278510E-01
      4075   2  9.958715E-02 -4.268621E-01 -1.011601E-01 -2.900122E-02  8.196882E-02 -3.446708E-01
      4075   3  4.488065E-02 -1.981596E-01 -1.275610E-01  2.393637E-02 -4.724161E-02 -6.454959E-02
      4075   4 -3.389836E-02 -4.715807E-01 -1.167366E-01  6.831983E-02 -1.263741E-02 -1.767066E-01
      4075   5 -1.975191E-01 -1.698301E-01 -3.393415E-01  1.085541E-01 -1.214622E-01 -7.109731E-02
      4075   6 -5.602987E-02 -1.365724E-02 -2.388374E-02  7.109510E-02 -5.015483E-03 -3.300998E-01
      4075   7  1.871802E-02 -2.851104E-02 -8.451518E-02  1.012123E-01 -9.204331E-02 -7.795931E-03
      4075   8  9.693330E-02  6.438788E-02  8.330349E-02  6.375328E-02 -5.743911E-02 -1.621356E-01
      4076   1  9.082446E-02  8.585263E-02  3.604248E-01 -7.487286E-02  2.915856E-02 -1.388774E-01
      4076   2  7.121090E-03 -1.155527E-02  1.788215E-01 -7.730233E-02  5.079354E-02 -8.219449E-02
      4076   3  4.361037E-02  3.377961E-02  2.340621E-01 -6.802060E-02  1.687027E-02 -8.077104E-02
      4076   4 -7.363665E-03 -3.089896E-02  1.288273E-01 -7.045007E-02  2.527288E-02 -5.450910E-02
      4076   5  1.022616E-01  2.567724E-01  4.151319E-01 -1.335788E-01  7.810854E-02 -1.760222E-01
      4076   6 -2.707326E-02  5.289114E-02  1.878971E-01 -1.492407E-01  9.974352E-02 -9.751975E-02
      4076   7  1.013608E-01  2.245479E-01  3.086178E-01 -9.630558E-02  4.400070E-02 -1.179159E-01
      4076   8  4.755307E-03  5.339601E-02  1.577514E-01 -1.119674E-01  5.240330E-02 -6.983436E-02
      4077   1  1.720201E-01 -5.515318E-04  1.369289E-01 -1.525641E-01  7.349652E-02 -3.482018E-02
      4077   2  6.569627E-02 -1.475978E-01 -7.043755E-02 -1.435204E-01  6.450323E-02  3.792595E-02
      4077   3  1.410088E-01 -1.347542E-02  1.248605E-01 -1.322028E-01  3.879724E-02 -3.077401E-02
      4077   4  6.651273E-02 -1.286940E-01 -8.241325E-03 -1.231591E-01  3.195326E-02  7.809501E-03
      4077   5  2.095658E-01  2.709998E-02  1.564880E-01 -2.395004E-01  1.240178E-01 -3.439243E-02
      4077   6  5.199810E-02 -2.395155E-01 -1.021223E-01 -2.283074E-01  1.150245E-01  5.957216E-02
      4077   7  1.710320E-01  1.095213E-02  1.411957E-01 -1.849765E-01  6.810007E-02 -3.034627E-02
      4077   8  4.529200E-02 -2.238356E-01 -4.315002E-02 -1.737835E-01  6.125609E-02  2.945571E-02
      4078   1  1.874719E-01 -1.439026E-01 -9.735635E-02 -7.465168E-02  3.963060E-02  6.892137E-02
      4078   2  1.530081E-01 -1.896827E-01 -1.664555E-01 -5.613288E-02  7.801182E-03  8.085630E-02
      4078   3  1.705574E-01 -1.237794E-01 -1.336465E-02 -6.899352E-02  1.863669E-02  2.480453E-02
      4078   4  1.464272E-01 -1.592260E-01 -5.835224E-02 -5.047472E-02  2.830316E-03  3.265231E-02
      4078   5  2.326996E-01 -2.505674E-01 -1.157875E-01 -9.688048E-02  5.694828E-02  1.008556E-01
      4078   6  1.921051E-01 -3.106525E-01 -1.910173E-01 -6.233864E-02  2.511886E-02  1.196796E-01
      4078   7  1.597045E-01 -2.544788E-01 -5.583034E-02 -8.713516E-02  2.906536E-02  5.673879E-02
      4078   8  1.294435E-01 -3.042304E-01 -1.069487E-01 -5.259332E-02  1.325899E-02  7.147558E-02
      4079   1  1.048607E-01 -2.017202E-01 -1.742891E-01  3.243681E-02 -3.451938E-02  6.115704E-02
      4079   2  1.629335E-01 -1.223344E-01 -6.009908E-02  5.055096E-02 -4.751909E-02 -4.597285E-03
      4079   3  9.368121E-02 -1.766714E-01 -7.961368E-02  2.178029E-02 -1.760425E-02  2.261729E-02
      4079   4  1.249875E-01 -1.240521E-01 -2.787884E-02  3.989444E-02 -2.700539E-02 -1.264666E-02
      4079   5  9.255010E-02 -3.171098E-01 -2.125992E-01  9.639833E-02 -6.257803E-02  9.597037E-02
      4079   6  1.963584E-01 -1.310077E-01 -5.267358E-02  1.181110E-01 -7.557774E-02  1.237171E-02
      4079   7  6.877559E-02 -2.974588E-01 -1.233216E-01  5.525143E-02 -2.781855E-02  5.743063E-02
      4079   8  1.458174E-01 -1.381233E-01 -2.585119E-02  7.696415E-02 -3.721969E-02  4.322328E-03
      4080   1  2.965211E-02 -1.542019E-01 -6.195195E-02  2.197038E-02 -4.548298E-02 -4.943342E-02
      4080   2  6.042029E-02 -1.265201E-01  1.292693E-02  2.812835E-02 -4.097521E-02 -1.061737E-01
      4080   3  1.279580E-02 -1.587422E-01 -6.023019E-02  2.351360E-02 -2.791458E-02 -3.504225E-02
      4080   4  1.362161E-02 -1.610028E-01 -5.521687E-02  2.967157E-02 -2.378928E-02 -6.096417E-02
      4080   5  3.546165E-02 -1.105944E-01 -4.712685E-02  8.581607E-02 -6.753833E-02 -4.630236E-02
      4080   6  1.124574E-01  2.495160E-02  7.397956E-02  9.159157E-02 -6.303055E-02 -1.230042E-01
      4080   7  1.994400E-02 -1.145611E-01 -4.483139E-02  5.654093E-02 -3.000834E-02 -3.191119E-02
      4080   8  6.699734E-02 -8.957438E-03  6.409471E-03  6.231643E-02 -2.588303E-02 -7.779470E-02
      4081   1  4.863666E-02  7.018943E-02  2.003440E-01 -6.457397E-02  9.709360E-03 -4.505072E-02
      4081   2  5.107683E-03  3.060848E-03  1.223760E-01 -6.657756E-02  1.257547E-02 -3.597049E-02
      4081   3  3.862720E-02  5.617280E-02  1.636314E-01 -5.277417E-02  2.433673E-03 -3.193921E-02
      4081   4  2.984538E-03 -3.069463E-03  1.040648E-01 -5.477775E-02  3.406182E-03 -2.822925E-02
      4081   5  5.827254E-02  1.117806E-01  2.157121E-01 -7.882705E-02  2.692888E-02 -5.639872E-02
      4081   6  6.688139E-03  2.585600E-02  1.296887E-01 -8.272424E-02  2.979499E-02 -4.206094E-02
      4081   7  5.489069E-02  1.006043E-01  1.818399E-01 -6.165697E-02  1.439565E-02 -4.328721E-02
      4081   8  1.119261E-02  2.256609E-02  1.142179E-01 -6.555416E-02  1.536815E-02 -3.431971E-02
      4082   1  1.287703E-01  9.768601E-03  1.271713E-01 -1.185903E-01  2.163603E-02 -2.628875E-02
      4082   2  6.804194E-02 -9.425256E-02  2.876455E-02 -1.067181E-01  1.638608E-02 -8.917979E-03
      4082   3  8.501398E-02 -1.024317E-02  1.042217E-01 -9.694395E-02  9.450014E-03 -2.314936E-02
      4082   4  3.533878E-02 -1.032112E-01  3.160570E-02 -8.507167E-02  6.405746E-03 -1.298080E-02
      4082   5  1.518542E-01  2.863137E-02  1.397553E-01 -1.397824E-01  4.047521E-02 -2.775765E-02
      4082   6  8.032253E-02 -1.005975E-01  3.054525E-02 -1.257044E-01  3.522526E-02 -3.018103E-03
      4082   7  1.003780E-01  5.311084E-03  1.134972E-01 -1.109338E-01  2.092041E-02 -2.461826E-02
      4082   8  3.989950E-02 -1.128646E-01  3.007788E-02 -9.685582E-02  1.787615E-02 -7.080920E-03
      4083   1  1.543116E-01 -9.293771E-02  3.004995E-02 -6.188855E-02  8.929457E-03 -1.613927E-03
      4083   2  1.363228E-01 -1.200715E-01 -2.778815E-03 -3.992809E-02  2.587153E-04  9.703457E-04
      4083   3  9.107625E-02 -1.122521E-01  2.890384E-02 -5.731601E-02  3.402702E-03 -8.537339E-03
      4083   4  7.508376E-02 -1.373897E-01  7.331018E-04 -3.535556E-02 -1.796161E-03 -6.566154E-03
      4083   5  1.742741E-01 -1.041635E-01  3.267094E-02 -6.638572E-02  1.634945E-02  7.470237E-03
      4083   6  1.553657E-01 -1.334432E-01 -1.077451E-03 -4.095339E-02  7.678706E-03  1.138537E-02
      4083   7  9.888715E-02 -1.286858E-01  2.631702E-02 -6.120010E-02  9.491829E-03  5.468257E-04
      4083   8  8.197503E-02 -1.559691E-01 -2.773354E-03 -3.576777E-02  4.292967E-03  3.848874E-03
      4084   1  9.129266E-02 -1.297725E-01 -2.441777E-02  1.974466E-02 -1.026886E-02 -2.874223E-03
      4084   2  1.172887E-01 -7.298577E-02  5.448797E-03  3.632440E-02 -1.703806E-02 -1.596205E-02
      4084   3  4.699550E-02 -1.409102E-01 -1.724620E-02  4.349274E-03 -7.143337E-03 -8.185323E-03
      4084   4  6.582996E-02 -9.128499E-02 -4.089902E-03  2.092901E-02 -1.032051E-02 -1.458016E-02
      4084   5  1.070182E-01 -1.382076E-01 -2.223062E-02  3.438221E-02 -1.220414E-02  6.280397E-03
      4084   6  1.430537E-01 -5.799535E-02  1.767544E-02  5.455398E-02 -1.897334E-02 -1.158179E-02
      4084   7  5.014894E-02 -1.547333E-01 -2.044710E-02  1.229383E-02 -4.304259E-03  9.692973E-04
      4084   8  7.902289E-02 -8.168261E-02  2.748690E-03  3.246560E-02 -7.481428E-03 -1.019990E-02
      4085   1  3.325991E-02 -8.233192E-02 -2.699879E-02  2.554485E-02 -1.899725E-02 -2.366021E-02
      4085   2  4.061852E-02 -5.197054E-02 -3.283147E-02  3.244650E-02 -1.587195E-02 -3.160414E-02
      4085   3  1.097879E-02 -9.080975E-02 -3.297708E-02  1.404346E-02 -1.220303E-02 -1.795251E-02
      4085   4  1.266994E-02 -6.611583E-02 -5.203384E-02  2.094511E-02 -1.142734E-02 -2.077111E-02
      4085   5  3.088292E-02 -6.704293E-02 -2.312518E-02  3.946338E-02 -1.240160E-02 -2.241044E-02
      4085   6  4.592952E-02 -1.874290E-02 -2.126988E-02  4.401543E-02 -9.276302E-03 -3.413267E-02
      4085   7  1.682540E-02 -7.199635E-02 -2.557907E-02  2.283667E-02 -1.829076E-03 -1.670275E-02
      4085   8  2.620454E-02 -2.936379E-02 -3.694784E-02  2.738872E-02 -1.053382E-03 -2.329965E-02
      4086   1  2.110022E-02  1.966027E-02  1.368367E-01 -2.983529E-02 -1.031379E-03 -2.017388E-02
      4086   2  4.378503E-03 -1.066863E-04  1.008646E-01 -2.937132E-02 -8.952156E-04 -1.977851E-02
      4086   3  1.981778E-02  1.930578E-02  1.369374E-01 -2.831267E-02 -3.222390E-03 -1.657548E-02
      4086   4  4.786055E-03  1.228807E-03  1.049086E-01 -2.784870E-02 -3.477562E-03 -1.686846E-02
      4086   5  2.602126E-02  3.205045E-02  1.420300E-01 -3.251278E-02  8.593812E-03 -1.994624E-02
      4086   6  8.267014E-03  9.874262E-03  1.050254E-01 -3.244014E-02  8.729975E-03 -1.842421E-02
      4086   7  2.610849E-02  3.228296E-02  1.427178E-01 -3.030181E-02  5.276141E-03 -1.634783E-02
      4086   8  1.004424E-02  1.179676E-02  1.096565E-01 -3.022917E-02  5.020969E-03 -1.551416E-02
      4087   1  7.221135E-02  1.097078E-02  1.077853E-01 -6.468807E-02  3.566665E-03 -1.815233E-02
      4087   2  4.464084E-02 -3.740448E-02  6.425890E-02 -5.529669E-02  1.584352E-03 -1.410489E-02
      4087   3  4.318446E-02  7.266560E-04  1.026651E-01 -5.428570E-02 -3.209251E-04 -1.616786E-02
      4087   4  1.887307E-02 -4.438949E-02  6.674330E-02 -4.489431E-02 -1.607602E-03 -1.396082E-02
      4087   5  8.212615E-02  2.088990E-02  1.137355E-01 -6.988096E-02  1.154463E-02 -1.559037E-02
      4087   6  5.179505E-02 -3.392674E-02  6.744848E-02 -5.979394E-02  9.562313E-03 -9.370187E-03
      4087   7  5.066453E-02  9.602320E-03  1.075719E-01 -5.763819E-02  5.484292E-03 -1.360590E-02
      4087   8  2.359255E-02 -4.195520E-02  6.888943E-02 -4.755117E-02  4.197616E-03 -9.226107E-03
      4088   1  8.966217E-02 -3.478456E-02  6.589516E-02 -4.026324E-02  6.266508E-04 -1.227090E-02
      4088   2  7.935153E-02 -4.820082E-02  4.494262E-02 -2.465616E-02 -2.740877E-03 -1.130775E-02
      4088   3  4.375397E-02 -4.947861E-02  6.282318E-02 -3.871043E-02 -1.430906E-03 -1.282899E-02
      4088   4  3.459509E-02 -6.174311E-02  4.455810E-02 -2.310335E-02 -3.267014E-03 -1.194383E-02
      4088   5  1.006114E-01 -3.168660E-02  7.010930E-02 -4.118027E-02  5.947597E-03 -6.459857E-03
      4088   6  9.018376E-02 -4.537581E-02  4.903980E-02 -2.404178E-02  2.580069E-03 -4.728870E-03
      4088   7  4.934320E-02 -4.867778E-02  6.474019E-02 -3.954948E-02  3.122194E-03 -7.017952E-03
      4088   8  4.006735E-02 -6.121522E-02  4.635815E-02 -2.241098E-02  1.286087E-03 -5.364950E-03
      4089   1  5.904097E-02 -5.257803E-02  2.778900E-02  2.568823E-04 -5.642368E-03 -1.177592E-02
      4089   2  6.480394E-02 -2.928831E-02  2.370916E-02  1.306219E-02 -7.287458E-03 -1.401811E-02
      4089   3  2.401014E-02 -6.199826E-02  3.141907E-02 -8.506495E-03 -4.667167E-03 -1.185394E-02
      4089   4  2.840113E-02 -4.008051E-02  2.413797E-02  4.298809E-03 -5.718570E-03 -1.249350E-02
      4089   5  6.468176E-02 -5.038347E-02  3.013960E-02  4.130949E-03 -7.209684E-04 -5.250769E-03
      4089   6  7.284866E-02 -2.148455E-02  2.846371E-02  1.752994E-02 -2.366058E-03 -8.407608E-03
      4089   7  2.757301E-02 -6.069423E-02  3.287914E-02 -6.235055E-03  1.168881E-03 -5.328790E-03
      4089   8  3.436795E-02 -3.316728E-02  2.800198E-02  7.163935E-03  1.174785E-04 -6.883001E-03
      4090   1  2.272127E-02 -3.673345E-02 -7.148439E-03  6.734066E-03 -9.219418E-03 -1.467137E-02
      4090   2  1.449580E-02 -3.214532E-02 -3.915479E-02  1.268251E-02 -9.294117E-03 -1.421391E-02
      4090   3  9.614991E-03 -3.794284E-02  1.926541E-03  3.272677E-04 -7.862254E-03 -1.233689E-02
      4090   4  8.422942E-04 -3.390194E-02 -3.135668E-02  6.275712E-03 -7.910669E-03 -1.126945E-02
      4090   5  2.648443E-02 -2.845073E-02 -3.534674E-03  9.167745E-03  2.671025E-03 -9.529183E-03
      4090   6  1.917394E-02 -2.172767E-02 -3.462606E-02  1.514247E-02  2.596326E-03 -9.436544E-03
      4090   7  1.328616E-02 -2.969955E-02  5.500880E-03  2.150966E-03  4.393009E-03 -7.194705E-03
      4090   8  5.428434E-03 -2.352371E-02 -2.686737E-02  8.125695E-03  4.344594E-03 -6.492086E-03
      4091   1  9.417177E-03  2.245821E-04  1.355570E-01 -6.853675E-03 -4.232596E-03 -1.059949E-02
      4091   2  6.767837E-04 -4.355330E-03  1.110023E-01 -2.839055E-03 -4.689341E-03 -1.121388E-02
      4091   3  6.789372E-03  5.626017E-03  1.561896E-01 -8.933915E-03 -4.801516E-03 -9.390833E-03
      4091   4 -1.217565E-03  1.779561E-03  1.333463E-01 -4.919296E-03 -5.417633E-03 -1.005999E-02
      4091   5  1.282877E-02  5.139990E-03  1.380551E-01 -6.998133E-03  3.674574E-03 -2.983911E-03
      4091   6  4.006224E-03  3.683975E-04  1.134182E-01 -3.142885E-03  3.217829E-03 -3.109330E-03
      4091   7  1.075877E-02  1.078048E-02  1.589268E-01 -9.023608E-03  2.616683E-03 -1.775257E-03
      4091   8  2.669680E-03  6.742347E-03  1.360013E-01 -5.168360E-03  2.000566E-03 -1.955442E-03
      4092   1  3.039954E-02  3.814847E-03  1.105266E-01 -2.366535E-02 -2.086052E-03 -1.137736E-02
      4092   2  1.952038E-02 -1.249402E-02  9.057163E-02 -1.617074E-02 -3.037970E-03 -1.120962E-02
      4092   3  1.730174E-02  5.706261E-03  1.299291E-01 -2.095049E-02 -3.020878E-03 -1.037150E-02
      4092   4  8.356983E-03 -8.668208E-03  1.144877E-01 -1.345588E-02 -3.753854E-03 -1.055339E-02
      4092   5  3.524005E-02  8.763254E-03  1.134633E-01 -2.450117E-02  2.451860E-03 -2.621813E-03
      4092   6  2.383643E-02 -8.769355E-03  9.298384E-02 -1.678762E-02  1.499942E-03 -1.164470E-03
      4092   7  2.137595E-02  1.032626E-02  1.325374E-01 -2.143667E-02  2.274331E-04 -1.615947E-03
      4092   8  1.190674E-02 -5.271953E-03  1.165715E-01 -1.372312E-02 -5.055428E-04 -5.082444E-04
      4093   1  4.102779E-02 -8.748842E-03  9.017660E-02 -1.743300E-02 -2.307906E-03 -1.123617E-02
      4093   2  3.526349E-02 -1.452342E-02  7.673686E-02 -8.713127E-03 -3.444326E-03 -1.147644E-02
      4093   3  2.693548E-02 -5.401398E-03  1.154271E-01 -1.742786E-02 -2.646356E-03 -1.072820E-02
      4093   4  2.295110E-02 -9.396062E-03  1.061405E-01 -8.707985E-03 -3.402613E-03 -1.102388E-02
      4093   5  4.576721E-02 -5.266324E-03  9.264318E-02 -1.758073E-02  1.529815E-03 -2.846631E-04
      4093   6  3.991980E-02 -1.123483E-02  7.912033E-02 -8.480687E-03  3.933948E-04  6.616733E-04
      4093   7  3.034433E-02 -2.489124E-03  1.173234E-01 -1.752018E-02  4.754872E-06  2.233050E-04
      4093   8  2.627684E-02 -6.677719E-03  1.079537E-01 -8.420136E-03 -7.515022E-04  1.114233E-03
      4094   1  2.817550E-02 -1.650839E-02  6.481169E-02 -3.721658E-03 -4.116290E-03 -1.176720E-02
      4094   2  2.529553E-02 -1.156235E-02  5.026575E-02  3.962773E-03 -4.834617E-03 -1.232128E-02
      4094   3  2.064543E-02 -8.669598E-03  9.847107E-02 -7.634662E-03 -3.586466E-03 -1.124974E-02
      4094   4  1.914999E-02 -2.339030E-03  8.715570E-02  4.976855E-05 -3.988501E-03 -1.157109E-02
      4094   5  3.146583E-02 -1.361979E-02  6.666537E-02 -3.153682E-03  1.716694E-03  1.143098E-03
      4094   6  2.893495E-02 -7.859224E-03  5.246852E-02  4.847040E-03  9.983672E-04  1.512037E-03
      4094   7  2.282874E-02 -6.255433E-03  9.985032E-02 -7.299409E-03  1.323498E-03  1.660558E-03
      4094   8  2.168239E-02  8.896617E-04  8.888403E-02  7.013142E-04  9.214634E-04  2.262220E-03
      4095   1  1.326719E-02 -1.375721E-02  2.875919E-02 -1.053820E-03 -7.172190E-03 -1.228432E-02
      4095   2  1.372039E-03 -1.694816E-02 -7.700350E-03  5.242881E-03 -7.248024E-03 -1.162926E-02
      4095   3  1.264537E-02 -1.785617E-03  6.928630E-02 -5.405919E-03 -6.644067E-03 -1.145638E-02
      4095   4  1.187075E-03 -4.539718E-03  3.384607E-02  8.907818E-04 -6.821092E-03 -1.082161E-02
      4095   5  1.477451E-02 -1.074567E-02  3.011485E-02 -9.032313E-04  5.110007E-03  1.993444E-03
      4095   6  2.848936E-03 -1.400762E-02 -6.375119E-03  5.292278E-03  5.034174E-03  2.939732E-03
      4095   7  1.450687E-02  1.377709E-03  7.079375E-02 -5.235045E-03  5.346898E-03  2.821384E-03
      4095   8  3.018143E-03 -1.447392E-03  3.532309E-02  9.604642E-04  5.169874E-03  3.747386E-03
      4096   1  3.117952E-03 -4.435317E-04  2.762347E-02 -1.424011E-03 -4.554817E-04 -1.040889E-03
      4096   2  1.358800E-02  1.716429E-03  6.036367E-02  4.008806E-03 -5.513974E-04 -4.453015E-04
      4096   3  2.943106E-03 -1.148401E-02 -9.003281E-03 -5.579055E-03 -1.551595E-03 -1.907835E-03
      4096   4  1.383049E-02 -8.906720E-03  2.471069E-02 -1.462378E-04 -1.489188E-03 -1.406298E-03
      4096   5  1.481828E-03 -3.621718E-03  2.617918E-02 -1.160452E-03  1.067959E-02 -1.383403E-02
      4096   6  1.181080E-02 -1.790933E-03  5.877831E-02  4.430687E-03  1.058368E-02 -1.296022E-02
      4096   7  1.861109E-03 -1.442471E-02 -1.021009E-02 -5.409547E-03  9.861702E-03 -1.470097E-02
      4096   8  1.260741E-02 -1.217660E-02  2.336281E-02  1.815926E-04  9.924108E-03 -1.392122E-02
      4097   1  2.166080E-02  1.416465E-03  7.789396E-02 -1.924485E-03  7.507306E-03 -9.609302E-05
      4097   2  2.256692E-02 -6.139783E-03  8.847062E-02  5.204564E-03  7.154325E-03  2.623750E-04
      4097   3  2.841332E-02 -6.089116E-03  4.612284E-02 -6.155670E-03  5.756915E-03 -9.996095E-04
      4097   4  3.046818E-02 -1.249663E-02  5.937988E-02  9.733785E-04  5.282824E-03 -3.900513E-04
      4097   5  1.907009E-02 -2.275314E-03  7.600921E-02 -8.998820E-04  1.234257E-02 -1.222886E-02
      4097   6  2.035285E-02 -8.952747E-03  8.696251E-02  6.108056E-03  1.198959E-02 -1.110457E-02
      4097   7  2.539872E-02 -9.962561E-03  4.405643E-02 -4.879977E-03  1.135801E-02 -1.313238E-02
      4097   8  2.783022E-02 -1.549126E-02  5.769011E-02  2.127961E-03  1.088392E-02 -1.175700E-02
      4098   1  2.671255E-02 -6.542762E-03  9.676503E-02  7.034411E-03  9.776721E-03  4.099562E-04
      4098   2  3.059271E-02 -2.890228E-03  1.060464E-01  1.518067E-02  9.083704E-03  4.546875E-04
      4098   3  3.917556E-02 -1.037227E-02  7.153698E-02  6.920595E-03  7.329938E-03 -1.331396E-04
      4098   4  4.464317E-02 -5.132294E-03  8.452236E-02  1.506686E-02  6.393596E-03 -4.080187E-05
      4098   5  2.347234E-02 -9.483123E-03  9.491086E-02  7.932663E-03  1.247731E-02 -1.028931E-02
      4098   6  2.742392E-02 -5.663967E-03  1.042636E-01  1.583560E-02  1.178429E-02 -9.186285E-03
      4098   7  3.508372E-02 -1.367762E-02  6.931782E-02  7.866455E-03  1.108883E-02 -1.083241E-02
      4098   8  4.062274E-02 -8.271019E-03  8.237462E-02  1.576939E-02  1.015248E-02 -9.681774E-03
      4099   1  1.267763E-02 -5.754870E-03  1.053043E-01  1.282141E-02  8.069845E-03  3.373945E-04
      4099   2  2.176060E-02  9.298264E-03  1.205278E-01  1.969793E-02  7.323816E-03 -2.778724E-05
      4099   3  2.351588E-02 -8.669647E-03  8.475017E-02  1.580650E-02  5.127570E-03 -2.317173E-04
      4099   4  3.437704E-02  8.161682E-03  1.041227E-01  2.268301E-02  4.306342E-03 -8.456458E-04
      4099   5  9.212864E-03 -8.865804E-03  1.033316E-01  1.308542E-02  1.114007E-02 -8.482305E-03
      4099   6  1.792271E-02  5.316717E-03  1.181819E-01  1.988674E-02  1.039404E-02 -7.662024E-03
      4099   7  1.978792E-02 -1.189338E-02  8.266466E-02  1.582176E-02  9.383258E-03 -9.051417E-03
      4099   8  3.027596E-02  4.067335E-03  1.016641E-01  2.262308E-02  8.562030E-03 -8.479883E-03
      4100   1  3.021360E-03  5.809882E-03  1.231139E-01  5.012939E-03  1.770109E-03  1.017299E-04
      4100   2  1.066485E-02  1.033617E-02  1.440659E-01  8.410247E-03  1.072168E-03  8.207590E-04
      4100   3  4.339939E-03  3.338452E-04  1.035419E-01  3.454338E-03  5.710925E-05 -8.712443E-04
      4100   4  1.260768E-02  5.484382E-03  1.259505E-01  6.851646E-03 -5.206745E-04 -3.272521E-04
      4100   5 -8.808918E-04  1.357562E-03  1.206076E-01  5.014393E-03  8.424367E-03 -6.946269E-03
      4100   6  6.500039E-03  5.271217E-03  1.412970E-01  8.531858E-03  7.726427E-03 -5.811072E-03
      4100   7  8.582351E-04 -3.938240E-03  1.012158E-01  3.280755E-03  7.127536E-03 -7.919243E-03
      4100   8  8.863418E-03  5.996674E-04  1.233618E-01  6.798220E-03  6.549752E-03 -6.959083E-03
      4101   1  6.410296E-03 -1.605976E-02 -2.525997E-02 -9.034335E-03 -1.461662E-03 -1.459832E-02
      4101   2  1.257162E-02 -2.446407E-02  3.682098E-03 -4.256719E-03 -1.155773E-03 -1.299405E-02
      4101   3  1.722232E-02 -1.480296E-02 -3.188267E-02 -1.631715E-02 -1.198481E-04 -1.799023E-02
      4101   4  2.287237E-02 -2.371856E-02 -4.133602E-03 -1.153954E-02  6.929263E-04 -1.576548E-02
      4101   5  2.393050E-03 -2.747260E-02 -2.988900E-02 -7.144265E-03  9.928708E-03 -1.853807E-02
      4101   6  9.485094E-03 -3.370524E-02 -1.621044E-05 -1.859764E-03  1.023460E-02 -1.727466E-02
      4101   7  1.497918E-02 -2.545547E-02 -3.575137E-02 -1.380661E-02  1.092967E-02 -2.192998E-02
      4101   8  2.155994E-02 -3.219940E-02 -7.071583E-03 -8.522105E-03  1.174244E-02 -2.004608E-02
      4102   1  3.372076E-02 -2.852627E-02  2.492469E-02 -9.798845E-03  5.970598E-03 -1.114077E-02
      4102   2  2.651409E-02 -5.643118E-02  2.880737E-02  2.404556E-03  5.286459E-03 -7.681776E-03
      4102   3  6.931952E-02 -1.733432E-02  2.663245E-02 -2.014796E-02  8.304783E-03 -1.312950E-02
      4102   4  6.073291E-02 -4.661917E-02  2.729526E-02 -7.944564E-03  7.167893E-03 -8.152624E-03
      4102   5  2.834317E-02 -3.651305E-02  2.091538E-02 -5.993029E-03  1.151527E-02 -1.588286E-02
      4102   6  2.341333E-02 -5.910536E-02  2.707489E-02  5.757622E-03  1.083113E-02 -1.334384E-02
      4102   7  6.235730E-02 -2.600022E-02  2.194401E-02 -1.482426E-02  1.292950E-02 -1.787160E-02
      4102   8  5.604752E-02 -4.997247E-02  2.488365E-02 -3.073613E-03  1.179261E-02 -1.381468E-02
      4103   1  3.848276E-02 -5.772617E-02  4.148531E-02  1.865182E-02  6.132011E-03 -6.192205E-03
      4103   2  4.692967E-02 -4.684157E-02  5.875708E-02  3.417864E-02  4.758212E-03 -5.581613E-03
      4103   3  8.422772E-02 -4.303485E-02  4.471140E-02  1.987067E-02  5.306000E-03 -6.057139E-03
      4103   4  9.376545E-02 -3.105943E-02  6.452841E-02  3.539749E-02  2.980367E-03 -5.309045E-03
      4103   5  3.387706E-02 -5.931414E-02  3.962721E-02  2.083570E-02  1.054444E-02 -1.192482E-02
      4103   6  4.253023E-02 -4.794827E-02  5.710523E-02  3.541069E-02  9.170642E-03 -1.058701E-02
      4103   7  7.629060E-02 -4.605057E-02  4.142555E-02  2.219205E-02  1.044564E-02 -1.178975E-02
      4103   8  8.603459E-02 -3.359389E-02  6.144881E-02  3.676704E-02  8.120007E-03 -1.031445E-02
      4104   1  2.242359E-02 -4.101674E-02  6.256440E-02  4.332859E-02  2.579889E-03 -6.190096E-03
      4104   2  4.777974E-02  7.193065E-03  9.887512E-02  5.249506E-02  1.513212E-03 -8.463092E-03
      4104   3  4.857891E-02 -3.319435E-02  6.248371E-02  5.475541E-02 -1.438228E-03 -6.347345E-03
      4104   4  7.716305E-02  1.824344E-02  1.063264E-01  6.392188E-02 -3.100286E-03 -9.932127E-03
      4104   5  1.845434E-02 -4.316713E-02  6.072851E-02  4.278469E-02  8.057170E-03 -1.014164E-02
      4104   6  4.184282E-02  4.514256E-04  9.507155E-02  5.135578E-02  6.990493E-03 -1.026264E-02
      4104   7  4.252584E-02 -3.623781E-02  5.975475E-02  5.289973E-02  6.191042E-03 -1.029889E-02
      4104   8  6.914230E-02  1.060873E-02  1.016298E-01  6.147081E-02  4.528985E-03 -1.173168E-02
      4105   1  9.377559E-03  9.718340E-03  1.005301E-01  2.800300E-02 -1.568947E-03 -9.362107E-03
      4105   2  2.495090E-02  3.091324E-02  1.312463E-01  2.789027E-02 -1.997328E-03 -9.545266E-03
      4105   3  7.988236E-03  8.554482E-03  9.803988E-02  3.081378E-02 -4.298416E-03 -1.159501E-02
      4105   4  2.499056E-02  3.117836E-02  1.320904E-01  3.070105E-02 -4.438778E-03 -1.255331E-02
      4105   5  4.528872E-03  1.260611E-03  9.653816E-02  2.684453E-02  6.002503E-03 -1.002528E-02
      4105   6  1.893951E-02  1.974253E-02  1.260917E-01  2.701981E-02  5.574121E-03 -9.255786E-03
      4105   7  4.147615E-03  5.287815E-04  9.447998E-02  2.888017E-02  4.225686E-03 -1.225818E-02
      4105   8  1.998723E-02  2.043968E-02  1.273678E-01  2.905546E-02  4.085324E-03 -1.226383E-02
      4106   1  2.640779E-02 -1.544862E-02 -3.004317E-02 -2.761521E-02  3.427866E-03 -3.250287E-02
      4106   2  1.537955E-02 -6.043701E-02 -2.181560E-02 -2.311718E-02  4.786531E-03 -2.411631E-02
      4106   3  4.692182E-02 -3.930656E-03 -1.216397E-02 -4.459528E-02  1.177859E-02 -4.380949E-02
      4106   4  3.057902E-02 -5.423360E-02 -1.633704E-02 -4.009725E-02  1.412177E-02 -3.090606E-02
      4106   5  1.420319E-02 -5.298380E-02 -4.496511E-02 -2.049675E-02  1.305578E-02 -2.932225E-02
      4106   6  9.950266E-03 -8.216311E-02 -2.996221E-02 -1.501421E-02  1.441444E-02 -2.447874E-02
      4106   7  3.816302E-02 -3.998906E-02 -2.560913E-02 -3.295995E-02  1.786346E-02 -4.062887E-02
      4106   8  2.859554E-02 -7.448292E-02 -2.300688E-02 -2.747740E-02  2.020664E-02 -3.126848E-02
      4107   1  7.417067E-02 -7.103777E-02  4.180300E-03 -3.266085E-02  1.300089E-02 -1.632694E-02
      4107   2  4.658545E-02 -1.403971E-01 -1.841108E-02 -1.575967E-02  1.113624E-02 -3.432529E-03
      4107   3  1.281493E-01 -5.086151E-02  1.745591E-02 -5.354791E-02  2.349671E-02 -1.927943E-02
      4107   4  9.322415E-02 -1.275608E-01 -2.226193E-02 -3.664674E-02  2.009653E-02 -4.183288E-04
      4107   5  6.321567E-02 -8.416846E-02 -3.045406E-03 -2.161396E-02  1.549781E-02 -1.977727E-02
      4107   6  4.458048E-02 -1.326444E-01 -1.668675E-02 -6.248309E-03  1.363316E-02 -1.177613E-02
      4107   7  1.118200E-01 -6.629548E-02  7.926917E-03 -3.653434E-02  2.110035E-02 -2.272976E-02
      4107   8  8.584486E-02 -1.221113E-01 -2.284088E-02 -2.116869E-02  1.770018E-02 -8.761931E-03
      4108   1  7.636062E-02 -1.425887E-01 -2.138438E-03  2.964401E-02  4.601812E-03  1.229716E-03
      4108   2  9.132322E-02 -1.194896E-01  2.463781E-02  5.200233E-02  8.140815E-04  1.072797E-03
      4108   3  1.401643E-01 -1.235017E-01 -2.318754E-03  3.371225E-02  3.503946E-03  6.483626E-03
      4108   4  1.571800E-01 -9.834945E-02  2.924822E-02  5.607057E-02 -3.326477E-03  6.479018E-03
      4108   5  7.098443E-02 -1.298816E-01  6.083197E-05  3.281071E-02  1.050864E-02 -8.403940E-03
      4108   6  8.617549E-02 -1.062494E-01  2.706555E-02  5.212634E-02  6.720907E-03 -7.192081E-03
      4108   7  1.241386E-01 -1.153586E-01 -4.683524E-03  3.703126E-02  1.077955E-02 -3.150030E-03
      4108   8  1.413829E-01 -8.967331E-02  2.711192E-02  5.634689E-02  3.949128E-03 -1.785860E-03
      4109   1  3.646808E-02 -1.062350E-01  2.826254E-02  8.663614E-02 -7.658885E-03 -3.627910E-03
      4109   2  9.200598E-02  1.321388E-03  1.058325E-01  9.855660E-02 -1.003744E-02 -1.631356E-02
      4109   3  7.044248E-02 -9.610154E-02  2.806641E-02  1.126454E-01 -2.063592E-02 -2.253166E-04
      4109   4  1.366315E-01  2.210602E-02  1.304890E-01  1.245659E-01 -2.437658E-02 -1.853729E-02
      4109   5  3.324704E-02 -9.789376E-02  2.979861E-02  7.984335E-02  3.357130E-03 -8.792718E-03
      4109   6  8.034546E-02 -1.002949E-02  9.892905E-02  9.040170E-02  9.785806E-04 -1.437760E-02
      4109   7  6.245405E-02 -8.980345E-02  2.755930E-02  1.002263E-01 -2.519132E-03 -5.390124E-03
      4109   8  1.202036E-01  8.711972E-03  1.215424E-01  1.107846E-01 -6.259795E-03 -1.660133E-02
      4110   1  9.586939E-03  1.736894E-02  1.065639E-01  5.855720E-02 -9.275753E-03 -2.384522E-02
      4110   2  5.050625E-02  9.149680E-02  1.688337E-01  5.488411E-02 -8.873707E-03 -3.173645E-02
      4110   3  6.237368E-03  2.136555E-02  1.232355E-01  7.516147E-02 -2.014462E-02 -2.975152E-02
      4110   4  5.454334E-02  1.028801E-01  2.027409E-01  7.148838E-02 -1.854871E-02 -4.207741E-02
      4110   5  2.134646E-03 -2.700049E-03  9.830750E-02  5.160328E-02  1.399516E-03 -1.750772E-02
      4110   6  3.640198E-02  5.590651E-02  1.539254E-01  4.912406E-02  1.801562E-03 -2.047451E-02
      4110   7  2.963617E-03  3.087363E-03  1.167699E-01  6.377290E-02 -4.544910E-03 -2.341403E-02
      4110   8  4.461761E-02  6.908059E-02  1.896233E-01  6.129368E-02 -2.948994E-03 -3.081547E-02
      4111   1  6.273518E-02  9.663497E-03  1.655094E-02 -5.230483E-02  2.545563E-02 -8.413692E-02
      4111   2  1.429536E-02 -9.797312E-02 -3.727851E-02 -5.352374E-02  3.188181E-02 -3.706267E-02
      4111   3  8.505258E-02  3.441870E-02  7.675089E-02 -8.190323E-02  5.447128E-02 -1.310249E-01
      4111   4  5.947493E-03 -1.038832E-01 -4.863084E-02 -8.312214E-02  7.106792E-02 -5.446863E-02
      4111   5  1.489477E-02 -1.448053E-01 -4.414183E-02 -2.928643E-02  2.276081E-02 -6.641455E-02
      4111   6  1.067804E-02 -1.492547E-01 -5.374819E-02 -2.033488E-02  2.918700E-02 -3.978380E-02
      4111   7  7.280875E-02 -1.047944E-01  3.131380E-02 -2.940276E-02  3.133296E-02 -1.133026E-01
      4111   8  3.792677E-02 -1.399091E-01 -4.984483E-02 -2.045121E-02  4.792959E-02 -5.718977E-02
      4112   1  1.310507E-01 -1.195206E-01 -2.150846E-02 -7.124685E-02  4.077705E-02 -2.346644E-03
      4112   2  6.269943E-02 -2.575125E-01 -1.113541E-01 -5.117240E-02  3.429869E-02  4.542505E-02
      4112   3  1.761656E-01 -1.145546E-01 -5.006990E-02 -1.060672E-01  7.749201E-02  1.078775E-03
      4112   4  8.093194E-02 -2.794289E-01 -2.026412E-01 -8.599272E-02  6.413941E-02  7.628081E-02
      4112   5  1.135146E-01 -1.172492E-01 -2.608787E-02 -3.247641E-02  3.002986E-02 -1.911039E-02
      4112   6  8.630881E-02 -1.592349E-01 -7.478800E-02 -1.927620E-02  2.355150E-02  1.073967E-02
      4112   7  1.345697E-01 -1.225945E-01 -6.496067E-02 -3.986639E-02  4.882319E-02 -1.568498E-02
      4112   8  8.048147E-02 -1.914627E-01 -1.763865E-01 -2.666618E-02  3.547059E-02  4.159542E-02
      4113   1  1.143262E-01 -2.630871E-01 -9.808576E-02  4.619155E-02  3.539991E-05  5.995929E-02
      4113   2  1.423423E-01 -2.180603E-01 -4.972557E-02  7.087457E-02 -1.166009E-02  5.189586E-02
      4113   3  1.424422E-01 -2.843371E-01 -1.970352E-01  5.469688E-02 -8.342979E-03  9.962341E-02
      4113   4  1.802750E-01 -2.294937E-01 -1.257694E-01  7.937990E-02 -3.028740E-02  8.819456E-02
      4113   5  1.328882E-01 -1.418059E-01 -5.613282E-02  4.793670E-02  1.020745E-02  2.110958E-02
      4113   6  1.558561E-01 -1.085581E-01 -1.282077E-02  6.237080E-02 -1.488038E-03  1.959062E-02
      4113   7  1.251329E-01 -1.784293E-01 -1.704557E-01  5.307660E-02  8.373545E-03  6.077370E-02
      4113   8  1.579176E-01 -1.353649E-01 -1.042380E-01  6.751070E-02 -1.357087E-02  5.588931E-02
      4114   1  4.035276E-02 -1.950206E-01 -3.621464E-02  1.477068E-01 -4.140384E-02  3.048972E-02
      4114   2  1.491165E-01  9.356038E-04  1.303750E-01  1.556151E-01 -4.661150E-02 -1.992954E-02
      4114   3  3.546261E-02 -2.157273E-01 -1.003467E-01  1.913031E-01 -8.516584E-02  5.558210E-02
      4114   4  1.778187E-01  1.382131E-02  1.446252E-01  1.992113E-01 -9.301927E-02 -2.208791E-02
      4114   5  5.976455E-02 -1.150087E-01 -6.387539E-03  1.125424E-01 -1.249089E-02  8.777023E-03
      4114   6  1.276522E-01 -1.443019E-02  1.193260E-01  1.178048E-01 -1.769854E-02 -1.924733E-02
      4114   7  4.561419E-02 -1.396841E-01 -7.448825E-02  1.288878E-01 -3.385798E-02  3.386941E-02
      4114   8  1.470942E-01 -5.513149E-03  1.296075E-01  1.341503E-01 -4.171141E-02 -2.140570E-02
      4115   1  2.137945E-03  3.527288E-02  1.476129E-01  9.425649E-02 -3.830017E-02 -5.398230E-02
      4115   2  8.927754E-02  1.891806E-01  2.841705E-01  8.155322E-02 -3.210567E-02 -9.659693E-02
      4115   3 -1.804429E-02  4.049720E-02  1.852095E-01  1.276405E-01 -7.703318E-02 -7.565699E-02
      4115   4  9.903928E-02  2.243489E-01  3.916364E-01  1.149373E-01 -5.946898E-02 -1.443404E-01
      4115   5 -8.693329E-03 -3.129676E-02  1.243926E-01  6.296246E-02 -1.359115E-02 -3.779615E-02
      4115   6  3.934309E-02  3.137017E-02  2.218470E-01  6.162888E-02 -7.396648E-03 -6.044812E-02
      4115   7  1.091839E-02 -9.017891E-03  1.790438E-01  7.027772E-02 -3.236151E-02 -5.947083E-02
      4115   8  8.889878E-02  8.359302E-02  3.463675E-01  6.894414E-02 -1.479731E-02 -1.081916E-01
      4116   1  1.047463E-01  6.913516E-02  8.007350E-02 -7.911697E-02  4.975015E-02 -1.438661E-01
      4116   2  1.085734E-02 -7.123055E-02 -9.252386E-02 -6.919547E-02  7.873232E-02 -1.658987E-02
      4116   3  9.239691E-02  3.694280E-02 -1.488502E-02 -1.023554E-01  7.836139E-03 -2.934773E-01
      4116   4 -3.728075E-02 -1.392116E-01 -2.709894E-01 -9.243386E-02  6.048577E-02 -7.081660E-02
      4116   5 -1.823298E-02 -4.110309E-01 -1.008701E-01 -5.685742E-02  1.039593E-02 -1.752492E-01
      4116   6  3.095484E-02 -2.175509E-01 -1.303907E-01 -2.326845E-02  3.937810E-02 -7.183210E-02
      4116   7  5.225377E-02 -4.077221E-01 -1.603274E-01  1.528868E-02 -5.537724E-02 -3.248604E-01
      4116   8  6.565286E-02 -2.500308E-01 -2.733551E-01  4.887765E-02 -2.727605E-03 -1.260588E-01
      4117   1  1.779895E-01 -1.122099E-01 -1.272723E-01 -1.093555E-01  7.970092E-02  7.020573E-02
      4117   2  3.026731E-02 -3.830410E-01 -3.488483E-01 -1.039156E-01  6.748316E-02  1.800595E-01
      4117   3  9.851853E-02 -2.025606E-01 -3.489703E-01 -1.709099E-01  4.902082E-02  9.155789E-02
      4117   4 -5.616370E-02 -4.803518E-01 -5.867866E-01 -1.654701E-01  4.677775E-02  3.125125E-01
      4117   5  1.672555E-01 -5.580401E-02 -1.135707E-01 -4.378960E-02  4.277395E-02  4.532065E-03
      4117   6  1.861847E-01  6.221797E-02 -1.684954E-01 -2.837502E-02  3.055620E-02  1.097458E-01
      4117   7  1.226960E-01 -1.311927E-01 -3.203066E-01  5.756814E-03  7.453792E-03  2.588422E-02
      4117   8  1.346651E-01 -2.013075E-02 -3.914716E-01  2.117139E-02  5.210730E-03  2.421988E-01
      4118   1  9.602132E-02 -4.099518E-01 -3.493555E-01  7.060391E-02 -2.770015E-02  2.081433E-01
      4118   2  1.513082E-01 -3.292473E-01 -2.457702E-01  8.475765E-02 -5.512196E-02  1.750161E-01
      4118   3  4.509710E-02 -4.891835E-01 -5.625370E-01  8.331266E-02 -7.220653E-02  3.706241E-01
      4118   4  1.210270E-01 -3.878361E-01 -4.107847E-01  9.746639E-02 -1.043440E-01  3.084333E-01
      4118   5  2.437661E-01  1.175982E-01 -1.467671E-01  3.081435E-02 -3.550944E-03  1.411685E-01
      4118   6  2.554577E-01  9.658016E-02 -8.677713E-02  4.025247E-02 -3.097276E-02  1.218032E-01
      4118   7  1.763372E-01  3.129309E-02 -3.670220E-01  1.445954E-02 -3.429535E-02  3.036493E-01
      4118   8  2.086718E-01  3.091801E-02 -2.588650E-01  2.389766E-02 -6.643278E-02  2.552204E-01
      4119   1 -2.372761E-02 -2.876002E-01 -1.991474E-01  2.183410E-01 -1.184384E-01  1.170041E-01
      4119   2  1.839093E-01  6.310482E-02  1.422706E-01  2.020389E-01 -1.148133E-01 -8.360223E-03
      4119   3 -1.419700E-01 -3.732385E-01 -3.663658E-01  2.898750E-01 -1.655787E-01  2.001164E-01
      4119   4  9.593357E-02  7.733251E-03  4.567446E-02  2.735729E-01 -1.279479E-01 -3.362028E-02
      4119   5  1.136286E-01  8.730157E-03 -6.904142E-02  1.009588E-01 -5.154785E-02  7.621408E-02
      4119   6  1.587071E-01 -1.986771E-02  1.098182E-01  1.186624E-01 -4.792274E-02 -2.897251E-02
      4119   7  1.144062E-01 -2.589949E-02 -1.852512E-01  6.412061E-02 -7.851037E-02  1.593263E-01
      4119   8  1.897514E-01 -2.423068E-02  6.423064E-02  8.182425E-02 -4.087953E-02 -5.423257E-02
      4120   1 -1.493956E-02  1.161808E-01  2.189924E-01  9.787022E-02 -8.648681E-02 -9.246332E-02
      4120   2  1.086864E-01  2.852797E-01  4.619800E-01  7.932807E-02 -5.213049E-02 -1.968729E-01
      4120   3 -8.812371E-02  8.008094E-02  1.718438E-01  1.206067E-01 -7.358161E-02 -1.820025E-01
      4120   4  6.706687E-02  2.807445E-01  4.884821E-01  1.020645E-01 -4.718028E-03 -3.536537E-01
      4120   5 -2.900120E-02 -1.456719E-01  1.362181E-01  5.956381E-02 -2.680600E-02 -9.798772E-02
      4120   6 -6.237686E-03 -2.119187E-01  2.783433E-01  7.552891E-02  7.550332E-03 -1.813542E-01
      4120   7  1.859002E-02 -1.300109E-01  1.408303E-01  1.505867E-02  7.142297E-03 -1.875269E-01
      4120   8  7.291817E-02 -1.646930E-01  3.566063E-01  3.102377E-02  7.600588E-02 -3.381350E-01
      4121   1  4.227184E-03  5.664958E-03  1.961369E-02 -2.491864E-03  8.625770E-03 -1.268977E-02
      4121   2  1.264396E-02  7.220350E-03  4.611423E-02  2.030420E-03  8.178560E-03 -1.141118E-02
      4121   3  3.410886E-03 -4.195909E-03 -1.243957E-02 -5.922558E-03  5.890808E-03 -1.476024E-02
      4121   4  1.248636E-02 -1.981825E-03  1.559792E-02 -1.400274E-03  6.067732E-03 -1.398671E-02
      4121   5 -4.437533E-04 -2.252496E-03  1.583717E-02 -1.780762E-03  1.766765E-02 -2.378597E-02
      4121   6  7.215437E-03 -2.464814E-03  4.158012E-02  3.365656E-03  1.722044E-02 -2.206825E-02
      4121   7  9.244173E-04 -1.117716E-02 -1.527989E-02 -5.716516E-03  1.537182E-02 -2.585644E-02
      4121   8  9.242299E-03 -1.073079E-02  1.200001E-02 -5.700976E-04  1.554874E-02 -2.464378E-02
      4122   1  2.329210E-02  7.087014E-03  6.224245E-02 -6.319406E-03  2.418195E-02 -1.049442E-02
      4122   2  2.245288E-02 -4.052817E-03  7.058486E-02  1.242866E-03  2.297416E-02 -9.268368E-03
      4122   3  3.447012E-02  3.140486E-03  3.790934E-02 -1.146971E-02  2.065955E-02 -1.303316E-02
      4122   4  3.487280E-02 -6.757441E-03  4.914953E-02 -3.907436E-03  1.916707E-02 -1.120155E-02
      4122   5  1.525672E-02 -3.610272E-03  5.662265E-02 -3.376642E-03  2.877277E-02 -2.068771E-02
      4122   6  1.532583E-02 -1.263064E-02  6.587340E-02  3.900940E-03  2.756498E-02 -1.863372E-02
      4122   7  2.543832E-02 -7.983834E-03  3.186250E-02 -7.921384E-03  2.607831E-02 -2.322645E-02
      4122   8  2.674934E-02 -1.576230E-02  4.401103E-02 -6.438014E-04  2.458583E-02 -2.056690E-02
      4123   1  3.013596E-02 -4.277411E-03  7.957730E-02  2.796600E-03  2.841884E-02 -8.418624E-03
      4123   2  3.338303E-02 -1.715216E-03  8.783865E-02  1.176183E-02  2.638018E-02 -7.323135E-03
      4123   3  4.840951E-02 -3.934323E-03  6.244738E-02  2.454165E-03  2.367809E-02 -1.007357E-02
      4123   4  5.299175E-02 -3.695708E-05  7.382413E-02  1.141940E-02  2.110511E-02 -8.823472E-03
      4123   5  2.051827E-02 -1.312768E-02  7.403691E-02  5.658207E-03  3.092598E-02 -1.715513E-02
      4123   6  2.399724E-02 -1.002437E-02  8.253017E-02  1.408911E-02  2.888733E-02 -1.516953E-02
      4123   7  3.692167E-02 -1.358609E-02  5.610549E-02  5.470377E-03  2.707534E-02 -1.881007E-02
      4123   8  4.173581E-02 -9.147604E-03  6.771415E-02  1.390128E-02  2.450236E-02 -1.666986E-02
      4124   1  1.615532E-02 -3.877805E-03  8.670828E-02  1.099249E-02  2.433173E-02 -6.829571E-03
      4124   2  2.556745E-02  1.324863E-02  1.009556E-01  1.813894E-02  2.214025E-02 -6.576617E-03
      4124   3  3.032017E-02 -4.005856E-03  7.211659E-02  1.484964E-02  1.875221E-02 -8.482591E-03
      4124   4  4.091570E-02  1.430397E-02  8.912520E-02  2.199609E-02  1.638327E-02 -8.801382E-03
      4124   5  6.005594E-03 -1.295060E-02  8.094152E-02  1.226062E-02  2.674934E-02 -1.406139E-02
      4124   6  1.456011E-02  2.174723E-03  9.433125E-02  1.922961E-02  2.455785E-02 -1.301950E-02
      4124   7  1.954935E-02 -1.334484E-02  6.608365E-02  1.554602E-02  2.195875E-02 -1.571441E-02
      4124   8  2.928726E-02  2.963886E-03  8.223464E-02  2.251501E-02  1.958981E-02 -1.524427E-02
      4125   1  7.038315E-03  1.096371E-02  1.017382E-01  4.501444E-03  1.067277E-02 -5.826788E-03
      4125   2  1.349178E-02  1.608969E-02  1.181238E-01  7.386128E-03  8.358553E-03 -4.031171E-03
      4125   3  8.035129E-03  6.191156E-03  8.483286E-02  3.837698E-03  7.296312E-03 -8.483435E-03
      4125   4  1.484811E-02  1.167665E-02  1.020573E-01  6.722383E-03  5.325165E-03 -7.295997E-03
      4125   5 -5.046417E-03 -1.805881E-03  9.428189E-02  4.875494E-03  1.563883E-02 -1.189317E-02
      4125   6  4.947836E-04  1.191472E-03  1.097552E-01  8.103249E-03  1.332461E-02 -9.857880E-03
      4125   7 -2.848855E-03 -6.063829E-03  7.789117E-02  3.603570E-03  1.250205E-02 -1.454982E-02
      4125   8  3.051862E-03 -2.706960E-03  9.420335E-02  6.831325E-03  1.053090E-02 -1.312271E-02
      4126   1  1.729742E-02  2.311849E-02 -1.761402E-02 -1.666364E-02  5.804722E-03 -3.816818E-02
      4126   2  1.800791E-02  4.935364E-03  2.937395E-03 -1.357343E-02  6.612520E-03 -3.636424E-02
      4126   3  1.711950E-02  1.676015E-02 -3.863056E-02 -2.611045E-02  8.304489E-03 -4.672484E-02
      4126   4  1.897222E-02 -2.807436E-04 -1.541394E-02 -2.302024E-02  1.021173E-02 -4.350300E-02
      4126   5  7.289741E-03 -5.618091E-03 -2.923730E-02 -1.158504E-02  1.572519E-02 -4.549729E-02
      4126   6  1.012707E-02 -1.883859E-02 -6.559045E-03 -7.395386E-03  1.653298E-02 -4.293185E-02
      4126   7  1.095989E-02 -1.032726E-02 -4.860467E-02 -1.961396E-02  1.898644E-02 -5.405394E-02
      4126   8  1.493944E-02 -2.240553E-02 -2.326121E-02 -1.542430E-02  2.089369E-02 -5.007061E-02
      4127   1  4.856339E-02 -3.246830E-03  2.474482E-02 -2.492928E-02  2.106132E-02 -3.334078E-02
      4127   2  3.398938E-02 -4.913615E-02  2.205410E-02 -1.151905E-02  1.918566E-02 -2.688449E-02
      4127   3  8.639565E-02  7.764961E-03  2.361852E-02 -4.058694E-02  2.568136E-02 -3.868701E-02
      4127   4  7.272260E-02 -3.722341E-02  2.303003E-02 -2.717670E-02  2.304355E-02 -2.875131E-02
      4127   5  3.397928E-02 -2.477209E-02  1.391200E-02 -1.487280E-02  2.700296E-02 -3.940982E-02
      4127   6  2.462437E-02 -5.848351E-02  1.644039E-02 -2.224713E-03  2.512731E-02 -3.235289E-02
      4127   7  6.914401E-02 -1.490353E-02  1.164248E-02 -2.705105E-02  3.222364E-02 -4.475605E-02
      4127   8  6.069006E-02 -4.771399E-02  1.627309E-02 -1.440297E-02  2.958584E-02 -3.421972E-02
      4128   1  5.143339E-02 -5.444837E-02  3.511952E-02  8.223363E-03  2.191991E-02 -2.364675E-02
      4128   2  5.806474E-02 -4.690113E-02  4.967679E-02  2.697421E-02  1.838083E-02 -2.125737E-02
      4128   3  1.095484E-01 -3.383509E-02  4.571547E-02  8.681305E-03  2.185725E-02 -2.404962E-02
      4128   4  1.171628E-01 -2.530473E-02  6.256669E-02  2.743216E-02  1.621306E-02 -2.114007E-02
      4128   5  3.844229E-02 -6.116706E-02  2.920658E-02  1.527235E-02  2.588287E-02 -2.865541E-02
      4128   6  4.585391E-02 -5.179921E-02  4.454412E-02  3.191809E-02  2.234379E-02 -2.561062E-02
      4128   7  8.918939E-02 -4.371144E-02  3.664487E-02  1.625047E-02  2.647562E-02 -2.905828E-02
      4128   8  9.758413E-02 -3.336047E-02  5.427636E-02  3.289621E-02  2.083143E-02 -2.549332E-02
      4129   1  3.089400E-02 -3.922238E-02  5.114797E-02  4.257891E-02  1.466642E-02 -2.139973E-02
      4129   2  6.005367E-02  2.136179E-02  8.776272E-02  5.374704E-02  1.175457E-02 -2.417805E-02
      4129   3  6.416080E-02 -2.829186E-02  5.431625E-02  5.829115E-02  9.083331E-03 -2.211166E-02
      4129   4  9.427216E-02  3.324400E-02  9.315160E-02  6.945929E-02  4.865690E-03 -2.767563E-02
      4129   5  1.963465E-02 -4.608188E-02  4.571232E-02  4.327345E-02  1.839395E-02 -2.528086E-02
      4129   6  4.461583E-02  4.752487E-03  7.814858E-02  5.313580E-02  1.548210E-02 -2.742472E-02
      4129   7  4.833117E-02 -3.711005E-02  4.692190E-02  5.620004E-02  1.344532E-02 -2.599278E-02
      4129   8  7.426404E-02  1.467601E-02  8.157876E-02  6.606239E-02  9.227682E-03 -3.092230E-02
      4130   1  1.702977E-02  2.846031E-02  8.566249E-02  3.052309E-02  4.488756E-03 -2.534754E-02
      4130   2  3.407298E-02  5.744668E-02  1.134868E-01  2.980829E-02  2.776257E-03 -2.576432E-02
      4130   3  1.015196E-02  2.301210E-02  7.437960E-02  3.649467E-02  1.948286E-04 -3.063565E-02
      4130   4  2.759309E-02  5.239639E-02  1.031324E-01  3.577987E-02 -1.154100E-03 -3.315860E-02
      4130   5  3.103857E-03  7.383170E-03  7.516157E-02  2.898867E-02  9.879317E-03 -2.826488E-02
      4130   6  1.698782E-02  2.899795E-02  9.982665E-02  2.863744E-02  8.166819E-03 -2.841638E-02
      4130   7 -2.501460E-03  2.480315E-03  6.442403E-02  3.285408E-02  5.850667E-03 -3.355299E-02
      4130   8  1.178041E-02  2.449301E-02  9.001758E-02  3.250285E-02  4.501738E-03 -3.581066E-02
      4131   1  5.929441E-02  1.188820E-01 -7.313219E-03 -4.923739E-02  1.349104E-02 -7.545024E-02
      4131   2  2.550543E-02  1.799520E-02 -1.905632E-02 -5.007561E-02  1.713400E-02 -6.145149E-02
      4131   3  4.848470E-02  1.097488E-01 -2.694770E-02 -8.278631E-02  2.516119E-02 -1.055447E-01
      4131   4  1.495088E-02  9.117108E-03 -3.809542E-02 -8.362454E-02  3.244675E-02 -8.062703E-02
      4131   5  2.690304E-02  1.901577E-02 -4.699051E-02 -3.531624E-02  2.451398E-02 -8.070086E-02
      4131   6  9.492484E-03 -4.365473E-02 -4.235518E-02 -3.251186E-02  2.815694E-02 -6.653199E-02
      4131   7  2.884247E-02  1.534643E-02 -6.116108E-02 -5.794622E-02  3.635423E-02 -1.107953E-01
      4131   8  1.168707E-02 -4.706891E-02 -5.593037E-02 -5.514183E-02  4.363980E-02 -8.570753E-02
      4132   1  1.077360E-01 -1.879568E-02  1.163732E-02 -7.113611E-02  3.367129E-02 -4.796264E-02
      4132   2  5.703145E-02 -1.509169E-01 -2.525651E-02 -4.997239E-02  2.976297E-02 -2.510916E-02
      4132   3  1.744965E-01  5.637375E-03  2.632033E-02 -1.118445E-01  5.088015E-02 -5.841565E-02
      4132   4  1.243789E-01 -1.258970E-01 -9.204054E-03 -9.068075E-02  4.426287E-02 -2.265075E-02
      4132   5  7.837734E-02 -6.124371E-02 -9.904674E-03 -4.593027E-02  4.057664E-02 -5.283766E-02
      4132   6  4.703995E-02 -1.481750E-01 -2.743137E-02 -2.747550E-02  3.666832E-02 -2.959291E-02
      4132   7  1.356565E-01 -4.087410E-02  7.148826E-04 -7.372720E-02  5.817677E-02 -6.329067E-02
      4132   8  1.049060E-01 -1.272185E-01 -1.544236E-02 -5.527244E-02  5.155949E-02 -2.713450E-02
      4133   1  1.001355E-01 -1.682259E-01 -5.886824E-03  1.467094E-02  2.180194E-02 -1.624754E-02
      4133   2  1.123497E-01 -1.503591E-01  1.696046E-02  4.466102E-02  1.364072E-02 -1.489063E-02
      4133   3  1.992774E-01 -1.290642E-01  2.551033E-02  1.749722E-02  2.171352E-02 -8.745373E-03
      4133   4  2.133696E-01 -1.093194E-01  5.273962E-02  4.748730E-02  8.780752E-03 -6.520090E-03
      4133   5  8.282450E-02 -1.542101E-01 -6.875405E-03  2.478347E-02  2.711848E-02 -2.012981E-02
      4133   6  9.634127E-02 -1.333041E-01  1.727444E-02  5.000200E-02  1.895726E-02 -1.752090E-02
      4133   7  1.652660E-01 -1.222058E-01  1.736443E-02  2.847812E-02  2.828206E-02 -1.262765E-02
      4133   8  1.806607E-01 -9.942170E-02  4.589628E-02  5.369665E-02  1.534929E-02 -9.150363E-03
      4134   1  4.882519E-02 -1.263337E-01  1.515397E-02  1.016844E-01  6.094980E-04 -2.189470E-02
      4134   2  1.212015E-01  3.207080E-02  9.800390E-02  1.176535E-01 -5.037348E-03 -4.238709E-02
      4134   3  1.024231E-01 -1.046741E-01  3.375468E-02  1.446985E-01 -1.695836E-02 -1.721094E-02
      4134   4  1.774327E-01  5.636371E-02  1.227491E-01  1.606676E-01 -2.520407E-02 -4.864417E-02
      4134   5  3.608686E-02 -1.184108E-01  1.370933E-02  9.248842E-02  5.846296E-03 -2.342413E-02
      4134   6  9.205194E-02  1.700739E-03  8.014801E-02  1.058587E-01  1.994507E-04 -4.216096E-02
      4134   7  8.058870E-02 -1.006496E-01  2.841175E-02  1.245617E-01 -9.966003E-03 -1.874037E-02
      4134   8  1.391871E-01  2.209535E-02  1.009949E-01  1.379320E-01 -1.821172E-02 -4.841804E-02
      4135   1  2.176523E-02  7.145287E-02  9.096669E-02  7.631142E-02 -7.051153E-03 -5.542385E-02
      4135   2  7.911378E-02  1.926664E-01  1.609150E-01  6.873015E-02 -7.336903E-03 -7.054855E-02
      4135   3 -2.645746E-03  6.220443E-02  8.454951E-02  1.082439E-01 -2.255362E-02 -6.935781E-02
      4135   4  5.694416E-02  1.856593E-01  1.597276E-01  1.006626E-01 -2.029828E-02 -9.451529E-02
      4135   5 -1.358328E-04  2.225539E-02  6.963712E-02  6.517772E-02 -7.512862E-04 -5.400821E-02
      4135   6  4.216355E-02  1.083542E-01  1.245362E-01  6.013754E-02 -1.037036E-03 -6.763867E-02
      4135   7 -1.565301E-02  1.681857E-02  6.703157E-02  8.707744E-02 -1.475951E-02 -6.794217E-02
      4135   8  2.888774E-02  1.051588E-01  1.271605E-01  8.203726E-02 -1.250417E-02 -9.160541E-02
      4136   1  1.451545E-01  3.823817E-01  6.882949E-02 -1.018185E-01  3.775744E-02 -1.633520E-01
      4136   2  2.124915E-02  6.876539E-02 -3.057205E-02 -1.155371E-01  4.872810E-02 -9.541825E-02
      4136   3  8.135113E-02  3.460155E-01  1.141218E-02 -1.966740E-01  6.050091E-02 -2.443526E-01
      4136   4 -3.847010E-02  3.648331E-02 -7.845970E-02 -2.103926E-01  7.789681E-02 -1.365471E-01
      4136   5  6.205091E-02  1.153356E-01 -3.621544E-02 -7.173975E-02  5.000935E-02 -1.738776E-01
      4136   6 -2.046744E-03 -5.872943E-02 -7.580926E-02 -7.903310E-02  6.098001E-02 -1.032210E-01
      4136   7  2.073586E-02  8.860723E-02 -8.399489E-02 -1.267234E-01  7.547558E-02 -2.548782E-01
      4136   8 -3.927765E-02 -8.137364E-02 -1.140591E-01 -1.340168E-01  9.287148E-02 -1.443498E-01
      4137   1  1.912119E-01 -5.378883E-02  4.457154E-03 -1.521266E-01  6.548259E-02 -4.538479E-02
      4137   2  5.781300E-02 -3.842758E-01 -1.097188E-01 -1.301006E-01  5.802504E-02  2.337540E-02
      4137   3  2.613511E-01 -2.770164E-02  2.127527E-02 -2.506707E-01  8.816832E-02 -5.753504E-02
      4137   4  1.368518E-01 -3.492890E-01 -7.213492E-02 -2.286447E-01  8.112408E-02  5.052424E-02
      4137   5  1.468851E-01 -1.075010E-01 -2.495454E-02 -1.033070E-01  7.509407E-02 -5.001933E-02
      4137   6  7.243484E-02 -3.004412E-01 -8.018181E-02 -8.086772E-02  6.763652E-02  2.467392E-02
      4137   7  2.184709E-01 -8.079384E-02 -7.516449E-03 -1.625520E-01  1.037129E-01 -6.216957E-02
      4137   8  1.529202E-01 -2.648345E-01 -4.197801E-02 -1.401127E-01  9.666863E-02  5.182276E-02
      4138   1  1.359066E-01 -4.357047E-01 -8.543040E-02  3.672818E-02  1.688253E-02  4.599034E-02
      4138   2  1.655067E-01 -3.816472E-01 -4.082084E-02  7.178570E-02  4.285950E-04  3.901531E-02
      4138   3  2.645301E-01 -3.771963E-01 -1.902576E-02  4.895685E-02  3.772448E-03  8.685605E-02
      4138   4  2.960888E-01 -3.211802E-01  3.015387E-02  8.401436E-02 -1.752995E-02  7.805711E-02
      4138   5  1.396164E-01 -3.173556E-01 -4.881274E-02  4.318824E-02  2.438726E-02  4.993844E-02
      4138   6  1.664806E-01 -2.696818E-01 -6.939036E-03  7.339728E-02  7.933328E-03  4.426914E-02
      4138   7  2.512702E-01 -2.661199E-01  1.031920E-02  5.359300E-02  1.258291E-02  9.080415E-02
      4138   8  2.800931E-01 -2.164875E-01  5.676297E-02  8.380204E-02 -8.719486E-03  8.331095E-02
      4139   1  3.646844E-02 -3.122916E-01 -4.493002E-02  2.146253E-01 -3.829344E-02  1.104056E-02
      4139   2  2.008893E-01  5.737396E-02  1.334739E-01  2.196047E-01 -4.644614E-02 -5.841282E-02
      4139   3  6.152899E-02 -2.971899E-01 -1.965156E-02  3.172477E-01 -7.901412E-02  3.627141E-02
      4139   4  2.233132E-01  6.983899E-02  1.526002E-01  3.222271E-01 -8.431383E-02 -6.909029E-02
      4139   5  4.578027E-02 -2.362127E-01 -1.931280E-02  1.750599E-01 -3.130190E-02  1.612894E-02
      4139   6  1.563387E-01  7.773773E-03  1.052287E-01  1.828923E-01 -3.945460E-02 -5.508222E-02
      4139   7  8.082628E-02 -2.168315E-01  1.024514E-02  2.417739E-01 -7.378036E-02  4.135979E-02
      4139   8  1.887480E-01  2.451829E-02  1.286344E-01  2.496064E-01 -7.908006E-02 -6.575969E-02
      4140   1  1.235251E-02  1.816003E-01  1.292580E-01  1.463810E-01 -4.018566E-02 -1.078385E-01
      4140   2  1.586436E-01  5.052434E-01  2.932519E-01  1.179905E-01 -3.391195E-02 -1.734185E-01
      4140   3 -8.221765E-02  1.438110E-01  9.786381E-02  2.350570E-01 -7.285482E-02 -1.439180E-01
      4140   4  6.616495E-02  4.695456E-01  2.667379E-01  2.066665E-01 -5.814382E-02 -2.429895E-01
      4140   5 -1.980883E-02  6.473249E-02  8.454923E-02  1.166084E-01 -3.133426E-02 -1.046409E-01
      4140   6  7.624515E-02  2.711556E-01  1.983060E-01  9.665528E-02 -2.506055E-02 -1.688266E-01
      4140   7 -8.484846E-02  3.959913E-02  6.581100E-02  1.717930E-01 -6.260909E-02 -1.407204E-01
      4140   8  1.329700E-02  2.481138E-01  1.844479E-01  1.518399E-01 -4.789810E-02 -2.383976E-01
      4141   1  2.124616E-01  7.867245E-01  1.851572E-01 -1.388814E-01  6.224793E-02 -2.815580E-01
      4141   2 -4.371150E-02  1.723038E-01 -5.433239E-02 -1.810919E-01  9.364312E-02 -8.828497E-02
      4141   3  8.397978E-02  7.426635E-01  1.667690E-01 -3.180052E-01  4.427740E-02 -4.255382E-01
      4141   4 -2.034596E-01  9.697645E-02 -1.456753E-01 -3.602157E-01  1.074941E-01 -1.437074E-01
      4141   5  1.063744E-01  3.298865E-01  1.627962E-02 -1.010952E-01  7.058968E-02 -2.687215E-01
      4141   6 -1.696190E-02  2.541823E-02 -9.037318E-02 -1.114841E-01  1.019849E-01 -9.629278E-02
      4141   7  8.926797E-02  3.335578E-01  4.562379E-02 -1.916612E-01  3.177493E-02 -4.127018E-01
      4141   8 -6.533469E-02 -2.176801E-03 -1.339838E-01 -2.020501E-01  9.499165E-02 -1.517152E-01
      4142   1  2.300548E-01 -1.233658E-01 -4.070730E-02 -2.588718E-01  9.104308E-02  4.095569E-02
      4142   2 -8.386325E-02 -8.816014E-01 -3.288653E-01 -2.640875E-01  8.602701E-02  2.007747E-01
      4142   3  1.810896E-01 -1.618996E-01 -1.201881E-01 -4.810306E-01  7.621136E-02  5.008517E-02
      4142   4 -1.526474E-01 -9.399541E-01 -4.545902E-01 -4.862463E-01  7.632302E-02  2.977053E-01
      4142   5  2.261928E-01 -9.893673E-02 -3.453719E-02 -1.669866E-01  1.039231E-01  2.048221E-02
      4142   6  4.397638E-02 -5.498684E-01 -1.909935E-01 -1.670746E-01  9.890706E-02  1.670887E-01
      4142   7  1.951746E-01 -1.297789E-01 -1.063264E-01 -3.013442E-01  7.587879E-02  2.961169E-02
      4142   8 -6.860724E-03 -6.005295E-01 -3.090268E-01 -3.014322E-01  7.599045E-02  2.640192E-01
      4143   1  2.317456E-02 -1.004095E+00 -3.086415E-01  1.321818E-01 -2.624831E-02  2.435534E-01
      4143   2  1.230288E-01 -7.975880E-01 -1.823009E-01  1.324295E-01 -4.513678E-02  2.006079E-01
      4143   3 -2.780955E-02 -1.055575E+00 -4.292561E-01  1.855081E-01 -9.515646E-02  3.645884E-01
      4143   4  8.825154E-02 -8.328608E-01 -2.650996E-01  1.857559E-01 -1.026015E-01  2.996963E-01
      4143   5  1.386174E-01 -6.088051E-01 -1.554216E-01  9.776523E-02 -1.300517E-02  2.089859E-01
      4143   6  2.055518E-01 -4.791112E-01 -6.200101E-02  1.094564E-01 -3.189364E-02  1.768449E-01
      4143   7  1.276853E-01 -6.431196E-01 -2.588711E-01  1.291450E-01 -7.110875E-02  3.300209E-01
      4143   8  2.108265E-01 -4.972189E-01 -1.276345E-01  1.408362E-01 -7.855380E-02  2.759334E-01
      4144   1 -1.427745E-01 -6.168013E-01 -1.823295E-01  4.206020E-01 -1.204340E-01  1.187218E-01
      4144   2  2.081797E-01  1.750375E-01  1.956790E-01  3.529780E-01 -1.142729E-01 -6.204941E-02
      4144   3 -3.957656E-01 -7.345444E-01 -3.218154E-01  6.410443E-01 -1.928744E-01  1.805062E-01
      4144   4 -8.187755E-03  9.391810E-02  1.416484E-01  5.734202E-01 -1.582549E-01 -8.023522E-02
      4144   5 -2.853429E-02 -3.913145E-01 -8.041143E-02  3.039891E-01 -1.069068E-01  1.078505E-01
      4144   6  2.024647E-01  1.206288E-01  1.776419E-01  2.648235E-01 -1.007457E-01 -4.850502E-02
      4144   7 -1.819208E-01 -4.663700E-01 -1.772097E-01  4.444612E-01 -1.549315E-01  1.696348E-01
      4144   8  8.570183E-02  8.219702E-02  1.662989E-01  4.052957E-01 -1.203120E-01 -6.669084E-02
      4145   1 -4.559125E-02  4.435917E-01  2.279191E-01  1.868786E-01 -8.772122E-02 -1.839907E-01
      4145   2  1.753230E-01  9.276781E-01  4.802135E-01  1.182556E-01 -5.988718E-02 -3.363691E-01
      4145   3 -2.446489E-01  3.817800E-01  2.209378E-01  3.184647E-01 -9.566781E-02 -2.540189E-01
      4145   4 -3.514705E-03  8.860864E-01  5.204122E-01  2.498417E-01 -4.041824E-02 -4.680635E-01
      4145   5 -5.321451E-02  2.402438E-01  1.646277E-01  1.319841E-01 -7.203111E-02 -1.565755E-01
      4145   6  7.520062E-02  5.084989E-01  3.244231E-01  9.077665E-02 -4.419707E-02 -2.954739E-01
      4145   7 -1.563178E-01  2.195554E-01  1.987697E-01  2.019041E-01 -6.649771E-02 -2.266037E-01
      4145   8 -7.682714E-03  5.080305E-01  4.057451E-01  1.606966E-01 -1.124814E-02 -4.271683E-01
      4146   1  3.650573E-03  1.038851E-02  8.303122E-03 -4.292372E-03  1.398304E-02 -1.557128E-02
      4146   2  8.567792E-03  1.122676E-02  2.385560E-02 -6.904454E-04  1.370883E-02 -1.544367E-02
      4146   3  3.217002E-03  2.751085E-03 -1.672139E-02 -6.331856E-03  1.031046E-02 -1.735054E-02
      4146   4  9.333074E-03  4.788190E-03  1.628414E-03 -2.729929E-03  1.054277E-02 -1.810603E-02
      4146   5  2.196281E-05  3.749812E-03  5.222930E-03 -3.164848E-03  1.930067E-02 -2.426483E-02
      4146   6  3.614522E-03  1.497192E-03  1.945075E-02  9.435908E-04  1.902646E-02 -2.333798E-02
      4146   7  1.361185E-03 -3.127844E-03 -1.904181E-02 -6.087438E-03  1.642733E-02 -2.604408E-02
      4146   8  6.152598E-03 -4.181610E-03 -2.016669E-03 -1.978999E-03  1.665963E-02 -2.600034E-02
      4147   1  2.380298E-02  1.187934E-02  3.719388E-02 -1.349545E-02  3.351020E-02 -1.499557E-02
      4147   2  1.991420E-02 -4.573828E-03  4.068444E-02 -5.177163E-03  3.197899E-02 -1.389895E-02
      4147   3  4.202261E-02  1.346239E-02  2.425107E-02 -1.977765E-02  2.850395E-02 -1.773727E-02
      4147   4  3.952243E-02 -1.602186E-03  3.098170E-02 -1.145936E-02  2.649558E-02 -1.597431E-02
      4147   5  1.433121E-02 -1.341759E-05  3.078452E-02 -9.030734E-03  3.719987E-02 -2.225850E-02
      4147   6  1.144194E-02 -1.413439E-02  3.527460E-02 -1.189605E-03  3.566866E-02 -2.023615E-02
      4147   7  3.088077E-02  8.538870E-04  1.712597E-02 -1.464659E-02  3.311935E-02 -2.500020E-02
      4147   8  2.938010E-02 -1.187849E-02  2.485611E-02 -6.805456E-03  3.111098E-02 -2.231150E-02
      4148   1  3.445939E-02 -3.927358E-03  5.078857E-02 -4.605407E-03  3.980803E-02 -1.277782E-02
      4148   2  3.645407E-02 -3.550395E-03  5.706057E-02  5.513081E-03  3.673485E-02 -1.081144E-02
      4148   3  6.121167E-02  2.587954E-03  4.575398E-02 -5.414271E-03  3.366752E-02 -1.449946E-02
      4148   4  6.412190E-02  3.880457E-03  5.416225E-02  4.704218E-03  2.989327E-02 -1.223306E-02
      4148   5  2.112079E-02 -1.456287E-02  4.359633E-02  4.647295E-05  4.194668E-02 -1.855276E-02
      4148   6  2.356552E-02 -1.313583E-02  5.031837E-02  9.463890E-03  3.887350E-02 -1.597603E-02
      4148   7  4.541933E-02 -9.099167E-03  3.751014E-02 -4.623675E-04  3.641654E-02 -2.027440E-02
      4148   8  4.877960E-02 -6.756582E-03  4.636844E-02  8.955050E-03  3.264229E-02 -1.739765E-02
      4149   1  2.061862E-02 -5.046871E-03  5.541099E-02  7.183246E-03  3.464107E-02 -9.552120E-03
      4149   2  3.012854E-02  1.395967E-02  6.810420E-02  1.470733E-02  3.122925E-02 -8.077966E-03
      4149   3  3.960444E-02 -1.109219E-03  4.955067E-02  1.193156E-02  2.812852E-02 -1.104663E-02
      4149   4  4.928728E-02  1.807024E-02  6.264735E-02  1.945564E-02  2.448780E-02 -1.007165E-02
      4149   5  6.435481E-03 -1.539539E-02  4.805149E-02  9.632017E-03  3.623271E-02 -1.445111E-02
      4149   6  1.519665E-02  1.864040E-03  5.999594E-02  1.692720E-02  3.282089E-02 -1.286168E-02
      4149   7  2.462016E-02 -1.180109E-02  4.184782E-02  1.388115E-02  2.983544E-02 -1.594562E-02
      4149   8  3.355423E-02  5.631254E-03  5.419574E-02  2.117634E-02  2.619472E-02 -1.485536E-02
      4150   1  9.744865E-03  1.195113E-02  6.496284E-02  3.116091E-03  1.728595E-02 -6.399411E-03
      4150   2  1.382995E-02  1.715040E-02  7.338052E-02  5.587083E-03  1.412108E-02 -3.287665E-03
      4150   3  1.117714E-02  8.441428E-03  5.183154E-02  3.673184E-03  1.347488E-02 -8.843284E-03
      4150   4  1.497832E-02  1.335679E-02  5.958677E-02  6.144176E-03  1.052092E-02 -6.462292E-03
      4150   5 -4.997993E-03 -1.349729E-03  5.654972E-02  4.030013E-03  1.945224E-02 -1.121021E-02
      4150   6 -2.009041E-03  1.291900E-03  6.387127E-02  6.711923E-03  1.628737E-02 -8.287733E-03
      4150   7 -2.827501E-03 -4.543057E-03  4.373480E-02  3.856351E-03  1.545190E-02 -1.365408E-02
      4150   8 -1.224572E-04 -2.185336E-03  5.039389E-02  6.538261E-03  1.249795E-02 -1.146236E-02
      4151   1  2.884006E-02  6.713373E-02 -9.581976E-03 -2.721989E-02  9.162126E-03 -3.723126E-02
      4151   2  2.287810E-02  3.850573E-02 -8.271772E-04 -2.644377E-02  1.009205E-02 -3.981519E-02
      4151   3  1.329018E-02  5.003161E-02 -5.103918E-02 -3.855291E-02  9.697387E-03 -4.567793E-02
      4151   4  1.121719E-02  2.529257E-02 -3.321012E-02 -3.777679E-02  1.202675E-02 -4.726098E-02
      4151   5  1.942480E-02  3.896527E-02 -2.085709E-02 -2.085298E-02  1.652051E-02 -4.940880E-02
      4151   6  1.496416E-02  1.384035E-02 -1.060097E-02 -1.867743E-02  1.745043E-02 -4.940008E-02
      4151   7  8.772938E-03  2.396230E-02 -6.021514E-02 -3.118512E-02  1.964841E-02 -5.785547E-02
      4151   8  8.201268E-03  2.726347E-03 -4.088476E-02 -2.900957E-02  2.197778E-02 -5.684587E-02
      4152   1  6.727224E-02  2.687838E-02  2.151470E-02 -4.756504E-02  2.795975E-02 -3.903828E-02
      4152   2  4.307187E-02 -4.116699E-02  8.892178E-03 -3.271792E-02  2.546646E-02 -3.433181E-02
      4152   3  1.075353E-01  3.744721E-02  1.648104E-02 -6.948755E-02  3.147922E-02 -4.478031E-02
      4152   4  8.675550E-02 -2.717760E-02  1.183985E-02 -5.464042E-02  2.813827E-02 -3.641996E-02
      4152   5  4.993269E-02  3.041348E-03  9.161727E-03 -3.368914E-02  3.374867E-02 -4.683952E-02
      4152   6  3.121314E-02 -5.221543E-02  2.020028E-03 -1.968968E-02  3.125538E-02 -3.985267E-02
      4152   7  8.722896E-02  1.233869E-02  2.856587E-03 -5.195776E-02  3.954852E-02 -5.258155E-02
      4152   8  7.192999E-02 -3.949752E-02  3.696219E-03 -3.795830E-02  3.620758E-02 -4.194082E-02
      4153   1  6.928550E-02 -5.111060E-02  2.232641E-02 -1.003333E-02  3.174755E-02 -3.125853E-02
      4153   2  7.254668E-02 -4.989863E-02  3.198501E-02  1.264505E-02  2.687077E-02 -2.756863E-02
      4153   3  1.419700E-01 -2.378287E-02  4.073435E-02 -1.105793E-02  3.264261E-02 -3.166303E-02
      4153   4  1.461585E-01 -2.164356E-02  5.255674E-02  1.162045E-02  2.545474E-02 -2.702722E-02
      4153   5  5.161002E-02 -5.984154E-02  1.440449E-02  1.442725E-03  3.494626E-02 -3.571842E-02
      4153   6  5.629006E-02 -5.531886E-02  2.548195E-02  2.181002E-02  3.006949E-02 -3.141030E-02
      4153   7  1.162057E-01 -3.598044E-02  2.934579E-02  1.364041E-03  3.645955E-02 -3.612293E-02
      4153   8  1.218131E-01 -3.053043E-02  4.258705E-02  2.173133E-02  2.927168E-02 -3.086889E-02
      4154   1  4.177475E-02 -4.188224E-02  2.952152E-02  3.651419E-02  2.470822E-02 -2.611740E-02
      4154   2  7.374156E-02  2.993486E-02  6.426044E-02  5.043771E-02  2.037348E-02 -2.584245E-02
      4154   3  8.453944E-02 -2.696461E-02  3.648228E-02  5.643933E-02  2.187631E-02 -2.608539E-02
      4154   4  1.150184E-01  4.336467E-02  6.774962E-02  7.036286E-02  1.587438E-02 -2.814809E-02
      4154   5  2.665117E-02 -4.827234E-02  2.306741E-02  4.076777E-02  2.609427E-02 -3.009583E-02
      4154   6  5.511152E-02  1.536301E-02  5.429987E-02  5.302409E-02  2.175953E-02 -3.081277E-02
      4154   7  6.358067E-02 -3.585550E-02  2.752738E-02  5.835527E-02  2.227049E-02 -3.006383E-02
      4154   8  9.055319E-02  2.629203E-02  5.528826E-02  7.061160E-02  1.626855E-02 -3.311840E-02
      4155   1  2.313617E-02  4.017236E-02  5.489654E-02  3.051016E-02  1.139900E-02 -2.502635E-02
      4155   2  3.999125E-02  7.650110E-02  7.475142E-02  2.963662E-02  8.529124E-03 -2.307168E-02
      4155   3  1.146696E-02  3.025023E-02  3.349198E-02  4.024698E-02  9.538667E-03 -2.898996E-02
      4155   4  2.665067E-02  6.490758E-02  4.944696E-02  3.937345E-02  6.687576E-03 -2.922729E-02
      4155   5  7.146196E-03  2.199493E-02  4.464632E-02  3.093077E-02  1.289890E-02 -3.076757E-02
      4155   6  2.071327E-02  5.065165E-02  6.121319E-02  3.007602E-02  1.002902E-02 -2.992716E-02
      4155   7 -4.457260E-03  1.210098E-02  2.326993E-02  3.847559E-02  9.924308E-03 -3.473117E-02
      4155   8  7.438433E-03  3.908632E-02  3.593691E-02  3.762084E-02  7.073217E-03 -3.608276E-02
      4156   1  9.105294E-02  2.669608E-01  7.041390E-03 -7.375746E-02  1.147723E-02 -6.473001E-02
      4156   2  3.522941E-02  1.099655E-01 -2.204180E-02 -7.951448E-02  1.527955E-02 -6.165198E-02
      4156   3  4.136874E-02  2.287906E-01 -7.050827E-02 -1.243433E-01  1.580458E-02 -9.446392E-02
      4156   4 -4.331835E-03  8.191832E-02 -7.597122E-02 -1.301003E-01  2.223168E-02 -8.183970E-02
      4156   5  5.976022E-02  1.685956E-01 -3.185598E-02 -5.953768E-02  2.484740E-02 -8.441976E-02
      4156   6  1.825596E-02  4.501197E-02 -4.661990E-02 -6.266993E-02  2.864972E-02 -7.459309E-02
      4156   7  1.926273E-02  1.343626E-01 -1.054685E-01 -1.005774E-01  3.592339E-02 -1.141537E-01
      4156   8 -1.211858E-02  2.090193E-02 -9.661217E-02 -1.037096E-01  4.235049E-02 -9.478082E-02
      4157   1  1.482858E-01  4.977411E-02  1.729060E-02 -1.179063E-01  3.614688E-02 -5.504390E-02
      4157   2  7.417644E-02 -1.457376E-01 -3.422903E-02 -9.407434E-02  3.204641E-02 -4.006835E-02
      4157   3  2.195777E-01  7.340202E-02  2.475844E-02 -1.786075E-01  4.537973E-02 -6.764674E-02
      4157   4  1.552664E-01 -1.123116E-01 -3.898947E-03 -1.547755E-01  4.005182E-02 -4.149506E-02
      4157   5  1.150299E-01 -4.865395E-04 -7.764371E-03 -9.042204E-02  4.744177E-02 -6.312394E-02
      4157   6  5.768470E-02 -1.568818E-01 -4.251981E-02 -6.781749E-02  4.334129E-02 -4.161632E-02
      4157   7  1.820258E-01  2.130023E-02 -2.137677E-03 -1.399471E-01  6.320668E-02 -7.572678E-02
      4157   8  1.344787E-01 -1.252969E-01 -1.403087E-02 -1.173425E-01  5.787877E-02 -4.304303E-02
      4158   1  1.366819E-01 -1.776957E-01 -1.010842E-02 -1.241453E-02  3.358427E-02 -3.354029E-02
      4158   2  1.430319E-01 -1.717214E-01  5.083787E-03  2.389692E-02  2.432465E-02 -3.068087E-02
      4158   3  2.656033E-01 -1.213973E-01  4.863168E-02 -1.260236E-02  3.526189E-02 -3.015380E-02
      4158   4  2.735019E-01 -1.138743E-01  6.743745E-02  2.370909E-02  2.265323E-02 -2.532058E-02
      4158   5  1.093530E-01 -1.797324E-01 -1.891811E-02  4.703767E-03  3.800540E-02 -3.231946E-02
      4158   6  1.186637E-01 -1.668498E-01 -7.652017E-04  3.766618E-02  2.874578E-02 -2.842759E-02
      4158   7  2.265527E-01 -1.284575E-01  3.479844E-02  6.489738E-03  4.071546E-02 -2.893296E-02
      4158   8  2.374120E-01 -1.140263E-01  5.656491E-02  3.945215E-02  2.810681E-02 -2.306730E-02
      4159   1  6.958384E-02 -1.424893E-01 -5.425393E-03  1.046624E-01  1.838955E-02 -3.386258E-02
      4159   2  1.533520E-01  5.602084E-02  7.529160E-02  1.246521E-01  1.095495E-02 -4.541458E-02
      4159   3  1.411597E-01 -1.108929E-01  2.831994E-02  1.620334E-01  1.169545E-02 -3.055371E-02
      4159   4  2.185484E-01  8.123773E-02  9.415152E-02  1.820231E-01  2.013927E-03 -4.968411E-02
      4159   5  4.852604E-02 -1.420602E-01 -1.161399E-02  1.049464E-01  1.686398E-02 -3.278809E-02
      4159   6  1.209266E-01  2.992559E-02  5.773540E-02  1.226892E-01  9.429376E-03 -4.859307E-02
      4159   7  1.122377E-01 -1.138342E-01  1.876096E-02  1.547390E-01  5.916901E-03 -2.947922E-02
      4159   8  1.782588E-01  5.177210E-02  7.322494E-02  1.724818E-01 -3.764623E-03 -5.286259E-02
      4160   1  3.228797E-02  1.124219E-01  5.313326E-02  8.614723E-02  6.835747E-03 -5.300674E-02
      4160   2  1.007922E-01  2.750130E-01  1.188894E-01  7.680409E-02  4.214405E-03 -6.219693E-02
      4160   3 -9.543526E-03  8.927665E-02  1.781407E-02  1.331907E-01  1.311562E-03 -6.311516E-02
      4160   4  5.342087E-02  2.463280E-01  7.064404E-02  1.238476E-01 -7.008769E-04 -8.067908E-02
      4160   5  7.950651E-03  7.311039E-02  3.403863E-02  8.193018E-02  5.461734E-03 -5.909374E-02
      4160   6  6.389425E-02  2.063935E-01  8.723420E-02  7.319594E-02  2.840392E-03 -7.197712E-02
      4160   7 -3.174968E-02  5.087854E-02 -3.672060E-04  1.205999E-01 -3.755656E-03 -6.920215E-02
      4160   8  1.865411E-02  1.786218E-01  3.990215E-02  1.118657E-01 -5.768095E-03 -9.045927E-02
      4161   1  2.136472E-01  7.562868E-01  9.108047E-02 -1.374390E-01  1.589905E-02 -1.327448E-01
      4161   2  3.315925E-02  2.785223E-01 -3.278156E-02 -1.678785E-01  2.713708E-02 -9.477822E-02
      4161   3  6.044506E-02  6.639637E-01 -6.346101E-02 -2.860772E-01  1.182980E-02 -2.086518E-01
      4161   4 -9.658561E-02  2.096565E-01 -1.325894E-01 -3.165167E-01  3.358676E-02 -1.419972E-01
      4161   5  1.391198E-01  5.074692E-01 -5.923021E-03 -1.194226E-01  4.421200E-02 -1.638540E-01
      4161   6  1.663950E-03  1.301131E-01 -8.675292E-02 -1.393432E-01  5.545003E-02 -1.102492E-01
      4161   7  2.273390E-02  4.309245E-01 -1.446861E-01 -2.393727E-01  5.578093E-02 -2.397610E-01
      4161   8 -9.126465E-02  7.702569E-02 -1.707824E-01 -2.592933E-01  7.753789E-02 -1.574682E-01
      4162   1  2.644240E-01  8.527343E-02  3.017749E-02 -2.307798E-01  4.931771E-02 -6.655426E-02
      4162   2  8.245009E-02 -3.910519E-01 -1.000770E-01 -2.129384E-01  4.462124E-02 -2.741157E-02
      4162   3  3.207113E-01  1.058778E-01  4.257147E-02 -3.779555E-01  5.084363E-02 -9.409613E-02
      4162   4  1.618581E-01 -3.473267E-01 -3.373462E-02 -3.601141E-01  4.909971E-02 -2.988279E-02
      4162   5  2.066736E-01 -1.816783E-02 -1.818003E-02 -1.862829E-01  7.517742E-02 -7.065946E-02
      4162   6  6.230561E-02 -4.067459E-01 -1.108286E-01 -1.654889E-01  7.048095E-02 -1.610293E-02
      4162   7  2.732948E-01  6.865381E-03 -1.357214E-03 -3.083879E-01  9.211718E-02 -9.820133E-02
      4162   8  1.520476E-01 -3.585919E-01 -4.005732E-02 -2.875939E-01  9.037327E-02 -1.857415E-02
      4163   1  1.960309E-01 -4.781681E-01 -6.166038E-02  6.438588E-03  3.302542E-02 -1.372989E-02
      4163   2  2.168588E-01 -4.419005E-01 -2.850154E-02  4.425658E-02  1.892678E-02 -1.549352E-02
      4163   3  3.543206E-01 -3.955143E-01  5.556230E-02  1.415840E-02  2.523767E-02 -5.637588E-03
      4163   4  3.765172E-01 -3.578781E-01  9.191478E-02  5.197639E-02  1.041736E-02 -3.611790E-03
      4163   5  1.588241E-01 -4.709929E-01 -7.066988E-02  2.688115E-02  3.919088E-02  3.554591E-03
      4163   6  1.853362E-01 -4.214624E-01 -3.182690E-02  6.397747E-02  2.509225E-02  2.703427E-03
      4163   7  3.145880E-01 -3.894217E-01  4.547030E-02  3.839038E-02  3.231560E-02  1.164690E-02
      4163   8  3.424687E-01 -3.385225E-01  8.750692E-02  7.548671E-02  1.749529E-02  1.458516E-02
      4164   1  6.347246E-02 -3.558643E-01 -5.323513E-02  2.453551E-01  3.996136E-03 -3.081243E-02
      4164   2  2.553405E-01  1.136757E-01  1.167849E-01  2.466655E-01 -5.804534E-03 -7.090082E-02
      4164   3  9.047236E-02 -3.314854E-01  1.028203E-03  3.841911E-01 -1.034468E-02 -2.372533E-02
      4164   4  2.676334E-01  1.233476E-01  1.367319E-01  3.855015E-01 -1.822394E-02 -8.070234E-02
      4164   5  3.980076E-02 -3.457605E-01 -5.730548E-02  2.334608E-01 -6.927868E-03 -1.587025E-02
      4164   6  2.063358E-01  6.466937E-02  8.738159E-02  2.366927E-01 -1.672854E-02 -6.576331E-02
      4164   7  7.352559E-02 -3.184994E-01 -1.600438E-04  3.554082E-01 -3.107335E-02 -8.783149E-03
      4164   8  2.253537E-01  7.722345E-02  1.102107E-01  3.586401E-01 -3.895262E-02 -7.556483E-02
      4165   1  2.258199E-02  2.903859E-01  8.005334E-02  1.734506E-01 -4.207710E-03 -1.020520E-01
      4165   2  2.052784E-01  7.366868E-01  2.427406E-01  1.335338E-01 -3.736284E-03 -1.470703E-01
      4165   3 -1.201822E-01  2.274554E-01  1.304920E-02  3.052528E-01 -1.376246E-02 -1.263061E-01
      4165   4  4.782030E-02  6.590623E-01  1.414505E-01  2.653360E-01 -7.113888E-03 -1.939210E-01
      4165   5 -1.214918E-02  2.062037E-01  4.437932E-02  1.616118E-01 -1.421232E-02 -1.040889E-01
      4165   6  1.366524E-01  5.734165E-01  1.731717E-01  1.278721E-01 -1.374089E-02 -1.589032E-01
      4165   7 -1.332933E-01  1.525389E-01 -1.335910E-02  2.708174E-01 -3.356305E-02 -1.283430E-01
      4165   8  8.142432E-04  5.050578E-01  8.114728E-02  2.370777E-01 -2.691448E-02 -2.057539E-01
      4166   1  3.387459E-01  1.612898E+00  2.585928E-01 -1.505045E-01 -8.859225E-03 -2.834866E-01
      4166   2 -1.820281E-02  6.618578E-01  1.980388E-02 -2.282916E-01  2.315974E-02 -1.500718E-01
      4166   3  4.046646E-02  1.470193E+00  8.118786E-02 -4.475502E-01 -6.131345E-02 -4.606532E-01
      4166   4 -2.779405E-01  5.576942E-01 -6.767033E-02 -5.253373E-01 -1.177712E-02 -2.646425E-01
      4166   5  1.850624E-01  1.040843E+00  4.087135E-02 -1.521206E-01  5.022070E-02 -3.008364E-01
      4166   6 -7.799252E-02  3.088887E-01 -1.040237E-01 -2.123903E-01  8.223967E-02 -1.417271E-01
      4166   7 -5.190621E-02  9.244142E-01 -1.102575E-01 -3.865705E-01  2.346096E-02 -4.780030E-01
      4166   8 -2.764194E-01  2.310012E-01 -1.652219E-01 -4.468402E-01  7.299729E-02 -2.562979E-01
      4167   1  3.241979E-01  1.787367E-01  8.525820E-02 -3.470009E-01  3.184618E-02 -6.361979E-02
      4167   2 -1.034886E-01 -9.273162E-01 -2.343104E-01 -3.976030E-01  4.284130E-02  3.915679E-02
      4167   3  1.844302E-01  1.401732E-01  9.648079E-02 -6.861841E-01 -2.158174E-02 -1.325334E-01
      4167   4 -2.139815E-01 -9.366050E-01 -1.547800E-01 -7.367862E-01  2.126452E-02  3.238481E-02
      4167   5  2.593103E-01 -4.596828E-02 -1.619552E-03 -3.071065E-01  8.590513E-02 -3.872673E-02
      4167   6 -7.516366E-02 -9.345255E-01 -2.279757E-01 -3.258574E-01  9.690025E-02  8.356636E-02
      4167   7  2.310217E-01 -3.675508E-02  5.737976E-02 -5.841481E-01  5.199372E-02 -1.076404E-01
      4167   8 -7.417754E-02 -8.960375E-01 -1.006685E-01 -6.028991E-01  9.483998E-02  7.679438E-02
      4168   1  4.672429E-02 -1.143697E+00 -1.947151E-01  1.207041E-01  4.202306E-03  6.745694E-02
      4168   2  1.373005E-01 -9.491642E-01 -8.732735E-02  7.441860E-02  4.640809E-04  4.199780E-02
      4168   3 -3.645462E-02 -1.134305E+00 -8.022896E-02  1.726824E-01 -4.547963E-02  8.594402E-02
      4168   4  5.819459E-02 -9.356990E-01  3.666259E-02  1.263969E-01 -1.821937E-02  6.735230E-02
      4168   5  6.137113E-02 -1.084600E+00 -1.725918E-01  1.383282E-01  1.260811E-02  1.200039E-01
      4168   6  1.622484E-01 -8.660308E-01 -5.490295E-02  1.230412E-01  8.869890E-03  9.726016E-02
      4168   7  8.668691E-02 -1.028710E+00 -1.160794E-02  1.971739E-01 -3.435846E-02  1.384910E-01
      4168   8  1.916372E-01 -8.060679E-01  1.155847E-01  1.818869E-01 -7.098201E-03  1.226147E-01
      4169   1 -1.599785E-01 -7.084103E-01 -1.250227E-01  4.777880E-01 -1.880628E-02 -8.472176E-03
      4169   2  2.546253E-01  3.193922E-01  2.291872E-01  3.718630E-01 -1.851064E-02 -1.208996E-01
      4169   3 -4.551507E-01 -7.917326E-01 -1.075915E-01  7.843874E-01 -2.758299E-02  4.153406E-03
      4169   4 -6.464157E-02  2.119754E-01  1.903977E-01  6.784624E-01 -6.874512E-03 -1.499175E-01
      4169   5 -1.400054E-01 -6.637773E-01 -1.056409E-01  4.671712E-01 -4.900320E-02  4.190459E-02
      4169   6  2.121332E-01  2.182732E-01  1.861039E-01  3.816591E-01 -4.870756E-02 -8.658587E-02
      4169   7 -3.637327E-01 -7.164803E-01 -5.759039E-02  7.321272E-01 -7.384295E-02  5.453017E-02
      4169   8 -3.568870E-02  1.414755E-01  1.779337E-01  6.466151E-01 -5.313447E-02 -1.156037E-01
      4170   1 -3.397277E-02  7.250059E-01  2.075073E-01  1.996806E-01 -1.934001E-03 -2.009994E-01
      4170   2  2.479585E-01  1.441789E+00  4.304952E-01  1.120388E-01  9.382809E-03 -3.074088E-01
      4170   3 -3.071958E-01  6.270664E-01  1.542653E-01  4.171064E-01  3.993669E-02 -2.622126E-01
      4170   4 -5.020333E-02  1.318910E+00  3.190628E-01  3.294646E-01  5.783023E-02 -4.149377E-01
      4170   5 -8.618364E-02  5.277351E-01  1.326628E-01  2.050178E-01 -3.140566E-02 -1.786507E-01
      4170   6  1.262741E-01  1.082413E+00  2.861772E-01  1.239528E-01 -2.008885E-02 -3.016859E-01
      4170   7 -3.363881E-01  4.396607E-01  8.928592E-02  3.761279E-01 -6.160807E-03 -2.398638E-01
      4170   8 -1.488692E-01  9.693999E-01  1.846099E-01  2.950629E-01  1.173273E-02 -4.092147E-01
      4171   1  2.618244E-03  1.248835E-02  2.653557E-03 -7.424273E-03  1.398906E-02 -9.929460E-03
      4171   2  3.888715E-03  1.371066E-02  5.666153E-03 -3.997833E-03  1.405336E-02 -1.209028E-02
      4171   3  5.068191E-03  8.085418E-03 -1.447283E-02 -7.448354E-03  1.037129E-02 -1.060834E-02
      4171   4  7.717633E-03  1.068670E-02 -8.242639E-03 -4.021914E-03  1.042834E-02 -1.400791E-02
      4171   5  1.824969E-03  1.020872E-02  1.731685E-03 -5.433682E-03  1.486013E-02 -1.629119E-02
      4171   6  1.237316E-03  7.095405E-03  2.886157E-03 -2.014496E-03  1.492443E-02 -1.753269E-02
      4171   7  4.249526E-03  5.794904E-03 -1.540559E-02 -6.696512E-03  1.216167E-02 -1.697007E-02
      4171   8  5.040844E-03  4.060561E-03 -1.103352E-02 -3.277326E-03  1.221871E-02 -1.945032E-02
      4172   1  2.560108E-02  1.599034E-02  1.569122E-02 -2.377605E-02  3.288338E-02 -1.270463E-02
      4172   2  1.737319E-02 -7.408045E-03  1.166334E-02 -1.406131E-02  3.131837E-02 -1.222226E-02
      4172   3  5.250312E-02  2.346291E-02  1.369774E-02 -3.136130E-02  2.689522E-02 -1.479187E-02
      4172   4  4.580340E-02  1.592691E-03  1.323558E-02 -2.164657E-02  2.443580E-02 -1.353414E-02
      4172   5  1.699268E-02  6.337483E-03  1.021285E-02 -1.744645E-02  3.498338E-02 -1.743766E-02
      4172   6  9.927838E-03 -1.434715E-02  7.348000E-03 -8.626127E-03  3.341837E-02 -1.593650E-02
      4172   7  4.076428E-02  1.246843E-02  6.877749E-03 -2.425634E-02  3.001399E-02 -1.952490E-02
      4172   8  3.522760E-02 -6.688035E-03  7.578625E-03 -1.543602E-02  2.755457E-02 -1.724839E-02
      4173   1  4.325776E-02 -4.785348E-03  2.349556E-02 -1.423988E-02  4.038104E-02 -1.126873E-02
      4173   2  4.295487E-02 -8.185354E-03  2.588594E-02 -2.824522E-03  3.634940E-02 -9.146036E-03
      4173   3  7.844800E-02  7.574188E-03  2.950377E-02 -1.578843E-02  3.355529E-02 -1.212804E-02
      4173   4  7.882410E-02  4.853163E-03  3.347844E-02 -4.373081E-03  2.876214E-02 -9.544239E-03
      4173   5  2.785807E-02 -1.384038E-02  1.615914E-02 -8.433423E-03  4.172767E-02 -1.444440E-02
      4173   6  2.824683E-02 -1.562652E-02  1.924118E-02  2.220411E-03  3.769604E-02 -1.186905E-02
      4173   7  6.038299E-02 -2.623124E-03  2.102507E-02 -9.520878E-03  3.535458E-02 -1.530370E-02
      4173   8  6.145074E-02 -3.730286E-03  2.569140E-02  1.132956E-03  3.056142E-02 -1.226725E-02
      4174   1  2.874731E-02 -9.446253E-03  2.378428E-02  2.589424E-03  3.377167E-02 -7.541803E-03
      4174   2  3.877642E-02  1.131263E-02  3.645576E-02  1.055432E-02  2.935413E-02 -5.281655E-03
      4174   3  5.253434E-02 -1.589012E-03  2.618805E-02  7.954310E-03  2.791122E-02 -7.887485E-03
      4174   4  6.186920E-02  1.847562E-02  3.723962E-02  1.591921E-02  2.323232E-02 -5.944950E-03
      4174   5  1.276741E-02 -1.728244E-02  1.663945E-02  5.296189E-03  3.509286E-02 -1.026854E-02
      4174   6  2.232011E-02  2.364797E-03  2.883452E-02  1.299972E-02  3.067532E-02 -8.471223E-03
      4174   7  3.563968E-02 -9.817243E-03  1.865118E-02  1.034346E-02  2.876957E-02 -1.061422E-02
      4174   8  4.449813E-02  9.135747E-03  2.922633E-02  1.804700E-02  2.409068E-02 -9.134519E-03
      4175   1  1.180187E-02  6.939336E-03  2.831393E-02  1.748671E-03  1.659849E-02 -3.074067E-03
      4175   2  1.347457E-02  1.083138E-02  2.999755E-02  4.163809E-03  1.334838E-02  6.970280E-04
      4175   3  1.494201E-02  5.249207E-03  1.954002E-02  2.858344E-03  1.347413E-02 -3.930010E-03
      4175   4  1.586512E-02  8.391661E-03  1.947460E-02  5.273482E-03  1.020839E-02 -3.676266E-04
      4175   5 -8.574392E-04 -9.316321E-04  2.215485E-02  2.504807E-03  1.660395E-02 -6.615957E-03
      4175   6  5.021939E-04  2.229925E-03  2.352540E-02  4.904318E-03  1.335384E-02 -3.344591E-03
      4175   7  2.228012E-03 -2.645202E-03  1.335750E-02  3.405769E-03  1.297986E-02 -7.471900E-03
      4175   8  2.838052E-03 -2.332377E-04  1.297901E-02  5.805279E-03  9.714121E-03 -4.409245E-03
      4176   1  3.801226E-02  9.394771E-02  9.520516E-04 -4.138194E-02  8.534807E-03 -1.540604E-02
      4176   2  2.829361E-02  6.416640E-02 -1.662143E-03 -4.212055E-02  8.857815E-03 -2.629765E-02
      4176   3  1.310400E-02  7.051666E-02 -5.224318E-02 -5.141327E-02  7.135207E-03 -1.902791E-02
      4176   4  9.226585E-03  4.657658E-02 -4.122783E-02 -5.215187E-02  8.192095E-03 -3.114062E-02
      4176   5  3.370998E-02  8.175565E-02 -3.996250E-03 -3.272060E-02  1.208704E-02 -3.028813E-02
      4176   6  2.215969E-02  4.770053E-02 -8.442079E-03 -3.272533E-02  1.241004E-02 -3.728559E-02
      4176   7  1.137030E-02  5.942542E-02 -5.609066E-02 -4.397302E-02  1.458159E-02 -3.391000E-02
      4176   8  5.661244E-03  3.121154E-02 -4.690695E-02 -4.397775E-02  1.563848E-02 -4.212855E-02
      4177   1  8.889979E-02  5.310976E-02  2.103316E-02 -7.765299E-02  2.526722E-02 -3.006138E-02
      4177   2  5.414385E-02 -3.733927E-02 -4.370968E-03 -6.078067E-02  2.202090E-02 -2.945244E-02
      4177   3  1.353854E-01  6.585072E-02  1.701744E-02 -1.054995E-01  2.680760E-02 -3.412231E-02
      4177   4  1.054825E-01 -1.974522E-02  2.937161E-03 -8.862721E-02  2.230586E-02 -3.015574E-02
      4177   5  7.144629E-02  3.402702E-02  1.007229E-02 -5.934512E-02  2.994313E-02 -3.843972E-02
      4177   6  4.172681E-02 -4.467026E-02 -1.029538E-02 -4.372822E-02  2.669681E-02 -3.459540E-02
      4177   7  1.135379E-01  4.488486E-02  4.173434E-03 -8.383402E-02  3.471890E-02 -4.250065E-02
      4177   8  8.867152E-02 -2.895934E-02 -4.870378E-03 -6.821712E-02  3.021716E-02 -3.529869E-02
      4178   1  9.148102E-02 -5.182387E-02  9.037600E-03 -3.526311E-02  3.188636E-02 -2.778083E-02
      4178   2  8.973961E-02 -6.030655E-02  1.171559E-02 -7.807393E-03  2.576104E-02 -2.382283E-02
      4178   3  1.820050E-01 -1.621129E-02  3.722220E-02 -3.863375E-02  3.415249E-02 -2.671929E-02
      4178   4  1.812666E-01 -2.369105E-02  4.224032E-02 -1.117803E-02  2.514917E-02 -2.129733E-02
      4178   5  7.163472E-02 -5.729646E-02  1.441936E-03 -1.986863E-02  3.409606E-02 -3.149483E-02
      4178   6  7.208926E-02 -6.065527E-02  6.315870E-03  4.709088E-03  2.797074E-02 -2.686822E-02
      4178   7  1.520858E-01 -2.600087E-02  2.530953E-02 -2.177531E-02  3.703079E-02 -3.043329E-02
      4178   8  1.535432E-01 -2.835677E-02  3.252360E-02  2.802414E-03  2.802748E-02 -2.434272E-02
      4179   1  5.481730E-02 -5.469984E-02  4.998732E-03  2.597055E-02  2.637263E-02 -2.084545E-02
      4179   2  8.836022E-02  2.361967E-02  3.848896E-02  4.382668E-02  2.070784E-02 -1.666907E-02
      4179   3  1.120399E-01 -3.318956E-02  1.947711E-02  4.835884E-02  2.802958E-02 -1.821483E-02
      4179   4  1.426515E-01  4.219863E-02  4.612759E-02  6.621498E-02  1.993264E-02 -1.521524E-02
      4179   5  3.893646E-02 -5.398987E-02  4.474745E-04  3.254929E-02  2.634628E-02 -2.436140E-02
      4179   6  7.071422E-02  2.021091E-02  3.217253E-02  4.797327E-02  2.068150E-02 -2.213924E-02
      4179   7  8.764650E-02 -3.612781E-02  1.127763E-02  5.376080E-02  2.604902E-02 -2.173078E-02
      4179   8  1.164929E-01  3.514165E-02  3.616294E-02  6.918479E-02  1.795208E-02 -2.068540E-02
      4180   1  2.593245E-02  3.136369E-02  2.056371E-02  2.801712E-02  1.302481E-02 -1.258686E-02
      4180   2  4.019484E-02  6.778458E-02  3.168412E-02  2.859566E-02  9.362423E-03 -5.610441E-03
      4180   3  1.733847E-02  2.161261E-02 -3.345900E-03  3.909637E-02  1.492161E-02 -1.170848E-02
      4180   4  2.793796E-02  5.437061E-02 -7.722469E-04  3.967491E-02  1.019119E-02 -5.127432E-03
      4180   5  1.443168E-02  2.894446E-02  1.638771E-02  2.972944E-02  1.145382E-02 -1.966613E-02
      4180   6  2.810101E-02  6.398154E-02  2.691505E-02  2.923996E-02  7.791433E-03 -1.513164E-02
      4180   7  2.099584E-03  1.759134E-02 -9.123949E-03  4.041332E-02  1.090869E-02 -1.878774E-02
      4180   8  1.210601E-02  4.896551E-02 -7.143360E-03  3.992383E-02  6.178271E-03 -1.464863E-02
      4181   1  1.110099E-01  3.525680E-01  1.969065E-02 -1.020054E-01  5.476027E-03 -7.874196E-03
      4181   2  4.369479E-02  1.696074E-01 -2.173256E-02 -1.099774E-01  7.137619E-03 -3.003732E-02
      4181   3  3.914712E-02  2.966493E-01 -9.484233E-02 -1.598281E-01  2.342661E-03 -2.125627E-02
      4181   4 -1.147152E-02  1.303852E-01 -9.730700E-02 -1.678001E-01  4.922454E-03 -4.067951E-02
      4181   5  9.675241E-02  3.082232E-01  2.109929E-03 -8.513664E-02  1.842200E-02 -3.718131E-02
      4181   6  3.354707E-02  1.348521E-01 -3.520346E-02 -9.219048E-02  2.008359E-02 -4.821343E-02
      4181   7  2.810329E-02  2.536818E-01 -1.110457E-01 -1.402195E-01  2.641964E-02 -5.056338E-02
      4181   8 -1.840554E-02  9.700719E-02 -1.094006E-01 -1.472733E-01  2.899944E-02 -5.885562E-02
      4182   1  1.911162E-01  1.009506E-01  2.594234E-02 -1.750781E-01  2.817382E-02 -3.808923E-02
      4182   2  9.586354E-02 -1.459472E-01 -4.466883E-02 -1.472673E-01  2.226683E-02 -3.792433E-02
      4182   3  2.721391E-01  1.263519E-01  2.959030E-02 -2.509007E-01  3.036601E-02 -4.477290E-02
      4182   4  1.901037E-01 -1.073287E-01 -1.018056E-02 -2.230899E-01  2.187521E-02 -3.653298E-02
      4182   5  1.604163E-01  6.869728E-02  7.056351E-03 -1.405898E-01  4.049458E-02 -4.896587E-02
      4182   6  7.727610E-02 -1.499380E-01 -5.144229E-02 -1.153629E-01  3.458759E-02 -3.998945E-02
      4182   7  2.323958E-01  9.022281E-02  6.828600E-03 -2.083374E-01  5.149829E-02 -5.564954E-02
      4182   8  1.624729E-01 -1.151952E-01 -2.082974E-02 -1.831104E-01  4.300749E-02 -3.859811E-02
      4183   1  1.822998E-01 -1.886367E-01 -1.650917E-02 -5.233757E-02  3.679817E-02 -3.651462E-02
      4183   2  1.797777E-01 -2.014785E-01 -1.207421E-02 -8.190693E-03  2.497040E-02 -3.282814E-02
      4183   3  3.390872E-01 -1.201430E-01  5.501570E-02 -5.749745E-02  4.176020E-02 -3.102894E-02
      4183   4  3.380219E-01 -1.315281E-01  6.284974E-02 -1.335057E-02  2.509387E-02 -2.423154E-02
      4183   5  1.491311E-01 -1.871785E-01 -2.602230E-02 -2.769871E-02  4.027668E-02 -3.499904E-02
      4183   6  1.512754E-01 -1.891321E-01 -1.692097E-02  1.160961E-02  2.844891E-02 -3.034139E-02
      4183   7  2.889836E-01 -1.259426E-01  3.824473E-02 -2.974767E-02  4.620988E-02 -2.951336E-02
      4183   8  2.925847E-01 -1.264395E-01  5.074514E-02  9.560646E-03  2.954355E-02 -2.174479E-02
      4184   1  9.633996E-02 -1.755882E-01 -3.072175E-02  9.551092E-02  3.064857E-02 -3.060049E-02
      4184   2  1.857610E-01  4.292504E-02  4.883520E-02  1.218713E-01  2.017477E-02 -2.820093E-02
      4184   3  1.895103E-01 -1.351386E-01  1.093988E-02  1.600570E-01  3.614683E-02 -2.204453E-02
      4184   4  2.697673E-01  7.421049E-02  6.911379E-02  1.864174E-01  2.161146E-02 -2.286689E-02
      4184   5  7.251560E-02 -1.613531E-01 -3.359851E-02  1.021342E-01  2.571651E-02 -2.999448E-02
      4184   6  1.571038E-01  4.588350E-02  4.112556E-02  1.244330E-01  1.524270E-02 -3.370436E-02
      4184   7  1.514705E-01 -1.269958E-01  1.970770E-03  1.634583E-01  2.510533E-02 -2.143851E-02
      4184   8  2.268945E-01  7.107659E-02  5.531180E-02  1.857572E-01  1.056996E-02 -2.837031E-02
      4185   1  3.838335E-02  1.000710E-01  9.710825E-03  8.708494E-02  1.758063E-02 -2.425066E-02
      4185   2  1.082225E-01  2.784991E-01  6.407991E-02  7.977122E-02  1.185579E-02 -1.585788E-02
      4185   3 -3.066591E-03  7.324847E-02 -3.824755E-02  1.413794E-01  2.294842E-02 -2.121755E-02
      4185   4  5.518195E-02  2.400859E-01 -1.092323E-02  1.340657E-01  1.557478E-02 -1.588912E-02
      4185   5  2.289606E-02  1.020996E-01  5.673226E-03  8.752845E-02  9.845599E-03 -3.481860E-02
      4185   6  8.813868E-02  2.698024E-01  5.544578E-02  7.856593E-02  4.120753E-03 -3.415290E-02
      4185   7 -2.432466E-02  7.280391E-02 -4.475834E-02  1.387586E-01  7.486312E-03 -3.178549E-02
      4185   8  2.932735E-02  2.289161E-01 -2.203054E-02  1.297960E-01  1.126729E-04 -3.418414E-02
      4186   1  2.496454E-01  9.559911E-01  8.887349E-02 -1.764790E-01 -5.264002E-03 -2.883236E-03
      4186   2  4.277913E-02  3.974509E-01 -4.214066E-02 -2.130803E-01 -1.728733E-03 -3.001053E-02
      4186   3  4.376309E-02  8.233114E-01 -1.475098E-01 -3.523159E-01 -2.291243E-02 -3.591809E-02
      4186   4 -1.230451E-01  3.048293E-01 -1.850550E-01 -3.889173E-01 -1.768495E-02 -5.082150E-02
      4186   5  2.124666E-01  8.456720E-01  4.462411E-02 -1.527272E-01  3.266207E-02 -5.473505E-02
      4186   6  2.393611E-02  3.299154E-01 -6.805422E-02 -1.876363E-01  3.619734E-02 -5.515693E-02
      4186   7  1.250699E-02  7.155306E-01 -1.892209E-01 -3.163402E-01  4.171906E-02 -8.776991E-02
      4186   8 -1.359654E-01  2.398321E-01 -2.084303E-01 -3.512494E-01  4.694654E-02 -7.596790E-02
      4187   1  3.357222E-01  1.767233E-01  4.546156E-02 -3.168783E-01  2.563109E-02 -4.036015E-02
      4187   2  1.186684E-01 -3.924566E-01 -1.088716E-01 -2.987587E-01  1.583046E-02 -4.150855E-02
      4187   3  3.865877E-01  1.913496E-01  4.335051E-02 -4.929413E-01  1.050288E-02 -5.141538E-02
      4187   4  1.982320E-01 -3.491320E-01 -4.402004E-02 -4.748217E-01 -2.924676E-04 -3.813447E-02
      4187   5  2.848372E-01  1.233290E-01  1.417777E-02 -2.657728E-01  5.699147E-02 -4.872883E-02
      4187   6  8.942727E-02 -3.953483E-01 -1.185114E-01 -2.486479E-01  4.719084E-02 -3.074506E-02
      4187   7  3.322211E-01  1.364632E-01  1.057464E-02 -4.274064E-01  6.099542E-02 -5.978406E-02
      4187   8  1.655094E-01 -3.535158E-01 -5.515194E-02 -4.102816E-01  5.020008E-02 -2.737099E-02
      4188   1  2.725146E-01 -4.998065E-01 -5.971821E-02 -4.755038E-02  4.277253E-02 -4.214590E-02
      4188   2  2.798647E-01 -4.939206E-01 -4.110398E-02 -5.798849E-03  2.335196E-02 -4.273877E-02
      4188   3  4.465349E-01 -4.092893E-01  6.798558E-02 -4.828242E-02  4.057623E-02 -3.159732E-02
      4188   4  4.572738E-01 -4.000145E-01  9.450714E-02 -6.530895E-03  1.846949E-02 -2.701837E-02
      4188   5  2.203655E-01 -4.920173E-01 -7.302619E-02 -1.350528E-02  4.840461E-02 -2.355261E-02
      4188   6  2.354732E-01 -4.680300E-01 -4.665425E-02  2.556007E-02  2.898404E-02 -2.188625E-02
      4188   7  3.849841E-01 -4.055294E-01  5.064834E-02 -9.065512E-03  4.846756E-02 -1.300403E-02
      4188   8  4.034808E-01 -3.781532E-01  8.492762E-02  2.999984E-02  2.636081E-02 -6.165850E-03
      4189   1  1.097617E-01 -4.110848E-01 -7.943253E-02  2.409896E-01  4.281433E-02 -4.422884E-02
      4189   2  3.123857E-01  9.849945E-02  8.639658E-02  2.463072E-01  2.553015E-02 -4.770690E-02
      4189   3  1.532131E-01 -3.782688E-01 -1.349701E-02  3.944697E-01  5.553202E-02 -2.888294E-02
      4189   4  3.348560E-01  1.103344E-01  1.033762E-01  3.997874E-01  3.479953E-02 -3.855596E-02
      4189   5  7.228591E-02 -3.833005E-01 -8.233995E-02  2.473724E-01  2.441688E-02 -2.766912E-02
      4189   6  2.656175E-01  1.046015E-01  7.419672E-02  2.492417E-01  7.132694E-03 -4.513458E-02
      4189   7  1.036682E-01 -3.556569E-01 -2.157691E-02  3.946575E-01  2.314716E-02 -1.232322E-02
      4189   8  2.760187E-01  1.112640E-01  8.600386E-02  3.965269E-01  2.414669E-03 -3.598364E-02
      4190   1  3.348331E-02  2.852882E-01  1.725732E-02  1.780010E-01  2.992384E-02 -4.814558E-02
      4190   2  2.244260E-01  7.812525E-01  1.577686E-01  1.393811E-01  2.099336E-02 -4.586602E-02
      4190   3 -1.158954E-01  2.131492E-01 -7.382700E-02  3.305119E-01  4.361326E-02 -4.459481E-02
      4190   4  4.666699E-02  6.807333E-01  4.635770E-04  2.918920E-01  3.207819E-02 -5.142025E-02
      4190   5  7.552771E-03  2.843201E-01  9.187750E-03  1.778421E-01  4.708150E-03 -5.761829E-02
      4190   6  1.848380E-01  7.484170E-01  1.360416E-01  1.366176E-01 -4.222333E-03 -7.425894E-02
      4190   7 -1.509420E-01  2.082743E-01 -8.580344E-02  3.212479E-01 -5.226452E-04 -5.406752E-02
      4190   8 -2.037085E-03  6.439909E-01 -2.517037E-02  2.800234E-01 -1.205771E-02 -7.981317E-02
      4191   1  3.583623E-01  1.960170E+00  1.548665E-01 -1.593502E-01 -5.506111E-02 -6.928434E-03
      4191   2  2.530734E-03  9.373971E-01 -8.465934E-03 -2.458711E-01 -4.859205E-02 -2.910947E-02
      4191   3 -7.641175E-02  1.698438E+00 -2.828001E-01 -4.928208E-01 -1.252445E-01 -6.433854E-02
      4191   4 -3.427282E-01  7.651801E-01 -2.372638E-01 -5.793417E-01 -1.170756E-01 -7.662723E-02
      4191   5  2.948889E-01  1.768938E+00  7.845493E-02 -1.524416E-01  4.118846E-02 -9.489562E-02
      4191   6 -4.610417E-02  7.807886E-01 -7.003897E-02 -2.372627E-01  4.765753E-02 -5.739988E-02
      4191   7 -1.339357E-01  1.509756E+00 -3.566618E-01 -4.760199E-01  3.068183E-02 -1.523057E-01
      4191   8 -3.854135E-01  6.111214E-01 -2.962870E-01 -5.608410E-01  3.885076E-02 -1.049176E-01
      4192   1  4.156840E-01  4.126107E-01  1.234794E-01 -4.257185E-01 -2.804626E-02 -4.369972E-02
      4192   2 -5.264023E-02 -8.353218E-01 -1.896688E-01 -5.082731E-01 -3.376787E-02 -6.138000E-02
      4192   3  1.472109E-01  3.092468E-01  4.740635E-02 -8.155226E-01 -1.182363E-01 -8.012742E-02
      4192   4 -2.387724E-01 -8.563447E-01 -7.361299E-02 -8.980773E-01 -1.091015E-01 -7.740144E-02
      4192   5  3.410168E-01  2.765313E-01  6.025545E-02 -3.787829E-01  4.954173E-02 -3.005433E-02
      4192   6 -9.669803E-02 -8.999793E-01 -2.222834E-01 -4.464811E-01  4.382012E-02  7.159365E-03
      4192   7  1.245411E-01  1.954521E-01  6.467002E-03 -7.481808E-01  1.424571E-02 -6.648202E-02
      4192   8 -2.308328E-01 -8.987175E-01 -8.394296E-02 -8.158790E-01  2.338051E-02 -8.862079E-03
      4193   1  1.504451E-01 -1.092788E+00 -1.248914E-01  5.769144E-02  2.853798E-02 -7.314904E-02
      4193   2  2.141103E-01 -9.594808E-01 -4.598176E-02 -1.892207E-02  1.053416E-02 -8.762240E-02
      4193   3  1.360180E-02 -1.076405E+00  6.656417E-02  9.251258E-02 -2.154848E-03 -7.777756E-02
      4193   4  7.277546E-02 -9.475886E-01  1.349937E-01  1.589908E-02 -6.263078E-03 -8.153112E-02
      4193   5  8.048899E-02 -1.135994E+00 -1.588399E-01  9.909758E-02  3.616025E-02  1.438691E-02
      4193   6  1.602338E-01 -9.651671E-01 -6.385057E-02  3.637967E-02  1.815643E-02 -3.080754E-03
      4193   7 -7.719781E-03 -1.098767E+00  5.345905E-02  1.446385E-01  2.473113E-03  9.758393E-03
      4193   8  6.753357E-02 -9.324315E-01  1.379683E-01  8.192060E-02 -1.635117E-03  3.010525E-03
      4194   1 -8.604343E-02 -7.231053E-01 -1.083623E-01  4.572734E-01  7.537728E-02 -9.523184E-02
      4194   2  3.261233E-01  3.447486E-01  1.976727E-01  3.391579E-01  5.464707E-02 -1.015479E-01
      4194   3 -3.976213E-01 -7.984521E-01 -4.794018E-02  7.851171E-01  1.168779E-01 -8.682498E-02
      4194   4 -4.922572E-02  2.056308E-01  1.092957E-01  6.670015E-01  9.960220E-02 -9.753451E-02
      4194   5 -1.459889E-01 -7.247767E-01 -1.268473E-01  4.751359E-01  2.231146E-02 -2.734740E-02
      4194   6  2.595875E-01  3.277000E-01  1.725974E-01  3.604748E-01  1.581251E-03 -7.617746E-02
      4194   7 -4.454759E-01 -7.949416E-01 -6.124338E-02  7.985860E-01  2.129800E-02 -1.894055E-02
      4194   8 -1.036705E-01  1.937640E-01  8.940224E-02  6.839249E-01  4.022335E-03 -7.216412E-02
      4195   1 -1.379675E-02  7.614963E-01  1.083321E-01  1.774186E-01  7.033776E-02 -1.030866E-01
      4195   2  2.567397E-01  1.522810E+00  2.488063E-01  9.304029E-02  5.632989E-02 -1.009747E-01
      4195   3 -3.153620E-01  6.286876E-01 -3.279818E-02  4.228074E-01  1.296610E-01 -1.036316E-01
      4195   4 -1.020756E-01  1.332752E+00 -2.590765E-02  3.384291E-01  1.115019E-01 -1.095798E-01
      4195   5 -6.364181E-02  7.385769E-01  8.650281E-02  1.922854E-01  5.306582E-03 -1.072475E-01
      4195   6  1.948045E-01  1.471681E+00  2.148868E-01  1.037558E-01 -8.701288E-03 -1.433022E-01
      4195   7 -3.797364E-01  5.995414E-01 -6.085438E-02  4.296141E-01  2.646312E-02 -1.077925E-01
      4195   8 -1.785402E-01  1.275395E+00 -6.605403E-02  3.410845E-01  8.303998E-03 -1.519074E-01
      4196   1  1.006775E-02  2.079843E-02  4.234118E-03 -1.518104E-02  6.664322E-03 -1.488020E-03
      4196   2  7.683762E-03  1.837880E-02 -1.292882E-03 -1.223870E-02  5.385061E-03 -3.584385E-03
      4196   3  1.263342E-02  1.747942E-02 -9.394916E-03 -1.519886E-02  4.791152E-03 -2.883137E-03
      4196   4  1.061857E-02  1.542893E-02 -1.406059E-02 -1.225652E-02  3.868223E-03 -4.652164E-03
      4196   5  3.497663E-03  1.399663E-02  2.225518E-04 -1.003607E-02  5.092816E-03 -6.643032E-03
      4196   6  1.604681E-03  1.272268E-02 -4.813443E-03 -6.737401E-03  3.813555E-03 -8.493304E-03
      4196   7  7.310488E-03  1.121211E-02 -1.287199E-02 -9.726552E-03  3.465739E-03 -8.038149E-03
      4196   8  5.786644E-03  1.030731E-02 -1.704666E-02 -6.427883E-03  2.542809E-03 -9.561084E-03
      4197   1  4.187402E-02  2.222965E-02  9.264210E-03 -4.094267E-02  1.925113E-02 -4.377047E-03
      4197   2  2.782063E-02 -1.190725E-02 -3.443514E-03 -2.988516E-02  1.507284E-02 -4.446275E-03
      4197   3  7.405067E-02  3.229129E-02  1.062636E-02 -5.098443E-02  1.410861E-02 -4.742838E-03
      4197   4  6.191968E-02  7.678833E-05  2.404239E-03 -3.992692E-02  9.186998E-03 -3.221538E-03
      4197   5  2.670132E-02  1.468194E-02  2.448089E-03 -3.007184E-02  1.992396E-02 -8.726792E-03
      4197   6  1.503372E-02 -1.388811E-02 -7.873841E-03 -1.975765E-02  1.574567E-02 -7.514420E-03
      4197   7  5.627636E-02  2.362861E-02  2.695263E-03 -3.852307E-02  1.606304E-02 -9.092584E-03
      4197   8  4.653116E-02 -3.019043E-03 -3.141067E-03 -2.820888E-02  1.114143E-02 -6.289683E-03
      4198   1  5.587250E-02 -1.181817E-02  6.333410E-03 -2.826614E-02  2.320021E-02 -4.125720E-03
      4198   2  5.428240E-02 -1.698757E-02  6.202494E-03 -1.484916E-02  1.868501E-02 -3.180719E-03
      4198   3  9.930513E-02  4.780497E-03  1.822966E-02 -3.005580E-02  1.827655E-02 -2.299431E-03
      4198   4  9.873070E-02  6.267559E-04  2.046862E-02 -1.663881E-02  1.250011E-02 -1.301489E-03
      4198   5  4.280876E-02 -1.219894E-02  2.300054E-03 -1.955404E-02  2.392980E-02 -6.476929E-03
      4198   6  4.129807E-02 -1.718305E-02  2.248549E-03 -7.398299E-03  1.941460E-02 -4.854820E-03
      4198   7  8.182703E-02  2.507850E-03  1.230443E-02 -2.129075E-02  1.968325E-02 -4.650639E-03
      4198   8  8.133201E-02 -1.460598E-03  1.462280E-02 -9.135011E-03  1.390681E-02 -2.975590E-03
      4199   1  2.932630E-02 -2.172839E-02 -9.695925E-04 -2.229137E-03  1.628506E-02 -2.365041E-03
      4199   2  4.137378E-02  4.191148E-03  1.326913E-02  7.038665E-03  1.417738E-02 -1.081570E-03
      4199   3  5.928628E-02 -1.030402E-02  7.151679E-03  4.706894E-03  1.351707E-02 -8.562698E-04
      4199   4  7.041051E-02  1.469227E-02  1.923615E-02  1.397470E-02  1.052563E-02 -6.378514E-04
      4199   5  2.421257E-02 -1.960922E-02 -1.867957E-03  5.730187E-04  1.738068E-02 -4.016593E-03
      4199   6  3.466247E-02  2.582640E-03  1.077319E-02  8.957059E-03  1.527300E-02 -3.348624E-03
      4199   7  5.107939E-02 -9.510483E-03  4.927671E-03  6.443996E-03  1.399719E-02 -2.507822E-03
      4199   8  6.060603E-02  1.175812E-02  1.541456E-02  1.482804E-02  1.100575E-02 -2.904906E-03
      4200   1  6.979622E-03 -1.047452E-03  2.661740E-03  2.058815E-03  4.866597E-03  1.065771E-04
      4200   2  9.975708E-03  5.439523E-03  6.161720E-03  4.793132E-03  4.253806E-03  2.069183E-03
      4200   3  1.267128E-02 -8.244270E-04 -2.286501E-03  3.804260E-03  3.427086E-03  1.057401E-05
      4200   4  1.528506E-02  5.280241E-03  3.214284E-04  6.538576E-03  2.584827E-03  1.563687E-03
      4200   5  4.690849E-03 -2.302649E-03  1.598549E-03  1.629168E-03  5.118544E-03 -2.479056E-03
      4200   6  7.072696E-03  2.751101E-03  4.484290E-03  4.134016E-03  4.505753E-03 -7.713220E-04
      4200   7  9.579369E-03 -2.423826E-03 -3.693894E-03  2.965119E-03  3.424161E-03 -2.575059E-03
      4200   8  1.157891E-02  2.247617E-03 -1.700204E-03  5.469968E-03  2.581902E-03 -1.276818E-03
      4201   1  5.775284E-02  1.349434E-01  2.041845E-02 -6.992364E-02  3.589019E-03  6.977754E-03
      4201   2  3.997755E-02  9.348919E-02  2.621740E-03 -7.188222E-02  3.051431E-03 -5.981956E-03
      4201   3  2.874327E-02  1.098510E-01 -3.421336E-02 -8.176312E-02  2.177899E-03 -2.827345E-04
      4201   4  1.598659E-02  7.341539E-02 -4.029997E-02 -8.372170E-02  2.336750E-03 -1.159159E-02
      4201   5  4.498055E-02  1.087254E-01  8.721337E-03 -5.135046E-02  3.578307E-03 -7.791943E-03
      4201   6  2.968154E-02  7.304908E-02 -6.599100E-03 -5.261260E-02  3.040719E-03 -1.740591E-02
      4201   7  1.840852E-02  8.467760E-02 -4.486581E-02 -6.153909E-02  5.512928E-03 -1.505243E-02
      4201   8  8.128115E-03  5.401993E-02 -4.847615E-02 -6.280123E-02  5.671780E-03 -2.301555E-02
      4202   1  1.237409E-01  7.976813E-02  2.729996E-02 -1.215807E-01  1.237769E-02 -1.161455E-02
      4202   2  7.438971E-02 -4.310951E-02 -1.432640E-02 -1.006468E-01  6.218843E-03 -1.404339E-02
      4202   3  1.838688E-01  9.802827E-02  2.803922E-02 -1.583439E-01  1.279125E-02 -1.456003E-02
      4202   4  1.404143E-01 -1.895270E-02  1.717422E-04 -1.374101E-01  3.995536E-03 -1.136108E-02
      4202   5  9.776675E-02  6.022070E-02  1.364349E-02 -9.432897E-02  1.624010E-02 -2.037500E-02
      4202   6  5.685722E-02 -4.295969E-02 -1.954120E-02 -7.603197E-02  1.008126E-02 -1.887272E-02
      4202   7  1.486656E-01  7.452554E-02  1.042743E-02 -1.254644E-01  2.058478E-02 -2.332047E-02
      4202   8  1.136527E-01 -2.275819E-02 -8.998366E-03 -1.071674E-01  1.178906E-02 -1.619041E-02
      4203   1  1.178010E-01 -6.744150E-02 -3.041518E-03 -6.481770E-02  1.776484E-02 -1.424153E-02
      4203   2  1.117025E-01 -8.563367E-02 -5.177848E-03 -2.932693E-02  9.656030E-03 -1.235403E-02
      4203   3  2.374229E-01 -1.880116E-02  3.947109E-02 -7.086451E-02  2.129046E-02 -8.925810E-03
      4203   4  2.326627E-01 -3.565500E-02  4.045753E-02 -3.537374E-02  8.070748E-03 -5.471482E-03
      4203   5  9.739378E-02 -6.099969E-02 -7.231150E-03 -4.730718E-02  1.974595E-02 -1.730540E-02
      4203   6  9.364547E-02 -7.370796E-02 -7.017238E-03 -1.692732E-02  1.163714E-02 -1.452568E-02
      4203   7  1.991275E-01 -2.002570E-02  2.761510E-02 -5.178716E-02  2.416379E-02 -1.198968E-02
      4203   8  1.967175E-01 -3.139565E-02  3.095178E-02 -2.140730E-02  1.094408E-02 -7.643132E-03
      4204   1  6.068691E-02 -8.597606E-02 -1.922620E-02  2.062361E-02  1.412997E-02 -1.004376E-02
      4204   2  9.915367E-02  4.885821E-03  1.813447E-02  4.499744E-02  9.307174E-03 -5.619492E-03
      4204   3  1.420159E-01 -5.339475E-02  8.049210E-03  4.682117E-02  1.857242E-02 -3.492990E-03
      4204   4  1.771719E-01  3.415639E-02  3.768479E-02  7.119500E-02  9.630033E-03 -1.541976E-03
      4204   5  5.363327E-02 -7.028256E-02 -1.663424E-02  2.277507E-02  1.357692E-02 -1.269672E-02
      4204   6  8.839015E-02  1.192293E-02  1.701654E-02  4.302931E-02  8.754125E-03 -1.047961E-02
      4204   7  1.205437E-01 -4.388063E-02  4.461784E-03  4.649937E-02  1.581221E-02 -6.145944E-03
      4204   8  1.519898E-01  3.501411E-02  3.038748E-02  6.675361E-02  6.869817E-03 -6.402098E-03
      4205   1  2.159600E-02  1.218590E-02 -4.426796E-03  3.381497E-02  3.897934E-03 -9.575040E-04
      4205   2  3.963819E-02  5.629697E-02  1.160278E-02  3.703201E-02  2.369449E-03  7.355012E-03
      4205   3  2.298852E-02  7.144326E-03 -2.262456E-02  4.684941E-02  6.623825E-03  1.729622E-03
      4205   4  3.730108E-02  4.752576E-02 -1.529746E-02  5.006645E-02  3.450003E-03  8.716783E-03
      4205   5  2.027699E-02  1.929811E-02 -2.688835E-03  2.911183E-02  2.891626E-03 -7.535599E-03
      4205   6  3.633115E-02  5.877044E-02  1.135271E-02  3.068354E-02  1.363141E-03 -1.709505E-03
      4205   7  1.591083E-02  1.178854E-02 -2.335460E-02  4.082091E-02  3.131094E-03 -4.848472E-03
      4205   8  2.823536E-02  4.753123E-02 -1.801554E-02  4.239262E-02 -4.272811E-05 -3.477342E-04
      4206   1  1.456127E-01  4.387169E-01  5.502669E-02 -1.675999E-01 -8.545293E-04  3.780975E-02
      4206   2  6.192942E-02  2.248166E-01 -1.001733E-02 -1.746385E-01 -7.809278E-04  2.339321E-03
      4206   3  7.302263E-02  3.802040E-01 -6.742607E-02 -2.327084E-01 -7.728156E-03  2.304712E-02
      4206   4  8.846092E-03  1.858105E-01 -8.695433E-02 -2.397470E-01 -8.583902E-03 -7.823909E-03
      4206   5  1.237264E-01  3.871581E-01  3.299315E-02 -1.241013E-01  8.465106E-03  5.839797E-03
      4206   6  4.694218E-02  1.893557E-01 -2.515178E-02 -1.320693E-01  8.538708E-03 -1.662613E-02
      4206   7  4.788358E-02  3.272512E-01 -9.085363E-02 -1.846104E-01  1.459599E-02 -8.922831E-03
      4206   8 -9.393863E-03  1.489556E-01 -1.034828E-01 -1.925784E-01  1.374024E-02 -2.678936E-02
      4207   1  2.618092E-01  1.485863E-01  4.796352E-02 -2.651328E-01  1.299434E-02 -1.334430E-02
      4207   2  1.363291E-01 -1.694549E-01 -5.226229E-02 -2.263864E-01  5.566836E-04 -2.072232E-02
      4207   3  3.812055E-01  1.904898E-01  6.824553E-02 -3.614134E-01  1.313562E-02 -1.713431E-02
      4207   4  2.696373E-01 -1.136395E-01  4.806963E-04 -3.226669E-01 -6.615127E-03 -1.169976E-02
      4207   5  2.125924E-01  1.166648E-01  2.362202E-02 -2.084493E-01  2.562148E-02 -2.415505E-02
      4207   6  1.063312E-01 -1.565323E-01 -5.738492E-02 -1.770160E-01  1.318382E-02 -2.225851E-02
      4207   7  3.063929E-01  1.475987E-01  3.293440E-02 -2.919173E-01  3.503733E-02 -2.794505E-02
      4207   8  2.140435E-01 -1.116866E-01 -1.561158E-02 -2.604840E-01  1.528658E-02 -1.323594E-02
      4208   1  2.483891E-01 -2.291652E-01 -2.106129E-02 -1.015974E-01  2.547347E-02 -2.289193E-02
      4208   2  2.364378E-01 -2.643637E-01 -2.570064E-02 -4.016853E-02  6.226889E-03 -2.144137E-02
      4208   3  4.668621E-01 -1.335499E-01  7.918326E-02 -1.132210E-01  3.337605E-02 -7.752799E-03
      4208   4  4.567799E-01 -1.668793E-01  7.890512E-02 -5.179209E-02  2.774656E-03 -2.404064E-03
      4208   5  2.037348E-01 -2.050481E-01 -2.722247E-02 -7.213867E-02  2.912947E-02 -2.057729E-02
      4208   6  1.976307E-01 -2.266030E-01 -2.601456E-02 -2.206460E-02  9.882884E-03 -1.788067E-02
      4208   7  3.824659E-01 -1.264651E-01  5.598985E-02 -7.986405E-02  3.827811E-02 -5.438164E-03
      4208   8  3.782310E-01 -1.461508E-01  6.155898E-02 -2.978998E-02  7.676715E-03  1.156635E-03
      4209   1  1.245943E-01 -2.489347E-01 -5.681524E-02  9.976424E-02  2.427500E-02 -1.814472E-02
      4209   2  2.250107E-01 -2.714864E-03  3.168617E-02  1.391730E-01  1.072677E-02 -1.058868E-02
      4209   3  2.649662E-01 -1.873804E-01  7.993863E-03  1.726660E-01  3.541228E-02  3.965234E-04
      4209   4  3.555907E-01  4.904753E-02  7.364749E-02  2.120748E-01  1.340024E-02  2.699135E-03
      4209   5  1.049874E-01 -2.043627E-01 -4.932572E-02  9.487590E-02  1.831751E-02 -1.651733E-02
      4209   6  1.975236E-01  2.347013E-02  3.129554E-02  1.258209E-01  4.769281E-03 -1.548921E-02
      4209   7  2.157360E-01 -1.555041E-01  2.787677E-03  1.625242E-01  2.292686E-02  2.023923E-03
      4209   8  2.984803E-01  6.253682E-02  6.056115E-02  1.934692E-01  9.148193E-04 -2.201402E-03
      4210   1  3.810501E-02  5.095257E-02 -2.176592E-02  1.088248E-01  1.130106E-02 -3.095402E-05
      4210   2  1.146848E-01  2.460543E-01  3.839830E-02  1.074114E-01  6.105737E-03  2.125723E-02
      4210   3  1.651560E-02  3.219007E-02 -6.271821E-02  1.680858E-01  2.135361E-02  1.030373E-02
      4210   4  7.750237E-02  2.116988E-01 -3.893771E-02  1.666724E-01  1.228078E-02  2.877727E-02
      4210   5  3.542341E-02  7.933099E-02 -1.405687E-02  9.279129E-02  3.093274E-03 -1.112584E-02
      4210   6  1.077812E-01  2.645815E-01  4.188537E-02  8.750034E-02 -2.102050E-03 -2.330085E-04
      4210   7  2.627205E-04  5.475222E-02 -6.082543E-02  1.492376E-01  2.750478E-03 -7.911576E-04
      4210   8  5.702751E-02  2.244097E-01 -4.126691E-02  1.439467E-01 -6.322354E-03  7.287027E-03
      4211   1  2.991156E-01  1.061862E+00  1.214595E-01 -3.065152E-01 -1.395989E-02  8.855077E-02
      4211   2  6.457792E-02  4.402548E-01 -3.872542E-02 -3.363279E-01 -1.714078E-02  2.412427E-02
      4211   3  1.112097E-01  9.335817E-01 -1.182364E-01 -5.000501E-01 -2.411167E-02  7.452464E-02
      4211   4 -8.196898E-02  3.533332E-01 -1.819170E-01 -5.298628E-01 -3.271562E-02  1.977854E-02
      4211   5  2.669433E-01  1.007999E+00  9.564892E-02 -2.176864E-01  2.321652E-02  3.284310E-02
      4211   6  4.692623E-02  4.202734E-01 -5.001534E-02 -2.529221E-01  2.003564E-02 -4.010758E-03
      4211   7  6.005673E-02  8.715843E-01 -1.521815E-01 -4.015408E-01  4.063739E-02  1.881696E-02
      4211   8 -1.186014E-01  3.252172E-01 -2.013415E-01 -4.367766E-01  3.203344E-02 -8.356486E-03
      4212   1  4.633542E-01  2.067280E-01  7.871625E-02 -4.852946E-01  7.666405E-03 -7.765400E-03
      4212   2  1.926853E-01 -4.931072E-01 -1.236781E-01 -4.461397E-01 -2.029996E-02 -3.046309E-02
      4212   3  5.865933E-01  2.516575E-01  1.052419E-01 -6.998778E-01 -7.417063E-03  3.384332E-04
      4212   4  3.521549E-01 -4.119473E-01 -1.261480E-02 -6.607229E-01 -5.051580E-02  1.973164E-03
      4212   5  3.776277E-01  1.931419E-01  4.892246E-02 -3.756990E-01  4.180367E-02 -1.696730E-02
      4212   6  1.434574E-01 -4.215298E-01 -1.169732E-01 -3.516765E-01  1.383731E-02 -1.551138E-02
      4212   7  4.479035E-01  2.153728E-01  5.274952E-02 -5.659497E-01  5.087382E-02 -8.863467E-03
      4212   8  2.499637E-01 -3.630685E-01 -2.860853E-02 -5.419273E-01  7.775079E-03  1.692488E-02
      4213   1  4.043225E-01 -6.243575E-01 -6.190044E-02 -1.266129E-01  4.012643E-02 -3.908653E-02
      4213   2  3.981928E-01 -6.495344E-01 -5.715590E-02 -5.456240E-02 -2.486245E-03 -3.994849E-02
      4213   3  6.923064E-01 -4.804746E-01  1.297256E-01 -1.361365E-01  5.066621E-02  4.104471E-03
      4213   4  6.865003E-01 -5.053278E-01  1.352252E-01 -6.408599E-02 -1.340706E-02  8.292578E-03
      4213   5  3.199646E-01 -5.371081E-01 -6.103295E-02 -7.785746E-02  4.556355E-02 -1.521500E-02
      4213   6  3.214101E-01 -5.446097E-01 -4.871331E-02 -2.726760E-02  2.950875E-03 -1.586122E-02
      4213   7  5.328364E-01 -4.254160E-01  9.840216E-02 -8.233098E-02  5.631908E-02  2.797599E-02
      4213   8  5.346055E-01 -4.325940E-01  1.114769E-01 -3.174112E-02 -7.754189E-03  3.237985E-02
      4214   1  1.719753E-01 -5.814360E-01 -1.198928E-01  2.668353E-01  4.919287E-02 -3.458331E-02
      4214   2  3.979567E-01 -1.111531E-02  6.305766E-02  2.942480E-01  1.850071E-02 -1.906339E-02
      4214   3  2.942082E-01 -5.140285E-01 -1.743408E-02  4.390050E-01  7.570487E-02  1.110595E-02
      4214   4  4.929758E-01  2.907839E-02  1.020176E-01  4.664177E-01  2.976199E-02  1.460411E-02
      4214   5  1.330867E-01 -4.675618E-01 -9.739715E-02  2.462046E-01  2.767744E-02 -1.705769E-02
      4214   6  3.410354E-01  6.068271E-02  6.752068E-02  2.583666E-01 -3.014724E-03 -1.968030E-02
      4214   7  2.019420E-01 -4.230304E-01 -1.781451E-02  4.063525E-01  3.604691E-02  2.863157E-02
      4214   8  3.826770E-01  7.800033E-02  8.360449E-02  4.185145E-01 -9.895973E-03  1.398721E-02
      4215   1  3.570554E-02  1.693872E-01 -4.023693E-02  2.279703E-01  3.026055E-02 -1.002864E-03
      4215   2  2.374944E-01  6.996911E-01  1.020888E-01  1.992118E-01  1.738154E-02  3.281950E-02
      4215   3 -8.682063E-02  1.043780E-01 -1.344081E-01  3.922278E-01  4.454219E-02  2.600985E-02
      4215   4  8.495619E-02  6.046698E-01 -6.211044E-02  3.634693E-01  2.514202E-02  5.367276E-02
      4215   5  3.114808E-02  2.446132E-01 -1.903636E-02  1.914328E-01  5.289987E-04 -1.558384E-02
      4215   6  2.236978E-01  7.533590E-01  1.140502E-01  1.561532E-01 -1.235001E-02 -1.769520E-03
      4215   7 -1.142021E-01  1.698223E-01 -1.229893E-01  3.495308E-01 -5.197400E-03  1.142887E-02
      4215   8  4.833549E-02  6.485560E-01 -5.993080E-02  3.142512E-01 -2.459757E-02  1.908374E-02
      4216   1  4.075683E-01  1.974447E+00  1.601472E-01 -4.010292E-01 -3.598974E-02  1.745962E-01
      4216   2 -2.559757E-02  7.699033E-01 -7.919519E-02 -4.756819E-01 -4.992545E-02  6.427118E-02
      4216   3  3.631594E-02  1.752500E+00 -2.084235E-01 -7.867182E-01 -5.828943E-02  1.905617E-01
      4216   4 -3.064038E-01  6.384025E-01 -2.367250E-01 -8.613709E-01 -8.136877E-02  1.158125E-01
      4216   5  3.827415E-01  2.009423E+00  1.631919E-01 -2.259590E-01  6.092199E-02  1.012844E-01
      4216   6  2.939423E-03  9.293944E-01 -2.278676E-02 -3.097553E-01  4.698627E-02  5.125668E-02
      4216   7 -2.051347E-02  1.773760E+00 -2.190942E-01 -5.760721E-01  9.891968E-02  1.172499E-01
      4216   8 -3.098695E-01  7.841781E-01 -1.940320E-01 -6.598685E-01  7.584035E-02  1.027980E-01
      4217   1  5.824736E-01  2.326393E-01  1.144096E-01 -7.157221E-01 -3.303809E-02 -9.242014E-04
      4217   2  6.141165E-02 -1.151582E+00 -2.382424E-01 -7.561007E-01 -9.443375E-02 -6.871623E-02
      4217   3  4.803421E-01  2.112651E-01  1.452936E-01 -1.147302E+00 -8.795256E-02  7.283113E-02
      4217   4  2.924761E-02 -1.102989E+00 -4.410104E-02 -1.187680E+00 -1.842040E-01  3.015301E-02
      4217   5  4.782217E-01  3.986895E-01  1.329491E-01 -5.160011E-01  5.116688E-02  2.520492E-02
      4217   6 -5.169314E-03 -8.976329E-01 -1.820321E-01 -5.912355E-01 -1.022879E-02  4.057864E-03
      4217   7  2.540951E-01  3.250316E-01  1.115494E-01 -9.224668E-01  4.289737E-02  9.896025E-02
      4217   8 -1.593285E-01 -9.013233E-01 -4.017430E-02 -9.977011E-01 -5.335404E-02  1.029271E-01
      4218   1  3.861291E-01 -1.399386E+00 -1.320254E-01 -4.893762E-02  5.817864E-02 -9.653511E-02
      4218   2  4.438855E-01 -1.270942E+00 -6.794763E-02 -7.052771E-02 -2.985606E-02 -1.047457E-01
      4218   3  4.414781E-01 -1.300857E+00  1.410561E-01 -1.359407E-02  6.816320E-02  1.033512E-02
      4218   4  4.886978E-01 -1.182950E+00  1.805483E-01 -3.518416E-02 -6.387475E-02 -1.130239E-03
      4218   5  2.383130E-01 -1.157392E+00 -1.037722E-01  1.802553E-02  6.133935E-02 -9.258903E-03
      4218   6  2.911872E-01 -1.040340E+00 -4.457653E-02 -4.756781E-02 -2.669535E-02 -2.449393E-02
      4218   7  1.396507E-01 -1.124868E+00  1.033046E-01  5.011429E-02  6.429945E-02  9.761133E-02
      4218   8  1.819882E-01 -1.018353E+00  1.379146E-01 -1.547905E-02 -6.773850E-02  7.912151E-02
      4219   1  2.718607E-02 -1.057989E+00 -1.840075E-01  5.415131E-01  1.043172E-01 -9.339548E-02
      4219   2  4.704115E-01  9.797703E-02  1.374444E-01  4.575029E-01  4.331487E-02 -5.417560E-02
      4219   3 -1.722111E-01 -1.089366E+00 -8.919932E-02  8.978835E-01  1.559756E-01  1.815791E-03
      4219   4  2.112308E-01  6.816857E-03  9.275785E-02  8.138733E-01  6.908075E-02  2.132985E-02
      4219   5 -4.350524E-02 -8.162533E-01 -1.326941E-01  4.750592E-01  4.343045E-02 -3.030304E-02
      4219   6  3.701615E-01  2.707426E-01  1.591991E-01  3.651564E-01 -1.757190E-02 -3.093881E-02
      4219   7 -3.335262E-01 -8.864687E-01 -7.672467E-02  8.117238E-01  5.523318E-02  6.490823E-02
      4219   8  2.035710E-02  1.407437E-01  7.567378E-02  7.018210E-01 -3.166166E-02  4.456665E-02
      4220   1 -2.921961E-02  5.054231E-01 -1.550237E-02  2.939721E-01  5.848730E-02 -1.651187E-02
      4220   2  2.808572E-01  1.370472E+00  1.530386E-01  2.193496E-01  3.449332E-02  4.716750E-02
      4220   3 -2.979829E-01  3.859049E-01 -1.451331E-01  5.714579E-01  8.230443E-02  4.397091E-02
      4220   4 -4.406972E-02  1.194790E+00 -1.076407E-01  4.968354E-01  5.228106E-02  8.631336E-02
      4220   5 -2.247440E-02  6.811218E-01  3.923081E-02  2.046655E-01 -1.228062E-02 -2.156814E-02
      4220   6  2.555971E-01  1.471491E+00  1.757664E-01  1.240135E-01 -3.627461E-02  4.668785E-03
      4220   7 -3.123405E-01  5.525595E-01 -9.944402E-02  4.608144E-01 -2.590594E-02  3.891464E-02
      4220   8 -9.043271E-02  1.286765E+00 -9.395695E-02  3.801624E-01 -5.592931E-02  4.381464E-02
      4221   1 -8.785704E+01 -3.134144E+01 -1.565816E+01  4.219722E+01  1.515865E-01 -3.375823E+00
      4221   2 -8.265587E+01 -1.485819E+01 -1.480418E+01  1.944484E+01 -1.003964E-01 -3.603448E+00
      4221   3 -1.498940E+01  1.055504E+00  1.251010E+00  2.851080E+01  1.090926E+00 -1.924903E+00
      4221   4 -7.328838E+00  1.901931E+01  8.822420E+00  7.771948E+00 -3.533954E-01 -1.515662E+00
      4221   5 -8.742950E+01 -2.836279E+01 -1.494109E+01  4.410179E+01  1.964371E+00 -8.653549E+00
      4221   6 -8.134068E+01 -9.896807E+00 -1.311099E+01  2.034131E+01  1.687617E+00 -6.947270E+00
      4221   7 -1.517520E+01  3.649189E+00  9.191895E-01  3.015872E+01  1.259413E+00 -6.330890E+00
      4221   8 -6.523317E+00  2.362009E+01  9.787899E+00  8.440291E+00 -2.705888E-01 -4.178675E+00
      4222   1 -3.917477E+01  8.040715E+00  1.646956E+00  3.865474E+00  1.288714E+00 -3.484524E+00
      4222   2 -4.382843E+01  1.124466E-01 -5.936991E+00 -3.101861E+00  1.100616E+00 -1.915542E+00
      4222   3 -1.894236E+01  1.410233E+01  3.785384E+00  4.068787E+00 -2.030425E-01 -1.292721E+00
      4222   4 -2.128069E+01  8.720757E+00  1.372518E+00 -2.267882E+00 -4.097455E-01 -5.980408E-01
      4222   5 -3.661466E+01  1.403716E+01  4.094466E+00  3.391215E+00  2.506291E+00 -5.519399E+00
      4222   6 -4.227480E+01  3.701124E+00 -4.436624E+00 -3.590514E+00  2.317806E+00 -2.676201E+00
      4222   7 -1.784709E+01  1.886685E+01  5.130148E+00  4.234472E+00 -1.061260E-01 -2.930541E+00
      4222   8 -2.096710E+01  1.145614E+01  2.140812E+00 -2.143206E+00 -3.141659E-01 -1.147817E+00
      4223   1 -1.996903E+01  6.281062E+00  1.327855E+00 -8.080771E+00  2.007844E-01 -1.121849E+00
      4223   2 -2.340125E+01 -9.935168E-01 -2.838317E+00 -1.018808E+01  2.674123E-01 -7.093745E-01
      4223   3 -1.321224E+01  8.783976E+00  3.385719E+00 -6.287356E+00 -1.673839E-01 -3.311855E-01
      4223   4 -1.646527E+01  2.014927E+00 -6.886897E-01 -8.206834E+00 -1.872327E-01 -2.257090E-01
      4223   5 -1.931138E+01  8.478602E+00  2.169452E+00 -8.601005E+00  4.966986E-01 -1.347734E+00
      4223   6 -2.315332E+01  2.498342E-01 -2.408253E+00 -1.078871E+01  5.615299E-01 -9.496294E-01
      4223   7 -1.269685E+01  1.082045E+01  4.099534E+00 -6.639761E+00  1.375549E-01 -5.092339E-01
      4223   8 -1.632787E+01  3.175705E+00 -3.591450E-01 -8.639060E+00  1.114919E-01 -4.298599E-01
      4224   1 -9.405988E+00  1.129372E+00  1.461180E+00 -9.834370E+00 -9.106720E-02 -5.496725E-01
      4224   2 -1.251749E+01 -5.738418E+00 -2.042717E+00 -1.106082E+01 -6.423299E-02 -4.400056E-01
      4224   3 -5.401601E+00  3.171216E+00  2.317764E+00 -7.851576E+00 -1.859762E-01 -2.316548E-01
      4224   4 -8.400934E+00 -3.262534E+00 -1.246260E+00 -8.971734E+00 -2.807384E-01 -3.628206E-01
      4224   5 -9.287333E+00  1.735702E+00  1.658787E+00 -1.060710E+01  5.304293E-02 -8.299471E-01
      4224   6 -1.279064E+01 -6.042720E+00 -2.240495E+00 -1.193825E+01  7.735087E-02 -7.828056E-01
      4224   7 -5.151849E+00  3.839924E+00  2.524513E+00 -8.461973E+00 -2.023451E-02 -4.810600E-01
      4224   8 -8.517685E+00 -3.436620E+00 -1.418396E+00 -9.679355E+00 -1.237344E-01 -6.818908E-01
      4225   1 -1.172329E+00 -3.005347E-01  2.801750E+00 -6.229146E+00  1.774282E-02 -5.804292E-01
      4225   2 -1.950496E+00 -2.108410E+00  2.015733E+00 -6.400045E+00  9.204700E-03 -1.123101E+00
      4225   3 -1.307079E+00 -5.018647E-01  1.102207E+00 -5.700155E+00  1.117633E-02 -5.618337E-01
      4225   4 -2.553973E+00 -2.698449E+00 -8.575239E-01 -5.862505E+00 -1.629508E-01 -1.230324E+00
      4225   5 -1.388916E+00 -8.034117E-01  2.552696E+00 -6.877311E+00 -6.285060E-03 -1.093459E+00
      4225   6 -2.404752E+00 -3.151200E+00  1.514363E+00 -7.184534E+00 -1.826345E-02 -1.931523E+00
      4225   7 -1.096629E+00 -7.475469E-01  9.767555E-01 -6.181194E+00  1.974582E-01 -9.968462E-01
      4225   8 -2.584738E+00 -3.456304E+00 -1.274850E+00 -6.463888E+00  1.143194E-02 -1.936582E+00
      4226   1  7.022464E+00  1.197064E+01  6.004181E+00 -9.210443E-01 -1.075095E+00  2.986141E-01
      4226   2  4.465611E+00  4.547993E+00  4.903982E+00  7.187219E-01 -6.607236E-01  7.545508E-02
      4226   3  3.023825E-01  6.189756E+00  7.697213E-01  1.671122E+00 -3.497918E-02 -7.182344E-01
      4226   4 -1.691683E+00 -1.849573E-01  4.975509E-01  3.133413E+00 -6.671517E-02 -4.506501E-01
      4226   5  4.831459E+00  8.092122E+00  4.008610E+00  4.102746E-01 -1.474214E+00 -1.713504E-01
      4226   6  3.020107E+00  2.377757E+00  3.685136E+00  1.605211E+00 -1.112358E+00 -2.591721E-01
      4226   7 -2.937958E-01  3.662656E+00 -3.542298E-01  2.369219E+00 -5.377725E-01 -1.103122E+00
      4226   8 -1.661769E+00 -1.284589E+00  3.310548E-02  3.460107E+00 -6.257066E-01 -7.186850E-01
      4227   1 -1.944068E+01 -1.031182E+01 -5.767329E+00  7.447548E+00 -5.672129E-02 -1.852661E-01
      4227   2 -1.625845E+01 -3.444370E+00 -2.027347E+00  2.910176E+00 -2.598835E-01 -3.290618E-01
      4227   3 -6.601640E+00 -4.352619E+00 -1.283943E+00  5.180331E+00  3.069950E-01 -4.394379E-01
      4227   4 -3.798824E+00  1.929923E+00  1.776222E+00  9.410020E-01 -2.682520E-01 -2.856783E-01
      4227   5 -2.088892E+01 -1.177983E+01 -6.778297E+00  8.290041E+00 -2.103305E-01 -5.962912E-01
      4227   6 -1.721564E+01 -3.731233E+00 -2.582627E+00  3.369325E+00 -4.572941E-01 -8.656203E-01
      4227   7 -7.110863E+00 -5.233932E+00 -1.846741E+00  5.709056E+00  2.696606E-01 -8.351291E-01
      4227   8 -3.893909E+00  2.052782E+00  1.589722E+00  1.142461E+00 -3.524592E-01 -7.802051E-01
      4228   1 -1.296970E+01 -6.809037E-01 -2.579426E-01  2.918874E-01  2.569732E-01 -3.754809E-01
      4228   2 -1.421934E+01 -2.941766E+00 -2.162563E+00 -2.508142E+00  5.334502E-02 -2.129951E-01
      4228   3 -5.787553E+00  1.917031E+00  1.189285E+00  5.907757E-01 -1.834778E-02 -2.581632E-01
      4228   4 -6.683834E+00  5.458932E-02  6.412604E-02 -2.008630E+00 -3.128677E-01 -2.125518E-01
      4228   5 -1.317868E+01 -3.212712E-01 -3.877707E-01  1.365560E-01  5.109841E-01 -9.171081E-01
      4228   6 -1.458371E+01 -2.994870E+00 -2.397621E+00 -2.760874E+00  2.966563E-01 -5.399153E-01
      4228   7 -5.884431E+00  2.261170E+00  1.076166E+00  5.376276E-01  7.715972E-02 -7.391512E-01
      4228   8 -6.902944E+00  5.983998E-02 -1.175490E-01 -2.146967E+00 -2.288103E-01 -5.137721E-01
      4229   1 -4.972974E+00 -3.777974E-03  9.143774E-01 -2.466250E+00  1.828384E-01 -1.010936E-01
      4229   2 -6.216228E+00 -2.344197E+00 -8.893823E-01 -3.385348E+00  4.042636E-02 -1.384546E-02
      4229   3 -2.713243E+00  8.546725E-01  1.125992E+00 -1.944984E+00 -5.769483E-02 -2.004525E-01
      4229   4 -3.918813E+00 -1.411016E+00 -6.268879E-01 -2.801572E+00 -2.507453E-01 -3.077835E-01
      4229   5 -5.063471E+00 -3.038747E-01  7.119899E-01 -2.868126E+00  3.639829E-01 -3.529231E-01
      4229   6 -6.611780E+00 -3.357642E+00 -1.395271E+00 -3.833847E+00  2.156097E-01 -2.629750E-01
      4229   7 -2.662933E+00  6.768480E-01  9.965523E-01 -2.176207E+00  1.207675E-01 -4.276440E-01
      4229   8 -4.126769E+00 -2.193121E+00 -1.012930E+00 -3.071905E+00 -7.866203E-02 -5.345509E-01
      4230   1 -2.507820E-01  2.068434E+00  1.570363E+00 -1.128977E+00  3.700567E-01  1.507804E-01
      4230   2  7.269965E-01  5.163167E+00  1.734891E+00 -1.158672E+00  1.744805E-01  2.160456E-01
      4230   3 -1.070733E+00  6.676099E-01  2.015255E-01 -2.039932E+00 -1.479230E-02 -2.785527E-01
      4230   4 -2.374793E-01  3.429739E+00  2.169074E-01 -2.062706E+00 -1.584493E-01 -3.268832E-01
      4230   5 -2.852564E-01  1.065121E+00  1.176316E+00 -1.297431E+00  6.519417E-01 -6.639976E-02
      4230   6  5.508442E-01  3.829816E+00  1.198623E+00 -1.263459E+00  4.624773E-01  1.352649E-02
      4230   7 -1.148939E+00 -1.863386E-01 -1.666312E-01 -2.097241E+00  2.743134E-01 -4.716418E-01
      4230   8 -4.300092E-01  2.309618E+00 -2.661547E-01 -2.064479E+00  1.371969E-01 -5.050764E-01
      4231   1 -1.894331E-01  6.612506E+00  9.986141E-01 -2.910341E-01 -9.004314E-02  8.488409E-01
      4231   2 -1.594458E+00  1.958571E+00  9.691338E-01 -9.798868E-01 -4.932310E-01  6.508549E-01
      4231   3  4.243366E-01  5.383471E+00  6.503805E-01  6.832658E-01  1.679988E-01  3.067816E-01
      4231   4 -1.228061E+00  6.751257E-01 -1.492675E-01  7.714862E-02 -2.342061E-02  4.139611E-02
      4231   5  1.608951E-01  5.777819E+00  8.255174E-01 -8.912977E-01 -7.203814E-01  9.294490E-01
      4231   6 -1.448147E+00  7.366136E-01  5.032486E-01 -1.299776E+00 -1.087611E+00  3.495316E-01
      4231   7  3.299582E-01  4.465353E+00  3.270139E-01  2.208973E-01 -2.604233E-01  3.449570E-01
      4231   8 -1.486482E+00 -5.630910E-01 -6.993431E-01 -1.511722E-01 -4.264582E-01 -2.411158E-01
      4232   1 -1.290233E+00 -5.455093E-01  1.056218E+00 -2.383136E-01 -2.052928E-01  4.066099E-01
      4232   2 -1.619763E+00 -1.508833E+00  9.211074E-01 -6.524538E-01 -3.591920E-01  2.598051E-01
      4232   3 -1.132578E+00 -1.167499E+00 -8.497195E-02 -5.365479E-02  6.560193E-03 -8.427534E-02
      4232   4 -1.241642E+00 -1.805880E+00  1.898614E-01 -4.543789E-01 -2.000379E-01 -4.704782E-02
      4232   5 -1.844077E+00 -2.230448E+00  2.144617E-01 -5.370877E-02 -2.684586E-01 -1.106563E-01
      4232   6 -1.858007E+00 -2.489545E+00  4.271249E-01 -5.245966E-01 -4.313062E-01 -1.236640E-01
      4232   7 -1.309712E+00 -2.424625E+00 -6.353462E-01 -2.850879E-02 -1.478802E-01 -5.043204E-01
      4232   8 -1.164446E+00 -2.492281E+00 -8.346976E-02 -4.720453E-01 -3.607953E-01 -3.637249E-01
      4233   1 -5.014344E+00 -3.519728E+00 -6.749646E-01  1.310443E+00  2.680409E-02  1.457125E-01
      4233   2 -4.612840E+00 -2.442201E+00 -4.141427E-01 -1.184125E-01 -1.656993E-01  9.288267E-02
      4233   3 -2.068609E+00 -2.543255E+00 -1.511091E-01  1.038487E+00  8.199344E-02 -7.851285E-02
      4233   4 -1.672189E+00 -1.504076E+00  1.311119E-01 -3.166642E-01 -1.823386E-01 -1.023891E-01
      4233   5 -5.415968E+00 -4.331931E+00 -1.149959E+00  1.430732E+00  8.967605E-02 -1.908787E-01
      4233   6 -4.956029E+00 -3.122554E+00 -8.262058E-01 -8.590598E-02 -1.150239E-01 -2.182366E-01
      4233   7 -2.050538E+00 -3.084744E+00 -3.863866E-01  1.118811E+00  1.353854E-01 -3.670625E-01
      4233   8 -1.606492E+00 -1.937612E+00 -5.336409E-02 -3.034530E-01 -1.375566E-01 -3.694606E-01
      4234   1 -2.313042E+00 -6.444166E-01  5.219118E-01  4.542624E-01  1.661333E-01  1.156694E-01
      4234   2 -2.287221E+00 -1.086251E-01  7.219195E-02 -1.271746E-01 -2.930765E-03  1.293042E-01
      4234   3 -1.396259E+00 -5.898483E-01  2.513889E-01  3.073560E-01  5.701745E-02 -9.523972E-02
      4234   4 -1.345144E+00 -8.718805E-02 -8.088948E-02 -2.373812E-01 -1.032849E-01 -1.381155E-01
      4234   5 -2.397314E+00 -1.246296E+00  2.206507E-01  4.569119E-01  3.573395E-01 -1.511061E-01
      4234   6 -2.462591E+00 -9.387153E-01 -3.045210E-01 -1.072522E-01  1.897632E-01 -7.336644E-02
      4234   7 -1.369806E+00 -1.048971E+00  5.422976E-02  3.660107E-01  2.227764E-01 -3.235516E-01
      4234   8 -1.392599E+00 -7.298087E-01 -3.409107E-01 -1.615169E-01  6.352429E-02 -3.090594E-01
      4235   1 -5.108068E-01  1.769043E+00  6.155780E-01  2.488224E-03  1.696026E-01  2.243999E-01
      4235   2  1.527482E-01  4.003629E+00  5.928418E-01 -1.651788E-01  4.208783E-02  2.862639E-01
      4235   3 -6.477041E-01  1.033682E+00  4.939519E-02 -5.352890E-01 -2.604790E-02 -7.987384E-02
      4235   4  9.497137E-02  3.255791E+00  3.028708E-01 -6.830913E-01 -1.014534E-01  1.490771E-02
      4235   5 -5.832246E-01  1.072300E+00  3.331245E-01  2.003961E-01  4.692213E-01  1.257774E-01
      4235   6  1.851137E-01  3.517915E+00  4.486375E-01  1.038783E-01  3.505547E-01  3.401717E-01
      4235   7 -7.910612E-01  3.865766E-01 -2.242444E-01 -3.796552E-01  2.041339E-01 -1.679493E-01
      4235   8  3.732670E-02  2.785056E+00  1.385686E-01 -4.675764E-01  1.349748E-01  5.606264E-02
      4236   1  2.375995E-01  3.667897E+00  1.853758E-01 -4.331961E-01  8.812640E-02  3.961382E-01
      4236   2 -3.890887E-01  1.563631E+00  2.006815E-01 -6.305462E-01  1.630595E-02  3.689664E-01
      4236   3  3.817690E-01  3.230112E+00  2.289427E-01 -6.427566E-02  1.019582E-01  2.567732E-01
      4236   4 -3.778440E-01  1.033347E+00 -1.063352E-01 -2.425756E-01  6.499753E-02  1.385776E-01
      4236   5  3.419640E-01  3.555829E+00  1.994331E-01 -9.368482E-01 -2.412878E-01  5.782412E-01
      4236   6 -5.188552E-01  9.323191E-01 -4.645388E-02 -1.074418E+00 -3.087740E-01  3.411467E-01
      4236   7  3.861506E-01  3.018328E+00  1.700545E-01 -4.229206E-01 -1.139629E-01  4.010234E-01
      4236   8 -5.521115E-01  4.102243E-01 -3.493821E-01 -5.507184E-01 -1.500412E-01  1.131431E-01
      4237   1 -9.063217E-02  5.446108E-01  4.713712E-01 -9.194155E-01 -2.316049E-02  3.163341E-01
      4237   2 -6.377215E-01 -1.113108E+00  3.054594E-01 -1.196414E+00 -2.083927E-01  2.355266E-01
      4237   3  1.135720E-02  1.475320E-01  9.678972E-02 -6.386384E-01  2.122982E-02  6.887539E-02
      4237   4 -5.321833E-01 -1.436378E+00 -1.311017E-01 -8.874571E-01 -1.054685E-01  7.221055E-03
      4237   5  8.312678E-03 -1.931405E-01  2.441636E-01 -1.235251E+00 -2.225201E-01  1.579540E-01
      4237   6 -5.270953E-01 -1.815456E+00  8.178585E-02 -1.406051E+00 -4.004746E-01  1.001877E-02
      4237   7  8.050468E-02 -4.817349E-01 -7.848706E-02 -9.197278E-01 -1.388887E-01 -5.315872E-02
      4237   8 -4.504065E-01 -2.034518E+00 -2.954080E-01 -1.077821E+00 -2.641054E-01 -1.736002E-01
      4238   1 -7.977691E-01 -1.990561E+00  1.343305E-01  3.732648E-01  4.731960E-02  1.566804E-01
      4238   2 -6.631531E-01 -1.589754E+00  1.822445E-01  9.254613E-03 -1.287933E-01  1.068744E-01
      4238   3 -4.486958E-01 -2.082221E+00 -1.638891E-01  2.869498E-01  6.064965E-02 -4.453060E-02
      4238   4 -2.741054E-01 -1.644840E+00 -1.930260E-02 -5.450990E-02 -9.398522E-02 -6.544977E-02
      4238   5 -7.329162E-01 -2.701961E+00 -1.063133E-01  3.731118E-01  8.308908E-02 -9.284692E-02
      4238   6 -5.454170E-01 -2.184810E+00  1.533206E-03  5.545745E-02 -9.035337E-02 -9.214324E-02
      4238   7 -2.725259E-01 -2.631003E+00 -2.851763E-01  2.617408E-01  7.455747E-02 -2.458329E-01
      4238   8 -5.909783E-02 -2.104435E+00 -1.003169E-01 -3.707530E-02 -7.953372E-02 -2.263703E-01
      4239   1 -1.027083E+00 -9.066009E-01  8.412372E-02  9.929732E-01  9.939434E-02  1.113567E-01
      4239   2 -5.861722E-01  4.429604E-01  2.042668E-01  6.388543E-01 -2.936833E-02  9.914368E-02
      4239   3 -6.336472E-01 -1.010124E+00 -7.073357E-02  7.520961E-01  7.061045E-02 -5.257751E-02
      4239   4 -1.751266E-01  3.113294E-01  1.362149E-01  4.216496E-01 -3.327851E-02 -5.314771E-02
      4239   5 -1.014160E+00 -1.468106E+00 -1.105180E-01  1.158512E+00  2.547764E-01 -3.453099E-02
      4239   6 -5.343054E-01 -3.628024E-02  5.717171E-02  8.521767E-01  1.291063E-01  2.280205E-02
      4239   7 -5.570503E-01 -1.464204E+00 -1.901000E-01  8.832899E-01  1.957515E-01 -1.683804E-01
      4239   8 -7.105146E-02 -8.038607E-02  4.607830E-02  5.955425E-01  9.249218E-02 -1.101678E-01
      4240   1 -3.936332E-01  1.217268E+00  1.548465E-01  2.481881E-01  1.167744E-02  1.296749E-01
      4240   2 -1.864349E-02  2.484907E+00  1.371726E-01  9.182632E-02 -4.239687E-02  1.545067E-01
      4240   3 -3.051616E-01  9.372200E-01  3.280763E-02  2.049638E-02 -1.800469E-02 -1.248815E-02
      4240   4  1.333852E-01  2.238866E+00  1.929846E-01 -1.237562E-01 -5.530428E-02  5.526594E-02
      4240   5 -4.667813E-01  7.982527E-01 -8.300489E-04  4.992725E-01  2.093777E-01  1.288040E-01
      4240   6  2.258041E-02  2.318550E+00  1.100784E-01  3.729170E-01  1.573891E-01  2.658024E-01
      4240   7 -3.768313E-01  5.454646E-01 -1.078543E-01  2.009851E-01  1.224341E-01 -1.106202E-02
      4240   8  1.483051E-01  2.046260E+00  1.418054E-01  8.269986E-02  8.555915E-02  1.482228E-01
      4241   1 -8.968074E+01 -3.524535E+01 -2.629884E+01  3.993084E+01 -5.042549E-01 -2.093741E-02
      4241   2 -8.244787E+01 -1.807198E+01 -1.936264E+01  1.924101E+01 -2.331423E-01 -5.129550E-01
      4241   3 -1.304281E+01  1.336430E+00  2.527849E+00  2.674900E+01  1.269698E+00 -6.767280E-01
      4241   4 -5.885200E+00  1.754964E+01  1.017333E+01  7.950694E+00 -1.125827E-03 -5.864306E-01
      4241   5 -9.231431E+01 -3.701819E+01 -2.771801E+01  4.109229E+01 -3.728779E-01 -1.551536E+00
      4241   6 -8.450881E+01 -1.852353E+01 -2.019433E+01  1.918400E+01 -1.309431E-01 -1.729316E+00
      4241   7 -1.460693E+01  1.300411E-01  1.358228E+00  2.760489E+01  1.126855E+00 -2.055169E+00
      4241   8 -6.888147E+00  1.760100E+01  9.616556E+00  7.651712E+00 -2.455196E-01 -1.666651E+00
      4242   1 -4.224197E+01  3.561451E+00 -1.778121E+00  5.074573E+00  6.472863E-01 -8.599875E-01
      4242   2 -4.554538E+01 -2.410352E+00 -6.817691E+00 -2.106364E+00  2.293139E-01 -7.035421E-01
      4242   3 -1.800402E+01  1.215510E+01  4.868038E+00  4.853438E+00 -4.492477E-01 -5.380554E-01
      4242   4 -2.026571E+01  7.473471E+00  2.010707E+00 -1.613596E+00 -6.927906E-01 -4.265688E-01
      4242   5 -4.116174E+01  4.841722E+00 -1.130588E+00  4.353666E+00  1.340538E+00 -1.925089E+00
      4242   6 -4.453578E+01 -1.316461E+00 -6.219203E+00 -2.678338E+00  9.258663E-01 -1.275872E+00
      4242   7 -1.861322E+01  1.263775E+01  4.619107E+00  4.245070E+00 -2.651663E-01 -1.461241E+00
      4242   8 -2.090299E+01  7.815467E+00  1.808802E+00 -2.118877E+00 -4.972215E-01 -9.163854E-01
      4243   1 -2.109631E+01  4.621424E+00  1.309461E+00 -7.167148E+00 -1.580014E-01 -6.274618E-01
      4243   2 -2.450120E+01 -2.291493E+00 -3.127268E+00 -9.540789E+00 -4.655102E-01 -6.026665E-01
      4243   3 -1.312972E+01  7.490992E+00  3.461896E+00 -5.463870E+00 -6.789142E-01 -4.095252E-01
      4243   4 -1.616005E+01  1.284901E+00 -4.330979E-01 -7.587243E+00 -7.479745E-01 -4.464075E-01
      4243   5 -2.010755E+01  5.600276E+00  1.878958E+00 -7.681638E+00  2.505835E-01 -9.594933E-01
      4243   6 -2.360356E+01 -1.528402E+00 -2.645721E+00 -9.857437E+00 -5.241314E-02 -8.345279E-01
      4243   7 -1.321336E+01  7.979187E+00  3.510923E+00 -5.969177E+00 -3.857326E-01 -7.160058E-01
      4243   8 -1.632884E+01  1.563395E+00 -4.582138E-01 -7.927334E+00 -4.390889E-01 -6.662150E-01
      4244   1 -9.706519E+00  4.563600E-01  1.404289E+00 -9.247981E+00 -6.445702E-01 -6.739507E-01
      4244   2 -1.265902E+01 -5.927961E+00 -2.053059E+00 -1.044695E+01 -7.184166E-01 -8.848707E-01
      4244   3 -5.469451E+00  2.605716E+00  2.436586E+00 -7.300665E+00 -5.937305E-01 -5.437831E-01
      4244   4 -8.309326E+00 -3.343315E+00 -1.080632E+00 -8.383128E+00 -6.689738E-01 -8.181931E-01
      4244   5 -9.459027E+00  8.098133E-01  1.567852E+00 -9.482924E+00 -4.485833E-01 -9.041681E-01
      4244   6 -1.251550E+01 -5.813851E+00 -1.996734E+00 -1.067966E+01 -5.224561E-01 -1.162956E+00
      4244   7 -5.436489E+00  2.842521E+00  2.459321E+00 -7.545469E+00 -3.650130E-01 -7.554911E-01
      4244   8 -8.384920E+00 -3.348447E+00 -1.177814E+00 -8.630545E+00 -4.403482E-01 -1.075675E+00
      4245   1 -1.120800E+00 -4.717092E-01  2.819036E+00 -5.916459E+00 -3.003078E-01 -1.019025E+00
      4245   2 -1.831519E+00 -2.159426E+00  2.137688E+00 -5.987697E+00 -2.671923E-01 -1.458549E+00
      4245   3 -1.458916E+00 -6.870350E-01  1.227241E+00 -5.410494E+00 -2.092425E-01 -9.589854E-01
      4245   4 -2.471575E+00 -2.583708E+00 -2.516138E-01 -5.478442E+00 -2.216165E-01 -1.391700E+00
      4245   5 -1.170357E+00 -3.771780E-01  2.805549E+00 -5.992241E+00 -3.227265E-01 -1.435750E+00
      4245   6 -1.875027E+00 -2.041404E+00  2.120872E+00 -6.100293E+00 -2.904718E-01 -2.063202E+00
      4245   7 -1.442337E+00 -6.080402E-01  1.162013E+00 -5.498348E+00 -6.561125E-02 -1.314161E+00
      4245   8 -2.469991E+00 -2.507064E+00 -3.644743E-01 -5.599031E+00 -8.098111E-02 -1.913016E+00
      4246   1  8.974358E+00  1.263418E+01  9.602892E+00 -1.942347E+00 -7.987886E-01 -5.057474E-01
      4246   2  5.965836E+00  4.661452E+00  7.547210E+00 -5.177679E-04 -3.699324E-01 -4.024233E-01
      4246   3  7.292491E-01  6.093026E+00  2.239337E+00  9.013844E-01 -2.584701E-01 -5.771698E-01
      4246   4 -1.894255E+00 -1.114807E+00  7.021553E-01  2.670688E+00  6.755642E-02 -4.789914E-01
      4246   5  8.692496E+00  1.319604E+01  9.361818E+00 -1.575551E+00 -1.084522E+00 -1.376072E+00
      4246   6  5.638947E+00  5.103431E+00  7.275930E+00  2.594426E-01 -6.670838E-01 -1.246638E+00
      4246   7  7.281949E-01  6.724842E+00  2.078288E+00  1.181264E+00 -5.943988E-01 -1.335495E+00
      4246   8 -1.938161E+00 -5.989483E-01  5.142248E-01  2.860322E+00 -2.806753E-01 -1.221801E+00
      4247   1 -1.717418E+01 -9.953973E+00 -3.374327E+00  6.649529E+00 -3.376649E-01 -2.961117E-01
      4247   2 -1.457532E+01 -3.788478E+00 -8.769775E-01  2.632758E+00 -3.902322E-01 -1.781351E-01
      4247   3 -6.053072E+00 -4.985466E+00 -1.038588E+00  4.558313E+00  9.396887E-02 -3.736263E-01
      4247   4 -3.335620E+00  1.037511E+00  1.996604E+00  7.881244E-01 -2.201551E-01 -1.694759E-01
      4247   5 -1.821207E+01 -9.943000E+00 -3.959008E+00  6.980993E+00 -2.762801E-01 -1.149025E+00
      4247   6 -1.555599E+01 -3.690528E+00 -1.357881E+00  2.695887E+00 -3.578893E-01 -8.361246E-01
      4247   7 -6.588098E+00 -4.812699E+00 -1.445315E+00  4.832448E+00  1.060662E-03 -1.115894E+00
      4247   8 -3.813009E+00  1.294600E+00  1.697672E+00  8.290539E-01 -3.443568E-01 -7.478995E-01
      4248   1 -1.241466E+01 -1.539364E+00  6.569491E-02  5.310663E-01 -2.557905E-01 -1.790409E-01
      4248   2 -1.341479E+01 -3.175371E+00 -1.632083E+00 -2.097032E+00 -3.497919E-01 -2.583818E-01
      4248   3 -5.454996E+00  1.032042E+00  1.337542E+00  7.031959E-01 -2.594768E-01 -1.517361E-01
      4248   4 -6.202889E+00 -3.498894E-01  2.264956E-01 -1.740350E+00 -4.339748E-01 -2.769211E-01
      4248   5 -1.284814E+01 -1.264559E+00 -1.581742E-01  3.871266E-01 -1.320105E-02 -7.234961E-01
      4248   6 -1.396505E+01 -3.210178E+00 -1.935585E+00 -2.330034E+00 -1.161408E-01 -6.385887E-01
      4248   7 -5.804893E+00  1.284746E+00  1.118452E+00  6.303043E-01 -1.389006E-01 -6.401494E-01
      4248   8 -6.646473E+00 -3.558093E-01 -4.626194E-02 -1.892722E+00 -3.230299E-01 -6.264921E-01
      4249   1 -4.826235E+00 -1.655775E-01  1.190241E+00 -2.004129E+00 -1.235583E-01 -3.069685E-01
      4249   2 -5.897501E+00 -1.981720E+00 -5.645036E-01 -2.895906E+00 -1.829345E-01 -4.220877E-01
      4249   3 -2.678614E+00  5.698142E-01  1.100994E+00 -1.636632E+00 -2.431984E-01 -3.707488E-01
      4249   4 -3.679682E+00 -1.165180E+00 -5.009057E-01 -2.457501E+00 -2.970553E-01 -5.618733E-01
      4249   5 -4.989959E+00 -2.147815E-01  1.020419E+00 -2.227719E+00  1.027118E-01 -6.091075E-01
      4249   6 -6.188442E+00 -2.336942E+00 -8.523667E-01 -3.117965E+00  4.394850E-02 -6.742423E-01
      4249   7 -2.883429E+00  5.144447E-01  9.087804E-01 -1.783734E+00 -4.593900E-02 -6.464650E-01
      4249   8 -3.991268E+00 -1.479569E+00 -7.900019E-01 -2.604669E+00 -9.913554E-02 -7.942400E-01
      4250   1 -2.961714E-01  2.317065E+00  1.809207E+00 -9.370949E-01  2.370853E-01 -3.318591E-01
      4250   2  9.081644E-01  5.696925E+00  2.443799E+00 -9.672229E-01  2.140130E-01 -2.654230E-01
      4250   3 -1.112874E+00  8.997196E-01  3.265266E-01 -1.901369E+00 -2.101632E-02 -5.397206E-01
      4250   4 -4.619713E-02  3.969057E+00  8.127795E-01 -1.928856E+00 -4.132210E-02 -4.868701E-01
      4250   5 -3.981296E-01  2.050387E+00  1.608404E+00 -1.005125E+00  4.384489E-01 -5.664147E-01
      4250   6  8.112722E-01  5.443254E+00  2.246876E+00 -1.031380E+00  4.156839E-01 -4.849290E-01
      4250   7 -1.208895E+00  6.659189E-01  1.303738E-01 -1.943617E+00  1.873372E-01 -7.478651E-01
      4250   8 -1.349721E-01  3.753440E+00  6.225945E-01 -1.967641E+00  1.673624E-01 -6.787922E-01
      4251   1 -6.413537E-02  7.030929E+00  1.535845E+00 -3.022696E-01 -3.371696E-01  3.372693E-01
      4251   2 -1.703832E+00  2.264209E+00  8.369112E-01 -1.017320E+00 -4.112723E-01  2.956089E-01
      4251   3  6.568380E-01  5.970537E+00  1.075378E+00  6.351265E-01 -3.157929E-02  8.850241E-02
      4251   4 -1.082337E+00  1.261614E+00 -1.294806E-02 -3.427456E-02 -9.775638E-02 -4.309624E-02
      4251   5 -2.911518E-01  6.687884E+00  1.302285E+00 -3.190025E-01 -6.985576E-01  2.852945E-01
      4251   6 -2.062396E+00  1.664775E+00  4.212455E-01 -1.026087E+00 -7.712783E-01  2.103574E-02
      4251   7  4.808805E-01  5.648436E+00  8.824858E-01  6.546583E-01 -3.052140E-01  3.251627E-02
      4251   8 -1.359830E+00  7.377409E-01 -3.425200E-01 -7.020789E-03 -3.704304E-01 -2.853846E-01
      4252   1 -7.613281E-01  1.144596E-01  1.136860E+00 -5.705013E-01 -3.649411E-01  2.483171E-01
      4252   2 -1.142951E+00 -1.226732E+00  1.205976E+00 -7.875006E-01 -2.624605E-01  1.843445E-01
      4252   3 -8.422903E-01 -5.878629E-01  3.020678E-02 -2.341697E-01 -1.396483E-01 -7.635077E-02
      4252   4 -1.125368E+00 -1.702925E+00  2.016763E-01 -4.629368E-01 -9.557030E-02 -5.776927E-02
      4252   5 -1.468624E+00 -7.076714E-01  5.260241E-01 -4.572486E-01 -5.328724E-01 -1.555303E-01
      4252   6 -1.723307E+00 -1.753336E+00  7.227430E-01 -7.569481E-01 -4.405765E-01 -2.220337E-01
      4252   7 -1.307717E+00 -1.192503E+00 -3.964786E-01 -1.979634E-01 -3.254593E-01 -4.110528E-01
      4252   8 -1.489478E+00 -2.071621E+00 -1.232308E-01 -4.947942E-01 -2.884610E-01 -4.002239E-01
      4253   1 -4.471943E+00 -3.322164E+00 -3.122221E-01  1.220962E+00 -1.386040E-01  1.175941E-01
      4253   2 -4.111242E+00 -2.259134E+00 -1.729138E-01 -7.882722E-02 -1.915842E-01  2.231682E-02
      4253   3 -1.980022E+00 -2.550556E+00 -1.382268E-01  9.777360E-01 -4.836030E-02 -7.793099E-02
      4253   4 -1.555963E+00 -1.465450E+00  1.901982E-01 -2.574593E-01 -1.300799E-01 -1.382642E-01
      4253   5 -4.994927E+00 -3.744968E+00 -7.363517E-01  1.246543E+00 -6.298777E-02 -2.794279E-01
      4253   6 -4.621863E+00 -2.675022E+00 -5.627499E-01 -9.864617E-02 -1.209799E-01 -2.899414E-01
      4253   7 -2.278807E+00 -2.840209E+00 -4.123499E-01  9.876003E-01 -1.599350E-02 -4.159858E-01
      4253   8 -1.848247E+00 -1.755179E+00 -6.217948E-02 -2.829676E-01 -1.011970E-01 -4.064681E-01
      4254   1 -2.185549E+00 -5.561470E-01  5.627018E-01  5.098159E-01  2.276502E-02 -2.876388E-02
      4254   2 -2.075836E+00  2.202883E-01  1.519742E-01 -7.704579E-03  4.923976E-03 -1.255587E-01
      4254   3 -1.380800E+00 -5.333161E-01  2.825449E-01  3.194002E-01 -1.053276E-02 -1.838373E-01
      4254   4 -1.238072E+00  2.081282E-01  1.686007E-02 -1.741026E-01 -4.354249E-02 -2.833199E-01
      4254   5 -2.491415E+00 -9.069977E-01  2.735352E-01  5.059072E-01  2.158439E-01 -2.695738E-01
      4254   6 -2.416728E+00 -2.318243E-01 -1.526814E-01 -3.457830E-02  1.953576E-01 -2.833125E-01
      4254   7 -1.568402E+00 -7.910141E-01  8.489747E-02  3.376627E-01  1.539443E-01 -3.891433E-01
      4254   8 -1.455414E+00 -1.325421E-01 -1.969466E-01 -1.738901E-01  1.190958E-01 -4.166979E-01
      4255   1 -5.578447E-01  1.996785E+00  6.419029E-01 -8.944697E-03  2.039841E-01 -9.934444E-02
      4255   2  2.221975E-01  4.343909E+00  8.949200E-01 -1.930413E-01  1.630927E-01 -7.554962E-02
      4255   3 -6.090269E-01  1.351150E+00  1.674162E-01 -5.190856E-01  6.632967E-02 -2.687291E-01
      4255   4  2.027320E-01  3.637677E+00  5.867518E-01 -6.895856E-01  3.264397E-02 -2.174331E-01
      4255   5 -6.818578E-01  1.661885E+00  4.579396E-01  2.929882E-02  4.109133E-01 -1.844000E-01
      4255   6  1.351303E-01  4.071742E+00  7.713756E-01 -1.446860E-01  3.712785E-01 -5.619505E-02
      4255   7 -7.078517E-01  1.063113E+00  1.918054E-02 -4.938687E-01  2.339283E-01 -3.421231E-01
      4255   8  1.316192E-01  3.397985E+00  4.825450E-01 -6.555161E-01  2.011161E-01 -2.023595E-01
      4256   1  3.443370E-01  3.986129E+00  3.246409E-01 -2.986845E-01 -5.491759E-02 -5.488173E-02
      4256   2 -3.724502E-01  1.778897E+00  1.425821E-01 -5.391889E-01 -6.826360E-02  1.505167E-02
      4256   3  5.035594E-01  3.544566E+00  3.339662E-01  1.812648E-02  5.198156E-03 -1.282620E-01
      4256   4 -2.585819E-01  1.370322E+00 -3.226152E-02 -1.993330E-01  9.001398E-03 -9.625392E-02
      4256   5  1.780194E-01  3.621098E+00  1.791215E-01 -4.126718E-01 -2.965307E-01  8.983136E-02
      4256   6 -5.469972E-01  1.415163E+00 -3.166532E-02 -6.214914E-01 -3.073442E-01  8.535897E-03
      4256   7  3.412354E-01  3.214775E+00  1.890114E-01 -5.732396E-02 -1.885436E-01 -4.116858E-03
      4256   8 -4.157525E-01  1.056513E+00 -1.760186E-01 -2.492050E-01 -1.842517E-01 -9.615507E-02
      4257   1 -8.424448E-02  7.021710E-01  3.607982E-01 -8.248948E-01 -1.183764E-01  7.182397E-02
      4257   2 -6.524661E-01 -1.044690E+00  2.135868E-01 -1.046121E+00 -9.440977E-02  1.215877E-01
      4257   3  4.542384E-02  3.867210E-01  1.098705E-01 -5.366578E-01 -2.920439E-02 -6.021779E-02
      4257   4 -5.335586E-01 -1.295493E+00 -1.378572E-01 -7.526638E-01 -1.251512E-02 -2.374287E-02
      4257   5 -3.627174E-01  3.239713E-01  1.349725E-01 -9.186193E-01 -3.097754E-01 -3.798515E-02
      4257   6 -9.214145E-01 -1.387411E+00 -1.596849E-02 -1.156945E+00 -2.868834E-01 -8.828053E-02
      4257   7 -1.340787E-01  1.068131E-01 -3.351506E-02 -6.200225E-01 -1.915525E-01 -1.434581E-01
      4257   8 -6.997034E-01 -1.541675E+00 -2.704429E-01 -8.490487E-01 -1.750706E-01 -1.904271E-01
      4258   1 -8.306168E-01 -1.917155E+00  7.926562E-02  3.980031E-01 -5.590748E-02  1.143897E-01
      4258   2 -6.663274E-01 -1.492901E+00  2.026435E-01  8.841381E-02 -5.270310E-02  5.120283E-02
      4258   3 -5.403339E-01 -1.983018E+00 -1.903077E-01  3.365040E-01 -2.195051E-02 -2.432536E-02
      4258   4 -3.505660E-01 -1.536480E+00 -4.285627E-03  3.951832E-02 -2.047094E-02 -6.590729E-02
      4258   5 -1.057948E+00 -2.243093E+00 -1.364648E-01  3.593392E-01 -4.578229E-02 -1.350054E-01
      4258   6 -8.820700E-01 -1.797287E+00  3.990154E-03  4.421280E-02 -4.283262E-02 -1.617349E-01
      4258   7 -6.595587E-01 -2.208293E+00 -3.032584E-01  2.861298E-01 -2.186340E-02 -2.240946E-01
      4258   8 -4.654007E-01 -1.752571E+00 -1.117871E-01 -1.413051E-02 -2.043298E-02 -2.370539E-01
      4259   1 -1.061542E+00 -8.140597E-01  1.068009E-01  9.703405E-01  5.327204E-02 -6.455073E-05
      4259   2 -5.821010E-01  6.439649E-01  2.469140E-01  6.268045E-01  3.179117E-02 -1.015681E-01
      4259   3 -7.243015E-01 -9.042715E-01 -4.684419E-02  7.432745E-01  2.887264E-02 -1.056865E-01
      4259   4 -2.210621E-01  5.186084E-01  2.077405E-01  4.174775E-01  1.162903E-02 -1.848294E-01
      4259   5 -1.199730E+00 -1.077020E+00 -4.717571E-02  9.960790E-01  1.987190E-01 -1.532889E-01
      4259   6 -7.323975E-01  3.393596E-01  9.421797E-02  6.600215E-01  1.778638E-01 -1.577122E-01
      4259   7 -7.739917E-01 -1.087970E+00 -1.233513E-01  7.575255E-01  1.488045E-01 -2.273725E-01
      4259   8 -2.881020E-01  2.918428E-01  1.164676E-01  4.392311E-01  1.316816E-01 -2.262081E-01
      4260   1 -3.809056E-01  1.467924E+00  2.348579E-01  2.086075E-01  1.041441E-01 -1.300655E-01
      4260   2  6.406207E-02  2.838523E+00  3.474843E-01  2.831061E-02  7.425898E-02 -1.661872E-01
      4260   3 -2.885871E-01  1.199164E+00  1.513194E-01 -8.501884E-04  5.212103E-02 -2.085270E-01
      4260   4  1.714301E-01  2.528956E+00  3.549184E-01 -1.682194E-01  3.014272E-02 -2.300907E-01
      4260   5 -4.684417E-01  1.172645E+00  1.154941E-01  2.645428E-01  2.532640E-01 -1.194918E-01
      4260   6 -3.295914E-02  2.509901E+00  2.298470E-01  1.003795E-01  2.245464E-01 -7.198510E-02
      4260   7 -3.369143E-01  9.643772E-01  6.551296E-02  4.128023E-02  1.773399E-01 -1.938635E-01
      4260   8  1.093396E-01  2.259891E+00  2.575123E-01 -1.122696E-01  1.555870E-01 -1.459288E-01
      4261   1 -8.934505E+01 -3.532138E+01 -2.883319E+01  3.850594E+01 -5.272987E-01  1.647402E+00
      4261   2 -8.197808E+01 -1.870707E+01 -2.089093E+01  1.908346E+01 -8.404639E-01  1.239798E+00
      4261   3 -1.157614E+01  2.263960E+00  2.394916E+00  2.539896E+01  1.408185E+00  9.823439E-01
      4261   4 -4.773314E+00  1.741865E+01  9.916301E+00  7.889807E+00  1.673879E-01  9.206173E-01
      4261   5 -9.002779E+01 -3.591841E+01 -2.927581E+01  3.921985E+01 -7.546839E-01  8.377187E-01
      4261   6 -8.240363E+01 -1.870646E+01 -2.107386E+01  1.914411E+01 -1.083965E+00  4.612857E-01
      4261   7 -1.274627E+01  1.413336E+00  1.583352E+00  2.614223E+01  1.163954E+00  2.097058E-01
      4261   8 -5.687385E+00  1.715680E+01  9.369508E+00  7.984775E+00 -1.332276E-01  1.832502E-01
      4262   1 -4.362389E+01  2.191017E+00 -3.336190E+00  5.278433E+00 -1.252276E+00  9.703797E-01
      4262   2 -4.637027E+01 -3.177560E+00 -7.122188E+00 -1.991929E+00 -1.546361E+00  5.176378E-01
      4262   3 -1.698213E+01  1.186331E+01  4.737141E+00  5.043885E+00 -1.053123E+00  9.109816E-01
      4262   4 -1.905160E+01  7.437717E+00  2.264530E+00 -1.464007E+00 -1.306898E+00  5.047989E-01
      4262   5 -4.320804E+01  2.598520E+00 -3.138188E+00  5.236971E+00 -8.397459E-01  1.387249E-01
      4262   6 -4.596143E+01 -2.797485E+00 -6.920146E+00 -1.997260E+00 -1.133130E+00 -5.652212E-02
      4262   7 -1.782976E+01  1.170698E+01  4.264489E+00  5.033030E+00 -9.263580E-01  1.616518E-01
      4262   8 -1.989079E+01  7.262367E+00  1.838995E+00 -1.471140E+00 -1.177683E+00 -1.930962E-02
      4263   1 -2.168176E+01  4.056283E+00  1.421665E+00 -7.192026E+00 -1.777992E+00  1.849029E-01
      4263   2 -2.519800E+01 -3.017268E+00 -3.225554E+00 -9.764255E+00 -1.932301E+00 -2.861588E-01
      4263   3 -1.256186E+01  7.233476E+00  3.565176E+00 -5.335250E+00 -1.529408E+00  2.130562E-01
      4263   4 -1.557174E+01  1.036721E+00 -2.709712E-01 -7.622347E+00 -1.541536E+00 -2.051773E-01
      4263   5 -2.133130E+01  4.410395E+00  1.606186E+00 -7.102424E+00 -1.325622E+00 -2.442020E-01
      4263   6 -2.481954E+01 -2.603118E+00 -3.007741E+00 -9.569833E+00 -1.477461E+00 -5.681599E-01
      4263   7 -1.301756E+01  7.226201E+00  3.332338E+00 -5.324321E+00 -1.234231E+00 -1.938083E-01
      4263   8 -1.600209E+01  1.070041E+00 -4.599528E-01 -7.529339E+00 -1.237717E+00 -4.815607E-01
      4264   1 -9.839738E+00 -8.006883E-02  1.425308E+00 -9.532433E+00 -1.675636E+00 -5.881589E-01
      4264   2 -1.287563E+01 -6.534146E+00 -2.240240E+00 -1.075808E+01 -1.687372E+00 -1.011557E+00
      4264   3 -5.224914E+00  2.226089E+00  2.475899E+00 -7.434802E+00 -1.221101E+00 -4.859828E-01
      4264   4 -8.031815E+00 -3.649123E+00 -1.005225E+00 -8.527841E+00 -1.197556E+00 -9.040434E-01
      4264   5 -9.762513E+00  2.172464E-01  1.519851E+00 -9.309224E+00 -1.422346E+00 -8.298092E-01
      4264   6 -1.280285E+01 -6.246445E+00 -2.150923E+00 -1.051196E+01 -1.433469E+00 -1.245772E+00
      4264   7 -5.458266E+00  2.348189E+00  2.380176E+00 -7.289941E+00 -9.703276E-01 -7.169305E-01
      4264   8 -8.279850E+00 -3.558576E+00 -1.118339E+00 -8.367804E+00 -9.446385E-01 -1.128882E+00
      4265   1 -9.672317E-01 -9.036787E-01  2.703952E+00 -6.143012E+00 -8.204975E-01 -9.866224E-01
      4265   2 -1.717417E+00 -2.616592E+00  1.916248E+00 -6.154958E+00 -7.199656E-01 -1.042193E+00
      4265   3 -1.384665E+00 -1.054530E+00  1.222215E+00 -5.563886E+00 -5.537284E-01 -9.398544E-01
      4265   4 -2.385052E+00 -2.917456E+00 -2.494827E-01 -5.577176E+00 -4.844241E-01 -1.019502E+00
      4265   5 -1.159506E+00 -7.894837E-01  2.657749E+00 -5.997588E+00 -8.019418E-01 -1.328895E+00
      4265   6 -1.914378E+00 -2.505796E+00  1.857822E+00 -6.038638E+00 -7.019524E-01 -1.532788E+00
      4265   7 -1.521876E+00 -9.565818E-01  1.130733E+00 -5.435390E+00 -3.647079E-01 -1.225344E+00
      4265   8 -2.543947E+00 -2.843737E+00 -3.890161E-01 -5.474645E+00 -2.973018E-01 -1.434844E+00
      4266   1  1.025555E+01  1.339091E+01  1.010789E+01 -2.644480E+00 -5.873991E-01  7.189241E-01
      4266   2  7.126653E+00  5.176586E+00  7.892560E+00 -4.799493E-01 -3.553752E-02  8.361564E-01
      4266   3  1.439303E+00  6.221361E+00  2.843133E+00  4.084712E-01 -1.193366E-01  1.289449E-01
      4266   4 -1.404528E+00 -1.244838E+00  8.298995E-01  2.370825E+00  3.255917E-01  2.924851E-01
      4266   5  9.149739E+00  1.244336E+01  9.232506E+00 -2.285253E+00 -8.557823E-01 -2.932265E-03
      4266   6  6.078533E+00  4.372362E+00  7.066148E+00 -2.324773E-01 -3.151545E-01  5.592374E-02
      4266   7  7.047349E-01  5.544822E+00  2.138506E+00  6.276302E-01 -3.560851E-01 -5.379074E-01
      4266   8 -2.098787E+00 -1.817872E+00  1.561291E-01  2.494247E+00  7.666035E-02 -4.267223E-01
      4267   1 -1.533832E+01 -9.234711E+00 -2.771307E+00  6.092614E+00 -5.125997E-01  9.775219E-01
      4267   2 -1.297400E+01 -3.642971E+00 -4.819981E-01  2.404596E+00 -5.411195E-01  8.081007E-01
      4267   3 -4.958345E+00 -4.890569E+00 -8.005552E-01  4.189917E+00  1.309449E-01  4.487167E-01
      4267   4 -2.428205E+00  7.310931E-01  2.011584E+00  7.370105E-01 -6.342455E-02  5.242491E-01
      4267   5 -1.668821E+01 -1.007985E+01 -3.686827E+00  6.385041E+00 -4.902978E-01  1.622334E-01
      4267   6 -1.411724E+01 -4.043400E+00 -1.153351E+00  2.525300E+00 -5.362407E-01  1.602568E-01
      4267   7 -5.990670E+00 -5.538233E+00 -1.583278E+00  4.355371E+00  2.416224E-02 -2.738099E-01
      4267   8 -3.278743E+00  4.669259E-01  1.451321E+00  7.501932E-01 -1.891026E-01 -5.432593E-02
      4268   1 -1.159345E+01 -1.878351E+00  1.248995E-01  4.890154E-01 -7.370670E-01  5.955641E-01
      4268   2 -1.252665E+01 -3.423310E+00 -1.440797E+00 -2.001556E+00 -7.629220E-01  1.458467E-01
      4268   3 -4.795800E+00  5.792084E-01  1.245198E+00  6.715172E-01 -4.185618E-01  4.376930E-01
      4268   4 -5.451287E+00 -6.461054E-01  2.855568E-01 -1.636727E+00 -4.970163E-01  6.989264E-02
      4268   5 -1.228179E+01 -1.960685E+00 -2.802961E-01  5.321344E-01 -5.340279E-01  5.048306E-02
      4268   6 -1.320149E+01 -3.508666E+00 -1.798012E+00 -2.022899E+00 -5.654082E-01 -2.407796E-01
      4268   7 -5.454900E+00  4.820867E-01  8.296338E-01  7.136838E-01 -3.337848E-01 -5.603551E-02
      4268   8 -6.093358E+00 -7.409022E-01 -7.557076E-02 -1.654006E+00 -4.182316E-01 -2.879936E-01
      4269   1 -4.510479E+00 -5.875319E-01  1.204558E+00 -1.900865E+00 -4.995468E-01 -1.185574E-01
      4269   2 -5.477012E+00 -2.192833E+00 -4.119167E-01 -2.722926E+00 -4.490382E-01 -4.467935E-01
      4269   3 -2.388795E+00  1.619977E-01  1.047487E+00 -1.566656E+00 -4.095700E-01 -1.820112E-01
      4269   4 -3.262421E+00 -1.341568E+00 -3.610332E-01 -2.327739E+00 -3.792742E-01 -5.253873E-01
      4269   5 -4.861233E+00 -5.703177E-01  9.975059E-01 -1.917251E+00 -2.832417E-01 -4.218367E-01
      4269   6 -5.879096E+00 -2.307475E+00 -6.582127E-01 -2.767121E+00 -2.348566E-01 -6.855388E-01
      4269   7 -2.726266E+00  1.765033E-01  8.345678E-01 -1.547578E+00 -2.339428E-01 -4.615747E-01
      4269   8 -3.640725E+00 -1.435448E+00 -6.016790E-01 -2.334483E+00 -2.059499E-01 -7.486416E-01
      4270   1 -2.086099E-01  2.123517E+00  1.875006E+00 -7.894740E-01  5.438798E-02 -4.244392E-01
      4270   2  1.168371E+00  5.923316E+00  2.665144E+00 -7.718103E-01  1.089595E-01 -3.400028E-01
      4270   3 -1.076663E+00  6.702668E-01  4.026199E-01 -1.841693E+00 -6.954893E-02 -5.790753E-01
      4270   4  1.667866E-01  4.078348E+00  1.139372E+00 -1.831054E+00 -3.338662E-02 -5.695108E-01
      4270   5 -4.113833E-01  1.974571E+00  1.687969E+00 -8.412151E-01  2.631345E-01 -6.239041E-01
      4270   6  8.638025E-01  5.528428E+00  2.384732E+00 -8.429952E-01  3.157721E-01 -4.940946E-01
      4270   7 -1.207272E+00  6.095247E-01  2.568057E-01 -1.814134E+00  1.124839E-01 -7.648299E-01
      4270   8 -4.618094E-02  3.816304E+00  9.203294E-01 -1.820457E+00  1.465489E-01 -7.158897E-01
      4271   1 -1.146554E-02  6.164592E+00  1.423837E+00 -4.548327E-01 -2.195061E-01 -2.252203E-01
      4271   2 -1.671465E+00  1.584515E+00  4.705791E-01 -1.121549E+00 -1.966010E-01  5.271420E-02
      4271   3  8.283443E-01  5.329418E+00  1.246986E+00  4.791189E-01 -1.969206E-02 -3.468123E-01
      4271   4 -8.718120E-01  8.873174E-01  2.189814E-02 -1.407163E-01  1.135799E-02 -1.551364E-01
      4271   5 -3.159016E-01  6.089719E+00  1.278084E+00 -4.696377E-01 -4.519327E-01 -2.272667E-01
      4271   6 -2.044019E+00  1.392243E+00  2.151689E-01 -1.134373E+00 -4.275671E-01 -1.221793E-01
      4271   7  5.511673E-01  5.269370E+00  1.123983E+00  4.599262E-01 -1.928091E-01 -3.570612E-01
      4271   8 -1.202796E+00  7.300992E-01 -1.832919E-01 -1.589945E-01 -1.607613E-01 -3.086152E-01
      4272   1 -1.524483E-01 -1.513880E-01  9.575730E-01 -7.452940E-01 -2.521264E-01  2.550632E-01
      4272   2 -5.420156E-01 -1.513832E+00  1.021459E+00 -6.978726E-01 -1.717775E-02  4.316644E-01
      4272   3 -3.765958E-01 -7.572305E-01  7.512313E-02 -2.891210E-01 -4.385472E-02  1.501591E-02
      4272   4 -7.306500E-01 -1.944768E+00  8.248001E-02 -3.013173E-01  1.032036E-01  2.092553E-01
      4272   5 -8.674031E-01 -5.311087E-01  5.155885E-01 -7.091072E-01 -4.041873E-01 -2.781950E-02
      4272   6 -1.204553E+00 -1.754741E+00  6.153888E-01 -7.910451E-01 -1.849979E-01  8.176635E-02
      4272   7 -8.584034E-01 -9.861553E-01 -2.156952E-01 -3.207845E-01 -1.798672E-01 -2.217208E-01
      4272   8 -1.174113E+00 -2.072946E+00 -1.812690E-01 -4.396382E-01 -4.357546E-02 -8.569638E-02
      4273   1 -3.900867E+00 -3.573466E+00 -4.557318E-01  1.252132E+00 -1.790298E-01  4.525588E-01
      4273   2 -3.490090E+00 -2.473310E+00 -1.866298E-01  1.143195E-01 -1.275078E-01  2.747521E-01
      4273   3 -1.639634E+00 -2.763376E+00 -2.860539E-01  1.018323E+00 -7.024024E-02  2.539356E-01
      4273   4 -1.175135E+00 -1.632834E+00  1.317321E-01 -8.235427E-02 -6.136703E-02  1.313789E-01
      4273   5 -4.503498E+00 -3.767973E+00 -8.296610E-01  1.231399E+00 -1.520367E-01  8.563474E-02
      4273   6 -4.067103E+00 -2.625069E+00 -5.179138E-01  2.353990E-02 -1.081617E-01 -2.722061E-02
      4273   7 -2.038160E+00 -2.870859E+00 -5.299428E-01  9.813511E-01 -7.061932E-02 -5.532504E-02
      4273   8 -1.556623E+00 -1.712195E+00 -8.348584E-02 -1.758773E-01 -6.697051E-02 -1.254828E-01
      4274   1 -1.952790E+00 -9.181893E-01  4.586670E-01  6.626210E-01 -5.717599E-02  1.035604E-01
      4274   2 -1.746016E+00  1.615328E-02  2.135690E-01  2.547524E-01  3.632155E-03 -1.927208E-01
      4274   3 -1.239733E+00 -8.063490E-01  1.918134E-01  3.796487E-01 -8.561882E-02 -1.581440E-02
      4274   4 -1.000271E+00  5.976899E-02  1.239044E-01 -2.387568E-02 -5.428515E-02 -2.868773E-01
      4274   5 -2.267932E+00 -9.626802E-01  2.585556E-01  6.203809E-01  7.838773E-02 -1.282790E-01
      4274   6 -2.099315E+00 -1.432799E-01  1.210509E-03  1.661228E-01  1.339109E-01 -3.243388E-01
      4274   7 -1.444509E+00 -8.020823E-01  6.865553E-02  3.786163E-01  1.556192E-02 -2.139062E-01
      4274   8 -1.235766E+00 -2.534358E-02 -1.227122E-02 -6.280158E-02  4.328493E-02 -4.008512E-01
      4275   1 -5.972243E-01  1.663641E+00  6.226460E-01  1.983095E-01  2.246108E-01 -3.151081E-01
      4275   2  2.761376E-01  4.152887E+00  1.044607E+00  3.310970E-02  2.291556E-01 -4.824043E-01
      4275   3 -5.843982E-01  1.113379E+00  2.761093E-01 -3.975517E-01  8.229987E-02 -4.112366E-01
      4275   4  2.854028E-01  3.442141E+00  8.466836E-01 -5.503885E-01  8.990175E-02 -5.601433E-01
      4275   5 -7.149328E-01  1.559966E+00  5.230041E-01  1.495956E-01  3.658186E-01 -3.682791E-01
      4275   6  1.211962E-01  3.935049E+00  9.350181E-01 -1.369857E-02  3.709115E-01 -4.297783E-01
      4275   7 -6.768042E-01  1.055445E+00  2.083070E-01 -4.076478E-01  1.860036E-01 -4.602376E-01
      4275   8  1.627034E-01  3.294881E+00  7.672295E-01 -5.591204E-01  1.939800E-01 -5.205513E-01
      4276   1 -2.072873E-02  2.172847E+00 -1.164425E-02 -4.882363E-01 -7.521512E-02 -7.863471E-01
      4276   2 -6.839514E-01  2.449469E-01 -2.944868E-01 -6.072025E-01  1.863846E-03 -3.593406E-01
      4276   3  3.428604E-01  2.258750E+00  3.340611E-01 -8.472784E-02 -5.663101E-03 -6.186405E-01
      4276   4 -3.668369E-01  3.730621E-01 -1.459089E-01 -2.188043E-01  5.483743E-02 -2.888102E-01
      4276   5  2.489566E-02  2.764833E+00  2.179811E-01 -4.996399E-01 -2.147403E-01 -5.337365E-01
      4276   6 -6.545145E-01  8.265573E-01 -1.084436E-01 -6.640166E-01 -1.406760E-01 -2.930051E-01
      4276   7  3.736063E-01  2.733713E+00  4.926063E-01 -1.275578E-01 -1.124386E-01 -4.356499E-01
      4276   8 -3.413537E-01  8.406271E-01  2.491888E-03 -2.961882E-01 -5.247529E-02 -2.468746E-01
      4277   1 -2.202643E-01 -5.673302E-01 -6.866078E-02 -7.700007E-01 -3.322843E-02 -5.463069E-02
      4277   2 -6.935401E-01 -1.985628E+00 -2.279490E-01 -7.930096E-01  7.132093E-02  2.842457E-01
      4277   3  1.638803E-03 -4.119226E-01 -6.909400E-02 -4.532914E-01  2.238498E-02 -5.540263E-02
      4277   4 -5.220827E-01 -1.828242E+00 -3.985124E-01 -5.255530E-01  8.767114E-02  2.009810E-01
      4277   5 -2.739650E-01 -4.308546E-02  5.184047E-02 -8.796745E-01 -1.572332E-01 -1.167824E-01
      4277   6 -7.920854E-01 -1.544257E+00 -1.740557E-01 -1.002109E+00 -5.982344E-02  7.192558E-02
      4277   7  3.811242E-03  2.803664E-02  5.986353E-02 -5.748001E-01 -6.983244E-02 -1.102083E-01
      4277   8 -5.495167E-01 -1.453487E+00 -3.030396E-01 -7.214789E-01 -5.818568E-03  3.326038E-02
      4278   1 -8.364766E-01 -2.605656E+00 -3.068554E-01  5.357806E-01 -7.034944E-02  3.998492E-01
      4278   2 -5.438573E-01 -1.924091E+00 -1.302228E-02  4.003019E-01  1.107885E-02  3.309629E-01
      4278   3 -5.440286E-01 -2.338947E+00 -4.566820E-01  4.323260E-01 -5.839305E-02  2.844016E-01
      4278   4 -2.821457E-01 -1.747159E+00 -1.755275E-01  2.585149E-01 -1.056112E-02  2.149533E-01
      4278   5 -9.498156E-01 -2.277009E+00 -3.000105E-01  4.215599E-01 -8.611441E-02  1.290822E-01
      4278   6 -7.210428E-01 -1.747703E+00 -6.674024E-02  2.009154E-01 -1.079518E-02  7.696113E-02
      4278   7 -5.663488E-01 -2.051992E+00 -3.875822E-01  3.396918E-01 -7.084177E-02  7.396683E-02
      4278   8 -3.548933E-01 -1.578453E+00 -1.562701E-01  1.027389E-01 -2.409848E-02  1.863733E-02
      4279   1 -1.062942E+00 -1.238809E+00 -7.413640E-02  1.151263E+00 -1.624241E-02  1.841272E-01
      4279   2 -4.795221E-01  3.569377E-01  2.748504E-01  8.683348E-01  1.665302E-02 -1.330300E-01
      4279   3 -7.341328E-01 -1.157034E+00 -1.878781E-01  8.051274E-01 -7.028037E-02  8.297343E-02
      4279   4 -1.705962E-01  2.902036E-01  2.433394E-01  5.289946E-01 -4.108441E-02 -1.889392E-01
      4279   5 -1.158764E+00 -1.100518E+00 -1.044766E-01  1.055958E+00  5.631196E-02 -1.184592E-02
      4279   6 -6.497384E-01  3.030729E-01  1.886839E-01  7.599337E-01  8.853468E-02 -2.084118E-01
      4279   7 -7.731436E-01 -1.019543E+00 -1.660109E-01  7.662738E-01 -1.164653E-02 -6.807220E-02
      4279   8 -2.692753E-01  2.851601E-01  2.088471E-01  4.806087E-01  1.742956E-02 -2.462931E-01
      4280   1 -4.151183E-01  1.095186E+00  2.944814E-01  4.223191E-01  1.165403E-01 -3.272091E-01
      4280   2  3.592021E-02  2.377970E+00  5.151593E-01  2.477446E-01  1.257647E-01 -5.959460E-01
      4280   3 -3.013663E-01  8.730060E-01  2.534104E-01  9.359787E-02  2.770618E-02 -3.549554E-01
      4280   4  1.577416E-01  2.075768E+00  5.810083E-01 -6.184870E-02  4.562068E-02 -5.704062E-01
      4280   5 -5.110007E-01  1.009526E+00  2.384654E-01  3.500918E-01  1.930020E-01 -3.136366E-01
      4280   6 -8.463833E-02  2.216758E+00  4.524420E-01  1.936834E-01  2.038066E-01 -4.627225E-01
      4280   7 -3.756724E-01  8.347448E-01  2.193634E-01  7.220317E-02  8.734810E-02 -3.443116E-01
      4280   8  6.180261E-02  1.983827E+00  5.285315E-01 -6.996698E-02  1.055442E-01 -4.683821E-01
      4281   1 -8.883749E+01 -3.362041E+01 -2.588576E+01  3.790988E+01 -7.367863E-01  4.186982E+00
      4281   2 -8.202213E+01 -1.775813E+01 -1.903020E+01  1.886992E+01 -1.571908E+00  3.648148E+00
      4281   3 -9.783967E+00  3.602690E+00  2.659735E+00  2.433551E+01  1.429846E+00  2.945230E+00
      4281   4 -3.186437E+00  1.829262E+01  9.961576E+00  7.355971E+00  2.959870E-01  2.689819E+00
      4281   5 -8.812628E+01 -3.380032E+01 -2.582813E+01  3.812663E+01 -7.582209E-01  2.639328E+00
      4281   6 -8.122889E+01 -1.775730E+01 -1.887987E+01  1.892273E+01 -1.598139E+00  2.310772E+00
      4281   7 -1.133477E+01  2.258311E+00  1.433523E+00  2.487535E+01  1.162170E+00  1.516297E+00
      4281   8 -4.620725E+00  1.718262E+01  8.889356E+00  7.681411E+00  1.145140E-02  1.445423E+00
      4282   1 -4.275506E+01  3.527496E+00 -1.581102E+00  4.494098E+00 -3.247201E+00  3.298215E+00
      4282   2 -4.610354E+01 -2.739188E+00 -6.476024E+00 -2.838745E+00 -3.422471E+00  2.025029E+00
      4282   3 -1.511645E+01  1.276157E+01  4.914684E+00  4.493301E+00 -1.504085E+00  2.582460E+00
      4282   4 -1.725813E+01  8.066321E+00  2.470986E+00 -2.013269E+00 -1.603821E+00  1.660330E+00
      4282   5 -4.304697E+01  2.953174E+00 -1.914284E+00  4.974478E+00 -2.635113E+00  2.050771E+00
      4282   6 -4.622651E+01 -2.939298E+00 -6.620284E+00 -2.310892E+00 -2.809170E+00  1.232409E+00
      4282   7 -1.671214E+01  1.167824E+01  3.853293E+00  4.864844E+00 -1.418673E+00  1.462834E+00
      4282   8 -1.867428E+01  7.331704E+00  1.659369E+00 -1.628351E+00 -1.514147E+00  9.426396E-01
      4283   1 -2.092846E+01  4.340796E+00  1.894574E+00 -8.273441E+00 -3.335753E+00  1.184325E+00
      4283   2 -2.472920E+01 -3.329535E+00 -3.104220E+00 -1.082882E+01 -3.193032E+00  1.822226E-01
      4283   3 -1.140547E+01  7.445302E+00  3.572345E+00 -6.043642E+00 -1.996167E+00  1.065243E+00
      4283   4 -1.447970E+01  9.538903E-01 -1.836935E-01 -8.310294E+00 -1.844871E+00  2.716904E-01
      4283   5 -2.151307E+01  4.118915E+00  1.618742E+00 -7.584045E+00 -2.853643E+00  6.455311E-01
      4283   6 -2.517108E+01 -3.226685E+00 -3.229041E+00 -1.014942E+01 -2.710785E+00 -1.467122E-01
      4283   7 -1.237725E+01  7.051303E+00  3.043505E+00 -5.535325E+00 -1.738756E+00  5.500536E-01
      4283   8 -1.531970E+01  8.382591E-01 -5.516116E-01 -7.821309E+00 -1.586977E+00 -5.591275E-02
      4284   1 -9.789915E+00 -8.458749E-01  1.299431E+00 -1.059675E+01 -2.364486E+00 -3.540442E-01
      4284   2 -1.291897E+01 -7.614974E+00 -2.361656E+00 -1.182721E+01 -2.290166E+00 -9.807771E-01
      4284   3 -4.832977E+00  1.663084E+00  2.322039E+00 -8.187788E+00 -1.392995E+00 -1.893500E-01
      4284   4 -7.689834E+00 -4.421578E+00 -1.116155E+00 -9.276344E+00 -1.296953E+00 -7.343613E-01
      4284   5 -9.857821E+00 -4.216771E-01  1.386776E+00 -9.910982E+00 -2.143710E+00 -6.254108E-01
      4284   6 -1.289505E+01 -6.975713E+00 -2.183272E+00 -1.113546E+01 -2.069041E+00 -1.247537E+00
      4284   7 -5.169510E+00  1.903469E+00  2.224505E+00 -7.655984E+00 -1.152295E+00 -4.473033E-01
      4284   8 -7.956326E+00 -4.014982E+00 -1.146431E+00 -8.744443E+00 -1.055027E+00 -9.857202E-01
      4285   1 -7.916662E-01 -1.700321E+00  2.682430E+00 -6.778970E+00 -1.151075E+00 -8.805116E-01
      4285   2 -1.636976E+00 -3.430306E+00  1.594717E+00 -6.753858E+00 -1.030957E+00 -6.800775E-01
      4285   3 -1.399131E+00 -1.910519E+00  9.316045E-01 -6.128660E+00 -6.668779E-01 -7.596122E-01
      4285   4 -2.494365E+00 -3.801651E+00 -8.280430E-01 -6.106399E+00 -5.604811E-01 -6.481381E-01
      4285   5 -8.898680E-01 -1.266780E+00  2.758858E+00 -6.373467E+00 -1.037893E+00 -1.217521E+00
      4285   6 -1.776354E+00 -3.086069E+00  1.623193E+00 -6.366029E+00 -9.179950E-01 -1.142809E+00
      4285   7 -1.470334E+00 -1.488770E+00  9.518044E-01 -5.718688E+00 -3.684860E-01 -1.035298E+00
      4285   8 -2.617679E+00 -3.477680E+00 -8.837707E-01 -5.712243E+00 -2.628635E-01 -1.033796E+00
      4286   1  1.164103E+01  1.403914E+01  8.946621E+00 -3.547663E+00 -5.142996E-01  7.029085E-01
      4286   2  8.403658E+00  5.370724E+00  6.823802E+00 -9.613329E-01  3.107549E-01  1.136520E+00
      4286   3  2.283342E+00  6.427070E+00  2.512350E+00 -4.888516E-02 -9.445060E-02  1.085178E-01
      4286   4 -6.789320E-01 -1.310708E+00  3.758896E-01  2.247729E+00  5.240006E-01  6.442522E-01
      4286   5  9.879873E+00  1.253501E+01  7.833144E+00 -3.121734E+00 -8.210301E-01  3.767090E-01
      4286   6  6.829767E+00  4.332320E+00  5.868810E+00 -7.385272E-01 -1.656757E-02  6.780379E-01
      4286   7  1.200500E+00  5.445294E+00  1.746883E+00  1.225151E-01 -2.951504E-01 -2.258685E-01
      4286   8 -1.616515E+00 -1.922146E+00 -2.757168E-01  2.243709E+00  3.008339E-01  1.976320E-01
      4287   1 -1.370144E+01 -9.010994E+00 -3.475778E+00  5.775160E+00 -4.389332E-01  1.557997E+00
      4287   2 -1.125601E+01 -3.549023E+00 -7.862929E-01  2.511908E+00 -2.731478E-01  1.546519E+00
      4287   3 -3.710732E+00 -4.744302E+00 -1.034946E+00  4.067507E+00  2.225115E-01  1.026954E+00
      4287   4 -1.293394E+00  6.106933E-01  1.667861E+00  9.754604E-01  1.714525E-01  1.202922E+00
      4287   5 -1.531601E+01 -9.860898E+00 -4.398153E+00  5.912054E+00 -5.403545E-01  1.000142E+00
      4287   6 -1.271900E+01 -4.049385E+00 -1.552966E+00  2.433526E+00 -3.961818E-01  1.007705E+00
      4287   7 -4.880651E+00 -5.345048E+00 -1.765843E+00  4.079599E+00  1.045783E-01  5.162753E-01
      4287   8 -2.336129E+00  3.022026E-01  1.068651E+00  7.968975E-01  2.993895E-02  7.095163E-01
      4288   1 -1.053951E+01 -2.095647E+00 -2.188595E-01  6.113548E-01 -7.353305E-01  1.350854E+00
      4288   2 -1.138541E+01 -3.649827E+00 -1.484350E+00 -1.704501E+00 -6.279102E-01  7.048924E-01
      4288   3 -3.805645E+00  3.908521E-01  9.091752E-01  7.695510E-01 -3.703245E-01  1.125926E+00
      4288   4 -4.388334E+00 -8.113632E-01  1.690944E-01 -1.374431E+00 -3.186261E-01  6.211351E-01
      4288   5 -1.149389E+01 -2.276758E+00 -7.227732E-01  5.746411E-01 -6.410474E-01  8.445841E-01
      4288   6 -1.227872E+01 -3.714557E+00 -1.901053E+00 -1.813253E+00 -5.391810E-01  3.181670E-01
      4288   7 -4.717644E+00  2.047072E-01  4.015997E-01  7.112613E-01 -3.713655E-01  6.644100E-01
      4288   8 -5.244052E+00 -8.946974E-01 -2.536872E-01 -1.499688E+00 -3.257265E-01  2.625432E-01
      4289   1 -4.091715E+00 -1.144535E+00  9.885711E-01 -1.629419E+00 -3.946557E-01  2.831970E-01
      4289   2 -4.980697E+00 -2.657449E+00 -4.617880E-01 -2.344011E+00 -2.748399E-01 -2.557381E-01
      4289   3 -2.072308E+00 -3.421119E-01  7.503938E-01 -1.421173E+00 -3.403128E-01  2.445544E-01
      4289   4 -2.823300E+00 -1.717420E+00 -3.776036E-01 -2.093868E+00 -2.665403E-01 -2.647138E-01
      4289   5 -4.488562E+00 -9.686877E-01  8.141576E-01 -1.699602E+00 -2.392389E-01 -2.221594E-02
      4289   6 -5.399302E+00 -2.550748E+00 -6.395843E-01 -2.465850E+00 -1.240121E-01 -4.739318E-01
      4289   7 -2.398216E+00 -1.580731E-01  5.898743E-01 -1.453103E+00 -2.518102E-01 -4.091086E-02
      4289   8 -3.162643E+00 -1.584780E+00 -5.315085E-01 -2.172299E+00 -1.830447E-01 -4.750976E-01
      4290   1 -1.331591E-01  1.725710E+00  1.663224E+00 -3.239500E-01  1.419890E-01 -4.378344E-01
      4290   2  1.402617E+00  6.101640E+00  2.406547E+00 -2.358012E-01  2.370357E-01 -6.181395E-01
      4290   3 -1.104655E+00  1.753787E-01  2.844686E-01 -1.706765E+00 -1.960611E-02 -5.077393E-01
      4290   4  3.271653E-01  4.024810E+00  1.207773E+00 -1.640765E+00  3.902552E-02 -7.925647E-01
      4290   5 -3.299721E-01  1.728546E+00  1.543015E+00 -4.959117E-01  3.833784E-01 -5.570669E-01
      4290   6  1.006097E+00  5.610193E+00  2.114932E+00 -4.431949E-01  4.747956E-01 -6.155767E-01
      4290   7 -1.161194E+00  3.407585E-01  2.494589E-01 -1.716109E+00  1.212939E-01 -6.386758E-01
      4290   8  1.096743E-01  3.783758E+00  1.042687E+00 -1.680927E+00  1.759656E-01 -8.213198E-01
      4291   1 -1.270548E+00  2.023215E+00 -6.374881E-01 -8.228786E-01 -2.055399E-01 -1.389096E+00
      4291   2 -2.387839E+00 -1.223109E+00 -1.115470E+00 -1.294360E+00 -8.488944E-02 -5.021996E-01
      4291   3  4.013254E-01  3.009737E+00  7.267258E-01  3.071449E-01  2.510717E-02 -7.790649E-01
      4291   4 -1.000932E+00 -5.249006E-01 -4.128292E-01 -1.953349E-01  8.449189E-02 -1.829302E-01
      4291   5 -8.442824E-01  3.901847E+00  1.585975E-01 -6.919498E-01 -3.302212E-01 -9.703560E-01
      4291   6 -2.223226E+00  1.145256E-01 -6.505610E-01 -1.257690E+00 -2.208808E-01 -3.641436E-01
      4291   7  8.281182E-01  4.596409E+00  1.400852E+00  4.009587E-01 -1.000706E-02 -4.710158E-01
      4291   8 -7.832131E-01  6.205100E-01  5.645978E-03 -1.773675E-01  4.180056E-02 -9.754081E-02
      4292   1 -9.683457E-02 -1.910929E+00 -1.507342E-01 -9.103303E-01 -1.924000E-01  8.566888E-02
      4292   2 -2.769715E-01 -2.708642E+00  4.652039E-02 -3.985839E-01  1.493401E-01  6.233907E-01
      4292   3 -3.128813E-01 -1.636377E+00 -3.547669E-01 -2.991407E-01 -2.476999E-02  2.191902E-01
      4292   4 -6.603722E-01 -2.573467E+00 -5.759800E-01 -2.629805E-03  1.230626E-01  6.002942E-01
      4292   5 -3.418576E-01 -1.054425E+00 -8.196275E-03 -8.637295E-01 -2.752665E-01  3.803613E-02
      4292   6 -6.319346E-01 -2.062306E+00  3.276069E-02 -6.273677E-01  3.067664E-02  3.952698E-01
      4292   7 -2.260031E-01 -7.790990E-01 -9.892465E-02 -3.150919E-01 -4.227003E-02  1.617489E-01
      4292   8 -6.642806E-01 -1.896967E+00 -4.419812E-01 -2.391378E-01  8.158073E-02  3.993836E-01
      4293   1 -3.387456E+00 -4.291378E+00 -1.180023E+00  1.469880E+00 -1.291092E-01  8.055714E-01
      4293   2 -2.744634E+00 -2.795343E+00 -5.333196E-01  7.004515E-01  4.914037E-02  6.631150E-01
      4293   3 -1.391238E+00 -3.092396E+00 -8.765730E-01  1.105632E+00 -1.075701E-01  7.048483E-01
      4293   4 -8.309645E-01 -1.815057E+00 -2.863355E-01  2.479574E-01 -6.354581E-02  5.436340E-01
      4293   5 -3.886561E+00 -3.885331E+00 -1.328879E+00  1.311421E+00 -1.761119E-01  5.062522E-01
      4293   6 -3.332142E+00 -2.600386E+00 -7.657641E-01  3.442893E-01 -2.264152E-02  3.702751E-01
      4293   7 -1.563572E+00 -2.649608E+00 -8.764582E-01  9.898613E-01 -1.527602E-01  4.526491E-01
      4293   8 -1.074448E+00 -1.541511E+00 -3.541446E-01 -2.525276E-02 -1.253365E-01  2.972173E-01
      4294   1 -1.714065E+00 -1.336369E+00  8.675152E-02  1.175062E+00  1.224303E-02  4.224356E-01
      4294   2 -1.316410E+00 -1.381639E-01  2.140605E-01  8.837867E-01  1.120572E-01 -6.234623E-02
      4294   3 -1.069016E+00 -1.071217E+00 -1.636008E-01  5.431356E-01 -1.630533E-01  3.111238E-01
      4294   4 -6.894147E-01 -9.456615E-02  1.250865E-01  2.376830E-01 -9.787223E-02 -1.324082E-01
      4294   5 -1.954285E+00 -1.096033E+00 -9.840252E-03  8.853315E-01  1.965950E-02  1.802415E-01
      4294   6 -1.645954E+00 -1.393751E-01  6.126939E-02  5.382600E-01  1.130801E-01 -1.924564E-01
      4294   7 -1.221805E+00 -8.247616E-01 -2.002346E-01  3.749503E-01 -1.881783E-01  1.036527E-01
      4294   8 -9.102054E-01 -2.897226E-02  4.264269E-02  2.400771E-02 -1.272805E-01 -2.489454E-01
      4295   1 -6.635974E-01  1.102317E+00  4.752171E-01  6.917785E-01  2.890327E-01 -4.070324E-01
      4295   2  1.115892E-02  3.051234E+00  7.754884E-01  4.990753E-01  3.075928E-01 -9.515815E-01
      4295   3 -4.761732E-01  7.342826E-01  3.271262E-01 -1.735769E-01  2.753341E-02 -4.227157E-01
      4295   4  3.112883E-01  2.713187E+00  9.730935E-01 -3.249355E-01  7.345712E-02 -8.278800E-01
      4295   5 -7.071394E-01  1.249284E+00  4.889082E-01  4.457247E-01  3.324798E-01 -4.253915E-01
      4295   6  4.494670E-02  3.335624E+00  9.095214E-01  2.858925E-01  3.560915E-01 -8.048551E-01
      4295   7 -5.790495E-01  8.528220E-01  3.202112E-01 -3.518593E-01  2.329865E-02 -4.516422E-01
      4295   8  2.716849E-01  2.950548E+00  1.058267E+00 -4.781773E-01  7.260660E-02 -7.251058E-01
      4296   1 -5.366579E-01 -3.477284E-01 -3.941857E-01 -5.590801E-01 -3.141930E-02 -6.983604E-01
      4296   2 -6.926894E-01 -8.277615E-01 -4.342576E-01 -6.062029E-01  5.455110E-02 -4.285691E-02
      4296   3  2.006848E-01  8.053684E-01  2.208597E-01 -4.160971E-02  1.275296E-02 -4.703325E-01
      4296   4 -2.211010E-01 -1.697164E-01 -2.100080E-01 -1.031567E-01  8.983395E-02 -3.131425E-02
      4296   5  7.759960E-02  1.605147E+00  3.872972E-01 -5.074979E-01 -3.436515E-02 -5.947656E-01
      4296   6 -4.014596E-01  4.009850E-01 -5.404858E-03 -5.886603E-01  4.950080E-02 -1.434133E-01
      4296   7  5.570275E-01  2.141257E+00  7.303014E-01 -6.269658E-02  2.425767E-02 -4.305217E-01
      4296   8 -7.617484E-02  6.774922E-01  8.339212E-02 -1.489363E-01  1.010099E-01 -1.173120E-01
      4297   1 -1.499059E-01 -9.797998E-01 -2.460029E-01 -7.455210E-01 -2.516845E-02  3.422837E-01
      4297   2 -5.739914E-01 -2.002650E+00 -6.367708E-01 -6.483248E-01  3.259766E-02  6.522351E-01
      4297   3 -6.312599E-03 -5.892110E-01 -2.765141E-01 -2.736815E-01  4.775909E-02  2.434732E-01
      4297   4 -4.327723E-01 -1.582660E+00 -7.045978E-01 -2.845811E-01  6.088075E-02  5.059515E-01
      4297   5  1.080147E-01 -4.803438E-02  6.574073E-02 -7.569025E-01 -1.829045E-02  1.430493E-01
      4297   6 -3.765783E-01 -1.203797E+00 -3.938069E-01 -7.979848E-01  2.890645E-02  3.984220E-01
      4297   7  2.617245E-01  1.277883E-01  1.194084E-02 -3.712533E-01  5.151106E-02  1.002849E-01
      4297   8 -2.136545E-01 -9.785131E-01 -4.663546E-01 -4.721615E-01  6.298144E-02  3.279316E-01
      4298   1 -5.542657E-01 -2.306608E+00 -6.778706E-01  3.983776E-01 -1.414102E-01  7.546717E-01
      4298   2 -2.136379E-01 -1.571319E+00 -2.777335E-01  5.385731E-01 -5.847613E-02  6.752953E-01
      4298   3 -3.873186E-01 -1.851164E+00 -7.453039E-01  3.083535E-01 -1.059043E-01  5.787288E-01
      4298   4 -1.446749E-01 -1.341700E+00 -4.459557E-01  2.813566E-01 -9.195720E-02  4.764637E-01
      4298   5 -5.167669E-01 -1.749300E+00 -5.595967E-01  3.888597E-01 -1.752910E-01  4.778505E-01
      4298   6 -2.808574E-01 -1.257690E+00 -2.648418E-01  3.158324E-01 -1.086889E-01  3.857473E-01
      4298   7 -2.480779E-01 -1.425614E+00 -5.852671E-01  3.188121E-01 -1.351084E-01  3.880245E-01
      4298   8 -7.199061E-02 -1.071344E+00 -3.525791E-01  1.532791E-01 -1.237130E-01  2.794307E-01
      4299   1 -7.938678E-01 -1.090067E+00 -2.833844E-01  1.126055E+00 -1.344186E-01  4.713761E-01
      4299   2 -2.649687E-01  1.530123E-01  2.365335E-01  9.522043E-01 -7.159630E-02  2.189283E-02
      4299   3 -5.104979E-01 -9.343015E-01 -3.716455E-01  6.062828E-01 -1.709014E-01  2.999034E-01
      4299   4 -1.453862E-02  1.496841E-01  1.975663E-01  4.069081E-01 -1.223152E-01 -5.794597E-02
      4299   5 -9.019361E-01 -8.513957E-01 -2.962868E-01  9.924574E-01 -1.736093E-01  2.220439E-01
      4299   6 -4.016455E-01  3.054620E-01  2.144905E-01  7.695711E-01 -1.141573E-01 -1.088275E-01
      4299   7 -5.737178E-01 -7.374415E-01 -3.396908E-01  5.991266E-01 -2.130010E-01  1.282559E-01
      4299   8 -9.272151E-02  3.085891E-01  2.175997E-01  3.667458E-01 -1.649414E-01 -1.518967E-01
      4300   1 -4.236539E-01  3.618250E-01  2.268259E-01  5.461519E-01  3.101650E-02 -2.868492E-01
      4300   2 -3.068265E-01  6.774469E-01  3.006287E-01  4.323164E-01  8.956710E-02 -7.190177E-01
      4300   3 -1.781985E-01  4.292865E-01  2.890964E-01  5.357083E-02 -4.924838E-02 -2.850133E-01
      4300   4  1.072934E-01  1.049428E+00  6.205945E-01 -3.972429E-02  1.469191E-02 -5.684264E-01
      4300   5 -4.663234E-01  6.657717E-01  2.977270E-01  3.565982E-01  5.758552E-03 -3.176143E-01
      4300   6 -1.452183E-01  1.436964E+00  5.968846E-01  2.534512E-01  6.558514E-02 -6.071594E-01
      4300   7 -2.676499E-01  6.461035E-01  3.261371E-01 -2.658400E-02 -7.789092E-02 -3.150561E-01
      4300   8  1.522502E-01  1.576571E+00  7.953365E-01 -1.150408E-01 -1.375127E-02 -5.108138E-01
      4301   1 -8.620663E+01 -2.737984E+01 -1.744853E+01  3.870741E+01 -2.608451E+00  9.133530E+00
      4301   2 -8.187088E+01 -1.441890E+01 -1.595696E+01  1.947339E+01 -3.616174E+00  7.517989E+00
      4301   3 -5.738716E+00  7.584915E+00  4.799950E+00  2.456125E+01  6.313269E-01  5.348748E+00
      4301   4  6.223704E-02  2.120139E+01  1.051998E+01  7.614798E+00 -1.706623E-01  4.709888E+00
      4301   5 -8.606721E+01 -2.972496E+01 -1.829503E+01  3.802659E+01 -1.510558E+00  5.882977E+00
      4301   6 -8.140056E+01 -1.603316E+01 -1.643133E+01  1.895352E+01 -2.515210E+00  5.194166E+00
      4301   7 -9.160633E+00  3.708261E+00  1.958293E+00  2.413537E+01  5.385204E-01  2.515212E+00
      4301   8 -2.970102E+00  1.808822E+01  8.213436E+00  7.258944E+00 -2.526332E-01  2.695717E+00
      4302   1 -3.654795E+01  9.101181E+00  2.217343E+00  3.224003E+00 -4.894106E+00  6.186270E+00
      4302   2 -4.140468E+01  1.335951E-01 -5.004161E+00 -3.490586E+00 -3.880265E+00  3.324087E+00
      4302   3 -1.038190E+01  1.620749E+01  5.840639E+00  3.997499E+00 -1.701285E+00  4.164565E+00
      4302   4 -1.297034E+01  1.018761E+01  3.232383E+00 -1.974494E+00 -1.076709E+00  2.352536E+00
      4302   5 -4.092634E+01  5.313587E+00 -3.273540E-01  4.004940E+00 -3.983480E+00  4.535225E+00
      4302   6 -4.519902E+01 -2.326224E+00 -6.929813E+00 -3.028477E+00 -2.975448E+00  2.460229E+00
      4302   7 -1.440962E+01  1.283038E+01  3.284313E+00  4.226151E+00 -1.800521E+00  2.710889E+00
      4302   8 -1.642931E+01  8.014087E+00  1.368309E+00 -2.052744E+00 -1.196446E+00  1.601796E+00
      4303   1 -2.020296E+01  4.635205E+00  1.373606E+00 -8.470668E+00 -2.292859E+00  1.857976E+00
      4303   2 -2.369640E+01 -3.079061E+00 -2.556955E+00 -1.132881E+01 -2.143287E+00  9.685458E-01
      4303   3 -8.762128E+00  8.400812E+00  3.768553E+00 -5.982738E+00 -1.419806E+00  1.526298E+00
      4303   4 -1.179147E+01  1.712360E+00  3.591875E-01 -8.424683E+00 -8.666761E-01  9.117962E-01
      4303   5 -2.097625E+01  4.046008E+00  9.325155E-01 -8.331304E+00 -2.130383E+00  1.354362E+00
      4303   6 -2.428288E+01 -3.233191E+00 -2.810371E+00 -1.096670E+01 -1.974788E+00  4.996835E-01
      4303   7 -1.095078E+01  7.212773E+00  2.641417E+00 -6.059996E+00 -1.318175E+00  1.028336E+00
      4303   8 -1.382695E+01  8.787364E-01 -6.117607E-01 -8.319646E+00 -7.437911E-01  4.498240E-01
      4304   1 -1.048143E+01 -1.693976E+00  1.570218E+00 -1.161583E+01 -1.160294E+00  5.057215E-01
      4304   2 -1.370855E+01 -9.129651E+00 -1.751156E+00 -1.305429E+01 -1.405678E+00 -9.181870E-02
      4304   3 -5.006700E+00  8.887312E-01  1.807415E+00 -8.711811E+00 -3.469182E-01  5.853337E-01
      4304   4 -7.986250E+00 -5.728791E+00 -1.506894E+00 -9.955635E+00 -4.307616E-01  2.318650E-01
      4304   5 -9.661908E+00 -8.805749E-01  2.027558E+00 -1.089055E+01 -1.115583E+00  1.589414E-02
      4304   6 -1.262368E+01 -7.693532E+00 -1.032065E+00 -1.221767E+01 -1.358555E+00 -6.459453E-01
      4304   7 -4.952052E+00  1.245551E+00  1.816040E+00 -8.308674E+00 -1.986601E-01  1.207235E-01
      4304   8 -7.717458E+00 -4.859638E+00 -1.296792E+00 -9.460232E+00 -2.739958E-01 -2.791066E-01
      4305   1 -8.566944E-01 -3.212259E+00  3.863754E+00 -8.022613E+00 -3.286856E-01 -1.501468E-02
      4305   2 -1.670747E+00 -5.172636E+00  3.110622E+00 -8.014174E+00 -3.485650E-01  2.251809E-02
      4305   3 -2.198367E+00 -3.976758E+00  2.906481E-01 -7.251480E+00 -1.409293E-01  1.503238E-01
      4305   4 -3.452411E+00 -6.261578E+00 -1.604679E+00 -7.244964E+00 -1.634237E-01  6.545416E-02
      4305   5 -1.664309E-01 -1.675828E+00  4.487863E+00 -7.117985E+00 -3.295166E-01 -6.810109E-01
      4305   6 -9.295636E-01 -3.506911E+00  3.775171E+00 -7.109600E+00 -3.494350E-01 -8.528002E-01
      4305   7 -1.600853E+00 -2.577706E+00  7.347109E-01 -6.413259E+00  1.699378E-01 -4.072431E-01
      4305   8 -2.832029E+00 -4.772184E+00 -1.174730E+00 -6.406684E+00  1.473056E-01 -6.720863E-01
      4306   1  9.454655E+00  4.725479E+00  2.673280E+00 -5.041034E+00 -1.012786E+00 -2.590924E+00
      4306   2  7.451243E+00 -1.218076E+00  1.938799E+00 -1.405666E+00  2.565141E-01 -7.790716E-01
      4306   3  7.322231E-01  1.139443E+00  4.383954E-01 -7.749168E-01 -6.865445E-02 -8.452166E-01
      4306   4 -1.687448E+00 -5.058555E+00 -1.429167E+00  2.196258E+00  5.339865E-01  4.738718E-01
      4306   5  9.246878E+00  8.132736E+00  3.771310E+00 -4.431920E+00 -1.244030E+00 -1.906394E+00
      4306   6  6.832181E+00  1.297471E+00  2.557589E+00 -1.368949E+00 -3.792895E-02 -4.276149E-01
      4306   7  2.015744E+00  4.869844E+00  2.094194E+00 -2.950445E-01 -4.010496E-02 -2.707381E-01
      4306   8 -7.846197E-01 -2.141874E+00 -2.286230E-01  2.184153E+00  4.931915E-01  7.557915E-01
      4307   1 -1.330350E+01 -1.338790E+01 -6.894590E+00  5.420226E+00 -3.308379E-01  5.287770E-01
      4307   2 -9.950097E+00 -6.488364E+00 -2.616108E+00  3.189934E+00  3.018076E-01  1.448445E+00
      4307   3 -3.568483E+00 -7.011462E+00 -2.297365E+00  3.845297E+00  4.983260E-02  1.321273E+00
      4307   4 -1.162798E+00 -1.438703E+00  1.488291E-01  1.452574E+00  5.584202E-02  1.853793E+00
      4307   5 -1.452998E+01 -1.184446E+01 -6.821895E+00  5.520490E+00 -6.089918E-01  6.036224E-01
      4307   6 -1.141433E+01 -5.415833E+00 -2.865026E+00  2.743438E+00 -3.575129E-02  1.140753E+00
      4307   7 -3.496568E+00 -5.098610E+00 -1.726505E+00  3.930970E+00  7.189447E-02  1.347787E+00
      4307   8 -1.313267E+00  4.726990E-02  4.052961E-01  1.062988E+00  1.272250E-02  1.548587E+00
      4308   1 -9.113486E+00 -4.150277E+00 -1.362021E+00  1.651478E+00 -3.651838E-01  1.672892E+00
      4308   2 -9.347251E+00 -4.404648E+00 -1.886868E+00  9.598538E-02  2.609924E-01  1.119938E+00
      4308   3 -3.072503E+00 -1.015670E+00 -2.833142E-01  1.288778E+00 -3.895124E-01  1.866449E+00
      4308   4 -3.273160E+00 -1.472488E+00 -4.953535E-01 -3.350770E-01 -1.445725E-01  1.251092E+00
      4308   5 -1.054740E+01 -3.417197E+00 -1.730963E+00  1.052586E+00 -3.849617E-01  1.230871E+00
      4308   6 -1.101963E+01 -4.254513E+00 -2.467765E+00 -8.533827E-01  2.050728E-01  7.705607E-01
      4308   7 -3.735103E+00 -7.368881E-02 -3.736221E-01  8.511308E-01 -5.143636E-01  1.470326E+00
      4308   8 -4.136194E+00 -1.027278E+00 -7.570015E-01 -1.079935E+00 -3.090791E-01  9.288216E-01
      4309   1 -4.202007E+00 -2.133666E+00  1.022915E-02  1.435888E-01  5.489481E-01  7.233389E-01
      4309   2 -4.492096E+00 -2.412787E+00 -6.776135E-01 -6.374748E-01  5.832605E-01  1.826649E-01
      4309   3 -1.913448E+00 -1.043001E+00 -1.651272E-02 -4.918376E-01 -2.051800E-01  7.729049E-01
      4309   4 -2.210592E+00 -1.625999E+00 -4.239945E-01 -1.171739E+00 -1.209223E-01  1.214135E-01
      4309   5 -4.289951E+00 -1.633874E+00  3.514349E-02 -7.397976E-01  5.387549E-01  4.483547E-01
      4309   6 -4.832793E+00 -2.530000E+00 -8.782055E-01 -1.490846E+00  5.778021E-01  5.775385E-03
      4309   7 -2.141151E+00 -5.952401E-01 -5.872689E-02 -1.158846E+00 -3.257654E-01  5.110152E-01
      4309   8 -2.647602E+00 -1.696518E+00 -6.456193E-01 -1.815187E+00 -2.363125E-01 -6.172403E-02
      4310   1 -2.614583E-01  1.572234E+00  1.167571E+00  8.512976E-01  6.691917E-01 -3.663481E-01
      4310   2  9.326329E-01  5.262648E+00  1.457460E+00  8.304061E-01  6.697094E-01 -1.373592E+00
      4310   3 -9.697832E-01 -2.431738E-02  2.294956E-01 -1.151886E+00  2.348698E-02 -4.007757E-01
      4310   4  4.380198E-01  3.568973E+00  1.328882E+00 -1.126960E+00  9.440770E-02 -1.233378E+00
      4310   5 -2.438093E-01  1.646286E+00  1.171703E+00  3.745160E-01  8.366058E-01 -3.749525E-01
      4310   6  9.827915E-01  5.356076E+00  1.550582E+00  4.080159E-01  8.437977E-01 -1.131141E+00
      4310   7 -1.094331E+00  3.535068E-02  1.843798E-01 -1.540487E+00 -2.244117E-02 -4.606977E-01
      4310   8  3.601174E-01  3.675507E+00  1.392383E+00 -1.469433E+00  5.580272E-02 -1.077962E+00
      4311   1 -1.937501E+00 -6.140053E-01 -7.707998E-01 -3.330693E-01  5.965397E-02 -1.054249E+00
      4311   2 -1.883207E+00 -6.994924E-01 -5.043358E-01 -1.278463E+00 -6.207880E-02  2.270382E-01
      4311   3  1.668894E-01  1.171588E+00  4.348602E-01  4.559763E-01  4.759603E-02 -5.533435E-01
      4311   4 -5.758879E-01 -4.983365E-01 -3.711407E-01 -2.391816E-01  7.631201E-02  1.871273E-01
      4311   5 -8.907335E-01  1.875879E+00  2.975558E-01 -5.091197E-01  9.135830E-02 -9.550037E-01
      4311   6 -1.615182E+00  2.574858E-02 -2.671459E-01 -1.250416E+00 -1.735684E-03  7.512951E-02
      4311   7  6.771567E-01  2.945325E+00  1.124883E+00  4.349553E-01  1.410359E-01 -5.118212E-01
      4311   8 -6.768146E-01 -1.163741E-01 -3.266557E-01 -1.026458E-01  1.885143E-01  4.199710E-02
      4312   1  1.267320E+00  6.826068E-02  6.701371E-01 -1.492530E+00 -4.448910E-01  8.354357E-01
      4312   2  4.733967E-01 -1.569933E+00 -3.380799E-01 -7.536707E-01 -2.210679E-01  9.408137E-01
      4312   3 -8.623115E-02 -1.070629E+00 -4.760302E-01 -4.488567E-01 -5.999512E-02  5.845324E-01
      4312   4 -6.210078E-01 -2.213331E+00 -1.115917E+00  3.519330E-02 -3.832903E-03  8.200462E-01
      4312   5  8.812113E-01 -1.619085E-01  4.094096E-01 -1.144317E+00 -2.996660E-01  6.044023E-01
      4312   6  1.880006E-01 -1.585892E+00 -4.773117E-01 -6.422119E-01 -1.077583E-01  8.012030E-01
      4312   7 -1.097069E-01 -1.079817E+00 -5.355178E-01 -2.660717E-01  2.878104E-02  4.024070E-01
      4312   8 -5.770253E-01 -2.078732E+00 -1.094330E+00  3.323240E-02  6.403434E-02  7.086550E-01
      4313   1 -2.196228E+00 -3.096328E+00 -1.604301E+00  9.247423E-01 -3.498190E-01  9.865735E-01
      4313   2 -1.487672E+00 -1.641742E+00 -6.970359E-01  6.914428E-01 -1.056824E-01  9.406343E-01
      4313   3 -1.083388E+00 -2.574261E+00 -1.364900E+00  7.897445E-01 -1.656188E-01  8.734606E-01
      4313   4 -5.338981E-01 -1.393049E+00 -7.144814E-01  2.572950E-01 -1.613356E-01  7.436811E-01
      4313   5 -2.915485E+00 -3.331530E+00 -1.938432E+00  1.101151E+00 -4.126996E-01  8.634275E-01
      4313   6 -2.266157E+00 -1.996529E+00 -1.109007E+00  5.218088E-01 -2.142203E-01  7.387440E-01
      4313   7 -1.250401E+00 -2.587146E+00 -1.450180E+00  9.483789E-01 -2.046376E-01  7.724677E-01
      4313   8 -7.437116E-01 -1.493607E+00 -8.547561E-01  1.468921E-01 -2.302665E-01  5.810663E-01
      4314   1 -9.898073E-01 -6.010314E-01 -1.229837E-01  1.134708E+00 -1.723809E-01  6.977673E-01
      4314   2 -5.706015E-01  3.394407E-01  3.338968E-01  1.052772E+00 -1.295636E-02  1.270440E-01
      4314   3 -6.701915E-01 -7.696086E-01 -4.497999E-01  4.162445E-01 -2.394326E-01  5.074570E-01
      4314   4 -2.502642E-01  6.203603E-02  1.183130E-01  2.553906E-01 -1.493386E-01  1.648033E-02
      4314   5 -1.480742E+00 -8.237441E-01 -4.079142E-01  9.794167E-01 -2.710824E-01  4.944456E-01
      4314   6 -1.045237E+00  1.337227E-01  8.630164E-02  7.910557E-01 -1.248553E-01 -8.302970E-03
      4314   7 -9.923696E-01 -8.940631E-01 -6.301974E-01  3.539963E-01 -3.537583E-01  3.386392E-01
      4314   8 -5.531657E-01 -3.122149E-02 -2.902617E-02  1.085914E-01 -2.723106E-01 -1.008252E-01
      4315   1 -6.170192E-01  4.330167E-01  3.482778E-01  7.244347E-01  1.480169E-01 -3.383605E-01
      4315   2 -6.482088E-01  3.974251E-01  2.799040E-01  5.542309E-01  2.170921E-01 -1.089855E+00
      4315   3 -2.082563E-01  4.198237E-01  3.508161E-01 -9.227982E-02 -4.365721E-02 -3.196436E-01
      4315   4  2.097702E-01  1.306841E+00  8.572200E-01 -2.183299E-01  4.683474E-02 -7.729289E-01
      4315   5 -6.639393E-01  8.124612E-01  4.259287E-01  5.649719E-01  6.255048E-02 -3.973031E-01
      4315   6 -2.281481E-01  1.842590E+00  8.484370E-01  4.173874E-01  1.357025E-01 -1.027552E+00
      4315   7 -3.637923E-01  6.402892E-01  3.558121E-01 -2.766354E-01 -1.425953E-01 -3.793687E-01
      4315   8  4.226282E-01  2.371234E+00  1.246269E+00 -3.870286E-01 -4.943251E-02 -7.440462E-01
      4316   1 -4.321884E-01 -1.411730E+00 -4.589721E-01 -5.057324E-01 -9.544511E-02 -3.571639E-02
      4316   2 -1.665074E-01 -5.647089E-01 -4.203901E-01  1.653659E-02  6.408327E-02  7.103498E-02
      4316   3  2.866766E-01  1.415444E-01  7.514548E-02  7.006048E-02 -7.461478E-02 -1.296072E-01
      4316   4  1.291753E-01 -6.791456E-02 -2.404002E-01  2.471021E-01  3.401997E-03  3.991733E-02
      4316   5  1.396008E-01  6.508030E-01  2.811866E-01 -3.785429E-01  1.659690E-02 -2.684419E-01
      4316   6 -1.264184E-01  2.337214E-01 -1.884626E-01 -2.175512E-01  1.484226E-01 -3.184964E-02
      4316   7  5.770427E-01  1.305472E+00  5.053992E-01  4.037207E-02  3.818260E-03 -2.767634E-01
      4316   8  1.275030E-01  4.117656E-01 -9.936017E-02  3.141040E-02  7.850092E-02 -2.758215E-02
      4317   1  8.524919E-02  1.358458E-02 -3.218241E-01 -3.863103E-02  3.653326E-02  2.042287E-01
      4317   2  2.171820E-01  4.105093E-01 -2.789727E-01 -3.907477E-01 -1.752118E-02  4.179902E-01
      4317   3  7.492772E-02 -1.719666E-01 -4.044734E-01  1.727742E-01  4.068168E-03  1.679204E-01
      4317   4 -9.154700E-02 -4.734429E-01 -6.579127E-01  1.995780E-02 -3.956768E-03  3.317454E-01
      4317   5  2.379884E-01  2.228702E-01 -2.213351E-01 -3.698877E-01  6.373795E-02  1.577117E-01
      4317   6 -7.873793E-03 -2.624461E-01 -5.555593E-01 -5.212639E-01  2.532720E-02  3.610629E-01
      4317   7  1.685170E-01  1.373965E-02 -3.216619E-01 -1.156340E-01  4.374398E-02  1.393748E-01
      4317   8 -2.075432E-01 -7.768560E-01 -7.846000E-01 -1.667212E-01  3.760181E-02  3.070885E-01
      4318   1  4.606540E-01  4.760234E-01 -1.864871E-01 -7.435026E-02 -1.568372E-01  4.684877E-01
      4318   2  4.073183E-01  2.629341E-01 -1.511830E-01  3.760696E-02 -1.567672E-01  3.665576E-01
      4318   3 -5.224142E-02 -5.384528E-01 -6.659101E-01  3.643627E-02 -7.038582E-02  3.663194E-01
      4318   4  2.215866E-02 -4.512159E-01 -5.051467E-01  2.568091E-02 -9.847798E-02  2.853229E-01
      4318   5  5.741216E-02 -5.102978E-01 -6.105650E-01  1.588717E-01 -1.837564E-01  4.130174E-01
      4318   6  1.511617E-01 -3.794149E-01 -4.289493E-01  1.500165E-01 -1.932577E-01  3.097439E-01
      4318   7 -1.771001E-01 -1.008948E+00 -8.453839E-01  1.780491E-01 -1.109481E-01  3.476555E-01
      4318   8 -2.418791E-02 -7.384228E-01 -6.062014E-01  1.078279E-01 -1.401922E-01  2.611367E-01
      4319   1 -1.374411E-01  1.742827E-02 -2.366558E-01  3.670904E-01 -1.921592E-01  2.612321E-01
      4319   2 -3.321005E-02  3.066088E-02  9.754833E-02  3.667714E-01 -1.129954E-01  8.948148E-02
      4319   3 -8.974268E-02 -3.429496E-01 -3.719308E-01  7.688098E-02 -1.165103E-01  1.795425E-01
      4319   4  1.765957E-01  8.261465E-02  9.029975E-02 -1.967179E-02 -6.148558E-02 -2.236274E-02
      4319   5 -4.943381E-01 -3.431107E-01 -4.659809E-01  5.730243E-01 -2.873865E-01  1.740576E-01
      4319   6 -1.379910E-01  2.699755E-01  1.087565E-01  4.621527E-01 -2.164266E-01 -6.787997E-02
      4319   7 -3.169831E-01 -5.055462E-01 -4.905781E-01  2.990255E-01 -2.106418E-01  1.328339E-01
      4319   8  9.782590E-02  2.678436E-01  1.187289E-01  1.442899E-01 -1.566045E-01 -1.137956E-01
      4320   1 -3.255261E-01 -3.964676E-01  7.132256E-02  2.120227E-01 -1.919477E-02 -4.056461E-02
      4320   2 -4.584498E-01 -8.751250E-01  1.069008E-01  3.708132E-01  9.487477E-02 -2.392351E-01
      4320   3  7.272704E-02  1.197952E-01  2.469816E-01 -1.641283E-01  3.729131E-03 -1.402656E-01
      4320   4  2.291120E-01  3.092611E-01  5.787988E-01 -1.141570E-01  9.076357E-02 -2.691437E-01
      4320   5 -3.043712E-01  2.704300E-01  2.441955E-01  1.550844E-01 -1.081342E-01 -2.095692E-01
      4320   6 -9.792358E-02  5.812838E-01  6.215004E-01  1.890206E-01 -3.252801E-03 -3.835390E-01
      4320   7 -9.747499E-03  4.855948E-01  3.279422E-01 -1.250377E-01 -8.227087E-02 -2.450223E-01
      4320   8  3.298629E-01  1.102303E+00  8.432683E-01 -1.422364E-01  3.657743E-03 -3.720592E-01
