    1C
    1UUSER                                                              
    1UDATE              07.april.2021                                   
    1UTIME              18:15:27                                        
    1UHOST                                                              
    1UPGM               CalculiX                                        
    1UVERSION           Version 2.13                             
    1UCOMPILETIME       Tue, Oct 10, 2017  8:02:00 PM                    
    1UDIR                                                               
    1UDBN                                                               
    1UMAT    1S355                                                      
    2C                           285                                     1
 -1         1 2.00000E+01 2.00000E+01 0.00000E+00
 -1         2 3.00000E+01 2.00000E+01 0.00000E+00
 -1         3 2.60000E+01 2.50000E+01 0.00000E+00
 -1         4 3.00000E+01 2.50000E+01 0.00000E+00
 -1         5 2.00000E+01 2.50000E+01 0.00000E+00
 -1         6 2.60000E+01 4.50000E+01 0.00000E+00
 -1         7 2.00000E+01 4.50000E+01 0.00000E+00
 -1         8 3.00000E+01 4.50000E+01 0.00000E+00
 -1         9 3.00000E+01 5.00000E+01 0.00000E+00
 -1        10 2.00000E+01 5.00000E+01 0.00000E+00
 -1        11 3.00000E+01 2.00000E+01-1.00000E+01
 -1        12 3.00000E+01 5.00000E+01-1.00000E+01
 -1        13 2.00000E+01 5.00000E+01-1.00000E+01
 -1        14 2.00000E+01 2.00000E+01-1.00000E+01
 -1        15-2.00000E+01 2.00000E+01-1.00000E+01
 -1        16-3.00000E+01 2.00000E+01-1.00000E+01
 -1        17-3.00000E+01 2.00000E+01 0.00000E+00
 -1        18-2.00000E+01 2.00000E+01 0.00000E+00
 -1        19-2.00000E+01 5.00000E+01-1.00000E+01
 -1        20-3.00000E+01 5.00000E+01-1.00000E+01
 -1        21-3.00000E+01 5.00000E+01 0.00000E+00
 -1        22-2.00000E+01 5.00000E+01 0.00000E+00
 -1        23-2.00000E+01 2.50000E+01 0.00000E+00
 -1        24-2.00000E+01 4.50000E+01 0.00000E+00
 -1        25-3.00000E+01 2.50000E+01 0.00000E+00
 -1        26-3.00000E+01 4.50000E+01 0.00000E+00
 -1        27-2.60000E+01 2.50000E+01 0.00000E+00
 -1        28-2.60000E+01 4.50000E+01 0.00000E+00
 -1        29 0.00000E+00 7.00000E+01 0.00000E+00
 -1        30 0.00000E+00 8.00000E+01 0.00000E+00
 -1        31-3.00000E+01 5.00000E+01 1.00000E+01
 -1        32 3.00000E+01 5.00000E+01 1.00000E+01
 -1        33-2.00000E+01 5.00000E+01 1.00000E+01
 -1        34 2.00000E+01 5.00000E+01 1.00000E+01
 -1        35 2.00000E+01 2.00000E+01 1.00000E+01
 -1        36 3.00000E+01 2.00000E+01 1.00000E+01
 -1        37 2.20000E+01 1.50000E+01 1.00000E+01
 -1        38 2.80000E+01 1.50000E+01 1.00000E+01
 -1        39 2.80000E+01 1.50000E+01 5.00000E+00
 -1        40 2.20000E+01 1.50000E+01 5.00000E+00
 -1        41-3.00000E+01 2.00000E+01 1.00000E+01
 -1        42-2.00000E+01 2.00000E+01 1.00000E+01
 -1        43-2.20000E+01 1.50000E+01 5.00000E+00
 -1        44-2.80000E+01 1.50000E+01 5.00000E+00
 -1        45-2.80000E+01 1.50000E+01 1.00000E+01
 -1        46-2.20000E+01 1.50000E+01 1.00000E+01
 -1        47 2.80000E+01 1.50000E+01-5.00000E+00
 -1        48 2.80000E+01 1.50000E+01-1.00000E+01
 -1        49 2.20000E+01 1.50000E+01-5.00000E+00
 -1        50 2.20000E+01 1.50000E+01-1.00000E+01
 -1        51 2.00000E+01 1.00000E+01 0.00000E+00
 -1        52 3.00000E+01 1.00000E+01 0.00000E+00
 -1        53 3.00000E+01 1.00000E+01-1.00000E+01
 -1        54 2.00000E+01 1.00000E+01-1.00000E+01
 -1        55-2.20000E+01 1.50000E+01-1.00000E+01
 -1        56-2.80000E+01 1.50000E+01-1.00000E+01
 -1        57-2.20000E+01 1.50000E+01-5.00000E+00
 -1        58-2.80000E+01 1.50000E+01-5.00000E+00
 -1        59-2.00000E+01 1.00000E+01 1.00000E+01
 -1        60-2.00000E+01 1.00000E+01 0.00000E+00
 -1        61-3.00000E+01 1.00000E+01 0.00000E+00
 -1        62-3.00000E+01 1.00000E+01 1.00000E+01
 -1        63-3.00000E+01 0.00000E+00 0.00000E+00
 -1        64-3.00000E+01 0.00000E+00 1.00000E+01
 -1        65-2.00000E+01 0.00000E+00 1.00000E+01
 -1        66-2.00000E+01 0.00000E+00 0.00000E+00
 -1        67 2.00000E+01 1.00000E+01 1.00000E+01
 -1        68 3.00000E+01 1.00000E+01 1.00000E+01
 -1        69 2.00000E+01 0.00000E+00 0.00000E+00
 -1        70 2.00000E+01 0.00000E+00 1.00000E+01
 -1        71 3.00000E+01 0.00000E+00 1.00000E+01
 -1        72 3.00000E+01 0.00000E+00 0.00000E+00
 -1        73 3.00000E+01 0.00000E+00-1.00000E+01
 -1        74 2.00000E+01 0.00000E+00-1.00000E+01
 -1        75-2.00000E+01 0.00000E+00-1.00000E+01
 -1        76-2.00000E+01 1.00000E+01-1.00000E+01
 -1        77-3.00000E+01 1.00000E+01-1.00000E+01
 -1        78-3.00000E+01 0.00000E+00-1.00000E+01
 -1        79 2.50000E+01 2.00000E+01 0.00000E+00
 -1        80 2.60000E+01 3.16667E+01 0.00000E+00
 -1        81 2.60000E+01 3.83333E+01 0.00000E+00
 -1        82 2.00000E+01 3.83333E+01 0.00000E+00
 -1        83 2.00000E+01 3.16667E+01 0.00000E+00
 -1        84 3.00000E+01 3.16667E+01 0.00000E+00
 -1        85 3.00000E+01 3.83333E+01 0.00000E+00
 -1        86 2.50000E+01 5.00000E+01 0.00000E+00
 -1        87 2.50000E+01 2.00000E+01-1.00000E+01
 -1        88 3.00000E+01 4.40000E+01-1.00000E+01
 -1        89 3.00000E+01 3.80000E+01-1.00000E+01
 -1        90 3.00000E+01 3.20000E+01-1.00000E+01
 -1        91 3.00000E+01 2.60000E+01-1.00000E+01
 -1        92 2.50000E+01 5.00000E+01-1.00000E+01
 -1        93 2.00000E+01 2.60000E+01-1.00000E+01
 -1        94 2.00000E+01 3.20000E+01-1.00000E+01
 -1        95 2.00000E+01 3.80000E+01-1.00000E+01
 -1        96 2.00000E+01 4.40000E+01-1.00000E+01
 -1        97-2.50000E+01 2.00000E+01-1.00000E+01
 -1        98-2.50000E+01 2.00000E+01 0.00000E+00
 -1        99-2.50000E+01 5.00000E+01-1.00000E+01
 -1       100-2.50000E+01 5.00000E+01 0.00000E+00
 -1       101-2.00000E+01 3.83333E+01 0.00000E+00
 -1       102-2.00000E+01 3.16667E+01 0.00000E+00
 -1       103-2.00000E+01 2.60000E+01-1.00000E+01
 -1       104-2.00000E+01 3.20000E+01-1.00000E+01
 -1       105-2.00000E+01 3.80000E+01-1.00000E+01
 -1       106-2.00000E+01 4.40000E+01-1.00000E+01
 -1       107-3.00000E+01 3.16667E+01 0.00000E+00
 -1       108-3.00000E+01 3.83333E+01 0.00000E+00
 -1       109-3.00000E+01 4.40000E+01-1.00000E+01
 -1       110-3.00000E+01 3.80000E+01-1.00000E+01
 -1       111-3.00000E+01 3.20000E+01-1.00000E+01
 -1       112-3.00000E+01 2.60000E+01-1.00000E+01
 -1       113-2.60000E+01 3.83333E+01 0.00000E+00
 -1       114-2.60000E+01 3.16667E+01 0.00000E+00
 -1       115-1.90211E+01 5.61803E+01-1.00000E+01
 -1       116-1.61803E+01 6.17557E+01-1.00000E+01
 -1       117-1.17557E+01 6.61803E+01-1.00000E+01
 -1       118-6.18034E+00 6.90211E+01-1.00000E+01
 -1       119 0.00000E+00 7.00000E+01-1.00000E+01
 -1       120 6.18034E+00 6.90211E+01-1.00000E+01
 -1       121 1.17557E+01 6.61803E+01-1.00000E+01
 -1       122 1.61803E+01 6.17557E+01-1.00000E+01
 -1       123 1.90211E+01 5.61803E+01-1.00000E+01
 -1       124 1.90211E+01 5.61803E+01 0.00000E+00
 -1       125 1.61803E+01 6.17557E+01 0.00000E+00
 -1       126 1.17557E+01 6.61803E+01 0.00000E+00
 -1       127 6.18034E+00 6.90211E+01 0.00000E+00
 -1       128-6.18034E+00 6.90211E+01 0.00000E+00
 -1       129-1.17557E+01 6.61803E+01 0.00000E+00
 -1       130-1.61803E+01 6.17557E+01 0.00000E+00
 -1       131-1.90211E+01 5.61803E+01 0.00000E+00
 -1       132 2.85317E+01 5.92705E+01-1.00000E+01
 -1       133 2.42705E+01 6.76336E+01-1.00000E+01
 -1       134 1.76336E+01 7.42705E+01-1.00000E+01
 -1       135 9.27051E+00 7.85317E+01-1.00000E+01
 -1       136 0.00000E+00 8.00000E+01-1.00000E+01
 -1       137-9.27051E+00 7.85317E+01-1.00000E+01
 -1       138-1.76336E+01 7.42705E+01-1.00000E+01
 -1       139-2.42705E+01 6.76336E+01-1.00000E+01
 -1       140-2.85317E+01 5.92705E+01-1.00000E+01
 -1       141 9.27051E+00 7.85317E+01 0.00000E+00
 -1       142 1.76336E+01 7.42705E+01 0.00000E+00
 -1       143 2.42705E+01 6.76336E+01 0.00000E+00
 -1       144 2.85317E+01 5.92705E+01 0.00000E+00
 -1       145-2.85317E+01 5.92705E+01 0.00000E+00
 -1       146-2.42705E+01 6.76336E+01 0.00000E+00
 -1       147-1.76336E+01 7.42705E+01 0.00000E+00
 -1       148-9.27051E+00 7.85317E+01 0.00000E+00
 -1       149 0.00000E+00 7.50000E+01 0.00000E+00
 -1       150-2.85317E+01 5.92705E+01 1.00000E+01
 -1       151-2.42705E+01 6.76336E+01 1.00000E+01
 -1       152-1.76336E+01 7.42705E+01 1.00000E+01
 -1       153-9.27051E+00 7.85317E+01 1.00000E+01
 -1       154 0.00000E+00 8.00000E+01 1.00000E+01
 -1       155 9.27051E+00 7.85317E+01 1.00000E+01
 -1       156 1.76336E+01 7.42705E+01 1.00000E+01
 -1       157 2.42705E+01 6.76336E+01 1.00000E+01
 -1       158 2.85317E+01 5.92705E+01 1.00000E+01
 -1       159 1.90211E+01 5.61803E+01 1.00000E+01
 -1       160 1.61803E+01 6.17557E+01 1.00000E+01
 -1       161 1.17557E+01 6.61803E+01 1.00000E+01
 -1       162 6.18034E+00 6.90211E+01 1.00000E+01
 -1       163 0.00000E+00 7.00000E+01 1.00000E+01
 -1       164-6.18034E+00 6.90211E+01 1.00000E+01
 -1       165-1.17557E+01 6.61803E+01 1.00000E+01
 -1       166-1.61803E+01 6.17557E+01 1.00000E+01
 -1       167-1.90211E+01 5.61803E+01 1.00000E+01
 -1       168 2.50000E+01 5.00000E+01 1.00000E+01
 -1       169-2.50000E+01 5.00000E+01 1.00000E+01
 -1       170 2.00000E+01 4.40000E+01 1.00000E+01
 -1       171 2.00000E+01 3.80000E+01 1.00000E+01
 -1       172 2.00000E+01 3.20000E+01 1.00000E+01
 -1       173 2.00000E+01 2.60000E+01 1.00000E+01
 -1       174 2.50000E+01 2.00000E+01 1.00000E+01
 -1       175 3.00000E+01 2.60000E+01 1.00000E+01
 -1       176 3.00000E+01 3.20000E+01 1.00000E+01
 -1       177 3.00000E+01 3.80000E+01 1.00000E+01
 -1       178 3.00000E+01 4.40000E+01 1.00000E+01
 -1       179 2.50000E+01 1.50000E+01 1.00000E+01
 -1       180 2.50000E+01 1.50000E+01 5.00000E+00
 -1       181-2.50000E+01 2.00000E+01 1.00000E+01
 -1       182-2.00000E+01 2.60000E+01 1.00000E+01
 -1       183-2.00000E+01 3.20000E+01 1.00000E+01
 -1       184-2.00000E+01 3.80000E+01 1.00000E+01
 -1       185-2.00000E+01 4.40000E+01 1.00000E+01
 -1       186-3.00000E+01 4.40000E+01 1.00000E+01
 -1       187-3.00000E+01 3.80000E+01 1.00000E+01
 -1       188-3.00000E+01 3.20000E+01 1.00000E+01
 -1       189-3.00000E+01 2.60000E+01 1.00000E+01
 -1       190-2.50000E+01 1.50000E+01 5.00000E+00
 -1       191-2.50000E+01 1.50000E+01 1.00000E+01
 -1       192-2.10000E+01 1.75000E+01 1.00000E+01
 -1       193-2.05606E+01 1.85984E+01 3.47154E+00
 -1       194-2.90000E+01 1.75000E+01 1.00000E+01
 -1       195-2.94394E+01 1.85984E+01 3.47154E+00
 -1       196 2.94394E+01 1.85984E+01-3.47154E+00
 -1       197 2.90000E+01 1.75000E+01-1.00000E+01
 -1       198 2.05606E+01 1.85984E+01-3.47154E+00
 -1       199 2.10000E+01 1.75000E+01-1.00000E+01
 -1       200 2.50000E+01 1.50000E+01-1.00000E+01
 -1       201 2.50000E+01 1.50000E+01-5.00000E+00
 -1       202 2.50000E+01 1.00000E+01 0.00000E+00
 -1       203 2.50000E+01 1.00000E+01-1.00000E+01
 -1       204-2.10000E+01 1.75000E+01-1.00000E+01
 -1       205-2.50000E+01 1.50000E+01-1.00000E+01
 -1       206-2.90000E+01 1.75000E+01-1.00000E+01
 -1       207-2.05606E+01 1.85984E+01-3.47154E+00
 -1       208-2.50000E+01 1.50000E+01-5.00000E+00
 -1       209-2.94394E+01 1.85984E+01-3.47154E+00
 -1       210-2.05606E+01 1.14016E+01 3.47154E+00
 -1       211-2.10000E+01 1.25000E+01 1.00000E+01
 -1       212-2.94394E+01 1.14016E+01 3.47154E+00
 -1       213-2.90000E+01 1.25000E+01 1.00000E+01
 -1       214-2.50000E+01 1.00000E+01 1.00000E+01
 -1       215-2.50000E+01 1.00000E+01 0.00000E+00
 -1       216-2.50000E+01 0.00000E+00 0.00000E+00
 -1       217-2.50000E+01 0.00000E+00 1.00000E+01
 -1       218 2.50000E+01 1.00000E+01 1.00000E+01
 -1       219 2.50000E+01 0.00000E+00 0.00000E+00
 -1       220 2.50000E+01 0.00000E+00 1.00000E+01
 -1       221 2.05606E+01 1.14016E+01 3.47154E+00
 -1       222 2.10000E+01 1.25000E+01 1.00000E+01
 -1       223 2.94394E+01 1.14016E+01 3.47154E+00
 -1       224 2.90000E+01 1.25000E+01 1.00000E+01
 -1       225 2.50000E+01 0.00000E+00-1.00000E+01
 -1       226-2.50000E+01 0.00000E+00-1.00000E+01
 -1       227-2.50000E+01 1.00000E+01-1.00000E+01
 -1       228-2.10000E+01 1.25000E+01-1.00000E+01
 -1       229-2.90000E+01 1.25000E+01-1.00000E+01
 -1       230-2.05606E+01 1.14016E+01-3.47154E+00
 -1       231-2.94394E+01 1.14016E+01-3.47154E+00
 -1       232 2.50000E+01 2.60000E+01-1.00000E+01
 -1       233 2.50000E+01 3.20000E+01-1.00000E+01
 -1       234 2.50000E+01 3.80000E+01-1.00000E+01
 -1       235 2.50000E+01 4.40000E+01-1.00000E+01
 -1       236-2.50000E+01 2.60000E+01-1.00000E+01
 -1       237-2.50000E+01 3.20000E+01-1.00000E+01
 -1       238-2.50000E+01 3.80000E+01-1.00000E+01
 -1       239-2.50000E+01 4.40000E+01-1.00000E+01
 -1       240 2.37764E+01 5.77254E+01 0.00000E+00
 -1       241 2.02254E+01 6.46946E+01 0.00000E+00
 -1       242 1.46946E+01 7.02254E+01 0.00000E+00
 -1       243 7.72542E+00 7.37764E+01 0.00000E+00
 -1       244-7.72542E+00 7.37764E+01 0.00000E+00
 -1       245-1.46946E+01 7.02254E+01 0.00000E+00
 -1       246-2.02254E+01 6.46946E+01 0.00000E+00
 -1       247-2.37764E+01 5.77254E+01 0.00000E+00
 -1       248 2.37764E+01 5.77254E+01-1.00000E+01
 -1       249 2.02254E+01 6.46946E+01-1.00000E+01
 -1       250 1.46946E+01 7.02254E+01-1.00000E+01
 -1       251 7.72542E+00 7.37764E+01-1.00000E+01
 -1       252 0.00000E+00 7.50000E+01-1.00000E+01
 -1       253-7.72542E+00 7.37764E+01-1.00000E+01
 -1       254-1.46946E+01 7.02254E+01-1.00000E+01
 -1       255-2.02254E+01 6.46946E+01-1.00000E+01
 -1       256-2.37764E+01 5.77254E+01-1.00000E+01
 -1       257 2.37764E+01 5.77254E+01 1.00000E+01
 -1       258 2.02254E+01 6.46946E+01 1.00000E+01
 -1       259 1.46946E+01 7.02254E+01 1.00000E+01
 -1       260 7.72542E+00 7.37764E+01 1.00000E+01
 -1       261 0.00000E+00 7.50000E+01 1.00000E+01
 -1       262-7.72542E+00 7.37764E+01 1.00000E+01
 -1       263-1.46946E+01 7.02254E+01 1.00000E+01
 -1       264-2.02254E+01 6.46946E+01 1.00000E+01
 -1       265-2.37764E+01 5.77254E+01 1.00000E+01
 -1       266 2.50000E+01 4.40000E+01 1.00000E+01
 -1       267 2.50000E+01 3.80000E+01 1.00000E+01
 -1       268 2.50000E+01 3.20000E+01 1.00000E+01
 -1       269 2.50000E+01 2.60000E+01 1.00000E+01
 -1       270-2.50000E+01 2.60000E+01 1.00000E+01
 -1       271-2.50000E+01 3.20000E+01 1.00000E+01
 -1       272-2.50000E+01 3.80000E+01 1.00000E+01
 -1       273-2.50000E+01 4.40000E+01 1.00000E+01
 -1       274-2.50000E+01 1.85984E+01 3.47154E+00
 -1       275-2.50000E+01 1.75000E+01 1.00000E+01
 -1       276 2.50000E+01 1.75000E+01-1.00000E+01
 -1       277 2.50000E+01 1.85984E+01-3.47154E+00
 -1       278-2.50000E+01 1.75000E+01-1.00000E+01
 -1       279-2.50000E+01 1.85984E+01-3.47154E+00
 -1       280-2.50000E+01 1.25000E+01 1.00000E+01
 -1       281-2.50000E+01 1.14016E+01 3.47154E+00
 -1       282 2.50000E+01 1.25000E+01 1.00000E+01
 -1       283 2.50000E+01 1.14016E+01 3.47154E+00
 -1       284-2.50000E+01 1.25000E+01-1.00000E+01
 -1       285-2.50000E+01 1.14016E+01-3.47154E+00
 -3
    3C                           116                                     1
 -1         1    1    0    1
 -2        14        87       232        93         1        79         3         5
 -1         2    1    0    1
 -2        87        11        91       232        79         2         4         3
 -1         3    1    0    1
 -2        93       232       233        94         5         3        80        83
 -1         4    1    0    1
 -2       232        91        90       233         3         4        84        80
 -1         5    1    0    1
 -2        94       233       234        95        83        80        81        82
 -1         6    1    0    1
 -2       233        90        89       234        80        84        85        81
 -1         7    1    0    1
 -2        95       234       235        96        82        81         6         7
 -1         8    1    0    1
 -2       234        89        88       235        81        85         8         6
 -1         9    1    0    1
 -2        96       235        92        13         7         6        86        10
 -1        10    1    0    1
 -2       235        88        12        92         6         8         9        86
 -1        11    1    0    1
 -2        15        97        98        18       103       236        27        23
 -1        12    1    0    1
 -2        97        16        17        98       236       112        25        27
 -1        13    1    0    1
 -2       103       236        27        23       104       237       114       102
 -1        14    1    0    1
 -2       236       112        25        27       237       111       107       114
 -1        15    1    0    1
 -2       104       237       114       102       105       238       113       101
 -1        16    1    0    1
 -2       237       111       107       114       238       110       108       113
 -1        17    1    0    1
 -2       105       238       113       101       106       239        28        24
 -1        18    1    0    1
 -2       238       110       108       113       239       109        26        28
 -1        19    1    0    1
 -2       106       239        28        24        19        99       100        22
 -1        20    1    0    1
 -2       239       109        26        28        99        20        21       100
 -1        21    1    0    1
 -2        10        86        92        13       124       240       248       123
 -1        22    1    0    1
 -2        86         9        12        92       240       144       132       248
 -1        23    1    0    1
 -2       124       240       248       123       125       241       249       122
 -1        24    1    0    1
 -2       240       144       132       248       241       143       133       249
 -1        25    1    0    1
 -2       125       241       249       122       126       242       250       121
 -1        26    1    0    1
 -2       241       143       133       249       242       142       134       250
 -1        27    1    0    1
 -2       126       242       250       121       127       243       251       120
 -1        28    1    0    1
 -2       242       142       134       250       243       141       135       251
 -1        29    1    0    1
 -2       127       243       251       120        29       149       252       119
 -1        30    1    0    1
 -2       243       141       135       251       149        30       136       252
 -1        31    1    0    1
 -2        29       149       252       119       128       244       253       118
 -1        32    1    0    1
 -2       149        30       136       252       244       148       137       253
 -1        33    1    0    1
 -2       128       244       253       118       129       245       254       117
 -1        34    1    0    1
 -2       244       148       137       253       245       147       138       254
 -1        35    1    0    1
 -2       129       245       254       117       130       246       255       116
 -1        36    1    0    1
 -2       245       147       138       254       246       146       139       255
 -1        37    1    0    1
 -2       130       246       255       116       131       247       256       115
 -1        38    1    0    1
 -2       246       146       139       255       247       145       140       256
 -1        39    1    0    1
 -2       131       247       256       115        22       100        99        19
 -1        40    1    0    1
 -2       247       145       140       256       100        21        20        99
 -1        41    1    0    1
 -2        86       240       257       168         9       144       158        32
 -1        42    1    0    1
 -2       240       241       258       257       144       143       157       158
 -1        43    1    0    1
 -2       241       242       259       258       143       142       156       157
 -1        44    1    0    1
 -2       242       243       260       259       142       141       155       156
 -1        45    1    0    1
 -2       243       149       261       260       141        30       154       155
 -1        46    1    0    1
 -2       149       244       262       261        30       148       153       154
 -1        47    1    0    1
 -2       244       245       263       262       148       147       152       153
 -1        48    1    0    1
 -2       245       246       264       263       147       146       151       152
 -1        49    1    0    1
 -2       246       247       265       264       146       145       150       151
 -1        50    1    0    1
 -2       247       100       169       265       145        21        31       150
 -1        51    1    0    1
 -2        10       124       159        34        86       240       257       168
 -1        52    1    0    1
 -2       124       125       160       159       240       241       258       257
 -1        53    1    0    1
 -2       125       126       161       160       241       242       259       258
 -1        54    1    0    1
 -2       126       127       162       161       242       243       260       259
 -1        55    1    0    1
 -2       127        29       163       162       243       149       261       260
 -1        56    1    0    1
 -2        29       128       164       163       149       244       262       261
 -1        57    1    0    1
 -2       128       129       165       164       244       245       263       262
 -1        58    1    0    1
 -2       129       130       166       165       245       246       264       263
 -1        59    1    0    1
 -2       130       131       167       166       246       247       265       264
 -1        60    1    0    1
 -2       131        22        33       167       247       100       169       265
 -1        61    1    0    1
 -2         9        86         6         8        32       168       266       178
 -1        62    1    0    1
 -2        86        10         7         6       168        34       170       266
 -1        63    1    0    1
 -2         8         6        81        85       178       266       267       177
 -1        64    1    0    1
 -2         6         7        82        81       266       170       171       267
 -1        65    1    0    1
 -2        85        81        80        84       177       267       268       176
 -1        66    1    0    1
 -2        81        82        83        80       267       171       172       268
 -1        67    1    0    1
 -2        84        80         3         4       176       268       269       175
 -1        68    1    0    1
 -2        80        83         5         3       268       172       173       269
 -1        69    1    0    1
 -2         4         3        79         2       175       269       174        36
 -1        70    1    0    1
 -2         3         5         1        79       269       173        35       174
 -1        71    1    0    1
 -2        37       179       180        40        35       174        79         1
 -1        72    1    0    1
 -2       179        38        39       180       174        36         2        79
 -1        73    1    0    1
 -2        17        98        27        25        41       181       270       189
 -1        74    1    0    1
 -2        98        18        23        27       181        42       182       270
 -1        75    1    0    1
 -2        25        27       114       107       189       270       271       188
 -1        76    1    0    1
 -2        27        23       102       114       270       182       183       271
 -1        77    1    0    1
 -2       107       114       113       108       188       271       272       187
 -1        78    1    0    1
 -2       114       102       101       113       271       183       184       272
 -1        79    1    0    1
 -2       108       113        28        26       187       272       273       186
 -1        80    1    0    1
 -2       113       101        24        28       272       184       185       273
 -1        81    1    0    1
 -2        26        28       100        21       186       273       169        31
 -1        82    1    0    1
 -2        28        24        22       100       273       185        33       169
 -1        83    1    0    1
 -2        43       190       191        46       193       274       275       192
 -1        84    1    0    1
 -2       190        44        45       191       274       195       194       275
 -1        85    1    0    1
 -2       193       274       275       192        18        98       181        42
 -1        86    1    0    1
 -2       274       195       194       275        98        17        41       181
 -1        87    1    0    1
 -2        87        79       277       276        11         2       196       197
 -1        88    1    0    1
 -2       276       277       201       200       197       196        47        48
 -1        89    1    0    1
 -2        14         1       198       199        87        79       277       276
 -1        90    1    0    1
 -2       199       198        49        50       276       277       201       200
 -1        91    1    0    1
 -2        54       203       200        50        51       202       201        49
 -1        92    1    0    1
 -2       203        53        48       200       202        52        47       201
 -1        93    1    0    1
 -2        17        98       279       209        16        97       278       206
 -1        94    1    0    1
 -2        98        18       207       279        97        15       204       278
 -1        95    1    0    1
 -2       209       279       208        58       206       278       205        56
 -1        96    1    0    1
 -2       279       207        57       208       278       204        55       205
 -1        97    1    0    1
 -2       214       215       281       280        59        60       210       211
 -1        98    1    0    1
 -2       280       281       190       191       211       210        43        46
 -1        99    1    0    1
 -2        62        61       212       213       214       215       281       280
 -1       100    1    0    1
 -2       213       212        44        45       280       281       190       191
 -1       101    1    0    1
 -2        66       216       217        65        60       215       214        59
 -1       102    1    0    1
 -2       216        63        64       217       215        61        62       214
 -1       103    1    0    1
 -2        72       219       220        71        52       202       218        68
 -1       104    1    0    1
 -2       219        69        70       220       202        51        67       218
 -1       105    1    0    1
 -2       179       180       283       282        37        40       221       222
 -1       106    1    0    1
 -2       282       283       202       218       222       221        51        67
 -1       107    1    0    1
 -2        38        39       223       224       179       180       283       282
 -1       108    1    0    1
 -2       224       223        52        68       282       283       202       218
 -1       109    1    0    1
 -2        51       202       219        69        54       203       225        74
 -1       110    1    0    1
 -2       202        52        72       219       203        53        73       225
 -1       111    1    0    1
 -2        78       226       227        77        63       216       215        61
 -1       112    1    0    1
 -2       226        75        76       227       216        66        60       215
 -1       113    1    0    1
 -2        58       208       285       231        56       205       284       229
 -1       114    1    0    1
 -2       208        57       230       285       205        55       228       284
 -1       115    1    0    1
 -2       231       285       215        61       229       284       227        77
 -1       116    1    0    1
 -2       285       230        60       215       284       228        76       227
 -3
    1PSTEP                         1           1           1          
  100CL  101 1.000000000         285                     0    1           1
 -4  DISP        4    1
 -5  D1          1    2    1    0
 -5  D2          1    2    2    0
 -5  D3          1    2    3    0
 -5  ALL         1    2    0    0    1ALL
 -1         1-5.31619E-01 1.06106E-01-1.11864E-04
 -1       285 6.47798E-01 4.02126E-02 7.13583E-06
 -1         2-5.31603E-01-2.56234E-02 8.32695E-05
 -1         3-4.65593E-01 2.72978E-02 8.69450E-06
 -1         4-4.65811E-01-2.47783E-02 8.84708E-05
 -1         5-4.65803E-01 1.05254E-01-1.05217E-04
 -1         6-2.21215E-01 2.93781E-02 3.53408E-06
 -1         7-2.21881E-01 9.44479E-02-3.36019E-05
 -1         8-2.21852E-01-1.41268E-02 2.99515E-05
 -1         9-1.69311E-01-9.81485E-03 0.00000E+00
 -1        10-1.69408E-01 8.97043E-02 0.00000E+00
 -1        11-5.31658E-01-2.61160E-02 3.08596E-04
 -1        12-1.66946E-01-9.60026E-03 2.18505E-03
 -1        13-1.66898E-01 8.99998E-02-2.52924E-03
 -1        14-5.31624E-01 1.06571E-01-3.15153E-04
 -1        15 5.31444E-01 1.06765E-01-1.88950E-04
 -1        16 5.31447E-01-2.61194E-02 2.04973E-04
 -1        17 5.31189E-01-2.53739E-02-1.73499E-09
 -1        18 5.31138E-01 1.06096E-01-1.45274E-09
 -1        19 1.66610E-01 9.00960E-02-2.51303E-03
 -1        20 1.66658E-01-9.48499E-03 2.16784E-03
 -1        21 1.68990E-01-9.68274E-03 0.00000E+00
 -1        22 1.69087E-01 8.97924E-02 0.00000E+00
 -1        23 4.65365E-01 1.05308E-01-1.27743E-09
 -1        24 2.21538E-01 9.45360E-02-3.06348E-10
 -1        25 4.65378E-01-2.46185E-02-1.63991E-09
 -1        26 2.21510E-01-1.39948E-02-6.91147E-10
 -1        27 4.65180E-01 2.74191E-02-1.48826E-09
 -1        28 2.20873E-01 2.94925E-02-5.10702E-10
 -1        29-1.16135E-04 1.43583E-01 0.00000E+00
 -1        30-9.41147E-05 1.44473E-01 0.00000E+00
 -1        31 1.66658E-01-9.48498E-03-2.16784E-03
 -1        32-1.67010E-01-9.63397E-03-2.15060E-03
 -1        33 1.66610E-01 9.00960E-02 2.51303E-03
 -1        34-1.66962E-01 9.00161E-02 2.49679E-03
 -1        35-5.32062E-01 1.06533E-01 8.17550E-05
 -1        36-5.32057E-01-2.61406E-02-1.25380E-04
 -1        37-5.99355E-01 8.04645E-02 3.40022E-05
 -1        38-6.00000E-01 0.00000E+00 1.43299E-04
 -1        39-6.00000E-01 0.00000E+00-4.72698E-05
 -1        40-5.99060E-01 8.03085E-02-1.31351E-04
 -1        41 5.31447E-01-2.61194E-02-2.04977E-04
 -1        42 5.31444E-01 1.06765E-01 1.88947E-04
 -1        43 5.98976E-01 8.05748E-02-7.71022E-05
 -1        44 6.00000E-01 0.00000E+00-1.22371E-04
 -1        45 6.00000E-01 0.00000E+00 1.07724E-04
 -1        46 5.99105E-01 8.06673E-02 1.07587E-04
 -1        47-6.00000E-01 0.00000E+00 1.22357E-04
 -1        48-6.00000E-01 0.00000E+00-7.78458E-05
 -1        49-5.99219E-01 8.04138E-02 4.36958E-05
 -1        50-5.99274E-01 8.04711E-02-9.48059E-05
 -1        51-6.66580E-01 1.07276E-01 2.27060E-05
 -1        52-6.66525E-01-2.69468E-02 1.15555E-05
 -1        53-6.66571E-01-2.68872E-02 9.39896E-06
 -1        54-6.66591E-01 1.07291E-01 3.04406E-05
 -1        55 5.99105E-01 8.06673E-02-1.07590E-04
 -1        56 6.00000E-01 0.00000E+00-1.07727E-04
 -1        57 5.98976E-01 8.05748E-02 7.70990E-05
 -1        58 6.00000E-01 0.00000E+00 1.22367E-04
 -1        59 6.66633E-01 1.07561E-01-4.57656E-06
 -1        60 6.66626E-01 1.07545E-01-1.63555E-09
 -1        61 6.66616E-01-2.70321E-02-1.74057E-09
 -1        62 6.66630E-01-2.69860E-02 1.61714E-06
 -1        63 8.01189E-01-2.70264E-02-1.84024E-09
 -1        64 8.01183E-01-2.70286E-02 1.30446E-06
 -1        65 8.01191E-01 1.07530E-01-1.50759E-06
 -1        66 8.01189E-01 1.07535E-01-1.72590E-09
 -1        67-6.66557E-01 1.07264E-01 9.87000E-06
 -1        68-6.66577E-01-2.69059E-02 1.65032E-05
 -1        69-8.00764E-01 1.07240E-01 2.02153E-05
 -1        70-8.00753E-01 1.07253E-01 2.33213E-05
 -1        71-8.00741E-01-2.69434E-02 9.70711E-06
 -1        72-8.00776E-01-2.69459E-02 5.17887E-06
 -1        73-8.00781E-01-2.69351E-02 2.78077E-06
 -1        74-8.00787E-01 1.07241E-01 2.65295E-05
 -1        75 8.01191E-01 1.07530E-01 1.50415E-06
 -1        76 6.66633E-01 1.07561E-01 4.57329E-06
 -1        77 6.66630E-01-2.69860E-02-1.62064E-06
 -1        78 8.01183E-01-2.70286E-02-1.30814E-06
 -1        79-5.31567E-01 4.02974E-02-1.06545E-05
 -1        80-3.79583E-01 2.77543E-02 7.84999E-06
 -1        81-2.97557E-01 2.84731E-02 5.72988E-06
 -1        82-2.97983E-01 9.93140E-02-5.84385E-05
 -1        83-3.79885E-01 1.02927E-01-8.56996E-05
 -1        84-3.79954E-01-2.24526E-02 6.93722E-05
 -1        85-2.98094E-01-1.88504E-02 4.83190E-05
 -1        86-1.68656E-01 4.02434E-02 0.00000E+00
 -1        87-5.31442E-01 4.02627E-02-7.16320E-07
 -1        88-2.30852E-01-1.47861E-02 1.86794E-03
 -1        89-3.00452E-01-1.90386E-02 1.53775E-03
 -1        90-3.74498E-01-2.22766E-02 1.15360E-03
 -1        91-4.51844E-01-2.46095E-02 7.25926E-04
 -1        92-1.66237E-01 4.04818E-02-1.17641E-05
 -1        93-4.51898E-01 1.05095E-01-7.98733E-04
 -1        94-3.74568E-01 1.02762E-01-1.24729E-03
 -1        95-3.00539E-01 9.95268E-02-1.69730E-03
 -1        96-2.30867E-01 9.53096E-02-2.15982E-03
 -1        97 5.31261E-01 4.03923E-02-1.83851E-06
 -1        98 5.31066E-01 4.03819E-02-1.58574E-09
 -1        99 1.65945E-01 4.05881E-02-1.16376E-05
 -1       100 1.68336E-01 4.03535E-02 0.00000E+00
 -1       101 2.97611E-01 9.94025E-02-5.74803E-10
 -1       102 3.79488E-01 1.03015E-01-9.50640E-10
 -1       103 4.51671E-01 1.05227E-01-6.77007E-04
 -1       104 3.74318E-01 1.02869E-01-1.16264E-03
 -1       105 3.00273E-01 9.96315E-02-1.63906E-03
 -1       106 2.30585E-01 9.54100E-02-2.12632E-03
 -1       107 3.79556E-01-2.23213E-02-1.47801E-09
 -1       108 2.97722E-01-1.87185E-02-1.19742E-09
 -1       109 2.30570E-01-1.46744E-02 1.83924E-03
 -1       110 3.00185E-01-1.89308E-02 1.48956E-03
 -1       111 3.74248E-01-2.21704E-02 1.08447E-03
 -1       112 4.51615E-01-2.45251E-02 6.25676E-04
 -1       113 2.97186E-01 2.85875E-02-9.40668E-10
 -1       114 3.79184E-01 2.78696E-02-1.25856E-09
 -1       115 1.07788E-01 9.27992E-02-2.98662E-03
 -1       116 6.14121E-02 1.07636E-01-3.51138E-03
 -1       117 2.98189E-02 1.26571E-01-3.91767E-03
 -1       118 1.11184E-02 1.41762E-01-4.17691E-03
 -1       119-1.16304E-04 1.47510E-01-4.26660E-03
 -1       120-1.13554E-02 1.41734E-01-4.17666E-03
 -1       121-3.00682E-02 1.26517E-01-3.91716E-03
 -1       122-6.16787E-02 1.07562E-01-3.51126E-03
 -1       123-1.08071E-01 9.27094E-02-2.98953E-03
 -1       124-1.10803E-01 9.17982E-02 0.00000E+00
 -1       125-6.43319E-02 1.05636E-01 0.00000E+00
 -1       126-3.21928E-02 1.23582E-01 0.00000E+00
 -1       127-1.25400E-02 1.38072E-01 0.00000E+00
 -1       128 1.23034E-02 1.38099E-01 0.00000E+00
 -1       129 3.19437E-02 1.23634E-01 0.00000E+00
 -1       130 6.40633E-02 1.05707E-01 0.00000E+00
 -1       131 1.10510E-01 9.18820E-02 0.00000E+00
 -1       132-8.19274E-02 1.27353E-02 2.33337E-03
 -1       133-2.27775E-02 5.42092E-02 2.60124E-03
 -1       134 6.83595E-03 9.99011E-02 2.85048E-03
 -1       135 1.07874E-02 1.34735E-01 3.01762E-03
 -1       136-9.39652E-05 1.47705E-01 3.07466E-03
 -1       137-1.09819E-02 1.34777E-01 3.01791E-03
 -1       138-7.05003E-03 9.99801E-02 2.85112E-03
 -1       139 2.25333E-02 5.43156E-02 2.60144E-03
 -1       140 8.16518E-02 1.28522E-02 2.33052E-03
 -1       141 9.80592E-03 1.31724E-01 0.00000E+00
 -1       142 5.07989E-03 9.74948E-02 0.00000E+00
 -1       143-2.49623E-02 5.26328E-02 0.00000E+00
 -1       144-8.41821E-02 1.19688E-02 0.00000E+00
 -1       145 8.39026E-02 1.20944E-02 0.00000E+00
 -1       146 2.47196E-02 5.27397E-02 0.00000E+00
 -1       147-5.29335E-03 9.75724E-02 0.00000E+00
 -1       148-1.00006E-02 1.31765E-01 0.00000E+00
 -1       149-1.05125E-04 1.45161E-01 0.00000E+00
 -1       150 8.16518E-02 1.28522E-02-2.33051E-03
 -1       151 2.25333E-02 5.43156E-02-2.60143E-03
 -1       152-7.04999E-03 9.99800E-02-2.85110E-03
 -1       153-1.09819E-02 1.34777E-01-3.01790E-03
 -1       154-9.42643E-05 1.47705E-01-3.07479E-03
 -1       155 1.07871E-02 1.34737E-01-3.01820E-03
 -1       156 6.83714E-03 9.99037E-02-2.85173E-03
 -1       157-2.27744E-02 5.42082E-02-2.60163E-03
 -1       158-8.19352E-02 1.27179E-02-2.32765E-03
 -1       159-1.08091E-01 9.27215E-02 2.98370E-03
 -1       160-6.16826E-02 1.07568E-01 3.51150E-03
 -1       161-3.00678E-02 1.26520E-01 3.91816E-03
 -1       162-1.13547E-02 1.41735E-01 4.17716E-03
 -1       163-1.15965E-04 1.47510E-01 4.26673E-03
 -1       164 1.11185E-02 1.41762E-01 4.17691E-03
 -1       165 2.98190E-02 1.26571E-01 3.91765E-03
 -1       166 6.14121E-02 1.07636E-01 3.51137E-03
 -1       167 1.07788E-01 9.27992E-02 2.98662E-03
 -1       168-1.66295E-01 4.04741E-02 1.15149E-05
 -1       169 1.65945E-01 4.05880E-02 1.16373E-05
 -1       170-2.30997E-01 9.53342E-02 2.09267E-03
 -1       171-3.00754E-01 9.95608E-02 1.57959E-03
 -1       172-3.74869E-01 1.02800E-01 1.07983E-03
 -1       173-4.52312E-01 1.05139E-01 5.80971E-04
 -1       174-5.31984E-01 4.02959E-02-1.18230E-05
 -1       175-4.52249E-01-2.46653E-02-5.51967E-04
 -1       176-3.74800E-01-2.23274E-02-1.01618E-03
 -1       177-3.00666E-01-1.90880E-02-1.44041E-03
 -1       178-2.30981E-01-1.48270E-02-1.81038E-03
 -1       179-5.99511E-01 4.02254E-02 1.20264E-04
 -1       180-5.99196E-01 4.02102E-02-5.55252E-05
 -1       181 5.31261E-01 4.03923E-02 1.83542E-06
 -1       182 4.51671E-01 1.05227E-01 6.77005E-04
 -1       183 3.74318E-01 1.02869E-01 1.16264E-03
 -1       184 3.00273E-01 9.96315E-02 1.63906E-03
 -1       185 2.30585E-01 9.54100E-02 2.12632E-03
 -1       186 2.30570E-01-1.46744E-02-1.83924E-03
 -1       187 3.00185E-01-1.89308E-02-1.48956E-03
 -1       188 3.74248E-01-2.21704E-02-1.08447E-03
 -1       189 4.51615E-01-2.45251E-02-6.25679E-04
 -1       190 5.99111E-01 4.03122E-02-5.92839E-05
 -1       191 5.99291E-01 4.03038E-02 1.27088E-04
 -1       192 5.65141E-01 9.38771E-02 1.39091E-04
 -1       193 5.49917E-01 9.90871E-02-1.16514E-05
 -1       194 5.65259E-01-1.32730E-02-1.38218E-04
 -1       195 5.49928E-01-1.84222E-02-1.47464E-05
 -1       196-5.50294E-01-1.85515E-02 8.94751E-05
 -1       197-5.65409E-01-1.32697E-02 1.88020E-04
 -1       198-5.50289E-01 9.90110E-02-8.34532E-05
 -1       199-5.65304E-01 9.36825E-02-2.01425E-04
 -1       200-5.99455E-01 4.01757E-02-9.26794E-05
 -1       201-5.99343E-01 4.02092E-02 7.22340E-05
 -1       202-6.66577E-01 4.01194E-02 1.52740E-05
 -1       203-6.66612E-01 4.01260E-02 1.78855E-05
 -1       204 5.65141E-01 9.38771E-02-1.39094E-04
 -1       205 5.99291E-01 4.03038E-02-1.27092E-04
 -1       206 5.65259E-01-1.32730E-02 1.38215E-04
 -1       207 5.49917E-01 9.90871E-02 1.16484E-05
 -1       208 5.99111E-01 4.03122E-02 5.92806E-05
 -1       209 5.49928E-01-1.84222E-02 1.47429E-05
 -1       210 6.47739E-01 1.00029E-01-9.32753E-06
 -1       211 6.32922E-01 9.41325E-02 6.61728E-06
 -1       212 6.47721E-01-1.94679E-02-2.42860E-06
 -1       213 6.33046E-01-1.34979E-02 9.67288E-06
 -1       214 6.66631E-01 4.02301E-02 5.98523E-06
 -1       215 6.66623E-01 4.02428E-02-1.69028E-09
 -1       216 8.01189E-01 4.02583E-02-1.78267E-09
 -1       217 8.01186E-01 4.02641E-02 8.77767E-07
 -1       218-6.66555E-01 4.01479E-02 1.32829E-05
 -1       219-8.00761E-01 4.01668E-02 1.53875E-05
 -1       220-8.00751E-01 4.01587E-02 1.93964E-05
 -1       221-6.47731E-01 9.97613E-02-2.08231E-06
 -1       222-6.32959E-01 9.38687E-02 2.06072E-06
 -1       223-6.47708E-01-1.94079E-02 1.43386E-05
 -1       224-6.33079E-01-1.34534E-02 3.48574E-05
 -1       225-8.00769E-01 4.01746E-02 7.23062E-06
 -1       226 8.01186E-01 4.02641E-02-8.81332E-07
 -1       227 6.66631E-01 4.02301E-02-5.98861E-06
 -1       228 6.32922E-01 9.41325E-02-6.62052E-06
 -1       229 6.33046E-01-1.34979E-02-9.67632E-06
 -1       230 6.47739E-01 1.00029E-01 9.32427E-06
 -1       231 6.47721E-01-1.94679E-02 2.42516E-06
 -1       232-4.51600E-01 4.02560E-02 7.18639E-06
 -1       233-3.74150E-01 4.02518E-02 3.59250E-05
 -1       234-2.99997E-01 4.02361E-02 4.82054E-05
 -1       235-2.30206E-01 4.02488E-02 6.84302E-06
 -1       236 4.51355E-01 4.03590E-02 1.64803E-05
 -1       237 3.73900E-01 4.03568E-02 4.29470E-05
 -1       238 2.99730E-01 4.03415E-02 5.33189E-05
 -1       239 2.29924E-01 4.03540E-02 8.97564E-06
 -1       240-9.67771E-02 5.22084E-02 0.00000E+00
 -1       241-4.39088E-02 7.97262E-02 0.00000E+00
 -1       242-1.29781E-02 1.11407E-01 0.00000E+00
 -1       243-1.04429E-03 1.35960E-01 0.00000E+00
 -1       244 8.28653E-04 1.35994E-01 0.00000E+00
 -1       245 1.27468E-02 1.11471E-01 0.00000E+00
 -1       246 4.36532E-02 7.98153E-02 0.00000E+00
 -1       247 9.64907E-02 5.23132E-02 0.00000E+00
 -1       248-9.43001E-02 5.30142E-02-6.01300E-05
 -1       249-4.15199E-02 8.14521E-02-1.33906E-04
 -1       250-1.10588E-02 1.14042E-01-1.77619E-04
 -1       251 2.71941E-05 1.39255E-01-2.03406E-04
 -1       252-1.05133E-04 1.48696E-01-2.11936E-04
 -1       253-2.42955E-04 1.39290E-01-2.03389E-04
 -1       254 1.08270E-02 1.14108E-01-1.77593E-04
 -1       255 4.12639E-02 8.15426E-02-1.33899E-04
 -1       256 9.40197E-02 5.31180E-02-6.04000E-05
 -1       257-9.43119E-02 5.30124E-02 6.06706E-05
 -1       258-4.15191E-02 8.14550E-02 1.33893E-04
 -1       259-1.10578E-02 1.14045E-01 1.77568E-04
 -1       260 2.73970E-05 1.39256E-01 2.03370E-04
 -1       261-1.05117E-04 1.48697E-01 2.11926E-04
 -1       262-2.42913E-04 1.39290E-01 2.03388E-04
 -1       263 1.08270E-02 1.14108E-01 1.77594E-04
 -1       264 4.12639E-02 8.15426E-02 1.33900E-04
 -1       265 9.40197E-02 5.31180E-02 6.04002E-05
 -1       266-2.30335E-01 4.02390E-02-1.11184E-05
 -1       267-3.00210E-01 4.02266E-02-5.83612E-05
 -1       268-3.74455E-01 4.02419E-02-5.11818E-05
 -1       269-4.51988E-01 4.02472E-02-2.77477E-05
 -1       270 4.51355E-01 4.03590E-02-1.64831E-05
 -1       271 3.73900E-01 4.03568E-02-4.29494E-05
 -1       272 2.99730E-01 4.03415E-02-5.33206E-05
 -1       273 2.29924E-01 4.03540E-02-8.97665E-06
 -1       274 5.49944E-01 4.04050E-02-8.51477E-06
 -1       275 5.65211E-01 4.04200E-02 1.96781E-05
 -1       276-5.65367E-01 4.02814E-02-8.59257E-06
 -1       277-5.50302E-01 4.02994E-02 3.44659E-06
 -1       278 5.65211E-01 4.04200E-02-1.96813E-05
 -1       279 5.49944E-01 4.04050E-02 8.51157E-06
 -1       280 6.33014E-01 4.02016E-02 2.18998E-05
 -1       281 6.47798E-01 4.02126E-02-7.13919E-06
 -1       282-6.33037E-01 4.01330E-02 2.29255E-05
 -1       283-6.47769E-01 4.01047E-02 5.21822E-06
 -1       284 6.33014E-01 4.02016E-02-2.19031E-05
 -3
    1PSTEP                         2           1           1          
  100CL  101 1.000000000         285                     0    1           1
 -4  STRESS      6    1
 -5  SXX         1    4    1    1
 -5  SYY         1    4    2    2
 -5  SZZ         1    4    3    3
 -5  SXY         1    4    1    2
 -5  SYZ         1    4    2    3
 -5  SZX         1    4    3    1
 -1         1-9.05071E+00-3.03570E+01-7.86571E+00 1.02439E+01-5.96517E-01-2.50881E-01
 -1         2 1.27085E+01 3.44644E+01 9.47844E+00 1.14413E+01 5.47298E-01-2.98734E-01
 -1         3 1.28520E+00 8.27197E+00 2.45897E+00 3.53783E+00-4.19395E-02 1.89948E-03
 -1         4 8.42425E+00 5.78489E+01 6.79510E+00-3.66575E-02-2.94044E-01-2.61280E-02
 -1         5-1.31018E+01-5.96450E+01-7.69673E+00 2.90484E+00 3.40088E-01-1.38322E-01
 -1         6 1.22908E+00 1.56923E+01 4.72496E+00 9.58956E+00-3.08830E-02-6.47246E-03
 -1         7-4.37196E+01-1.93251E+02-2.74960E+01 8.04388E+00 5.03372E-01-1.56956E-02
 -1         8 2.76657E+01 1.76373E+02 2.35011E+01 8.61590E+00-5.00316E-01-3.07069E-04
 -1         9 3.58183E+01 1.86399E+02 2.22258E+01-1.26910E+01-3.63737E-01-2.61366E-01
 -1        10-5.45895E+01-2.45716E+02-3.85760E+01 7.19084E+00 3.24199E-01-2.44667E-01
 -1        11 1.03895E+01 5.08329E+01 1.37501E+01 1.12462E+01 7.60441E+00 5.25946E+00
 -1        12 3.60313E+01 1.93163E+02 2.39659E+01-9.17376E+00 3.85403E+00 1.60149E+01
 -1        13-4.97219E+01-2.25483E+02-3.07132E+01 1.53283E+01-4.51223E+00 1.98940E+01
 -1        14-1.08504E+01-4.80494E+01-1.35220E+01 1.05200E+01-7.66550E+00 4.99125E+00
 -1        15-1.18581E+01-5.03540E+01-1.48174E+01-1.01089E+01-8.68869E+00-5.34814E+00
 -1        16 1.37791E+01 5.52136E+01 1.65064E+01-1.02066E+01 9.08702E+00-5.22172E+00
 -1        17 6.89266E+00 3.21585E+01 7.57549E+00-8.72744E+00-9.21830E-07 4.73763E-07
 -1        18-8.70344E+00-3.10451E+01-8.21227E+00-9.51925E+00 1.12969E-06 7.47253E-07
 -1        19-4.98339E+01-2.25797E+02-3.11735E+01-1.55018E+01-4.78743E+00-1.98931E+01
 -1        20 3.61257E+01 1.93443E+02 2.44309E+01 9.04229E+00 4.09898E+00-1.59942E+01
 -1        21 3.58203E+01 1.86402E+02 2.22268E+01 1.26900E+01 7.05214E-06-3.75737E-06
 -1        22-5.45909E+01-2.45718E+02-3.85767E+01-7.19150E+00-1.20244E-05-1.95536E-06
 -1        23-1.34579E+01-5.79561E+01-7.55970E+00-3.24815E+00 1.45387E-06 8.75261E-08
 -1        24-4.37174E+01-1.93256E+02-2.74954E+01-8.04314E+00-3.49081E-06-2.91235E-06
 -1        25 8.54785E+00 5.56068E+01 6.43111E+00-6.59867E-01-1.51407E-06-2.29266E-07
 -1        26 2.76568E+01 1.76373E+02 2.34969E+01-8.61485E+00 5.10634E-06-2.40631E-06
 -1        27 1.56116E+00 8.89742E+00 2.75094E+00-3.61499E+00-1.53767E-07-9.29440E-08
 -1        28 1.22755E+00 1.56938E+01 4.72502E+00-9.59100E+00 1.18668E-06-3.18356E-06
 -1        29-4.45315E+02-9.09184E+01-7.34055E+01-1.50499E-07 1.21104E-03 1.33864E-03
 -1        30 2.51224E+02 5.58993E+01 2.91064E+01-6.47596E-08 1.04686E-03-1.17919E-03
 -1        31 3.61257E+01 1.93443E+02 2.44309E+01 9.04230E+00-4.09896E+00 1.59942E+01
 -1        32 3.62205E+01 1.93725E+02 2.48973E+01-8.91062E+00-4.34508E+00-1.59732E+01
 -1        33-4.98339E+01-2.25797E+02-3.11735E+01-1.55019E+01 4.78739E+00 1.98931E+01
 -1        34-4.99458E+01-2.26113E+02-3.16345E+01 1.56755E+01 5.06362E+00-1.98919E+01
 -1        35-1.15172E+01-3.91542E+01-1.13405E+01 1.09663E+01 6.80208E+00-5.06230E+00
 -1        36 1.41762E+01 4.18733E+01 1.20726E+01 1.29405E+01-8.84597E+00-5.56697E+00
 -1        37-1.79377E+01-2.18649E+01-5.54776E+00 3.96188E+00 3.11729E+00-2.44096E+00
 -1        38-2.90575E+01 6.55179E+00-7.64744E-02 6.17483E-01-8.74165E-01 2.19531E-01
 -1        39-4.83328E+01 9.90213E+00-4.75346E+00 5.74611E+00 3.96394E-01 2.03901E-02
 -1        40-2.05253E+01-3.12525E+01-9.05807E+00 1.07341E+01 1.81741E+00-2.61433E+00
 -1        41 1.37791E+01 5.52136E+01 1.65064E+01-1.02066E+01-9.08702E+00 5.22172E+00
 -1        42-1.18581E+01-5.03540E+01-1.48174E+01-1.01089E+01 8.68869E+00 5.34814E+00
 -1        43-2.27329E+01-3.66493E+01-1.03773E+01-1.41093E+01 1.39627E+00 1.60423E+00
 -1        44-5.26580E+01 1.34759E+01-2.65700E+00-1.25658E+01-1.32738E-01 1.52507E+00
 -1        45-5.06266E+01-7.06795E+00-8.52516E+00-9.89223E+00-2.33165E+00 5.56314E-01
 -1        46-1.87791E+01-1.81247E+01-3.75986E+00-8.34150E+00 3.47590E+00 1.61272E+00
 -1        47-3.66134E+01 1.31720E+01 3.62153E-01 1.28083E+01 9.67808E-01 1.27283E+00
 -1        48-3.71901E+01-4.56788E+00-5.30646E+00 1.45160E+01 3.21058E+00 4.66876E-01
 -1        49-1.95924E+01-3.00364E+01-9.66544E+00 1.11144E+01-1.65068E+00 1.55271E+00
 -1        50-1.75165E+01-1.54238E+01-4.66475E+00 7.52347E+00-3.59261E+00 9.65840E-01
 -1        51 7.96900E-01 1.42617E+00 3.17742E-01 4.44901E-01-2.69588E-01-1.16744E-02
 -1        52 4.52598E+00 3.20339E+00 2.21953E+00-9.74862E-01 3.32812E-01-6.23873E-02
 -1        53 4.99501E+00 4.40564E+00 2.55035E+00-2.46842E+00-1.18334E+00 2.28613E-01
 -1        54-4.18054E-02 1.46004E+00 4.23704E-02 6.67902E-01-1.01946E+00-1.55040E-01
 -1        55-1.87791E+01-1.81247E+01-3.75986E+00-8.34150E+00-3.47590E+00-1.61272E+00
 -1        56-5.06266E+01-7.06793E+00-8.52516E+00-9.89222E+00 2.33166E+00-5.56313E-01
 -1        57-2.27329E+01-3.66493E+01-1.03773E+01-1.41093E+01-1.39627E+00-1.60423E+00
 -1        58-5.26580E+01 1.34759E+01-2.65700E+00-1.25658E+01 1.32738E-01-1.52507E+00
 -1        59 1.17259E+00 2.47312E+00 9.92232E-01-3.29397E-01 2.80589E-01-1.10562E-01
 -1        60 1.14554E+00 2.43922E+00 9.35860E-01-5.55745E-01-2.24679E-07 1.05294E-07
 -1        61 6.39016E-01 8.19466E-01 4.46207E-01-8.56738E-01 4.09463E-07 1.00350E-10
 -1        62 1.42501E+00 3.15583E+00 1.40331E+00 2.72539E-02 4.87422E-01 1.63137E-01
 -1        63-6.55982E-02-1.48372E-01-3.74140E-02-2.67721E-02 1.54601E-07-1.50411E-07
 -1        64 6.74973E-01 1.25723E+00 6.06438E-01 2.59404E-01-1.48341E-02-5.57079E-02
 -1        65 6.18032E-01 9.46982E-01 4.38634E-01-2.08236E-01-6.25808E-02-2.53529E-02
 -1        66 1.11831E-01 2.59973E-01 8.06708E-02-8.02368E-02-1.42339E-07-1.68815E-07
 -1        67 7.96460E-01 1.61664E+00 4.52039E-01 4.84411E-01-2.56655E-01 2.33118E-01
 -1        68 8.84157E-02 2.42845E+00 8.51418E-01-4.04040E-01 6.57702E-01-3.49715E-01
 -1        69 5.94776E-01 1.05684E+00 4.62602E-01 2.92264E-01 6.79526E-02 5.55394E-02
 -1        70 2.94936E-01 3.88159E-01 2.68602E-01 5.50458E-02-1.71423E-03 2.43256E-02
 -1        71 1.01110E+00 1.30939E+00 7.88973E-01-3.12112E-01 7.26955E-02 1.22543E-01
 -1        72-8.35379E-01-3.55552E-01-2.86287E-01 2.07538E-01 1.74618E-02-3.64670E-03
 -1        73-9.21991E-02 1.05652E+00 3.38455E-01-7.32099E-02-3.25599E-02-3.08343E-02
 -1        74 1.49458E+00 1.73243E+00 8.38665E-01 4.96956E-01 2.31232E-02-1.27206E-01
 -1        75 6.18032E-01 9.46983E-01 4.38634E-01-2.08236E-01 6.25805E-02 2.53526E-02
 -1        76 1.17259E+00 2.47312E+00 9.92233E-01-3.29397E-01-2.80590E-01 1.10563E-01
 -1        77 1.42501E+00 3.15582E+00 1.40331E+00 2.72546E-02-4.87421E-01-1.63137E-01
 -1        78 6.74973E-01 1.25723E+00 6.06437E-01 2.59403E-01 1.48343E-02 5.57076E-02
 -1        79 3.53287E+00 5.96266E+00 2.57729E+00 1.25886E+01 1.35102E-01-7.13746E-01
 -1        80 4.22546E+00 2.17050E+01 6.86614E+00 4.91369E+00-5.76585E-02 1.78598E-02
 -1        81 5.37021E+00 2.98240E+01 9.43983E+00 4.48000E+00-6.41652E-02 7.08191E-05
 -1        82-3.65826E+01-1.47924E+02-2.17737E+01 3.38018E+00 4.41820E-01-4.48436E-03
 -1        83-2.52362E+01-1.03236E+02-1.46804E+01 4.45393E+00 4.24705E-01 4.22812E-02
 -1        84 1.43566E+01 9.88960E+01 1.17280E+01 2.20990E+00-4.37544E-01 2.31185E-02
 -1        85 1.97016E+01 1.39048E+02 1.71066E+01 1.86187E+00-4.27644E-01-7.63252E-03
 -1        86 1.36136E+01 2.65450E+01 1.22854E+01-3.39295E+00-5.25716E-02-2.28976E-01
 -1        87-1.35267E+00-1.36517E+00-8.69763E-01 1.40025E+01 6.24444E-01 3.90754E+00
 -1        88 3.52403E+01 1.79501E+02 2.56331E+01 9.01875E+00 3.27159E+00 1.35530E+01
 -1        89 3.12673E+01 1.43820E+02 2.15948E+01 8.88868E+00 4.44561E+00 1.13711E+01
 -1        90 2.32627E+01 1.07289E+02 1.73928E+01 8.76665E+00 5.06283E+00 8.30512E+00
 -1        91 1.77697E+01 7.60318E+01 1.65218E+01 9.98658E+00 6.77062E+00 4.79317E+00
 -1        92 5.36594E+00 1.49560E+01 6.21490E+00 1.98213E+00 5.76168E-01 1.80991E+01
 -1        93-1.41425E+01-7.35591E+01-1.36946E+01 9.58411E+00-7.40916E+00 5.92705E+00
 -1        94-1.86054E+01-1.04737E+02-1.36923E+01 8.65619E+00-5.70388E+00 1.08290E+01
 -1        95-2.41979E+01-1.39086E+02-1.48798E+01 9.17023E+00-5.92390E+00 1.53314E+01
 -1        96-3.15261E+01-1.77375E+02-1.76586E+01 1.02298E+01-6.02142E+00 1.60756E+01
 -1        97-7.35114E-01-1.80257E+00-5.75152E-01-1.32465E+01 5.16948E-01-4.61239E+00
 -1        98 2.55431E-01 3.11528E+00 9.92410E-01-1.35516E+01 1.41018E-07 6.44322E-07
 -1        99 5.36262E+00 1.49648E+01 6.20924E+00-2.14236E+00 5.67615E-01-1.80642E+01
 -1       100 1.36140E+01 2.65456E+01 1.22857E+01 3.39315E+00-1.50586E-06-4.30114E-06
 -1       101-3.65940E+01-1.47922E+02-2.17639E+01-3.39755E+00-4.69235E-07-5.03654E-07
 -1       102-2.48205E+01-1.02468E+02-1.43440E+01-4.42282E+00 1.29350E-06-6.32752E-08
 -1       103-1.43071E+01-7.54476E+01-1.47191E+01-9.64956E+00-8.35127E+00-5.87773E+00
 -1       104-1.88950E+01-1.05356E+02-1.39795E+01-8.87846E+00-6.27896E+00-1.07696E+01
 -1       105-2.42213E+01-1.39219E+02-1.48934E+01-9.39133E+00-6.38609E+00-1.53197E+01
 -1       106-3.15600E+01-1.77526E+02-1.76412E+01-1.04625E+01-6.38388E+00-1.60414E+01
 -1       107 1.39986E+01 9.82598E+01 1.14383E+01-2.16553E+00-1.38545E-06-2.70388E-07
 -1       108 1.97355E+01 1.39071E+02 1.71138E+01-1.87867E+00 2.88794E-07-6.95474E-07
 -1       109 3.52569E+01 1.79624E+02 2.55976E+01-9.25869E+00 3.62563E+00-1.35268E+01
 -1       110 3.12799E+01 1.43918E+02 2.16022E+01-9.11667E+00 4.89949E+00-1.13564E+01
 -1       111 2.35135E+01 1.07827E+02 1.76538E+01-9.00733E+00 5.60570E+00-8.27822E+00
 -1       112 1.81608E+01 7.84414E+01 1.76624E+01-9.89951E+00 7.66638E+00-4.69378E+00
 -1       113 5.36949E+00 2.98104E+01 9.43480E+00-4.48594E+00 1.04519E-07-7.48929E-07
 -1       114 4.17205E+00 2.15656E+01 6.82058E+00-5.00960E+00-2.24655E-07-2.11925E-07
 -1       115-9.08671E+01-2.56292E+02-4.29236E+01-7.29845E+01 1.19649E+00-2.43182E+01
 -1       116-1.72370E+02-2.34082E+02-4.99540E+01-1.24837E+02 1.14664E+01-2.55456E+01
 -1       117-2.76948E+02-1.75572E+02-5.54456E+01-1.34016E+02 2.21563E+01-2.12171E+01
 -1       118-3.66716E+02-1.15356E+02-5.89968E+01-8.69087E+01 3.00520E+01-1.20554E+01
 -1       119-4.02278E+02-9.01163E+01-6.02551E+01-8.53198E-04 3.29756E+01 2.85636E-03
 -1       120-3.66709E+02-1.15349E+02-5.89979E+01 8.69034E+01 3.00513E+01 1.20602E+01
 -1       121-2.76909E+02-1.75528E+02-5.54312E+01 1.33991E+02 2.21615E+01 2.12131E+01
 -1       122-1.72285E+02-2.33935E+02-4.98871E+01 1.24770E+02 1.15074E+01 2.55165E+01
 -1       123-9.07572E+01-2.56049E+02-4.27580E+01 7.28791E+01 1.35488E+00 2.42555E+01
 -1       124-9.03594E+01-2.82382E+02-5.05981E+01 7.80530E+01 4.78344E-02-7.96429E-02
 -1       125-1.81074E+02-2.61900E+02-6.09108E+01 1.40379E+02 2.53407E-02-1.51966E-02
 -1       126-3.00363E+02-1.93018E+02-6.77041E+01 1.53690E+02 1.14577E-02 1.38358E-03
 -1       127-4.04013E+02-1.21123E+02-7.19163E+01 1.00477E+02 4.35067E-03 2.53923E-03
 -1       128-4.04013E+02-1.21123E+02-7.19163E+01-1.00477E+02 1.27854E-04 5.38898E-04
 -1       129-3.00363E+02-1.93018E+02-6.77041E+01-1.53690E+02-9.38396E-05 1.95566E-04
 -1       130-1.81074E+02-2.61900E+02-6.09108E+01-1.40379E+02-7.44347E-05 6.23609E-05
 -1       131-9.03591E+01-2.82381E+02-5.05979E+01-7.80530E+01-3.40077E-05 1.31068E-05
 -1       132 5.46181E+01 1.88860E+02 2.52102E+01-4.57105E+01 7.36604E+00 1.75517E+01
 -1       133 1.05292E+02 1.66669E+02 2.82641E+01-8.83469E+01 1.47637E+01 1.63299E+01
 -1       134 1.80540E+02 1.19964E+02 3.17175E+01-9.81004E+01 2.07339E+01 1.27413E+01
 -1       135 2.46657E+02 7.17715E+01 3.36686E+01-6.45167E+01 2.48670E+01 7.02141E+00
 -1       136 2.73011E+02 5.15714E+01 3.43458E+01-6.21628E-04 2.63428E+01-2.44831E-03
 -1       137 2.46662E+02 7.17720E+01 3.36642E+01 6.45162E+01 2.48645E+01-7.02672E+00
 -1       138 1.80561E+02 1.19976E+02 3.17144E+01 9.81087E+01 2.07312E+01-1.27418E+01
 -1       139 1.05329E+02 1.66732E+02 2.82899E+01 8.83716E+01 1.47819E+01-1.63111E+01
 -1       140 5.46433E+01 1.88973E+02 2.53104E+01 4.57034E+01 7.49447E+00-1.75202E+01
 -1       141 2.28311E+02 7.29811E+01 2.85220E+01-5.61854E+01 5.56405E-03-1.14795E-03
 -1       142 1.70515E+02 1.13853E+02 2.68639E+01-8.60184E+01 1.05342E-02 4.68349E-03
 -1       143 1.03779E+02 1.54008E+02 2.40080E+01-7.87890E+01-4.04347E-03 1.22946E-02
 -1       144 5.75691E+01 1.75089E+02 2.20230E+01-4.15207E+01-6.86563E-02-3.08415E-02
 -1       145 5.75689E+01 1.75089E+02 2.20229E+01 4.15207E+01 1.25920E-05 2.48325E-05
 -1       146 1.03779E+02 1.54008E+02 2.40080E+01 7.87890E+01-1.56251E-05 1.03736E-04
 -1       147 1.70515E+02 1.13853E+02 2.68639E+01 8.60184E+01-1.52183E-04 1.50161E-04
 -1       148 2.28311E+02 7.29811E+01 2.85220E+01 5.61854E+01-1.97085E-04-1.89797E-04
 -1       149-6.36182E+00 1.87597E+01 8.06365E+00 3.53852E-08 9.09147E-04 6.39772E-05
 -1       150 5.46433E+01 1.88973E+02 2.53105E+01 4.57035E+01-7.49439E+00 1.75202E+01
 -1       151 1.05329E+02 1.66732E+02 2.82901E+01 8.83715E+01-1.47817E+01 1.63112E+01
 -1       152 1.80560E+02 1.19976E+02 3.17145E+01 9.81083E+01-2.07313E+01 1.27419E+01
 -1       153 2.46658E+02 7.17710E+01 3.36631E+01 6.45158E+01-2.48650E+01 7.02563E+00
 -1       154 2.73007E+02 5.15700E+01 3.43412E+01 6.21598E-04-2.63427E+01-2.44835E-03
 -1       155 2.46663E+02 7.17715E+01 3.36588E+01-6.45153E+01-2.48625E+01-7.03094E+00
 -1       156 1.80580E+02 1.19988E+02 3.17113E+01-9.81166E+01-2.07286E+01-1.27423E+01
 -1       157 1.05365E+02 1.66795E+02 2.83158E+01-8.83962E+01-1.47999E+01-1.62923E+01
 -1       158 5.46686E+01 1.89087E+02 2.54109E+01-4.56963E+01-7.62297E+00-1.74887E+01
 -1       159-9.09773E+01-2.56536E+02-4.30894E+01 7.30900E+01-1.03804E+00-2.43810E+01
 -1       160-1.72455E+02-2.34228E+02-5.00210E+01 1.24904E+02-1.14254E+01-2.55746E+01
 -1       161-2.76985E+02-1.75615E+02-5.54594E+01 1.34041E+02-2.21511E+01-2.12214E+01
 -1       162-3.66715E+02-1.15360E+02-5.89930E+01 8.69127E+01-3.00522E+01-1.20526E+01
 -1       163-4.02268E+02-9.01144E+01-6.02488E+01 8.53120E-04-3.29753E+01 2.85614E-03
 -1       164-3.66709E+02-1.15354E+02-5.89941E+01-8.69073E+01-3.00514E+01 1.20573E+01
 -1       165-2.76946E+02-1.75571E+02-5.54450E+01-1.34015E+02-2.21562E+01 2.12174E+01
 -1       166-1.72370E+02-2.34082E+02-4.99541E+01-1.24837E+02-1.14665E+01 2.55455E+01
 -1       167-9.08671E+01-2.56293E+02-4.29237E+01-7.29845E+01-1.19659E+00 2.43182E+01
 -1       168 5.35939E+00 1.49738E+01 6.20374E+00 2.30276E+00-5.59023E-01-1.80291E+01
 -1       169 5.36263E+00 1.49647E+01 6.20924E+00-2.14236E+00-5.67619E-01 1.80642E+01
 -1       170-3.16023E+01-1.77694E+02-1.76327E+01 1.06986E+01 6.75478E+00-1.60063E+01
 -1       171-2.42180E+01-1.39325E+02-1.49174E+01 9.61617E+00 6.84750E+00-1.52933E+01
 -1       172-1.89005E+01-1.05042E+02-1.38486E+01 9.21301E+00 6.65948E+00-1.08461E+01
 -1       173-1.20958E+01-7.13008E+01-1.26654E+01 9.65853E+00 8.13722E+00-6.17518E+00
 -1       174 1.45059E+00 1.41096E+00 7.18362E-01 1.24688E+01-1.31756E+00-4.96314E+00
 -1       175 1.65557E+01 7.50083E+01 1.58686E+01 9.84297E+00-7.49783E+00-4.98246E+00
 -1       176 2.35401E+01 1.07532E+02 1.75651E+01 9.32573E+00-5.96782E+00-8.31803E+00
 -1       177 3.12569E+01 1.43988E+02 2.16111E+01 9.34819E+00-5.35718E+00-1.13327E+01
 -1       178 3.52814E+01 1.79765E+02 2.55715E+01 9.50282E+00-3.98724E+00-1.35000E+01
 -1       179-2.06956E+01-1.06094E+00-6.78138E-02 4.63399E+00 5.09258E-01-3.47024E+00
 -1       180-3.26497E+01-6.46692E+00-5.18313E+00 9.71682E+00 3.67635E-01-3.67989E+00
 -1       181-7.35114E-01-1.80258E+00-5.75153E-01-1.32465E+01-5.16947E-01 4.61239E+00
 -1       182-1.43071E+01-7.54476E+01-1.47191E+01-9.64956E+00 8.35128E+00 5.87773E+00
 -1       183-1.88950E+01-1.05356E+02-1.39795E+01-8.87846E+00 6.27897E+00 1.07696E+01
 -1       184-2.42213E+01-1.39219E+02-1.48934E+01-9.39133E+00 6.38609E+00 1.53197E+01
 -1       185-3.15600E+01-1.77526E+02-1.76412E+01-1.04625E+01 6.38386E+00 1.60414E+01
 -1       186 3.52569E+01 1.79624E+02 2.55976E+01-9.25870E+00-3.62563E+00 1.35268E+01
 -1       187 3.12799E+01 1.43918E+02 2.16022E+01-9.11667E+00-4.89949E+00 1.13564E+01
 -1       188 2.35135E+01 1.07827E+02 1.76538E+01-9.00733E+00-5.60571E+00 8.27822E+00
 -1       189 1.81608E+01 7.84414E+01 1.76624E+01-9.89951E+00-7.66638E+00 4.69378E+00
 -1       190-3.60648E+01-7.14339E+00-5.52489E+00-1.38467E+01-1.41782E-01 3.37406E+00
 -1       191-2.99407E+01-8.69200E-01-1.99584E+00-9.42655E+00-1.56703E-01 2.87927E+00
 -1       192-1.63201E+01-3.40660E+01-1.00132E+01-1.45729E+01 6.45161E+00 6.47976E+00
 -1       193-1.07706E+01-2.75441E+01-5.11469E+00-1.58742E+01 1.01369E+01 5.44525E+00
 -1       194 1.18363E+01 3.63726E+01 8.29785E+00-2.51103E+01-1.05117E+01 6.00917E+00
 -1       195 1.82917E+01 3.99828E+01 1.31587E+01-2.23369E+01-7.03244E+00 5.10091E+00
 -1       196 1.36186E+01 3.08340E+01 9.31183E+00 1.98794E+01 6.20508E+00 4.40027E+00
 -1       197 1.06521E+01 3.33424E+01 7.27923E+00 2.41039E+01 9.79036E+00 4.82661E+00
 -1       198-8.41831E+00-2.33030E+01-3.66335E+00 1.43581E+01-9.21143E+00 4.69425E+00
 -1       199-1.52862E+01-3.24813E+01-9.22900E+00 1.54247E+01-6.64576E+00 5.45107E+00
 -1       200-2.42727E+01-2.68236E+00-2.03045E+00 9.58618E+00 7.32748E-01 1.94713E+00
 -1       201-2.63485E+01-4.21154E+00-3.02444E+00 1.14495E+01 6.01928E-01 2.64723E+00
 -1       202 1.78445E+00 2.51673E-01 4.08455E-01 1.46443E-01 1.44568E-01 9.62339E-02
 -1       203 1.74405E+00 1.21526E+00 5.72101E-01 4.33111E-01-9.03979E-01 3.55815E-02
 -1       204-1.63201E+01-3.40660E+01-1.00132E+01-1.45729E+01-6.45161E+00-6.47976E+00
 -1       205-2.99407E+01-8.69194E-01-1.99584E+00-9.42654E+00 1.56703E-01-2.87927E+00
 -1       206 1.18363E+01 3.63727E+01 8.29785E+00-2.51103E+01 1.05117E+01-6.00917E+00
 -1       207-1.07706E+01-2.75441E+01-5.11469E+00-1.58742E+01-1.01369E+01-5.44525E+00
 -1       208-3.60648E+01-7.14339E+00-5.52489E+00-1.38467E+01 1.41782E-01-3.37406E+00
 -1       209 1.82917E+01 3.99828E+01 1.31587E+01-2.23369E+01 7.03244E+00-5.10091E+00
 -1       210-2.39446E+00 1.21507E-01 2.92911E-01-3.48715E+00-1.19177E+00 3.14045E-01
 -1       211-4.58641E+00 8.99985E-01-1.52388E+00-2.57969E+00 1.73745E+00-8.21949E-02
 -1       212 9.60369E+00 8.02399E+00 6.31369E+00 3.58046E+00-1.20286E+00 8.49732E-02
 -1       213 2.26316E+00 7.18002E+00 2.33520E+00 8.25194E+00 1.95541E+00-3.38284E-01
 -1       214-6.60160E-01-1.87103E+00-6.46584E-01 2.41804E-01 1.96794E-01 1.68780E-02
 -1       215-7.94313E-01-2.40521E+00-8.96384E-01 9.00401E-01-7.20344E-08 3.08972E-08
 -1       216-1.73968E-01-4.19506E-01-1.60012E-01-3.35735E-02 6.41589E-09-1.69670E-07
 -1       217-1.76996E-01-8.34836E-01-2.85520E-01 3.19285E-02 8.56789E-02-4.69701E-02
 -1       218-8.93054E-01-1.12348E+00-6.53886E-01-3.10304E-01 3.71256E-01 2.30328E-01
 -1       219-8.26622E-01-1.37870E+00-5.36899E-01-1.97488E-02-6.35916E-02-4.70151E-02
 -1       220 2.42286E-01-1.12616E-01 1.21081E-01-2.89284E-03-1.11372E-01-2.90116E-02
 -1       221-2.42406E+00-2.67189E+00-4.51966E-01 4.17097E+00-2.28925E+00-4.15214E-01
 -1       222-3.68874E+00 1.18843E+00-9.21891E-01 1.23659E+00 1.22495E-01 5.37018E-01
 -1       223 8.00885E+00 6.75644E+00 5.39406E+00-2.95368E+00-3.89156E-01-2.74274E-01
 -1       224 7.30565E-01 5.59839E+00 1.53703E+00-6.89982E+00 2.52032E+00 3.50444E-01
 -1       225-3.35329E-01-1.18358E+00-2.88458E-01-1.49632E-01 2.17863E-02-1.22497E-01
 -1       226-1.76996E-01-8.34836E-01-2.85520E-01 3.19284E-02-8.56789E-02 4.69699E-02
 -1       227-6.60160E-01-1.87103E+00-6.46583E-01 2.41804E-01-1.96794E-01-1.68778E-02
 -1       228-4.58641E+00 8.99987E-01-1.52388E+00-2.57969E+00-1.73745E+00 8.21952E-02
 -1       229 2.26316E+00 7.18001E+00 2.33520E+00 8.25194E+00-1.95540E+00 3.38284E-01
 -1       230-2.39446E+00 1.21507E-01 2.92911E-01-3.48715E+00 1.19177E+00-3.14045E-01
 -1       231 9.60369E+00 8.02399E+00 6.31369E+00 3.58046E+00 1.20286E+00-8.49735E-02
 -1       232-4.01238E-01-1.31217E+00-3.42064E+00 1.09570E+01 3.78890E-01 4.99725E+00
 -1       233-1.27991E+00-2.34996E+00-6.55198E+00 1.02109E+01 3.11947E-01 9.19486E+00
 -1       234-1.62542E+00-2.70760E+00-8.76846E+00 1.08051E+01 5.41135E-01 1.30836E+01
 -1       235-2.02744E+00 8.81172E-01-8.77940E+00 1.08776E+01 2.82399E-01 1.46604E+01
 -1       236-5.51966E-01-1.78794E+00-3.50622E+00-1.10630E+01 6.14860E-01-4.61943E+00
 -1       237-1.25705E+00-2.29479E+00-6.52055E+00-1.03381E+01 3.66984E-01-9.16707E+00
 -1       238-1.62387E+00-2.70486E+00-8.76859E+00-1.10330E+01 5.78295E-01-1.30628E+01
 -1       239-2.01793E+00 8.96381E-01-8.75717E+00-1.11314E+01 3.14005E-01-1.46281E+01
 -1       240 1.14497E+01 4.45163E+00 6.00846E+00 7.68897E+00-7.27930E-03-4.62295E-02
 -1       241 6.31493E+00 6.21137E+00 6.50262E+00 9.56053E+00 1.13764E-02 3.17183E-03
 -1       242 1.15922E+00 1.17776E+01 7.52145E+00 9.76093E+00 1.08847E-02 4.02330E-03
 -1       243-4.22491E+00 1.66978E+01 7.91103E+00 6.28592E+00 4.64100E-03 7.99950E-04
 -1       244-4.22491E+00 1.66978E+01 7.91103E+00-6.28592E+00-1.19654E-04 1.64330E-04
 -1       245 1.15921E+00 1.17776E+01 7.52144E+00-9.76094E+00-1.41477E-04 1.65858E-04
 -1       246 6.31494E+00 6.21139E+00 6.50263E+00-9.56053E+00-4.49754E-05 7.68219E-05
 -1       247 1.14496E+01 4.45160E+00 6.00842E+00-7.68904E+00-9.08007E-06 1.52230E-05
 -1       248 9.30594E+00 2.29423E+01 1.09070E+01 2.94435E+00 6.14955E+00 2.05367E+01
 -1       249 1.04310E+01 2.46973E+01 1.32834E+01-2.54999E+00 1.43440E+01 2.04281E+01
 -1       250 1.59409E+01 2.17763E+01 1.49561E+01-5.36460E+00 2.22406E+01 1.64376E+01
 -1       251 2.10981E+01 1.76243E+01 1.57863E+01-4.14284E+00 2.79303E+01 9.19689E+00
 -1       252 2.33045E+01 1.58198E+01 1.60817E+01-5.58210E-04 3.00071E+01-7.28767E-05
 -1       253 2.11011E+01 1.76234E+01 1.57865E+01 4.14067E+00 2.79295E+01-9.19746E+00
 -1       254 1.59480E+01 2.17705E+01 1.49560E+01 5.36037E+00 2.22369E+01-1.64387E+01
 -1       255 1.04332E+01 2.46789E+01 1.32784E+01 2.53952E+00 1.43358E+01-2.04257E+01
 -1       256 9.29705E+00 2.29155E+01 1.09018E+01-2.98178E+00 6.14497E+00-2.05389E+01
 -1       257 9.28819E+00 2.28888E+01 1.08967E+01 3.01923E+00-6.14043E+00-2.05411E+01
 -1       258 1.04355E+01 2.46603E+01 1.32733E+01-2.52906E+00-1.43276E+01-2.04233E+01
 -1       259 1.59553E+01 2.17645E+01 1.49558E+01-5.35611E+00-2.22332E+01-1.64399E+01
 -1       260 2.11047E+01 1.76222E+01 1.57868E+01-4.13854E+00-2.79289E+01-9.19825E+00
 -1       261 2.33066E+01 1.58197E+01 1.60821E+01 5.58217E-04-3.00073E+01-7.27956E-05
 -1       262 2.11017E+01 1.76231E+01 1.57866E+01 4.14071E+00-2.79297E+01 9.19768E+00
 -1       263 1.59482E+01 2.17702E+01 1.49559E+01 5.36034E+00-2.22369E+01 1.64388E+01
 -1       264 1.04333E+01 2.46787E+01 1.32783E+01 2.53953E+00-1.43358E+01 2.04257E+01
 -1       265 9.29706E+00 2.29154E+01 1.09018E+01-2.98177E+00-6.14497E+00 2.05389E+01
 -1       266-2.00797E+00 9.13634E-01-8.73388E+00 1.13850E+01-3.46503E-01-1.45933E+01
 -1       267-1.62394E+00-2.70335E+00-8.76293E+00 1.12846E+01-6.11837E-01-1.30321E+01
 -1       268-1.29789E+00-2.37564E+00-6.58026E+00 1.06384E+01-3.93265E-01-9.23541E+00
 -1       269-5.65894E-01-2.17052E+00-3.69357E+00 1.17403E+01-5.12078E-01-5.11705E+00
 -1       270-5.51966E-01-1.78795E+00-3.50622E+00-1.10631E+01-6.14860E-01 4.61943E+00
 -1       271-1.25705E+00-2.29480E+00-6.52055E+00-1.03381E+01-3.66984E-01 9.16707E+00
 -1       272-1.62387E+00-2.70486E+00-8.76859E+00-1.10330E+01-5.78295E-01 1.30628E+01
 -1       273-2.01793E+00 8.96376E-01-8.75717E+00-1.11314E+01-3.14006E-01 1.46281E+01
 -1       274 2.41638E+00 2.85475E+00 2.90597E+00-1.96959E+01 1.68126E+00 5.15639E+00
 -1       275-1.14601E+00 3.40811E+00 5.40502E-01-1.85010E+01-1.52491E+00 6.36055E+00
 -1       276-1.09167E+00 3.27835E+00 2.61945E-01 2.01647E+01 1.39087E+00 5.07793E+00
 -1       277 2.14488E+00 2.71645E+00 2.35570E+00 1.68400E+01-1.40955E+00 4.59729E+00
 -1       278-1.14601E+00 3.40811E+00 5.40502E-01-1.85010E+01 1.52491E+00-6.36055E+00
 -1       279 2.41638E+00 2.85474E+00 2.90597E+00-1.96959E+01-1.68126E+00-5.15639E+00
 -1       280-1.61194E+00 2.69777E+00 2.46859E-01-1.30739E+00 1.53951E+00 6.91890E-02
 -1       281 3.05843E+00 2.52415E+00 3.03131E+00-1.62157E+00-1.60338E+00 2.01659E-01
 -1       282-1.72551E+00 2.86243E+00 1.71525E-02-3.84012E-01 1.75835E+00 4.02546E-01
 -1       283 2.72752E+00 1.89038E+00 2.40669E+00 3.18837E+00-1.12208E+00-5.03269E-01
 -1       284-1.61193E+00 2.69777E+00 2.46860E-01-1.30739E+00-1.53951E+00-6.91886E-02
 -1       285 3.05843E+00 2.52415E+00 3.03131E+00-1.62157E+00 1.60337E+00-2.01659E-01
 -3
 9999
